 DBCSR| CPU Multiplication driver                                           XSMM (U)
 DBCSR| Multrec recursion limit                                              512 (U)
 DBCSR| Multiplication stack size                                           1000 (D)
 DBCSR| Maximum elements for images                                    UNLIMITED (U)
 DBCSR| Multiplicative factor virtual images                                   1 (U)
 DBCSR| Use multiplication densification                                       T (D)
 DBCSR| Multiplication size stacks                                             3 (U)
 DBCSR| Use memory pool for CPU allocation                                     F (U)
 DBCSR| Number of 3D layers                                               SINGLE (U)
 DBCSR| Use MPI memory allocation                                              F (U)
 DBCSR| Use RMA algorithm                                                      F (U)
 DBCSR| Use Communication thread                                               T (U)
 DBCSR| Communication thread load                                             60 (D)
 DBCSR| MPI: My process id                                                     0
 DBCSR| MPI: Number of processes                                              16
 DBCSR| OMP: Current number of threads                                         8
 DBCSR| OMP: Max number of threads                                             8
 DBCSR| Split modifier for TAS multiplication algorithm                  1.0E+00 (U)


  **** **** ******  **  PROGRAM STARTED AT               2026-09-17 05:42:05.983
 ***** ** ***  *** **   PROGRAM STARTED ON                              n2cn1045
 **    ****   ******    PROGRAM STARTED BY                              eprop2d1
 ***** **    ** ** **   PROGRAM PROCESS ID                                328848
  **** **  *******  **  PROGRAM STARTED IN /scratch/hpc-prf-metdyn/eprop2d1_Jan/
                                           53_benchmark_RI_opt/111_GW100_GTH_Leb
                                           edev_riao245_rc3/calculations/10_Na6_
                                           riao4_r06

 CP2K| version string:                 CP2K version 2026.2 (Development Version)
 CP2K| source code revision number:                                      unknown
 CP2K| cp2kflags: omp libint fftw3 libxc parallel scalapack openblas            
 CP2K| is freely available from                            https://www.cp2k.org/
 CP2K| Program compiled at                                   2026-09-15 17:57:52
 CP2K| Program compiled on                                              n2login6
 CP2K| Program compiled for                                               x86_64
 CP2K| Data directory path    /scratch/hpc-prf-metdyn/eprop2d1_Jan/53_benchmark_
 CP2K| Input file name        /scratch/hpc-prf-metdyn/eprop2d1_Jan/53_benchmark_
 
 eprop2d1@n2cn1045 has created rank and process                      0    328848
 eprop2d1@n2cn1045 has created rank and process                      1    328849
 eprop2d1@n2cn1045 has created rank and process                      2    328850
 eprop2d1@n2cn1045 has created rank and process                      3    328851
 eprop2d1@n2cn1045 has created rank and process                      4    328852
 eprop2d1@n2cn1045 has created rank and process                      5    328853
 eprop2d1@n2cn1045 has created rank and process                      6    328854
 eprop2d1@n2cn1045 has created rank and process                      7    328855
 eprop2d1@n2cn1045 has created rank and process                      8    328856
 eprop2d1@n2cn1045 has created rank and process                      9    328857
 eprop2d1@n2cn1045 has created rank and process                     10    328858
 eprop2d1@n2cn1045 has created rank and process                     11    328859
 eprop2d1@n2cn1045 has created rank and process                     12    328860
 eprop2d1@n2cn1045 has created rank and process                     13    328861
 eprop2d1@n2cn1045 has created rank and process                     14    328862
 eprop2d1@n2cn1045 has created rank and process                     15    328863
 
 eprop2d1@n2cn1045 is running                                       16 processes

 GLOBAL| Force Environment number                                              1
 GLOBAL| Basis set file name            /scratch/hpc-prf-metdyn/eprop2d1_Jan/53_
 GLOBAL| Potential file name            /scratch/hpc-prf-metdyn/eprop2d1_Jan/53_
 GLOBAL| MM Potential file name                                     MM_POTENTIAL
 GLOBAL| Coordinate file name                                      __STD_INPUT__
 GLOBAL| Method name                                                        CP2K
 GLOBAL| Project name                                gw100_106_10_Na6_a3_leb_r06
 GLOBAL| Run type                                                         ENERGY
 GLOBAL| FFT library                                                       FFTW3
 GLOBAL| Diagonalization library                                       ScaLAPACK
 GLOBAL| Cholesky decomposition library                                ScaLAPACK
 GLOBAL| DGEMM library                                                      BLAS
 GLOBAL| Direct generalized diagonalization requested                          F
 GLOBAL| Orthonormality check for eigenvectors                          DISABLED
 GLOBAL| Matrix multiplication library                                 ScaLAPACK
 GLOBAL| All-to-all communication in single precision                          F
 GLOBAL| Grid backend                                                       AUTO
 GLOBAL| Global print level                                                  LOW
 GLOBAL| MPI I/O enabled                                                       T
 GLOBAL| Total number of message passing processes                            16
 GLOBAL| Number of distributed systems (nodes)                                 1
 GLOBAL| Number of threads for this process                                    8
 GLOBAL| This output is from process                                           0
 GLOBAL| OpenMP stack size per thread (OMP_STACKSIZE)                       128M
 GLOBAL| CPU model name                          AMD EPYC 7763 64-Core Processor

 MEMORY| system memory details [Kb]
 MEMORY|                        rank 0           min           max       average
 MEMORY| MemTotal            263897600     263897600     263897600     263897600
 MEMORY| MemFree             249622444     249622444     249622444     249622444
 MEMORY| Buffers                382828        382828        382828        382828
 MEMORY| Cached                6841608       6841608       6841608       6841608
 MEMORY| Slab                  1306580       1306580       1306580       1306580
 MEMORY| SReclaimable           259416        259416        259416        259416
 MEMORY| MemLikelyFree       257106296     257106296     257106296     257106296


 GENERATE|  Preliminary Number of Bonds generated:                             0
 GENERATE|  Achieved consistency in connectivity generation.

 *******************************************************************************
 *******************************************************************************
 **                                                                           **
 **     #####                         ##              ##                      **
 **    ##   ##            ##          ##              ##                      **
 **   ##     ##                       ##            ######                    **
 **   ##     ##  ##   ##  ##   #####  ##  ##   ####   ##    #####    #####    **
 **   ##     ##  ##   ##  ##  ##      ## ##   ##      ##   ##   ##  ##   ##   **
 **   ##  ## ##  ##   ##  ##  ##      ####     ###    ##   ######   ######    **
 **    ##  ###   ##   ##  ##  ##      ## ##      ##   ##   ##       ##        **
 **     #######   #####   ##   #####  ##  ##  ####    ##    #####   ##        **
 **           ##                                                    ##        **
 **                                                                           **
 **                                                ... make the atoms dance   **
 **                                                                           **
 **            Copyright (C) by CP2K developers group (2000-2026)             **
 **                      J. Chem. Phys. 152, 194103 (2020)                    **
 **                                                                           **
 *******************************************************************************


 TOTAL NUMBERS AND MAXIMUM NUMBERS

  Total number of            - Atomic kinds:                                   1
                             - Atoms:                                          6
                             - Shell sets:                                     6
                             - Shells:                                        36
                             - Primitive Cartesian functions:                 48
                             - Cartesian basis functions:                     90
                             - Spherical basis functions:                     84

  Maximum angular momentum of- Orbital basis functions:                        2
                             - Local part of the GTH pseudopotential:          2
                             - Non-local part of the GTH pseudopotential:      1


 SCF PARAMETERS         Density guess:                                    ATOMIC
                        --------------------------------------------------------
                        max_scf:                                             500
                        max_scf_history:                                       0
                        max_diis:                                              4
                        --------------------------------------------------------
                        eps_scf:                                        1.00E-08
                        eps_scf_history:                                0.00E+00
                        eps_diis:                                       0.00E+00
                        eps_eigval:                                     1.00E-05
                        --------------------------------------------------------
                        level_shift [a.u.]:                             0.000000
                        --------------------------------------------------------
                        Outer loop SCF in use 
                        No variables optimised in outer loop
                        eps_scf                                         1.00E-08
                        max_scf                                               20
                        No outer loop optimization
                        step_size                                       5.00E-01

 Extrapolation method: initial_guess

 Number of electrons:                                                         54
 Number of occupied orbitals:                                                 27
 Number of molecular orbitals:                                                27

 Number of orbital functions:                                                 84
 Number of independent orbital functions:                                     84


 SCF WAVEFUNCTION OPTIMIZATION

  ----------------------------------- OT ---------------------------------------
  Minimizer      : DIIS                : direct inversion
                                         in the iterative subspace
                                         using   7 DIIS vectors
                                         safer DIIS on
  Preconditioner : FULL_KINETIC        : inversion of T + eS
  Lattice FFT   : OFF
  Precond_solver : DEFAULT
  stepsize       :    0.15000000                  energy_gap     :    0.20000000
  eps_taylor     :   0.10000E-15                  max_taylor     :             4
  ----------------------------------- OT ---------------------------------------

  Step     Update method      Time    Convergence         Total energy    Change
  ------------------------------------------------------------------------------
  Decoupling Energy:                                               0.0002989248
     1 OT DIIS     0.15E+00    1.5     0.10187934      -279.4230247514 -2.79E+02
  Decoupling Energy:                                               0.0000150268
     2 OT DIIS     0.15E+00    1.7     0.10163717      -281.1557529447 -1.73E+00
  Decoupling Energy:                                               0.0000147264
     3 OT DIIS     0.15E+00    1.7     0.07258717      -282.0031237378 -8.47E-01
  Decoupling Energy:                                               0.0000260022
     4 OT DIIS     0.15E+00    1.7     0.05326751      -282.7897622039 -7.87E-01
  Decoupling Energy:                                               0.0000456642
     5 OT DIIS     0.15E+00    1.7     0.04581727      -283.5586655164 -7.69E-01
  Decoupling Energy:                                               0.0000793319
     6 OT DIIS     0.15E+00    1.7     0.03862419      -284.3228333900 -7.64E-01
  Decoupling Energy:                                               0.0001387510
     7 OT DIIS     0.15E+00    1.7     0.03207348      -285.0084133474 -6.86E-01
  Decoupling Energy:                                               0.0001825235
     8 OT DIIS     0.15E+00    1.7     0.02754818      -285.4288168023 -4.20E-01
  Decoupling Energy:                                               0.0002021252
     9 OT DIIS     0.15E+00    1.7     0.02337240      -285.7584046731 -3.30E-01
  Decoupling Energy:                                               0.0002194512
    10 OT DIIS     0.15E+00    1.7     0.02033173      -286.0503320189 -2.92E-01
  Decoupling Energy:                                               0.0002424712
    11 OT DIIS     0.15E+00    1.7     0.01580836      -286.3382135083 -2.88E-01
  Decoupling Energy:                                               0.0002534858
    12 OT DIIS     0.15E+00    1.7     0.01208627      -286.5063121300 -1.68E-01
  Decoupling Energy:                                               0.0002447131
    13 OT DIIS     0.15E+00    1.7     0.01065602      -286.5805178259 -7.42E-02
  Decoupling Energy:                                               0.0002271959
    14 OT DIIS     0.15E+00    1.7     0.00811954      -286.6383748149 -5.79E-02
  Decoupling Energy:                                               0.0002012586
    15 OT DIIS     0.15E+00    1.7     0.00585172      -286.6832216711 -4.48E-02
  Decoupling Energy:                                               0.0001798768
    16 OT DIIS     0.15E+00    1.7     0.00472371      -286.7043705621 -2.11E-02
  Decoupling Energy:                                               0.0001644801
    17 OT DIIS     0.15E+00    1.7     0.00374137      -286.7161608235 -1.18E-02
  Decoupling Energy:                                               0.0001517494
    18 OT DIIS     0.15E+00    1.7     0.00275564      -286.7230839709 -6.92E-03
  Decoupling Energy:                                               0.0001438055
    19 OT DIIS     0.15E+00    1.7     0.00228373      -286.7265670629 -3.48E-03
  Decoupling Energy:                                               0.0001389480
    20 OT DIIS     0.15E+00    1.7     0.00174364      -286.7288473312 -2.28E-03
  Decoupling Energy:                                               0.0001360807
    21 OT DIIS     0.15E+00    1.7     0.00150893      -286.7302764156 -1.43E-03
  Decoupling Energy:                                               0.0001337568
    22 OT DIIS     0.15E+00    1.7     0.00131916      -286.7311902605 -9.14E-04
  Decoupling Energy:                                               0.0001317410
    23 OT DIIS     0.15E+00    1.7     0.00119703      -286.7317434691 -5.53E-04
  Decoupling Energy:                                               0.0001308578
    24 OT DIIS     0.15E+00    1.7     0.00113266      -286.7322376887 -4.94E-04
  Decoupling Energy:                                               0.0001296872
    25 OT DIIS     0.15E+00    1.7     0.00109750      -286.7327578454 -5.20E-04
  Decoupling Energy:                                               0.0001280151
    26 OT DIIS     0.15E+00    1.7     0.00107727      -286.7333978172 -6.40E-04
  Decoupling Energy:                                               0.0001259173
    27 OT DIIS     0.15E+00    1.7     0.00104754      -286.7342710048 -8.73E-04
  Decoupling Energy:                                               0.0001239743
    28 OT DIIS     0.15E+00    1.7     0.00102057      -286.7350168022 -7.46E-04
  Decoupling Energy:                                               0.0001212545
    29 OT DIIS     0.15E+00    1.7     0.00099690      -286.7360401393 -1.02E-03
  Decoupling Energy:                                               0.0001180393
    30 OT DIIS     0.15E+00    1.7     0.00097937      -286.7372020081 -1.16E-03
  Decoupling Energy:                                               0.0001146509
    31 OT DIIS     0.15E+00    1.7     0.00096455      -286.7384221968 -1.22E-03
  Decoupling Energy:                                               0.0001103145
    32 OT DIIS     0.15E+00    1.7     0.00094149      -286.7399362303 -1.51E-03
  Decoupling Energy:                                               0.0001063814
    33 OT DIIS     0.15E+00    1.7     0.00092021      -286.7412641107 -1.33E-03
  Decoupling Energy:                                               0.0001029154
    34 OT DIIS     0.15E+00    1.7     0.00090028      -286.7424823471 -1.22E-03
  Decoupling Energy:                                               0.0000996183
    35 OT DIIS     0.15E+00    1.7     0.00088419      -286.7436575148 -1.18E-03
  Decoupling Energy:                                               0.0000970555
    36 OT DIIS     0.15E+00    1.7     0.00087130      -286.7446381521 -9.81E-04
  Decoupling Energy:                                               0.0000937505
    37 OT DIIS     0.15E+00    1.7     0.00085821      -286.7459080946 -1.27E-03
  Decoupling Energy:                                               0.0000905506
    38 OT DIIS     0.15E+00    1.7     0.00084806      -286.7471809761 -1.27E-03
  Decoupling Energy:                                               0.0000876536
    39 OT DIIS     0.15E+00    1.7     0.00083835      -286.7483991116 -1.22E-03
  Decoupling Energy:                                               0.0000848899
    40 OT DIIS     0.15E+00    1.7     0.00082760      -286.7496049310 -1.21E-03
  Decoupling Energy:                                               0.0000827372
    41 OT DIIS     0.15E+00    1.7     0.00082036      -286.7506225703 -1.02E-03
  Decoupling Energy:                                               0.0000805863
    42 OT DIIS     0.15E+00    1.7     0.00081338      -286.7517273665 -1.10E-03
  Decoupling Energy:                                               0.0000784512
    43 OT DIIS     0.15E+00    1.7     0.00080752      -286.7529062141 -1.18E-03
  Decoupling Energy:                                               0.0000767116
    44 OT DIIS     0.15E+00    1.7     0.00080163      -286.7540260225 -1.12E-03
  Decoupling Energy:                                               0.0000748102
    45 OT DIIS     0.15E+00    1.7     0.00079579      -286.7552289233 -1.20E-03
  Decoupling Energy:                                               0.0000733051
    46 OT DIIS     0.15E+00    1.7     0.00079086      -286.7562510825 -1.02E-03
  Decoupling Energy:                                               0.0000722447
    47 OT DIIS     0.15E+00    1.7     0.00078631      -286.7570932070 -8.42E-04
  Decoupling Energy:                                               0.0000713807
    48 OT DIIS     0.15E+00    1.7     0.00078252      -286.7578876223 -7.94E-04
  Decoupling Energy:                                               0.0000705804
    49 OT DIIS     0.15E+00    1.7     0.00078054      -286.7586999564 -8.12E-04
  Decoupling Energy:                                               0.0000697416
    50 OT DIIS     0.15E+00    1.7     0.00077808      -286.7596609523 -9.61E-04
  Decoupling Energy:                                               0.0000689011
    51 OT DIIS     0.15E+00    1.7     0.00077567      -286.7606294597 -9.69E-04
  Decoupling Energy:                                               0.0000682742
    52 OT DIIS     0.15E+00    1.7     0.00077346      -286.7614384301 -8.09E-04
  Decoupling Energy:                                               0.0000677524
    53 OT DIIS     0.15E+00    1.7     0.00077134      -286.7620925156 -6.54E-04
  Decoupling Energy:                                               0.0000675200
    54 OT DIIS     0.15E+00    1.7     0.00077001      -286.7625884634 -4.96E-04
  Decoupling Energy:                                               0.0000673602
    55 OT DIIS     0.15E+00    1.7     0.00076944      -286.7631592581 -5.71E-04
  Decoupling Energy:                                               0.0000671230
    56 OT DIIS     0.15E+00    1.7     0.00076878      -286.7638659305 -7.07E-04
  Decoupling Energy:                                               0.0000669028
    57 OT DIIS     0.15E+00    1.7     0.00076811      -286.7645673889 -7.01E-04
  Decoupling Energy:                                               0.0000666417
    58 OT DIIS     0.15E+00    1.7     0.00076711      -286.7653164731 -7.49E-04
  Decoupling Energy:                                               0.0000664003
    59 OT DIIS     0.15E+00    1.7     0.00076628      -286.7658533539 -5.37E-04
  Decoupling Energy:                                               0.0000663312
    60 OT DIIS     0.15E+00    1.7     0.00076580      -286.7661957667 -3.42E-04
  Decoupling Energy:                                               0.0000663993
    61 OT DIIS     0.15E+00    1.7     0.00076568      -286.7664840838 -2.88E-04
  Decoupling Energy:                                               0.0000664144
    62 OT DIIS     0.15E+00    1.7     0.00076563      -286.7669644864 -4.80E-04
  Decoupling Energy:                                               0.0000664076
    63 OT DIIS     0.15E+00    1.7     0.00076548      -286.7673187357 -3.54E-04
  Decoupling Energy:                                               0.0000664421
    64 OT DIIS     0.15E+00    1.7     0.00076534      -286.7676446342 -3.26E-04
  Decoupling Energy:                                               0.0000664359
    65 OT DIIS     0.15E+00    1.7     0.00076526      -286.7678745484 -2.30E-04
  Decoupling Energy:                                               0.0000664553
    66 OT SD       0.15E+00    1.7     0.00076525      -286.7679848271 -1.10E-04
  Decoupling Energy:                                               0.0000664954
    67 OT SD       0.15E+00    1.7     0.00076531      -286.7681840560 -1.99E-04
  Decoupling Energy:                                               0.0000665293
    68 OT SD       0.15E+00    1.7     0.00076539      -286.7683833166 -1.99E-04
  Decoupling Energy:                                               0.0000665578
    69 OT SD       0.15E+00    1.7     0.00076552      -286.7685826121 -1.99E-04
  Decoupling Energy:                                               0.0000665823
    70 OT SD       0.15E+00    1.7     0.00076577      -286.7687819385 -1.99E-04
  Decoupling Energy:                                               0.0000666015
    71 OT SD       0.15E+00    1.7     0.00076651      -286.7689812678 -1.99E-04
  Decoupling Energy:                                               0.0000666190
    72 OT SD       0.15E+00    1.7     0.00076913      -286.7691804805 -1.99E-04
  Decoupling Energy:                                               0.0000666287
    73 OT SD       0.15E+00    1.7     0.00077899      -286.7693791014 -1.99E-04
  Decoupling Energy:                                               0.0000666428
    74 OT SD       0.15E+00    1.7     0.00081608      -286.7695752667 -1.96E-04
  Decoupling Energy:                                               0.0000666368
    75 OT SD       0.15E+00    1.7     0.00094699      -286.7697616816 -1.86E-04
  Decoupling Energy:                                               0.0000666548
    76 OT SD       0.15E+00    1.7     0.00134128      -286.7699097969 -1.48E-04
  Decoupling Energy:                                               0.0000665913
    77 OT SD       0.15E+00    1.7     0.00230857      -286.7699078891  1.91E-06
  Decoupling Energy:                                               0.0000665831
    78 OT SD       0.15E+00    1.7     0.00437496      -286.7693185934  5.89E-04
  Decoupling Energy:                                               0.0000660775
    79 OT DIIS     0.15E+00    1.7     0.00855409      -286.7664319030  2.89E-03
  Decoupling Energy:                                               0.0000672472
    80 OT SD       0.15E+00    1.7     0.00077270      -286.7678759919 -1.44E-03
  Decoupling Energy:                                               0.0000671120
    81 OT SD       0.15E+00    1.7     0.00077427      -286.7680768896 -2.01E-04
  Decoupling Energy:                                               0.0000670446
    82 OT DIIS     0.15E+00    1.7     0.00078748      -286.7682761169 -1.99E-04
  Decoupling Energy:                                               0.0000665556
    83 OT SD       0.15E+00    1.7     0.00076609      -286.7698227752 -1.55E-03
  Decoupling Energy:                                               0.0000665813
    84 OT SD       0.15E+00    1.7     0.00076619      -286.7700223629 -2.00E-04
  Decoupling Energy:                                               0.0000665918
    85 OT SD       0.15E+00    1.7     0.00076653      -286.7702219715 -2.00E-04
  Decoupling Energy:                                               0.0000665979
    86 OT SD       0.15E+00    1.7     0.00076740      -286.7704215888 -2.00E-04
  Decoupling Energy:                                               0.0000665986
    87 OT SD       0.15E+00    1.7     0.00077008      -286.7706211008 -2.00E-04
  Decoupling Energy:                                               0.0000665931
    88 OT SD       0.15E+00    1.7     0.00077921      -286.7708200860 -1.99E-04
  Decoupling Energy:                                               0.0000665903
    89 OT SD       0.15E+00    1.7     0.00081150      -286.7710169716 -1.97E-04
  Decoupling Energy:                                               0.0000665686
    90 OT SD       0.15E+00    1.7     0.00092211      -286.7712058119 -1.89E-04
  Decoupling Energy:                                               0.0000665810
    91 OT SD       0.15E+00    1.7     0.00125611      -286.7713638911 -1.58E-04
  Decoupling Energy:                                               0.0000665244
    92 OT SD       0.15E+00    1.7     0.00208929      -286.7714037834 -3.99E-05
  Decoupling Energy:                                               0.0000666525
    93 OT SD       0.15E+00    1.7     0.00388834      -286.7709872533  4.17E-04
  Decoupling Energy:                                               0.0000666095
    94 OT DIIS     0.15E+00    1.7     0.00753557      -286.7688002677  2.19E-03
  Decoupling Energy:                                               0.0000661570
    95 OT SD       0.15E+00    1.7     0.00076540      -286.7685726585  2.28E-04
  Decoupling Energy:                                               0.0000662639
    96 OT SD       0.15E+00    1.7     0.00076531      -286.7687717414 -1.99E-04
  Decoupling Energy:                                               0.0000663378
    97 OT SD       0.15E+00    1.7     0.00076587      -286.7689707224 -1.99E-04
  Decoupling Energy:                                               0.0000663984
    98 OT SD       0.15E+00    1.7     0.00076744      -286.7691696464 -1.99E-04
  Decoupling Energy:                                               0.0000664433
    99 OT SD       0.15E+00    1.7     0.00077207      -286.7693683353 -1.99E-04
  Decoupling Energy:                                               0.0000664792
   100 OT SD       0.15E+00    1.7     0.00078696      -286.7695661297 -1.98E-04
  Decoupling Energy:                                               0.0000665077
   101 OT SD       0.15E+00    1.7     0.00083650      -286.7697606291 -1.94E-04
  Decoupling Energy:                                               0.0000665238
   102 OT SD       0.15E+00    1.7     0.00099505      -286.7699429856 -1.82E-04
  Decoupling Energy:                                               0.0000665501
   103 OT SD       0.15E+00    1.7     0.00143771      -286.7700799354 -1.37E-04
  Decoupling Energy:                                               0.0000665436
   104 OT SD       0.15E+00    1.7     0.00247613      -286.7700448882  3.50E-05
  Decoupling Energy:                                               0.0000666188
   105 OT SD       0.15E+00    1.7     0.00465452      -286.7693515507  6.93E-04
  Decoupling Energy:                                               0.0000666523
   106 OT DIIS     0.15E+00    1.7     0.00902459      -286.7661186110  3.23E-03
  Decoupling Energy:                                               0.0000652187
   107 OT DIIS     0.15E+00    1.7     0.00076589      -286.7665217888 -4.03E-04
  Decoupling Energy:                                               0.0000653836
   108 OT DIIS     0.15E+00    1.7     0.00076496      -286.7667477751 -2.26E-04
  Decoupling Energy:                                               0.0000658843
   109 OT SD       0.15E+00    1.7     0.00076415      -286.7675322108 -7.84E-04
  Decoupling Energy:                                               0.0000660108
   110 OT SD       0.15E+00    1.7     0.00076464      -286.7677305680 -1.98E-04
  Decoupling Energy:                                               0.0000661130
   111 OT SD       0.15E+00    1.7     0.00076640      -286.7679287856 -1.98E-04
  Decoupling Energy:                                               0.0000661965
   112 OT SD       0.15E+00    1.7     0.00077197      -286.7681266683 -1.98E-04
  Decoupling Energy:                                               0.0000662704
   113 OT SD       0.15E+00    1.7     0.00079009      -286.7683234128 -1.97E-04
  Decoupling Energy:                                               0.0000663201
   114 OT SD       0.15E+00    1.7     0.00084940      -286.7685161366 -1.93E-04
  Decoupling Energy:                                               0.0000663889
   115 OT SD       0.15E+00    1.7     0.00103184      -286.7686944776 -1.78E-04
  Decoupling Energy:                                               0.0000663895
   116 OT SD       0.15E+00    1.7     0.00151654      -286.7688207254 -1.26E-04
  Decoupling Energy:                                               0.0000665102
   117 OT SD       0.15E+00    1.7     0.00261045      -286.7687562239  6.45E-05
  Decoupling Energy:                                               0.0000663987
   118 OT SD       0.15E+00    1.7     0.00484482      -286.7679855534  7.71E-04
  Decoupling Energy:                                               0.0000668498
   119 OT DIIS     0.15E+00    1.7     0.00925174      -286.7645853152  3.40E-03
  Decoupling Energy:                                               0.0000650209
   120 OT SD       0.15E+00    1.7     0.00076491      -286.7657891544 -1.20E-03
  Decoupling Energy:                                               0.0000652677
   121 OT SD       0.15E+00    1.7     0.00076360      -286.7659875365 -1.98E-04
  Decoupling Energy:                                               0.0000654588
   122 OT SD       0.15E+00    1.7     0.00076430      -286.7661852657 -1.98E-04
  Decoupling Energy:                                               0.0000656205
   123 OT SD       0.15E+00    1.7     0.00076746      -286.7663826134 -1.97E-04
  Decoupling Energy:                                               0.0000657562
   124 OT DIIS     0.15E+00    1.7     0.00077800      -286.7665792046 -1.97E-04
  Decoupling Energy:                                               0.0000659410
   125 OT DIIS     0.15E+00    1.7     0.00076206      -286.7667915204 -2.12E-04
  Decoupling Energy:                                               0.0000660589
   126 OT DIIS     0.15E+00    1.7     0.00076206      -286.7670370184 -2.45E-04
  Decoupling Energy:                                               0.0000660697
   127 OT SD       0.15E+00    1.7     0.00076205      -286.7670608066 -2.38E-05
  Decoupling Energy:                                               0.0000661384
   128 OT SD       0.15E+00    1.7     0.00076226      -286.7672583498 -1.98E-04
  Decoupling Energy:                                               0.0000661993
   129 OT SD       0.15E+00    1.7     0.00076272      -286.7674559269 -1.98E-04
  Decoupling Energy:                                               0.0000662549
   130 OT SD       0.15E+00    1.7     0.00076408      -286.7676534884 -1.98E-04
  Decoupling Energy:                                               0.0000663027
   131 OT SD       0.15E+00    1.7     0.00076880      -286.7678508224 -1.97E-04
  Decoupling Energy:                                               0.0000663484
   132 OT SD       0.15E+00    1.7     0.00078626      -286.7680470909 -1.96E-04
  Decoupling Energy:                                               0.0000663835
   133 OT SD       0.15E+00    1.7     0.00085056      -286.7682389876 -1.92E-04
  Decoupling Energy:                                               0.0000664266
   134 OT SD       0.15E+00    1.7     0.00106697      -286.7684133727 -1.74E-04
  Decoupling Energy:                                               0.0000664504
   135 OT SD       0.15E+00    1.7     0.00167052      -286.7685177150 -1.04E-04
  Decoupling Energy:                                               0.0000665390
   136 OT SD       0.15E+00    1.7     0.00306734      -286.7683410149  1.77E-04
  Decoupling Energy:                                               0.0000666435
   137 OT SD       0.15E+00    1.7     0.00600147      -286.7670335907  1.31E-03
  Decoupling Energy:                                               0.0000673438
   138 OT DIIS     0.15E+00    1.7     0.01195998      -286.7611704820  5.86E-03
  Decoupling Energy:                                               0.0000646948
   139 OT SD       0.15E+00    1.7     0.00076327      -286.7646998169 -3.53E-03
  Decoupling Energy:                                               0.0000649555
   140 OT SD       0.15E+00    1.7     0.00076222      -286.7648971213 -1.97E-04
  Decoupling Energy:                                               0.0000651553
   141 OT SD       0.15E+00    1.7     0.00076361      -286.7650937238 -1.97E-04
  Decoupling Energy:                                               0.0000653317
   142 OT SD       0.15E+00    1.7     0.00076814      -286.7652898911 -1.96E-04
  Decoupling Energy:                                               0.0000654759
   143 OT SD       0.15E+00    1.7     0.00078152      -286.7654851510 -1.95E-04
  Decoupling Energy:                                               0.0000656079
   144 OT DIIS     0.15E+00    1.7     0.00082229      -286.7656777132 -1.93E-04
  Decoupling Energy:                                               0.0000657848
   145 OT SD       0.15E+00    1.7     0.00076009      -286.7659215202 -2.44E-04
  Decoupling Energy:                                               0.0000658728
   146 OT SD       0.15E+00    1.7     0.00076019      -286.7661180727 -1.97E-04
  Decoupling Energy:                                               0.0000659521
   147 OT SD       0.15E+00    1.7     0.00076032      -286.7663146743 -1.97E-04
  Decoupling Energy:                                               0.0000660247
   148 OT SD       0.15E+00    1.7     0.00076054      -286.7665113307 -1.97E-04
  Decoupling Energy:                                               0.0000660895
   149 OT SD       0.15E+00    1.7     0.00076100      -286.7667080342 -1.97E-04
  Decoupling Energy:                                               0.0000661501
   150 OT SD       0.15E+00    1.7     0.00076234      -286.7669047343 -1.97E-04
  Decoupling Energy:                                               0.0000662019
   151 OT SD       0.15E+00    1.7     0.00076701      -286.7671012195 -1.96E-04
  Decoupling Energy:                                               0.0000662543
   152 OT SD       0.15E+00    1.7     0.00078424      -286.7672966629 -1.95E-04
  Decoupling Energy:                                               0.0000662914
   153 OT SD       0.15E+00    1.7     0.00084704      -286.7674878518 -1.91E-04
  Decoupling Energy:                                               0.0000663421
   154 OT SD       0.15E+00    1.7     0.00105516      -286.7676623226 -1.74E-04
  Decoupling Energy:                                               0.0000663516
   155 OT SD       0.15E+00    1.7     0.00162765      -286.7677716266 -1.09E-04
  Decoupling Energy:                                               0.0000664068
   156 OT SD       0.15E+00    1.7     0.00293635      -286.7676272217  1.44E-04
  Decoupling Energy:                                               0.0000662974
   157 OT SD       0.15E+00    1.7     0.00564560      -286.7664942626  1.13E-03
  Decoupling Energy:                                               0.0000662054
   158 OT DIIS     0.15E+00    1.7     0.01106731      -286.7615097274  4.98E-03
  Decoupling Energy:                                               0.0000642231
   159 OT SD       0.15E+00    1.7     0.00076227      -286.7636163371 -2.11E-03
  Decoupling Energy:                                               0.0000645220
   160 OT DIIS     0.15E+00    1.7     0.00076020      -286.7638128899 -1.97E-04
  Decoupling Energy:                                               0.0000647664
   161 OT SD       0.15E+00    1.7     0.00075875      -286.7640776216 -2.65E-04
  Decoupling Energy:                                               0.0000649681
   162 OT SD       0.15E+00    1.7     0.00075894      -286.7642731771 -1.96E-04
  Decoupling Energy:                                               0.0000651368
   163 OT SD       0.15E+00    1.7     0.00075991      -286.7644685607 -1.95E-04
  Decoupling Energy:                                               0.0000652869
   164 OT DIIS     0.15E+00    1.7     0.00076276      -286.7646637312 -1.95E-04
  Decoupling Energy:                                               0.0000655366
   165 OT SD       0.15E+00    1.7     0.00075800      -286.7650015126 -3.38E-04
  Decoupling Energy:                                               0.0000656359
   166 OT SD       0.15E+00    1.7     0.00075809      -286.7651969859 -1.95E-04
  Decoupling Energy:                                               0.0000657258
   167 OT SD       0.15E+00    1.7     0.00075822      -286.7653925118 -1.96E-04
  Decoupling Energy:                                               0.0000658083
   168 OT SD       0.15E+00    1.7     0.00075838      -286.7655880996 -1.96E-04
  Decoupling Energy:                                               0.0000658836
   169 OT SD       0.15E+00    1.7     0.00075860      -286.7657837542 -1.96E-04
  Decoupling Energy:                                               0.0000659529
   170 OT SD       0.15E+00    1.7     0.00075899      -286.7659794720 -1.96E-04
  Decoupling Energy:                                               0.0000660166
   171 OT SD       0.15E+00    1.7     0.00075994      -286.7661752232 -1.96E-04
  Decoupling Energy:                                               0.0000660747
   172 OT SD       0.15E+00    1.7     0.00076284      -286.7663708885 -1.96E-04
  Decoupling Energy:                                               0.0000661292
   173 OT SD       0.15E+00    1.7     0.00077268      -286.7665660208 -1.95E-04
  Decoupling Energy:                                               0.0000661772
   174 OT SD       0.15E+00    1.7     0.00080722      -286.7667589557 -1.93E-04
  Decoupling Energy:                                               0.0000662250
   175 OT SD       0.15E+00    1.7     0.00092428      -286.7669434261 -1.84E-04
  Decoupling Energy:                                               0.0000662630
   176 OT SD       0.15E+00    2.3     0.00127246      -286.7670956056 -1.52E-04
  Decoupling Energy:                                               0.0000663075
   177 OT SD       0.15E+00    1.8     0.00213021      -286.7671241481 -2.85E-05
  Decoupling Energy:                                               0.0000663361
   178 OT SD       0.15E+00    1.8     0.00396948      -286.7666765152  4.48E-04
  Decoupling Energy:                                               0.0000663724
   179 OT DIIS     0.15E+00    1.7     0.00769123      -286.7643869280  2.29E-03
  Decoupling Energy:                                               0.0000635796
   180 OT SD       0.15E+00    1.7     0.00076205      -286.7624537364  1.93E-03
  Decoupling Energy:                                               0.0000639359
   181 OT DIIS     0.15E+00    1.7     0.00075860      -286.7626496679 -1.96E-04
  Decoupling Energy:                                               0.0000639272
   182 OT SD       0.15E+00    1.7     0.00075835      -286.7626920057 -4.23E-05
  Decoupling Energy:                                               0.0000642164
   183 OT SD       0.15E+00    1.7     0.00075884      -286.7628865452 -1.95E-04
  Decoupling Energy:                                               0.0000644483
   184 OT SD       0.15E+00    1.7     0.00076349      -286.7630803009 -1.94E-04
  Decoupling Energy:                                               0.0000646496
   185 OT DIIS     0.15E+00    1.7     0.00077881      -286.7632729060 -1.93E-04
  Decoupling Energy:                                               0.0000649015
   186 OT DIIS     0.15E+00    1.7     0.00075503      -286.7635224762 -2.50E-04
  Decoupling Energy:                                               0.0000652013
   187 OT DIIS     0.15E+00    1.7     0.00075488      -286.7638980657 -3.76E-04
  Decoupling Energy:                                               0.0000653664
   188 OT SD       0.15E+00    1.7     0.00075491      -286.7641521954 -2.54E-04
  Decoupling Energy:                                               0.0000654540
   189 OT SD       0.15E+00    1.7     0.00075510      -286.7643460720 -1.94E-04
  Decoupling Energy:                                               0.0000655367
   190 OT SD       0.15E+00    1.7     0.00075538      -286.7645400154 -1.94E-04
  Decoupling Energy:                                               0.0000656150
   191 OT SD       0.15E+00    1.7     0.00075595      -286.7647340186 -1.94E-04
  Decoupling Energy:                                               0.0000656889
   192 OT SD       0.15E+00    1.7     0.00075737      -286.7649280351 -1.94E-04
  Decoupling Energy:                                               0.0000657577
   193 OT SD       0.15E+00    1.7     0.00076166      -286.7651218887 -1.94E-04
  Decoupling Energy:                                               0.0000658236
   194 OT SD       0.15E+00    1.7     0.00077577      -286.7653149487 -1.93E-04
  Decoupling Energy:                                               0.0000658831
   195 OT SD       0.15E+00    1.7     0.00082337      -286.7655049268 -1.90E-04
  Decoupling Energy:                                               0.0000659432
   196 OT SD       0.15E+00    1.7     0.00097691      -286.7656833734 -1.78E-04
  Decoupling Energy:                                               0.0000659933
   197 OT SD       0.15E+00    1.7     0.00140787      -286.7658185188 -1.35E-04
  Decoupling Energy:                                               0.0000660540
   198 OT SD       0.15E+00    1.7     0.00242263      -286.7657892198  2.93E-05
  Decoupling Energy:                                               0.0000661093
   199 OT SD       0.15E+00    1.7     0.00455738      -286.7651286677  6.61E-04
  Decoupling Energy:                                               0.0000662437
   200 OT DIIS     0.15E+00    1.7     0.00885228      -286.7620225172  3.11E-03
  Decoupling Energy:                                               0.0000625039
   201 OT SD       0.15E+00    1.7     0.00076306      -286.7607624646  1.26E-03
  Decoupling Energy:                                               0.0000629442
   202 OT DIIS     0.15E+00    1.7     0.00075719      -286.7609577097 -1.95E-04
  Decoupling Energy:                                               0.0000634584
   203 OT SD       0.15E+00    1.7     0.00075569      -286.7615470112 -5.89E-04
  Decoupling Energy:                                               0.0000637556
   204 OT SD       0.15E+00    1.7     0.00075573      -286.7617399231 -1.93E-04
  Decoupling Energy:                                               0.0000639906
   205 OT SD       0.15E+00    1.7     0.00075991      -286.7619319510 -1.92E-04
  Decoupling Energy:                                               0.0000642066
   206 OT DIIS     0.15E+00    1.7     0.00077255      -286.7621229975 -1.91E-04
  Decoupling Energy:                                               0.0000644397
   207 OT DIIS     0.15E+00    1.7     0.00075160      -286.7623255395 -2.03E-04
  Decoupling Energy:                                               0.0000646652
   208 OT DIIS     0.15E+00    1.7     0.00075145      -286.7625404582 -2.15E-04
  Decoupling Energy:                                               0.0000648027
   209 OT DIIS     0.15E+00    1.7     0.00075140      -286.7627033063 -1.63E-04
  Decoupling Energy:                                               0.0000648778
   210 OT SD       0.15E+00    1.7     0.00075149      -286.7628448335 -1.42E-04
  Decoupling Energy:                                               0.0000649832
   211 OT SD       0.15E+00    1.7     0.00075166      -286.7630369602 -1.92E-04
  Decoupling Energy:                                               0.0000650827
   212 OT SD       0.15E+00    1.7     0.00075190      -286.7632291575 -1.92E-04
  Decoupling Energy:                                               0.0000651756
   213 OT SD       0.15E+00    1.7     0.00075233      -286.7634214241 -1.92E-04
  Decoupling Energy:                                               0.0000652643
   214 OT SD       0.15E+00    1.7     0.00075329      -286.7636137356 -1.92E-04
  Decoupling Energy:                                               0.0000653462
   215 OT SD       0.15E+00    1.7     0.00075593      -286.7638059928 -1.92E-04
  Decoupling Energy:                                               0.0000654260
   216 OT SD       0.15E+00    1.7     0.00076401      -286.7639978552 -1.92E-04
  Decoupling Energy:                                               0.0000654978
   217 OT SD       0.15E+00    1.7     0.00078981      -286.7641881607 -1.90E-04
  Decoupling Energy:                                               0.0000655711
   218 OT SD       0.15E+00    1.7     0.00087113      -286.7643729239 -1.85E-04
  Decoupling Energy:                                               0.0000656335
   219 OT SD       0.15E+00    1.7     0.00110633      -286.7645382484 -1.65E-04
  Decoupling Energy:                                               0.0000657028
   220 OT SD       0.15E+00    1.7     0.00168939      -286.7646350000 -9.68E-05
  Decoupling Energy:                                               0.0000657620
   221 OT SD       0.15E+00    1.7     0.00294233      -286.7644869599  1.48E-04
  Decoupling Energy:                                               0.0000658380
   222 OT SD       0.15E+00    1.7     0.00543960      -286.7634540347  1.03E-03
  Decoupling Energy:                                               0.0000659639
   223 OT DIIS     0.15E+00    1.7     0.01029658      -286.7591881077  4.27E-03
  Decoupling Energy:                                               0.0000616322
   224 OT SD       0.15E+00    1.7     0.00076323      -286.7593469151 -1.59E-04
  Decoupling Energy:                                               0.0000621249
   225 OT DIIS     0.15E+00    1.7     0.00075564      -286.7595412243 -1.94E-04
  Decoupling Energy:                                               0.0000629898
   226 OT DIIS     0.15E+00    1.7     0.00075231      -286.7604207865 -8.80E-04
  Decoupling Energy:                                               0.0000633086
   227 OT SD       0.15E+00    1.7     0.00075103      -286.7605916281 -1.71E-04
  Decoupling Energy:                                               0.0000635512
   228 OT DIIS     0.15E+00    1.7     0.00075529      -286.7607818084 -1.90E-04
  Decoupling Energy:                                               0.0000636193
   229 OT DIIS     0.15E+00    1.7     0.00074845      -286.7608057970 -2.40E-05
  Decoupling Energy:                                               0.0000640676
   230 OT DIIS     0.15E+00    1.7     0.00074823      -286.7612548079 -4.49E-04
  Decoupling Energy:                                               0.0000643207
   231 OT DIIS     0.15E+00    1.7     0.00074792      -286.7615035759 -2.49E-04
  Decoupling Energy:                                               0.0000644518
   232 OT DIIS     0.15E+00    1.7     0.00074788      -286.7616658528 -1.62E-04
  Decoupling Energy:                                               0.0000644550
   233 OT SD       0.15E+00    1.7     0.00074789      -286.7616733967 -7.54E-06
  Decoupling Energy:                                               0.0000645592
   234 OT SD       0.15E+00    1.7     0.00074816      -286.7618636627 -1.90E-04
  Decoupling Energy:                                               0.0000646589
   235 OT SD       0.15E+00    1.7     0.00074874      -286.7620539819 -1.90E-04
  Decoupling Energy:                                               0.0000647555
   236 OT SD       0.15E+00    1.7     0.00075035      -286.7622443015 -1.90E-04
  Decoupling Energy:                                               0.0000648473
   237 OT SD       0.15E+00    1.7     0.00075561      -286.7624343975 -1.90E-04
  Decoupling Energy:                                               0.0000649357
   238 OT SD       0.15E+00    1.7     0.00077407      -286.7626234200 -1.89E-04
  Decoupling Energy:                                               0.0000650214
   239 OT SD       0.15E+00    1.7     0.00083890      -286.7628081434 -1.85E-04
  Decoupling Energy:                                               0.0000651004
   240 OT SD       0.15E+00    1.7     0.00104838      -286.7629762563 -1.68E-04
  Decoupling Energy:                                               0.0000651935
   241 OT SD       0.15E+00    1.7     0.00161669      -286.7630802907 -1.04E-04
  Decoupling Energy:                                               0.0000652699
   242 OT SD       0.15E+00    1.7     0.00291090      -286.7629358826  1.44E-04
  Decoupling Energy:                                               0.0000654917
   243 OT SD       0.15E+00    1.7     0.00559440      -286.7618223539  1.11E-03
  Decoupling Energy:                                               0.0000658390
   244 OT DIIS     0.15E+00    1.7     0.01098402      -286.7569128583  4.91E-03
  Decoupling Energy:                                               0.0000610560
   245 OT SD       0.15E+00    1.7     0.00075764      -286.7580695149 -1.16E-03
  Decoupling Energy:                                               0.0000615321
   246 OT DIIS     0.15E+00    1.7     0.00075097      -286.7582615957 -1.92E-04
  Decoupling Energy:                                               0.0000633040
   247 OT SD       0.15E+00    1.7     0.00074681      -286.7600095061 -1.75E-03
  Decoupling Energy:                                               0.0000634969
   248 OT SD       0.15E+00    1.7     0.00074750      -286.7601986499 -1.89E-04
  Decoupling Energy:                                               0.0000636654
   249 OT SD       0.15E+00    1.7     0.00075042      -286.7603875044 -1.89E-04
  Decoupling Energy:                                               0.0000638274
   250 OT SD       0.15E+00    1.7     0.00075967      -286.7605757786 -1.88E-04
  Decoupling Energy:                                               0.0000639625
   251 OT SD       0.15E+00    1.7     0.00078984      -286.7607621419 -1.86E-04
  Decoupling Energy:                                               0.0000641081
   252 OT SD       0.15E+00    1.7     0.00088812      -286.7609416596 -1.80E-04
  Decoupling Energy:                                               0.0000642110
   253 OT SD       0.15E+00    1.7     0.00118033      -286.7610957937 -1.54E-04
  Decoupling Energy:                                               0.0000643615
   254 OT SD       0.15E+00    1.7     0.00191455      -286.7611539965 -5.82E-05
  Decoupling Energy:                                               0.0000644144
   255 OT SD       0.15E+00    1.7     0.00351402      -286.7608443811  3.10E-04
  Decoupling Energy:                                               0.0000646196
   256 OT DIIS     0.15E+00    1.7     0.00677598      -286.7591115686  1.73E-03
  Decoupling Energy:                                               0.0000623175
   257 OT DIIS     0.15E+00    1.7     0.00074648      -286.7587068528  4.05E-04
  Decoupling Energy:                                               0.0000623212
   258 OT SD       0.15E+00    1.7     0.00074592      -286.7587145621 -7.71E-06
  Decoupling Energy:                                               0.0000625926
   259 OT SD       0.15E+00    1.7     0.00074506      -286.7589034610 -1.89E-04
  Decoupling Energy:                                               0.0000628172
   260 OT SD       0.15E+00    1.7     0.00074528      -286.7590919480 -1.88E-04
  Decoupling Energy:                                               0.0000630255
   261 OT DIIS     0.15E+00    1.7     0.00074678      -286.7592801913 -1.88E-04
  Decoupling Energy:                                               0.0000631847
   262 OT DIIS     0.15E+00    1.7     0.00074407      -286.7593488860 -6.87E-05
  Decoupling Energy:                                               0.0000635711
   263 OT DIIS     0.15E+00    1.7     0.00074406      -286.7597716506 -4.23E-04
  Decoupling Energy:                                               0.0000639045
   264 OT DIIS     0.15E+00    1.7     0.00074362      -286.7601064671 -3.35E-04
  Decoupling Energy:                                               0.0000639790
   265 OT DIIS     0.15E+00    1.7     0.00074365      -286.7602288477 -1.22E-04
  Decoupling Energy:                                               0.0000640181
   266 OT SD       0.15E+00    1.7     0.00074362      -286.7602852369 -5.64E-05
  Decoupling Energy:                                               0.0000641136
   267 OT SD       0.15E+00    1.7     0.00074393      -286.7604733365 -1.88E-04
  Decoupling Energy:                                               0.0000642079
   268 OT SD       0.15E+00    1.7     0.00074459      -286.7606614926 -1.88E-04
  Decoupling Energy:                                               0.0000642980
   269 OT SD       0.15E+00    1.7     0.00074654      -286.7608496338 -1.88E-04
  Decoupling Energy:                                               0.0000643898
   270 OT SD       0.15E+00    1.7     0.00075319      -286.7610374688 -1.88E-04
  Decoupling Energy:                                               0.0000644707
   271 OT SD       0.15E+00    1.7     0.00077707      -286.7612238788 -1.86E-04
  Decoupling Energy:                                               0.0000645666
   272 OT SD       0.15E+00    1.7     0.00086113      -286.7614045805 -1.81E-04
  Decoupling Energy:                                               0.0000646272
   273 OT SD       0.15E+00    1.7     0.00112577      -286.7615631125 -1.59E-04
  Decoupling Energy:                                               0.0000647583
   274 OT SD       0.15E+00    1.7     0.00181458      -286.7616358393 -7.27E-05
  Decoupling Energy:                                               0.0000647773
   275 OT SD       0.15E+00    1.7     0.00333785      -286.7613754167  2.60E-04
  Decoupling Energy:                                               0.0000651438
   276 OT SD       0.15E+00    1.7     0.00645872      -286.7598167294  1.56E-03
  Decoupling Energy:                                               0.0000653725
   277 OT DIIS     0.15E+00    1.7     0.01268762      -286.7531820435  6.63E-03
  Decoupling Energy:                                               0.0000609022
   278 OT SD       0.15E+00    1.7     0.00075051      -286.7569530974 -3.77E-03
  Decoupling Energy:                                               0.0000613152
   279 OT DIIS     0.15E+00    1.7     0.00074490      -286.7571420280 -1.89E-04
  Decoupling Energy:                                               0.0000620436
   280 OT SD       0.15E+00    1.7     0.00074279      -286.7577781846 -6.36E-04
  Decoupling Energy:                                               0.0000622905
   281 OT SD       0.15E+00    1.7     0.00074263      -286.7579649636 -1.87E-04
  Decoupling Energy:                                               0.0000624995
   282 OT SD       0.15E+00    1.7     0.00074468      -286.7581512327 -1.86E-04
  Decoupling Energy:                                               0.0000626952
   283 OT DIIS     0.15E+00    1.7     0.00075039      -286.7583370565 -1.86E-04
  Decoupling Energy:                                               0.0000628478
   284 OT DIIS     0.15E+00    1.7     0.00074004      -286.7584908441 -1.54E-04
  Decoupling Energy:                                               0.0000630204
   285 OT DIIS     0.15E+00    1.7     0.00073987      -286.7586891558 -1.98E-04
  Decoupling Energy:                                               0.0000631833
   286 OT DIIS     0.15E+00    1.7     0.00073976      -286.7589047012 -2.16E-04
  Decoupling Energy:                                               0.0000633379
   287 OT DIIS     0.15E+00    1.7     0.00073946      -286.7591817741 -2.77E-04
  Decoupling Energy:                                               0.0000634899
   288 OT DIIS     0.15E+00    1.7     0.00073910      -286.7595053620 -3.24E-04
  Decoupling Energy:                                               0.0000636502
   289 OT DIIS     0.15E+00    1.7     0.00073907      -286.7598257155 -3.20E-04
  Decoupling Energy:                                               0.0000638722
   290 OT DIIS     0.15E+00    1.7     0.00073895      -286.7602375921 -4.12E-04
  Decoupling Energy:                                               0.0000639069
   291 OT SD       0.15E+00    1.7     0.00073894      -286.7603158637 -7.83E-05
  Decoupling Energy:                                               0.0000640281
   292 OT SD       0.15E+00    1.7     0.00073929      -286.7605016246 -1.86E-04
  Decoupling Energy:                                               0.0000641363
   293 OT SD       0.15E+00    1.7     0.00073982      -286.7606875157 -1.86E-04
  Decoupling Energy:                                               0.0000642356
   294 OT SD       0.15E+00    1.7     0.00074091      -286.7608735112 -1.86E-04
  Decoupling Energy:                                               0.0000643274
   295 OT SD       0.15E+00    1.7     0.00074397      -286.7610594942 -1.86E-04
  Decoupling Energy:                                               0.0000644136
   296 OT SD       0.15E+00    1.7     0.00075420      -286.7612450136 -1.86E-04
  Decoupling Energy:                                               0.0000644949
   297 OT SD       0.15E+00    1.7     0.00079045      -286.7614283544 -1.83E-04
  Decoupling Energy:                                               0.0000645742
   298 OT SD       0.15E+00    1.7     0.00091455      -286.7616029260 -1.75E-04
  Decoupling Energy:                                               0.0000646455
   299 OT SD       0.15E+00    1.7     0.00128464      -286.7617431919 -1.40E-04
  Decoupling Energy:                                               0.0000647320
   300 OT SD       0.15E+00    1.7     0.00219409      -286.7617493892 -6.20E-06
  Decoupling Energy:                                               0.0000647870
   301 OT SD       0.15E+00    1.7     0.00414809      -286.7612297687  5.20E-04
  Decoupling Energy:                                               0.0000649611
   302 OT SD       0.15E+00    1.7     0.00811928      -286.7586387440  2.59E-03
  Decoupling Energy:                                               0.0000650420
   303 OT DIIS     0.15E+00    1.7     0.01606425      -286.7478817257  1.08E-02
  Decoupling Energy:                                               0.0000573931
   304 OT SD       0.15E+00    1.7     0.00079074      -286.7544305427 -6.55E-03
  Decoupling Energy:                                               0.0000582458
   305 OT DIIS     0.15E+00    1.7     0.00076131      -286.7546276099 -1.97E-04
  Decoupling Energy:                                               0.0000633388
   306 OT SD       0.15E+00    1.7     0.00073842      -286.7592771521 -4.65E-03
  Decoupling Energy:                                               0.0000634643
   307 OT SD       0.15E+00    1.7     0.00074108      -286.7594614906 -1.84E-04
  Decoupling Energy:                                               0.0000635828
   308 OT SD       0.15E+00    1.7     0.00075010      -286.7596453346 -1.84E-04
  Decoupling Energy:                                               0.0000636973
   309 OT SD       0.15E+00    1.7     0.00077910      -286.7598274901 -1.82E-04
  Decoupling Energy:                                               0.0000637988
   310 OT SD       0.15E+00    1.7     0.00087297      -286.7600033164 -1.76E-04
  Decoupling Energy:                                               0.0000639061
   311 OT SD       0.15E+00    1.7     0.00115152      -286.7601555775 -1.52E-04
  Decoupling Energy:                                               0.0000639936
   312 OT SD       0.15E+00    1.7     0.00185241      -286.7602190637 -6.35E-05
  Decoupling Energy:                                               0.0000641194
   313 OT SD       0.15E+00    1.7     0.00338196      -286.7599438359  2.75E-04
  Decoupling Energy:                                               0.0000642391
   314 OT SD       0.15E+00    1.7     0.00649969      -286.7583618985  1.58E-03
  Decoupling Energy:                                               0.0000646588
   315 OT DIIS     0.15E+00    1.7     0.01272053      -286.7517048131  6.66E-03
  Decoupling Energy:                                               0.0000553794
   316 OT DIIS     0.15E+00    1.7     0.00080967      -286.7525375231 -8.33E-04
  Decoupling Energy:                                               0.0000564122
   317 OT DIIS     0.15E+00    1.7     0.00079105      -286.7531933776 -6.56E-04
  Decoupling Energy:                                               0.0000624867
   318 OT SD       0.15E+00    1.7     0.00074037      -286.7581106539 -4.92E-03
  Decoupling Energy:                                               0.0000626815
   319 OT SD       0.15E+00    1.7     0.00074592      -286.7582938780 -1.83E-04
  Decoupling Energy:                                               0.0000628320
   320 OT SD       0.15E+00    1.7     0.00076859      -286.7584753167 -1.81E-04
  Decoupling Energy:                                               0.0000630013
   321 OT SD       0.15E+00    1.7     0.00084244      -286.7586518343 -1.77E-04
  Decoupling Energy:                                               0.0000630977
   322 OT SD       0.15E+00    1.7     0.00106520      -286.7588105819 -1.59E-04
  Decoupling Energy:                                               0.0000632995
   323 OT SD       0.15E+00    1.7     0.00164033      -286.7589037853 -9.32E-05
  Decoupling Energy:                                               0.0000632884
   324 OT SD       0.15E+00    1.7     0.00291159      -286.7587520710  1.52E-04
  Decoupling Energy:                                               0.0000636963
   325 OT SD       0.15E+00    1.7     0.00550247      -286.7576775738  1.07E-03
  Decoupling Energy:                                               0.0000634648
   326 OT DIIS     0.15E+00    1.7     0.01061796      -286.7530952279  4.58E-03
  Decoupling Energy:                                               0.0000596254
   327 OT DIIS     0.15E+00    1.7     0.00074071      -286.7551712483 -2.08E-03
  Decoupling Energy:                                               0.0000597127
   328 OT DIIS     0.15E+00    1.7     0.00074066      -286.7552487805 -7.75E-05
  Decoupling Energy:                                               0.0000611918
   329 OT DIIS     0.15E+00    1.7     0.00073633      -286.7564733648 -1.22E-03
  Decoupling Energy:                                               0.0000624043
   330 OT SD       0.15E+00    1.7     0.00073473      -286.7577636783 -1.29E-03
  Decoupling Energy:                                               0.0000625655
   331 OT DIIS     0.15E+00    1.7     0.00073640      -286.7579464895 -1.83E-04
  Decoupling Energy:                                               0.0000625682
   332 OT DIIS     0.15E+00    1.7     0.00073369      -286.7579544108 -7.92E-06
  Decoupling Energy:                                               0.0000626387
   333 OT SD       0.15E+00    1.7     0.00073358      -286.7580489495 -9.45E-05
  Decoupling Energy:                                               0.0000627850
   334 OT SD       0.15E+00    1.7     0.00073386      -286.7582320015 -1.83E-04
  Decoupling Energy:                                               0.0000629179
   335 OT SD       0.15E+00    1.7     0.00073453      -286.7584151172 -1.83E-04
  Decoupling Energy:                                               0.0000630453
   336 OT SD       0.15E+00    1.7     0.00073648      -286.7585982400 -1.83E-04
  Decoupling Energy:                                               0.0000631608
   337 OT SD       0.15E+00    1.7     0.00074318      -286.7587810840 -1.83E-04
  Decoupling Energy:                                               0.0000632784
   338 OT SD       0.15E+00    1.7     0.00076767      -286.7589625096 -1.81E-04
  Decoupling Energy:                                               0.0000633769
   339 OT SD       0.15E+00    1.7     0.00085508      -286.7591380719 -1.76E-04
  Decoupling Energy:                                               0.0000634972
   340 OT SD       0.15E+00    1.7     0.00113171      -286.7592904620 -1.52E-04
  Decoupling Energy:                                               0.0000635733
   341 OT SD       0.15E+00    1.7     0.00184968      -286.7593520753 -6.16E-05
  Decoupling Energy:                                               0.0000637452
   342 OT SD       0.15E+00    1.7     0.00343409      -286.7590582694  2.94E-04
  Decoupling Energy:                                               0.0000638453
   343 OT SD       0.15E+00    1.7     0.00667745      -286.7573697787  1.69E-03
  Decoupling Energy:                                               0.0000645043
   344 OT DIIS     0.15E+00    1.7     0.01316343      -286.7502091367  7.16E-03
  Decoupling Energy:                                               0.0000554595
   345 OT DIIS     0.15E+00    1.7     0.00079786      -286.7520616766 -1.85E-03
  Decoupling Energy:                                               0.0000556472
   346 OT DIIS     0.15E+00    1.7     0.00079646      -286.7521946171 -1.33E-04
  Decoupling Energy:                                               0.0000618517
   347 OT DIIS     0.15E+00    1.7     0.00073886      -286.7572533771 -5.06E-03
  Decoupling Energy:                                               0.0000630373
   348 OT DIIS     0.15E+00    1.7     0.00074247      -286.7592526799 -2.00E-03
  Decoupling Energy:                                               0.0000631737
   349 OT SD       0.15E+00    1.7     0.00074478      -286.7600402438 -7.88E-04
  Decoupling Energy:                                               0.0000634287
   350 OT SD       0.15E+00    1.7     0.00073974      -286.7602267646 -1.87E-04
  Decoupling Energy:                                               0.0000636095
   351 OT SD       0.15E+00    1.7     0.00074275      -286.7604113265 -1.85E-04
  Decoupling Energy:                                               0.0000637778
   352 OT SD       0.15E+00    1.7     0.00075297      -286.7605952221 -1.84E-04
  Decoupling Energy:                                               0.0000639016
   353 OT SD       0.15E+00    1.7     0.00078510      -286.7607771911 -1.82E-04
  Decoupling Energy:                                               0.0000640489
   354 OT SD       0.15E+00    1.7     0.00088589      -286.7609523011 -1.75E-04
  Decoupling Energy:                                               0.0000641166
   355 OT SD       0.15E+00    1.7     0.00117599      -286.7611024639 -1.50E-04
  Decoupling Energy:                                               0.0000643044
   356 OT SD       0.15E+00    1.7     0.00188903      -286.7611606401 -5.82E-05
  Decoupling Energy:                                               0.0000642785
   357 OT SD       0.15E+00    1.7     0.00342093      -286.7608748327  2.86E-04
  Decoupling Energy:                                               0.0000647472
   358 OT SD       0.15E+00    1.7     0.00651042      -286.7592894413  1.59E-03
  Decoupling Energy:                                               0.0000647682
   359 OT DIIS     0.15E+00    2.9     0.01260463      -286.7527539070  6.54E-03
  Decoupling Energy:                                               0.0000552883
   360 OT DIIS     0.15E+00    1.7     0.00083057      -286.7533884098 -6.35E-04
  Decoupling Energy:                                               0.0000562636
   361 OT DIIS     0.15E+00    1.7     0.00081882      -286.7539904842 -6.02E-04
  Decoupling Energy:                                               0.0000630077
   362 OT DIIS     0.15E+00    1.7     0.00074369      -286.7593690072 -5.38E-03
  Decoupling Energy:                                               0.0000637528
   363 OT DIIS     0.15E+00    1.7     0.00074352      -286.7605309923 -1.16E-03
  Decoupling Energy:                                               0.0000640286
   364 OT DIIS     0.15E+00    1.7     0.00074186      -286.7612659916 -7.35E-04
  Decoupling Energy:                                               0.0000641601
   365 OT SD       0.15E+00    1.7     0.00074200      -286.7616088810 -3.43E-04
  Decoupling Energy:                                               0.0000642987
   366 OT SD       0.15E+00    1.7     0.00074002      -286.7617954634 -1.87E-04
  Decoupling Energy:                                               0.0000644012
   367 OT SD       0.15E+00    1.7     0.00074066      -286.7619814616 -1.86E-04
  Decoupling Energy:                                               0.0000645010
   368 OT SD       0.15E+00    1.7     0.00074219      -286.7621675129 -1.86E-04
  Decoupling Energy:                                               0.0000645839
   369 OT SD       0.15E+00    1.7     0.00074574      -286.7623535530 -1.86E-04
  Decoupling Energy:                                               0.0000646726
   370 OT SD       0.15E+00    1.7     0.00075543      -286.7625392231 -1.86E-04
  Decoupling Energy:                                               0.0000647373
   371 OT SD       0.15E+00    1.7     0.00078504      -286.7627232399 -1.84E-04
  Decoupling Energy:                                               0.0000648291
   372 OT SD       0.15E+00    1.7     0.00087870      -286.7629009981 -1.78E-04
  Decoupling Energy:                                               0.0000648639
   373 OT SD       0.15E+00    1.7     0.00115470      -286.7630554104 -1.54E-04
  Decoupling Energy:                                               0.0000649925
   374 OT SD       0.15E+00    1.7     0.00184961      -286.7631219582 -6.65E-05
  Decoupling Energy:                                               0.0000649483
   375 OT SD       0.15E+00    1.7     0.00336687      -286.7628535299  2.68E-04
  Decoupling Energy:                                               0.0000652383
   376 OT SD       0.15E+00    1.7     0.00645897      -286.7612972959  1.56E-03
  Decoupling Energy:                                               0.0000649576
   377 OT DIIS     0.15E+00    1.7     0.01260394      -286.7547580622  6.54E-03
  Decoupling Energy:                                               0.0000445240
   378 OT DIIS     0.15E+00    1.7     0.00137907      -286.7485911135  6.17E-03
  Decoupling Energy:                                               0.0000496927
   379 OT DIIS     0.15E+00    1.7     0.00111129      -286.7512181128 -2.63E-03
  Decoupling Energy:                                               0.0000607162
   380 OT SD       0.15E+00    1.7     0.00080333      -286.7583543711 -7.14E-03
  Decoupling Energy:                                               0.0000612595
   381 OT SD       0.15E+00    1.7     0.00085919      -286.7585383545 -1.84E-04
  Decoupling Energy:                                               0.0000616698
   382 OT SD       0.15E+00    1.7     0.00108279      -286.7586966045 -1.58E-04
  Decoupling Energy:                                               0.0000619791
   383 OT DIIS     0.15E+00    1.7     0.00164665      -286.7587890869 -9.25E-05
  Decoupling Energy:                                               0.0000603173
   384 OT DIIS     0.15E+00    1.7     0.00080844      -286.7587111737  7.79E-05
  Decoupling Energy:                                               0.0000606990
   385 OT DIIS     0.15E+00    1.7     0.00082426      -286.7598254912 -1.11E-03
  Decoupling Energy:                                               0.0000629589
   386 OT SD       0.15E+00    1.7     0.00075874      -286.7620711654 -2.25E-03
  Decoupling Energy:                                               0.0000633606
   387 OT SD       0.15E+00    1.7     0.00075694      -286.7622598548 -1.89E-04
  Decoupling Energy:                                               0.0000636327
   388 OT SD       0.15E+00    1.7     0.00077293      -286.7624450485 -1.85E-04
  Decoupling Energy:                                               0.0000638920
   389 OT SD       0.15E+00    1.7     0.00082022      -286.7626269302 -1.82E-04
  Decoupling Energy:                                               0.0000640565
   390 OT SD       0.15E+00    1.7     0.00095829      -286.7627987638 -1.72E-04
  Decoupling Energy:                                               0.0000642759
   391 OT SD       0.15E+00    1.7     0.00133577      -286.7629346857 -1.36E-04
  Decoupling Energy:                                               0.0000643387
   392 OT SD       0.15E+00    1.7     0.00223708      -286.7629354285 -7.43E-07
  Decoupling Energy:                                               0.0000646247
   393 OT SD       0.15E+00    1.7     0.00416501      -286.7624145608  5.21E-04
  Decoupling Energy:                                               0.0000645296
   394 OT DIIS     0.15E+00    1.7     0.00809189      -286.7598540005  2.56E-03
  Decoupling Energy:                                               0.0000623571
   395 OT DIIS     0.15E+00    1.7     0.00074125      -286.7606602239 -8.06E-04
  Decoupling Energy:                                               0.0000624164
   396 OT SD       0.15E+00    1.7     0.00073963      -286.7607464232 -8.62E-05
  Decoupling Energy:                                               0.0000627511
   397 OT SD       0.15E+00    1.7     0.00073880      -286.7609320015 -1.86E-04
  Decoupling Energy:                                               0.0000630288
   398 OT SD       0.15E+00    1.7     0.00074020      -286.7611169486 -1.85E-04
  Decoupling Energy:                                               0.0000632630
   399 OT SD       0.15E+00    1.7     0.00074608      -286.7613013653 -1.84E-04
  Decoupling Energy:                                               0.0000634714
   400 OT DIIS     0.15E+00    1.7     0.00076647      -286.7614844751 -1.83E-04
  Decoupling Energy:                                               0.0000635511
   401 OT SD       0.15E+00    1.7     0.00073733      -286.7615207741 -3.63E-05
  Decoupling Energy:                                               0.0000637150
   402 OT SD       0.15E+00    1.7     0.00073764      -286.7617057307 -1.85E-04
  Decoupling Energy:                                               0.0000638626
   403 OT SD       0.15E+00    1.7     0.00073814      -286.7618908076 -1.85E-04
  Decoupling Energy:                                               0.0000639965
   404 OT SD       0.15E+00    1.7     0.00073919      -286.7620759997 -1.85E-04
  Decoupling Energy:                                               0.0000641183
   405 OT SD       0.15E+00    1.7     0.00074221      -286.7622612040 -1.85E-04
  Decoupling Energy:                                               0.0000642325
   406 OT SD       0.15E+00    1.7     0.00075271      -286.7624459579 -1.85E-04
  Decoupling Energy:                                               0.0000643332
   407 OT SD       0.15E+00    1.7     0.00079145      -286.7626283992 -1.82E-04
  Decoupling Energy:                                               0.0000644396
   408 OT SD       0.15E+00    1.7     0.00092805      -286.7628010977 -1.73E-04
  Decoupling Energy:                                               0.0000645179
   409 OT SD       0.15E+00    1.7     0.00133929      -286.7629344226 -1.33E-04
  Decoupling Energy:                                               0.0000646576
   410 OT SD       0.15E+00    1.7     0.00234782      -286.7629099365  2.45E-05
  Decoupling Energy:                                               0.0000647470
   411 OT SD       0.15E+00    1.7     0.00451439      -286.7622537360  6.56E-04
  Decoupling Energy:                                               0.0000652837
   412 OT SD       0.15E+00    1.7     0.00893493      -286.7590679537  3.19E-03
  Decoupling Energy:                                               0.0000663760
   413 OT DIIS     0.15E+00    1.7     0.01780990      -286.7457731319  1.33E-02
  Decoupling Energy:                                               0.0000402797
   414 OT DIIS     0.15E+00    1.7     0.00156456      -286.7472922977 -1.52E-03
  Decoupling Energy:                                               0.0000421161
   415 OT DIIS     0.15E+00    1.7     0.00147821      -286.7481946441 -9.02E-04
  Decoupling Energy:                                               0.0000616760
   416 OT DIIS     0.15E+00    1.7     0.00081324      -286.7602837053 -1.21E-02
  Decoupling Energy:                                               0.0000615863
   417 OT DIIS     0.15E+00    1.7     0.00086434      -286.7613912975 -1.11E-03
  Decoupling Energy:                                               0.0000617481
   418 OT DIIS     0.15E+00    1.7     0.00085429      -286.7620063373 -6.15E-04
  Decoupling Energy:                                               0.0000616411
   419 OT DIIS     0.15E+00    1.7     0.00087237      -286.7626661857 -6.60E-04
  Decoupling Energy:                                               0.0000619741
   420 OT DIIS     0.15E+00    1.7     0.00085877      -286.7632372274 -5.71E-04
  Decoupling Energy:                                               0.0000623871
   421 OT DIIS     0.15E+00    1.7     0.00086505      -286.7648566737 -1.62E-03
  Decoupling Energy:                                               0.0000610162
   422 OT SD       0.15E+00    1.7     0.00102786      -286.7680316210 -3.17E-03
  Decoupling Energy:                                               0.0000621514
   423 OT DIIS     0.15E+00    1.7     0.00095920      -286.7682861990 -2.55E-04
  Decoupling Energy:                                               0.0000616178
   424 OT SD       0.15E+00    1.7     0.00088659      -286.7705641688 -2.28E-03
  Decoupling Energy:                                               0.0000624603
   425 OT SD       0.15E+00    1.7     0.00103608      -286.7707557713 -1.92E-04
  Decoupling Energy:                                               0.0000629911
   426 OT SD       0.15E+00    1.7     0.00149447      -286.7708872036 -1.31E-04
  Decoupling Energy:                                               0.0000635018
   427 OT SD       0.15E+00    1.7     0.00253435      -286.7708387139  4.85E-05
  Decoupling Energy:                                               0.0000636640
   428 OT DIIS     0.15E+00    1.7     0.00465266      -286.7701441424  6.95E-04
  Decoupling Energy:                                               0.0000646932
   429 OT DIIS     0.15E+00    1.7     0.00075627      -286.7713680595 -1.22E-03
  Decoupling Energy:                                               0.0000648912
   430 OT DIIS     0.15E+00    1.7     0.00075544      -286.7716373153 -2.69E-04
  Decoupling Energy:                                               0.0000649364
   431 OT DIIS     0.15E+00    1.7     0.00075543      -286.7717761649 -1.39E-04
  Decoupling Energy:                                               0.0000649540
   432 OT SD       0.15E+00    1.7     0.00075537      -286.7718393473 -6.32E-05
  Decoupling Energy:                                               0.0000649571
   433 OT SD       0.15E+00    1.7     0.00075559      -286.7720334794 -1.94E-04
  Decoupling Energy:                                               0.0000649580
   434 OT SD       0.15E+00    1.7     0.00075584      -286.7722277197 -1.94E-04
  Decoupling Energy:                                               0.0000649560
   435 OT SD       0.15E+00    1.7     0.00075614      -286.7724220739 -1.94E-04
  Decoupling Energy:                                               0.0000649499
   436 OT SD       0.15E+00    1.7     0.00075658      -286.7726165369 -1.94E-04
  Decoupling Energy:                                               0.0000649394
   437 OT SD       0.15E+00    1.7     0.00075748      -286.7728110798 -1.95E-04
  Decoupling Energy:                                               0.0000649247
   438 OT SD       0.15E+00    1.7     0.00075999      -286.7730055988 -1.95E-04
  Decoupling Energy:                                               0.0000649053
   439 OT SD       0.15E+00    1.7     0.00076842      -286.7731997080 -1.94E-04
  Decoupling Energy:                                               0.0000648818
   440 OT SD       0.15E+00    1.7     0.00079865      -286.7733919485 -1.92E-04
  Decoupling Energy:                                               0.0000648556
   441 OT SD       0.15E+00    1.7     0.00090477      -286.7735766644 -1.85E-04
  Decoupling Energy:                                               0.0000648244
   442 OT SD       0.15E+00    1.7     0.00123377      -286.7737316827 -1.55E-04
  Decoupling Energy:                                               0.0000648079
   443 OT SD       0.15E+00    1.7     0.00207170      -286.7737692856 -3.76E-05
  Decoupling Energy:                                               0.0000647993
   444 OT SD       0.15E+00    1.7     0.00390810      -286.7733406408  4.29E-04
  Decoupling Energy:                                               0.0000649742
   445 OT SD       0.15E+00    1.7     0.00768068      -286.7710539214  2.29E-03
  Decoupling Energy:                                               0.0000655514
   446 OT DIIS     0.15E+00    1.7     0.01526829      -286.7613534956  9.70E-03
  Decoupling Energy:                                               0.0000540675
   447 OT DIIS     0.15E+00    1.7     0.00107613      -286.7615489266 -1.95E-04
  Decoupling Energy:                                               0.0000565118
   448 OT DIIS     0.15E+00    1.7     0.00096667      -286.7630674845 -1.52E-03
  Decoupling Energy:                                               0.0000645252
   449 OT SD       0.15E+00    1.7     0.00077292      -286.7715227697 -8.46E-03
  Decoupling Energy:                                               0.0000646408
   450 OT SD       0.15E+00    1.7     0.00079948      -286.7717145555 -1.92E-04
  Decoupling Energy:                                               0.0000647092
   451 OT SD       0.15E+00    1.7     0.00088741      -286.7718997329 -1.85E-04
  Decoupling Energy:                                               0.0000647634
   452 OT SD       0.15E+00    1.7     0.00114630      -286.7720629249 -1.63E-04
  Decoupling Energy:                                               0.0000647789
   453 OT SD       0.15E+00    1.7     0.00180367      -286.7721445283 -8.16E-05
  Decoupling Energy:                                               0.0000647930
   454 OT SD       0.15E+00    1.7     0.00324940      -286.7719171598  2.27E-04
  Decoupling Energy:                                               0.0000646710
   455 OT DIIS     0.15E+00    1.7     0.00620310      -286.7705068830  1.41E-03
  Decoupling Energy:                                               0.0000639453
   456 OT SD       0.15E+00    1.7     0.00075547      -286.7698228977  6.84E-04
  Decoupling Energy:                                               0.0000641890
   457 OT SD       0.15E+00    1.7     0.00075436      -286.7700165454 -1.94E-04
  Decoupling Energy:                                               0.0000643600
   458 OT SD       0.15E+00    1.7     0.00075515      -286.7702095773 -1.93E-04
  Decoupling Energy:                                               0.0000645043
   459 OT SD       0.15E+00    1.7     0.00075904      -286.7704021971 -1.93E-04
  Decoupling Energy:                                               0.0000646014
   460 OT SD       0.15E+00    1.7     0.00077304      -286.7705938926 -1.92E-04
  Decoupling Energy:                                               0.0000647025
   461 OT SD       0.15E+00    1.7     0.00082221      -286.7707823376 -1.88E-04
  Decoupling Energy:                                               0.0000647392
   462 OT SD       0.15E+00    1.7     0.00098463      -286.7709584701 -1.76E-04
  Decoupling Energy:                                               0.0000648436
   463 OT SD       0.15E+00    1.7     0.00144410      -286.7710874554 -1.29E-04
  Decoupling Energy:                                               0.0000647960
   464 OT SD       0.15E+00    1.7     0.00252396      -286.7710347561  5.27E-05
  Decoupling Energy:                                               0.0000650333
   465 OT SD       0.15E+00    1.7     0.00479011      -286.7702787726  7.56E-04
  Decoupling Energy:                                               0.0000648786
   466 OT DIIS     0.15E+00    1.7     0.00934042      -286.7667882022  3.49E-03
  Decoupling Energy:                                               0.0000620518
   467 OT DIIS     0.15E+00    1.7     0.00076754      -286.7664183495  3.70E-04
  Decoupling Energy:                                               0.0000626961
   468 OT DIIS     0.15E+00    1.7     0.00076038      -286.7673538184 -9.35E-04
  Decoupling Energy:                                               0.0000634776
   469 OT DIIS     0.15E+00    1.7     0.00075588      -286.7680993793 -7.46E-04
  Decoupling Energy:                                               0.0000644382
   470 OT SD       0.15E+00    1.7     0.00075364      -286.7697041479 -1.60E-03
  Decoupling Energy:                                               0.0000645563
   471 OT SD       0.15E+00    1.7     0.00075537      -286.7698963782 -1.92E-04
  Decoupling Energy:                                               0.0000646470
   472 OT DIIS     0.15E+00    1.7     0.00076057      -286.7700882861 -1.92E-04
  Decoupling Energy:                                               0.0000646742
   473 OT DIIS     0.15E+00    1.7     0.00075231      -286.7701069003 -1.86E-05
  Decoupling Energy:                                               0.0000646805
   474 OT SD       0.15E+00    1.7     0.00075241      -286.7701802075 -7.33E-05
  Decoupling Energy:                                               0.0000647521
   475 OT SD       0.15E+00    1.7     0.00075273      -286.7703727518 -1.93E-04
  Decoupling Energy:                                               0.0000648057
   476 OT SD       0.15E+00    1.7     0.00075355      -286.7705653505 -1.93E-04
  Decoupling Energy:                                               0.0000648520
   477 OT SD       0.15E+00    1.7     0.00075586      -286.7707579421 -1.93E-04
  Decoupling Energy:                                               0.0000648817
   478 OT SD       0.15E+00    1.7     0.00076339      -286.7709502060 -1.92E-04
  Decoupling Energy:                                               0.0000649156
   479 OT SD       0.15E+00    1.7     0.00078920      -286.7711409378 -1.91E-04
  Decoupling Energy:                                               0.0000649183
   480 OT SD       0.15E+00    1.7     0.00087607      -286.7713257110 -1.85E-04
  Decoupling Energy:                                               0.0000649612
   481 OT SD       0.15E+00    1.7     0.00113884      -286.7714882283 -1.63E-04
  Decoupling Energy:                                               0.0000649111
   482 OT SD       0.15E+00    1.7     0.00180219      -286.7715681577 -7.99E-05
  Decoupling Energy:                                               0.0000650395
   483 OT SD       0.15E+00    1.7     0.00323868      -286.7713415080  2.27E-04
  Decoupling Energy:                                               0.0000648641
   484 OT SD       0.15E+00    1.7     0.00611553      -286.7699708015  1.37E-03
  Decoupling Energy:                                               0.0000655021
   485 OT SD       0.15E+00    1.7     0.01176005      -286.7643333467  5.64E-03
  Decoupling Energy:                                               0.0000655064
   486 OT DIIS     0.15E+00    1.7     0.02263931      -286.7426583689  2.17E-02
  Decoupling Energy:                                               0.0000370994
   487 OT DIIS     0.15E+00    1.7     0.00205554      -286.7519730361 -9.31E-03
  Decoupling Energy:                                               0.0000464605
   488 OT DIIS     0.15E+00    1.7     0.00145539      -286.7566560644 -4.68E-03
  Decoupling Energy:                                               0.0000575608
   489 OT SD       0.15E+00    1.7     0.00097197      -286.7635102324 -6.85E-03
  Decoupling Energy:                                               0.0000588938
   490 OT SD       0.15E+00    1.7     0.00096664      -286.7637460562 -2.36E-04
  Decoupling Energy:                                               0.0000598123
   491 OT SD       0.15E+00    1.7     0.00124442      -286.7639108444 -1.65E-04
  Decoupling Energy:                                               0.0000605743
   492 OT DIIS     0.15E+00    1.7     0.00191961      -286.7639778980 -6.71E-05
  Decoupling Energy:                                               0.0000597854
   493 OT DIIS     0.15E+00    1.7     0.00094036      -286.7664775919 -2.50E-03
  Decoupling Energy:                                               0.0000600417
   494 OT DIIS     0.15E+00    1.7     0.00093870      -286.7667788600 -3.01E-04
  Decoupling Energy:                                               0.0000623988
   495 OT SD       0.15E+00    1.7     0.00079786      -286.7680043155 -1.23E-03
  Decoupling Energy:                                               0.0000629320
   496 OT DIIS     0.15E+00    1.7     0.00085539      -286.7681931684 -1.89E-04
  Decoupling Energy:                                               0.0000637509
   497 OT SD       0.15E+00    1.7     0.00075099      -286.7690564105 -8.63E-04
  Decoupling Energy:                                               0.0000639648
   498 OT DIIS     0.15E+00    1.7     0.00075211      -286.7692476335 -1.91E-04
  Decoupling Energy:                                               0.0000640491
   499 OT DIIS     0.15E+00    1.7     0.00075001      -286.7693252544 -7.76E-05
  Decoupling Energy:                                               0.0000640863
   500 OT DIIS     0.15E+00    1.7     0.00074989      -286.7693278371 -2.58E-06

  Leaving inner SCF loop after reaching   500 steps.


  Electronic density on regular grids:        -54.0000001685       -0.0000001685
  Core density on regular grids:               54.0000000000       -0.0000000000
  Total charge density on r-space grids:       -0.0000001685
  Total charge density g-space grids:          -0.0000001685

  Overlap energy of the core charge distribution:               0.00000000000000
  Self energy of the core charge distribution:               -761.65593778947107
  Core Hamiltonian energy:                                    205.83252820892719
  Hartree energy:                                             311.97100011864836
  Exchange-correlation energy:                                -42.91691837525403

  Total energy:                                              -286.76932783714955

  outer SCF iter =    1 RMS gradient =   0.75E-03 energy =       -286.7693278371

  ----------------------------------- OT ---------------------------------------
  Minimizer      : DIIS                : direct inversion
                                         in the iterative subspace
                                         using   7 DIIS vectors
                                         safer DIIS on
  Preconditioner : FULL_KINETIC        : inversion of T + eS
  Lattice FFT   : OFF
  Precond_solver : DEFAULT
  stepsize       :    0.15000000                  energy_gap     :    0.20000000
  eps_taylor     :   0.10000E-15                  max_taylor     :             4
  ----------------------------------- OT ---------------------------------------

  Step     Update method      Time    Convergence         Total energy    Change
  ------------------------------------------------------------------------------
  Decoupling Energy:                                               0.0000641304
     1 OT DIIS     0.15E+00    3.5     0.00344150      -286.7693476150 -1.98E-05
  Decoupling Energy:                                               0.0000629230
     2 OT DIIS     0.15E+00    1.7     0.00334650      -286.7732359723 -3.89E-03
  Decoupling Energy:                                               0.0000612056
     3 OT DIIS     0.15E+00    1.7     0.00336646      -286.7762094872 -2.97E-03
  Decoupling Energy:                                               0.0000565412
     4 OT DIIS     0.15E+00    1.7     0.00323133      -286.7809086192 -4.70E-03
  Decoupling Energy:                                               0.0000489940
     5 OT DIIS     0.15E+00    1.7     0.00313212      -286.7862644064 -5.36E-03
  Decoupling Energy:                                               0.0000361247
     6 OT DIIS     0.15E+00    1.7     0.00300558      -286.7939240802 -7.66E-03
  Decoupling Energy:                                               0.0000116077
     7 OT DIIS     0.15E+00    1.7     0.00265908      -286.8056565320 -1.17E-02
  Decoupling Energy:                                               0.0000014329
     8 OT DIIS     0.15E+00    1.7     0.00237805      -286.8118933801 -6.24E-03
  Decoupling Energy:                                               0.0000003142
     9 OT DIIS     0.15E+00    1.7     0.00170219      -286.8144994849 -2.61E-03
  Decoupling Energy:                                               0.0000009832
    10 OT DIIS     0.15E+00    1.7     0.00151007      -286.8158466068 -1.35E-03
  Decoupling Energy:                                               0.0000003184
    11 OT DIIS     0.15E+00    1.7     0.00118639      -286.8177772977 -1.93E-03
  Decoupling Energy:                                               0.0000005758
    12 OT DIIS     0.15E+00    1.7     0.00098689      -286.8186016095 -8.24E-04
  Decoupling Energy:                                               0.0000004207
    13 OT DIIS     0.15E+00    1.7     0.00080313      -286.8189551140 -3.54E-04
  Decoupling Energy:                                               0.0000004553
    14 OT DIIS     0.15E+00    1.7     0.00062207      -286.8192944727 -3.39E-04
  Decoupling Energy:                                               0.0000002959
    15 OT DIIS     0.15E+00    1.7     0.00058547      -286.8194623301 -1.68E-04
  Decoupling Energy:                                               0.0000002713
    16 OT DIIS     0.15E+00    1.7     0.00056853      -286.8195321990 -6.99E-05
  Decoupling Energy:                                               0.0000002407
    17 OT DIIS     0.15E+00    1.7     0.00044018      -286.8195960473 -6.38E-05
  Decoupling Energy:                                               0.0000002254
    18 OT DIIS     0.15E+00    1.7     0.00030228      -286.8196725806 -7.65E-05
  Decoupling Energy:                                               0.0000002319
    19 OT DIIS     0.15E+00    1.7     0.00028545      -286.8197148210 -4.22E-05
  Decoupling Energy:                                               0.0000002258
    20 OT DIIS     0.15E+00    1.7     0.00023285      -286.8197442748 -2.95E-05
  Decoupling Energy:                                               0.0000002139
    21 OT DIIS     0.15E+00    1.7     0.00021612      -286.8197559223 -1.16E-05
  Decoupling Energy:                                               0.0000002118
    22 OT DIIS     0.15E+00    1.7     0.00016513      -286.8197726058 -1.67E-05
  Decoupling Energy:                                               0.0000002027
    23 OT DIIS     0.15E+00    1.7     0.00013758      -286.8197859924 -1.34E-05
  Decoupling Energy:                                               0.0000001973
    24 OT DIIS     0.15E+00    1.7     0.00013886      -286.8197918496 -5.86E-06
  Decoupling Energy:                                               0.0000001941
    25 OT DIIS     0.15E+00    1.7     0.00012004      -286.8197968303 -4.98E-06
  Decoupling Energy:                                               0.0000001923
    26 OT DIIS     0.15E+00    1.7     0.00008654      -286.8198003464 -3.52E-06
  Decoupling Energy:                                               0.0000001905
    27 OT DIIS     0.15E+00    1.7     0.00007323      -286.8198041283 -3.78E-06
  Decoupling Energy:                                               0.0000001897
    28 OT DIIS     0.15E+00    1.7     0.00007108      -286.8198064049 -2.28E-06
  Decoupling Energy:                                               0.0000001894
    29 OT DIIS     0.15E+00    1.7     0.00006413      -286.8198077875 -1.38E-06
  Decoupling Energy:                                               0.0000001893
    30 OT DIIS     0.15E+00    1.7     0.00005116      -286.8198085584 -7.71E-07
  Decoupling Energy:                                               0.0000001892
    31 OT DIIS     0.15E+00    1.7     0.00004112      -286.8198091946 -6.36E-07
  Decoupling Energy:                                               0.0000001892
    32 OT DIIS     0.15E+00    1.7     0.00003925      -286.8198095786 -3.84E-07
  Decoupling Energy:                                               0.0000001892
    33 OT DIIS     0.15E+00    1.7     0.00003578      -286.8198098964 -3.18E-07
  Decoupling Energy:                                               0.0000001892
    34 OT DIIS     0.15E+00    1.7     0.00003009      -286.8198100748 -1.78E-07
  Decoupling Energy:                                               0.0000001893
    35 OT DIIS     0.15E+00    1.7     0.00002556      -286.8198103829 -3.08E-07
  Decoupling Energy:                                               0.0000001894
    36 OT DIIS     0.15E+00    1.7     0.00002305      -286.8198105528 -1.70E-07
  Decoupling Energy:                                               0.0000001896
    37 OT DIIS     0.15E+00    1.7     0.00002207      -286.8198107081 -1.55E-07
  Decoupling Energy:                                               0.0000001897
    38 OT DIIS     0.15E+00    1.7     0.00001949      -286.8198107790 -7.09E-08
  Decoupling Energy:                                               0.0000001898
    39 OT DIIS     0.15E+00    1.7     0.00001695      -286.8198108709 -9.19E-08
  Decoupling Energy:                                               0.0000001900
    40 OT DIIS     0.15E+00    1.7     0.00001673      -286.8198109712 -1.00E-07
  Decoupling Energy:                                               0.0000001902
    41 OT DIIS     0.15E+00    1.7     0.00001591      -286.8198110378 -6.66E-08
  Decoupling Energy:                                               0.0000001902
    42 OT DIIS     0.15E+00    1.7     0.00001318      -286.8198110606 -2.27E-08
  Decoupling Energy:                                               0.0000001903
    43 OT DIIS     0.15E+00    1.7     0.00001101      -286.8198111227 -6.21E-08
  Decoupling Energy:                                               0.0000001904
    44 OT DIIS     0.15E+00    1.7     0.00001034      -286.8198111539 -3.13E-08
  Decoupling Energy:                                               0.0000001904
    45 OT DIIS     0.15E+00    1.7     0.00000985      -286.8198111926 -3.87E-08
  Decoupling Energy:                                               0.0000001904
    46 OT DIIS     0.15E+00    1.7     0.00000922      -286.8198112166 -2.40E-08
  Decoupling Energy:                                               0.0000001905
    47 OT DIIS     0.15E+00    1.7     0.00000825      -286.8198112370 -2.04E-08
  Decoupling Energy:                                               0.0000001905
    48 OT DIIS     0.15E+00    1.7     0.00000768      -286.8198112623 -2.53E-08
  Decoupling Energy:                                               0.0000001905
    49 OT DIIS     0.15E+00    1.7     0.00000712      -286.8198112780 -1.58E-08
  Decoupling Energy:                                               0.0000001905
    50 OT DIIS     0.15E+00    1.7     0.00000643      -286.8198112860 -8.01E-09
  Decoupling Energy:                                               0.0000001905
    51 OT DIIS     0.15E+00    1.7     0.00000550      -286.8198113013 -1.53E-08
  Decoupling Energy:                                               0.0000001905
    52 OT DIIS     0.15E+00    1.7     0.00000511      -286.8198113112 -9.85E-09
  Decoupling Energy:                                               0.0000001905
    53 OT DIIS     0.15E+00    1.7     0.00000482      -286.8198113223 -1.12E-08
  Decoupling Energy:                                               0.0000001905
    54 OT DIIS     0.15E+00    1.7     0.00000466      -286.8198113280 -5.64E-09
  Decoupling Energy:                                               0.0000001905
    55 OT DIIS     0.15E+00    1.7     0.00000395      -286.8198113323 -4.28E-09
  Decoupling Energy:                                               0.0000001905
    56 OT DIIS     0.15E+00    1.7     0.00000364      -286.8198113378 -5.56E-09
  Decoupling Energy:                                               0.0000001905
    57 OT DIIS     0.15E+00    1.7     0.00000350      -286.8198113411 -3.32E-09
  Decoupling Energy:                                               0.0000001905
    58 OT DIIS     0.15E+00    1.7     0.00000332      -286.8198113428 -1.65E-09
  Decoupling Energy:                                               0.0000001905
    59 OT DIIS     0.15E+00    1.7     0.00000267      -286.8198113458 -2.99E-09
  Decoupling Energy:                                               0.0000001905
    60 OT DIIS     0.15E+00    1.7     0.00000250      -286.8198113474 -1.59E-09
  Decoupling Energy:                                               0.0000001905
    61 OT DIIS     0.15E+00    1.7     0.00000227      -286.8198113492 -1.81E-09
  Decoupling Energy:                                               0.0000001905
    62 OT DIIS     0.15E+00    1.7     0.00000220      -286.8198113505 -1.29E-09
  Decoupling Energy:                                               0.0000001905
    63 OT DIIS     0.15E+00    1.7     0.00000202      -286.8198113513 -8.35E-10
  Decoupling Energy:                                               0.0000001905
    64 OT DIIS     0.15E+00    1.7     0.00000188      -286.8198113528 -1.45E-09
  Decoupling Energy:                                               0.0000001905
    65 OT DIIS     0.15E+00    1.7     0.00000180      -286.8198113537 -9.72E-10
  Decoupling Energy:                                               0.0000001906
    66 OT DIIS     0.15E+00    1.7     0.00000177      -286.8198113545 -7.72E-10
  Decoupling Energy:                                               0.0000001906
    67 OT DIIS     0.15E+00    1.7     0.00000145      -286.8198113552 -6.84E-10
  Decoupling Energy:                                               0.0000001906
    68 OT DIIS     0.15E+00    1.7     0.00000132      -286.8198113558 -5.72E-10
  Decoupling Energy:                                               0.0000001906
    69 OT DIIS     0.15E+00    1.7     0.00000122      -286.8198113564 -6.29E-10
  Decoupling Energy:                                               0.0000001906
    70 OT DIIS     0.15E+00    1.7     0.00000121      -286.8198113569 -4.76E-10
  Decoupling Energy:                                               0.0000001906
    71 OT DIIS     0.15E+00    1.7     0.00000111      -286.8198113571 -2.78E-10
  Decoupling Energy:                                               0.0000001906
    72 OT DIIS     0.15E+00    1.7     0.00000099      -286.8198113576 -4.38E-10
  Decoupling Energy:                                               0.0000001906
    73 OT DIIS     0.15E+00    1.7     0.00000094      -286.8198113578 -2.59E-10
  Decoupling Energy:                                               0.0000001906
    74 OT DIIS     0.15E+00    1.7     0.00000092      -286.8198113580 -1.71E-10
  Decoupling Energy:                                               0.0000001905
    75 OT DIIS     0.15E+00    1.7     0.00000076      -286.8198113582 -1.62E-10
  Decoupling Energy:                                               0.0000001905
    76 OT DIIS     0.15E+00    1.7     0.00000071      -286.8198113583 -1.38E-10
  Decoupling Energy:                                               0.0000001905
    77 OT DIIS     0.15E+00    1.7     0.00000065      -286.8198113585 -1.48E-10
  Decoupling Energy:                                               0.0000001905
    78 OT DIIS     0.15E+00    1.7     0.00000063      -286.8198113586 -1.18E-10
  Decoupling Energy:                                               0.0000001905
    79 OT DIIS     0.15E+00    1.7     0.00000059      -286.8198113586 -6.05E-11
  Decoupling Energy:                                               0.0000001905
    80 OT DIIS     0.15E+00    1.7     0.00000052      -286.8198113587 -9.52E-11
  Decoupling Energy:                                               0.0000001905
    81 OT DIIS     0.15E+00    1.7     0.00000050      -286.8198113588 -6.93E-11
  Decoupling Energy:                                               0.0000001905
    82 OT DIIS     0.15E+00    1.7     0.00000050      -286.8198113589 -7.87E-11
  Decoupling Energy:                                               0.0000001905
    83 OT DIIS     0.15E+00    1.7     0.00000044      -286.8198113589 -3.97E-11
  Decoupling Energy:                                               0.0000001905
    84 OT DIIS     0.15E+00    1.7     0.00000041      -286.8198113590 -5.56E-11
  Decoupling Energy:                                               0.0000001905
    85 OT DIIS     0.15E+00    1.7     0.00000037      -286.8198113590 -5.73E-11
  Decoupling Energy:                                               0.0000001905
    86 OT DIIS     0.15E+00    1.7     0.00000036      -286.8198113591 -4.23E-11
  Decoupling Energy:                                               0.0000001905
    87 OT DIIS     0.15E+00    1.7     0.00000033      -286.8198113591 -2.46E-11
  Decoupling Energy:                                               0.0000001905
    88 OT DIIS     0.15E+00    1.7     0.00000030      -286.8198113591 -3.57E-11
  Decoupling Energy:                                               0.0000001905
    89 OT DIIS     0.15E+00    1.7     0.00000029      -286.8198113592 -3.15E-11
  Decoupling Energy:                                               0.0000001905
    90 OT DIIS     0.15E+00    1.7     0.00000030      -286.8198113592 -2.88E-11
  Decoupling Energy:                                               0.0000001905
    91 OT DIIS     0.15E+00    1.7     0.00000025      -286.8198113592 -1.59E-11
  Decoupling Energy:                                               0.0000001905
    92 OT DIIS     0.15E+00    1.7     0.00000023      -286.8198113592 -1.75E-11
  Decoupling Energy:                                               0.0000001905
    93 OT DIIS     0.15E+00    1.7     0.00000021      -286.8198113592 -1.63E-11
  Decoupling Energy:                                               0.0000001905
    94 OT DIIS     0.15E+00    1.7     0.00000020      -286.8198113593 -1.27E-11
  Decoupling Energy:                                               0.0000001905
    95 OT DIIS     0.15E+00    1.7     0.00000019      -286.8198113593 -8.07E-12
  Decoupling Energy:                                               0.0000001905
    96 OT DIIS     0.15E+00    1.7     0.00000017      -286.8198113593 -9.32E-12
  Decoupling Energy:                                               0.0000001905
    97 OT DIIS     0.15E+00    1.7     0.00000016      -286.8198113593 -7.79E-12
  Decoupling Energy:                                               0.0000001905
    98 OT DIIS     0.15E+00    1.7     0.00000016      -286.8198113593 -8.36E-12
  Decoupling Energy:                                               0.0000001905
    99 OT DIIS     0.15E+00    1.7     0.00000014      -286.8198113593 -2.73E-12
  Decoupling Energy:                                               0.0000001905
   100 OT DIIS     0.15E+00    1.7     0.00000013      -286.8198113593 -4.26E-12
  Decoupling Energy:                                               0.0000001905
   101 OT DIIS     0.15E+00    1.7     0.00000012      -286.8198113593 -4.43E-12
  Decoupling Energy:                                               0.0000001905
   102 OT DIIS     0.15E+00    1.7     0.00000012      -286.8198113593 -3.58E-12
  Decoupling Energy:                                               0.0000001905
   103 OT DIIS     0.15E+00    1.7     0.00000011      -286.8198113593 -2.33E-12
  Decoupling Energy:                                               0.0000001905
   104 OT DIIS     0.15E+00    1.7     0.00000010      -286.8198113593 -2.16E-12
  Decoupling Energy:                                               0.0000001905
   105 OT DIIS     0.15E+00    1.7     0.00000009      -286.8198113593 -2.39E-12
  Decoupling Energy:                                               0.0000001905
   106 OT DIIS     0.15E+00    1.7     0.00000009      -286.8198113593 -2.39E-12
  Decoupling Energy:                                               0.0000001905
   107 OT DIIS     0.15E+00    1.7     0.00000008      -286.8198113593 -1.31E-12
  Decoupling Energy:                                               0.0000001905
   108 OT DIIS     0.15E+00    1.7     0.00000008      -286.8198113593 -1.76E-12
  Decoupling Energy:                                               0.0000001905
   109 OT DIIS     0.15E+00    1.7     0.00000007      -286.8198113593 -1.76E-12
  Decoupling Energy:                                               0.0000001905
   110 OT DIIS     0.15E+00    1.7     0.00000007      -286.8198113593 -1.48E-12
  Decoupling Energy:                                               0.0000001905
   111 OT DIIS     0.15E+00    1.7     0.00000006      -286.8198113593 -1.08E-12
  Decoupling Energy:                                               0.0000001905
   112 OT DIIS     0.15E+00    1.7     0.00000006      -286.8198113593 -8.53E-13
  Decoupling Energy:                                               0.0000001905
   113 OT DIIS     0.15E+00    1.7     0.00000005      -286.8198113593 -9.09E-13
  Decoupling Energy:                                               0.0000001905
   114 OT DIIS     0.15E+00    1.7     0.00000005      -286.8198113593 -1.31E-12
  Decoupling Energy:                                               0.0000001905
   115 OT DIIS     0.15E+00    1.7     0.00000005      -286.8198113593 -5.68E-13
  Decoupling Energy:                                               0.0000001905
   116 OT DIIS     0.15E+00    1.7     0.00000005      -286.8198113593 -5.12E-13
  Decoupling Energy:                                               0.0000001905
   117 OT DIIS     0.15E+00    1.7     0.00000004      -286.8198113593 -7.39E-13
  Decoupling Energy:                                               0.0000001905
   118 OT DIIS     0.15E+00    1.7     0.00000004      -286.8198113593 -7.96E-13
  Decoupling Energy:                                               0.0000001905
   119 OT DIIS     0.15E+00    1.7     0.00000004      -286.8198113593 -1.14E-13
  Decoupling Energy:                                               0.0000001905
   120 OT DIIS     0.15E+00    1.7     0.00000003      -286.8198113593 -4.55E-13
  Decoupling Energy:                                               0.0000001905
   121 OT DIIS     0.15E+00    1.7     0.00000003      -286.8198113593 -1.14E-13
  Decoupling Energy:                                               0.0000001905
   122 OT DIIS     0.15E+00    1.7     0.00000003      -286.8198113593 -4.55E-13
  Decoupling Energy:                                               0.0000001905
   123 OT DIIS     0.15E+00    1.7     0.00000003      -286.8198113593  5.68E-14
  Decoupling Energy:                                               0.0000001905
   124 OT DIIS     0.15E+00    1.7     0.00000003      -286.8198113593 -2.84E-13
  Decoupling Energy:                                               0.0000001905
   125 OT DIIS     0.15E+00    1.7     0.00000002      -286.8198113593 -5.68E-14
  Decoupling Energy:                                               0.0000001905
   126 OT DIIS     0.15E+00    1.7     0.00000002      -286.8198113593 -1.71E-13
  Decoupling Energy:                                               0.0000001905
   127 OT DIIS     0.15E+00    1.7     0.00000002      -286.8198113593 -1.14E-13
  Decoupling Energy:                                               0.0000001905
   128 OT DIIS     0.15E+00    1.7     0.00000002      -286.8198113593  5.68E-14
  Decoupling Energy:                                               0.0000001905
   129 OT DIIS     0.15E+00    1.7     0.00000002      -286.8198113593 -1.14E-13
  Decoupling Energy:                                               0.0000001905
   130 OT DIIS     0.15E+00    1.7     0.00000002      -286.8198113593 -5.68E-14
  Decoupling Energy:                                               0.0000001905
   131 OT DIIS     0.15E+00    1.7     0.00000002      -286.8198113593  1.14E-13
  Decoupling Energy:                                               0.0000001905
   132 OT DIIS     0.15E+00    1.7     0.00000002      -286.8198113593 -1.14E-13
  Decoupling Energy:                                               0.0000001905
   133 OT DIIS     0.15E+00    1.7     0.00000001      -286.8198113593 -1.14E-13
  Decoupling Energy:                                               0.0000001905
   134 OT DIIS     0.15E+00    1.7     0.00000001      -286.8198113593  0.00E+00
  Decoupling Energy:                                               0.0000001905
   135 OT DIIS     0.15E+00    1.7     0.00000001      -286.8198113593  1.14E-13
  Decoupling Energy:                                               0.0000001905
   136 OT DIIS     0.15E+00    1.7     0.00000001      -286.8198113593 -5.68E-14
  Decoupling Energy:                                               0.0000001905
   137 OT DIIS     0.15E+00    1.7     0.00000001      -286.8198113593 -5.68E-14
  Decoupling Energy:                                               0.0000001905
   138 OT DIIS     0.15E+00    1.7     0.00000001      -286.8198113593  0.00E+00
  Decoupling Energy:                                               0.0000001905
   139 OT DIIS     0.15E+00    1.7     0.00000001      -286.8198113593  1.71E-13
  Decoupling Energy:                                               0.0000001905
   140 OT DIIS     0.15E+00    1.7     0.00000001      -286.8198113593  5.68E-14
  Decoupling Energy:                                               0.0000001905
   141 OT DIIS     0.15E+00    1.7     9.1916E-09      -286.8198113593  5.68E-14

  *** SCF run converged in   141 steps ***


  Electronic density on regular grids:        -54.0000001681       -0.0000001681
  Core density on regular grids:               54.0000000000       -0.0000000000
  Total charge density on r-space grids:       -0.0000001681
  Total charge density g-space grids:          -0.0000001681

  Overlap energy of the core charge distribution:               0.00000000000000
  Self energy of the core charge distribution:               -761.65593778947107
  Core Hamiltonian energy:                                    205.78883355656851
  Hartree energy:                                             311.96702042306936
  Exchange-correlation energy:                                -42.91972754949285

  Total energy:                                              -286.81981135932602

  outer SCF iter =    2 RMS gradient =   0.92E-08 energy =       -286.8198113593
  outer SCF loop converged in   2 iterations or  641 steps

  
 -------------------------------------------------------------------------------
 -                                                                             -
 -                          BANDSTRUCTURE CALCULATION                          -
 -                                                                             -
 -------------------------------------------------------------------------------
  
 Number of occupied molecular orbitals (MOs) = Number of occupied bands       27
 Number of unoccupied (= virtual) MOs = Number of unoccupied bands            57
 Number of Gaussian basis functions for MOs                                   84
  
 -------------------------------------------------------------------------------
 -                                                                             -
 -                                GW CALCULATION                               -
 -                                                                             -
 -------------------------------------------------------------------------------
  
 Input: Number of time/freq. points                                           30
 Input: ω_max for fitting Σ(iω) (eV)                                        10.0
 Input: Filter threshold for sparse tensor operations                    1.0E-07
 Input: Apply Hedin shift                                                      F
 Input: Available memory per MPI process                                  8.0 GB
 
 Input: RI-RS Tikhonov regularization                                   1.00E-04
 Input: AO grid hard cutoff radius                                        8.00 Å
 Input: MPI ranks per atom in Z_lP solve                                      -1
 Input: Keep sparsity in χ/G/W panels                                          T
 Input: GW flavour                                                          G0W0
 
 Input: RI-RS grid optimization activated                                      T
 Input: Initial RI-RS grid                                              CHOLESKY
 Input: RS points per AO function                                         6.0000
 Input: Initial RS candidates per AO function                            30.0000
 Input: Additional Lebedev degree                                              2
 Input: Cholesky selection matrix                                        D_PRIME
 Input: Cholesky candidate domain                                      FULL_ATOM
 Input: Initial radial quadrature                                       GAPW_LOG
 Input: Cutoff radius for atomic clusters                                  3.0 Å
 Input: Maximum grid optimization iterations                                 300
 Input: L-BFGS history size                                                    7
 Input: L-BFGS relative-function factor                              0.00000E+00
 Input: L-BFGS projected-gradient tolerance                          1.00000E-09
 
 Input: AUTO_RI basis optimization activated:                                  T
 Input: AUTO_RI requested RI/AO ratio:                                       4.0
 Input: AUTO_RI frontier orbital window:                                  5.0 eV
 Input: AUTO_RI neighbor radius:                                           3.0 Å
 
 Cutoff radius for the truncated Coulomb operator in RI metric:            7.0 Å
 Regularization parameter of RI                                          0.0E+00
 Regularization parameter of minimax grids                               1.0E-06
 
 AUTO_RI| Number of automatic RI functions for χ, ε, W:                      144
 AUTO_RI| Total RI basis optimization time:                                0.8 s
  Decoupling Energy:                                               0.0000001905
 
 SCF direct band gap (eV)                                                   1.19
 Max. SCF eigval diff. (eV)                                                76.10
 E-Range for minimax grid                                                  64.07
 Number of Padé parameters for analytic continuation:                         16
 
 RI-RS basis radii (Å):
     Kind  Elem     r_AO (Å)     r_RI (Å)
        1    Na        9.5111        5.9656
 
 RI-RS initialization: atomic kind                                             1
 RI-RS initialization: Lebedev degree                                          9
 RI-RS initialization: radial shells                                          12
 RI-RS initialization: candidates per atom                                   456
 RI-RS initialization: retained points per atom                               84
 RI-RS initialization: largest cluster candidate count                       456
 RI-RS initialization: most pivots in one cluster                            126
 RI-RS initialization: most stored AO values in one cluster                 6384
 RI-RS initialization: wall time [s]                                       0.018
 Started RI-RS grid optimization
 RI-RS grid initial normalized error                          8.918850699958E-05
 RI-RS grid optimization completed, execution time:                        0.2 s
 Normalized 3C error:                                                    6.0E-08
 Maximum absolute 3C error:                                              1.1E-03
 Optimized points outside molecular Voronoi cells:                            37 / 504
 Total grid points used for RI-RS:                                           504
 
 RI-RS grid row-blocks of Φ_μ(r_l)                                            18
 RI-RS grid points per block (max)                                            32
 
 Percentage of non-zero matrix elements in Φ_μ(r_l)                     100.00 %
 
 RI-RS memory estimate per MPI process:
   Available memory per process (system)                                15.90 GB
   Required for Z_lP (dense upper bound; actual is sparser)              0.00 GB
   Required for χ, W, Σ panels (peak per panel step)                     0.00 GB
   Required for Z_lP solve peak (D_local+φ, worst-case atom)             0.00 GB
   Worst-case local-grid number of grid points:                              504
   Worst-case memory D_local:                                            0.00 GB
 
 Started computing Z_lP
 Computed Z_lP (MPI rank 0) for atom          1 /  1,    Execution time    0.0 s
 Computed Z_lP (all MPI ranks) for all atoms,            Execution time    0.1 s

 Number of batches for χ, Σ matrices                                           1
 
 Percentage of non-zero matrix elements in Z_lP                         100.00 %
 Percentage of non-zero matrix elements in G_ll', χ_ll', W_ll'          100.00 %
 Percentage of non-zero matrix elements in χ_PQ for time point 1        100.00 %
 
 Computed χ(iτ,k=0) for time point            1 / 30,    Execution time    0.0 s
 Computed χ(iτ,k=0) for time point            2 / 30,    Execution time    0.0 s
 Computed χ(iτ,k=0) for time point            3 / 30,    Execution time    0.0 s
 Computed χ(iτ,k=0) for time point            4 / 30,    Execution time    0.0 s
 Computed χ(iτ,k=0) for time point            5 / 30,    Execution time    0.0 s
 Computed χ(iτ,k=0) for time point            6 / 30,    Execution time    0.0 s
 Computed χ(iτ,k=0) for time point            7 / 30,    Execution time    0.0 s
 Computed χ(iτ,k=0) for time point            8 / 30,    Execution time    0.0 s
 Computed χ(iτ,k=0) for time point            9 / 30,    Execution time    0.0 s
 Computed χ(iτ,k=0) for time point           10 / 30,    Execution time    0.0 s
 Computed χ(iτ,k=0) for time point           11 / 30,    Execution time    0.0 s
 Computed χ(iτ,k=0) for time point           12 / 30,    Execution time    0.0 s
 Computed χ(iτ,k=0) for time point           13 / 30,    Execution time    0.0 s
 Computed χ(iτ,k=0) for time point           14 / 30,    Execution time    0.0 s
 Computed χ(iτ,k=0) for time point           15 / 30,    Execution time    0.0 s
 Computed χ(iτ,k=0) for time point           16 / 30,    Execution time    0.0 s
 Computed χ(iτ,k=0) for time point           17 / 30,    Execution time    0.0 s
 Computed χ(iτ,k=0) for time point           18 / 30,    Execution time    0.0 s
 Computed χ(iτ,k=0) for time point           19 / 30,    Execution time    0.0 s
 Computed χ(iτ,k=0) for time point           20 / 30,    Execution time    0.0 s
 Computed χ(iτ,k=0) for time point           21 / 30,    Execution time    0.0 s
 Computed χ(iτ,k=0) for time point           22 / 30,    Execution time    0.0 s
 Computed χ(iτ,k=0) for time point           23 / 30,    Execution time    0.0 s
 Computed χ(iτ,k=0) for time point           24 / 30,    Execution time    0.0 s
 Computed χ(iτ,k=0) for time point           25 / 30,    Execution time    0.0 s
 Computed χ(iτ,k=0) for time point           26 / 30,    Execution time    0.0 s
 Computed χ(iτ,k=0) for time point           27 / 30,    Execution time    0.0 s
 Computed χ(iτ,k=0) for time point           28 / 30,    Execution time    0.0 s
 Computed χ(iτ,k=0) for time point           29 / 30,    Execution time    0.0 s
 Computed χ(iτ,k=0) for time point           30 / 30,    Execution time    0.0 s
 
 Computed W(iτ),                                         Execution time    0.1 s
 
 Computed Σ^x(k=0),                                      Execution time    0.0 s
 
 Computed Σ^c(iτ) for time point              1 / 30,    Execution time    0.0 s
 Computed Σ^c(iτ) for time point              2 / 30,    Execution time    0.0 s
 Computed Σ^c(iτ) for time point              3 / 30,    Execution time    0.0 s
 Computed Σ^c(iτ) for time point              4 / 30,    Execution time    0.0 s
 Computed Σ^c(iτ) for time point              5 / 30,    Execution time    0.0 s
 Computed Σ^c(iτ) for time point              6 / 30,    Execution time    0.0 s
 Computed Σ^c(iτ) for time point              7 / 30,    Execution time    0.0 s
 Computed Σ^c(iτ) for time point              8 / 30,    Execution time    0.0 s
 Computed Σ^c(iτ) for time point              9 / 30,    Execution time    0.0 s
 Computed Σ^c(iτ) for time point             10 / 30,    Execution time    0.0 s
 Computed Σ^c(iτ) for time point             11 / 30,    Execution time    0.0 s
 Computed Σ^c(iτ) for time point             12 / 30,    Execution time    0.0 s
 Computed Σ^c(iτ) for time point             13 / 30,    Execution time    0.0 s
 Computed Σ^c(iτ) for time point             14 / 30,    Execution time    0.0 s
 Computed Σ^c(iτ) for time point             15 / 30,    Execution time    0.0 s
 Computed Σ^c(iτ) for time point             16 / 30,    Execution time    0.0 s
 Computed Σ^c(iτ) for time point             17 / 30,    Execution time    0.0 s
 Computed Σ^c(iτ) for time point             18 / 30,    Execution time    0.0 s
 Computed Σ^c(iτ) for time point             19 / 30,    Execution time    0.0 s
 Computed Σ^c(iτ) for time point             20 / 30,    Execution time    0.0 s
 Computed Σ^c(iτ) for time point             21 / 30,    Execution time    0.0 s
 Computed Σ^c(iτ) for time point             22 / 30,    Execution time    0.0 s
 Computed Σ^c(iτ) for time point             23 / 30,    Execution time    0.0 s
 Computed Σ^c(iτ) for time point             24 / 30,    Execution time    0.0 s
 Computed Σ^c(iτ) for time point             25 / 30,    Execution time    0.0 s
 Computed Σ^c(iτ) for time point             26 / 30,    Execution time    0.0 s
 Computed Σ^c(iτ) for time point             27 / 30,    Execution time    0.0 s
 Computed Σ^c(iτ) for time point             28 / 30,    Execution time    0.0 s
 Computed Σ^c(iτ) for time point             29 / 30,    Execution time    0.0 s
 Computed Σ^c(iτ) for time point             30 / 30,    Execution time    0.0 s
 
 SCF valence band maximum (eV):                                           -2.775
 SCF conduction band minimum (eV):                                        -1.587
 SCF indirect band gap (eV):                                               1.188
 SCF direct band gap (eV):                                                 1.188
 
 G0W0 valence band maximum (eV):                                          -3.934
 G0W0 conduction band minimum (eV):                                       -0.344
 G0W0 indirect band gap (eV):                                              3.589
 G0W0 direct band gap (eV):                                                3.589
 
 Hartree-Fock with SCF orbitals valence band maximum (eV):                -3.622
 Hartree-Fock with SCF orbitals conduction band minimum (eV)               0.997
 Hartree-Fock with SCF orbitals indirect band gap (eV):                    4.619
 Hartree-Fock with SCF orbitals direct band gap (eV):                      4.619

 ENERGY| Total FORCE_EVAL ( QS ) energy [hartree]           -286.819811359326025

 -------------------------------------------------------------------------------
 -                                                                             -
 -                                DBCSR STATISTICS                             -
 -                                                                             -
 -------------------------------------------------------------------------------
 COUNTER                                    TOTAL       BLAS       SMM       ACC
 flops    23 x    23 x    20              2412240       0.0%    100.0%      0.0%     
 flops    20 x    23 x    23              2539200       0.0%    100.0%      0.0%     
 flops    23 x    25 x    20              2599000       0.0%    100.0%      0.0%     
 flops    25 x    23 x    20              2622000       0.0%    100.0%      0.0%     
 flops    20 x    23 x    25              2760000       0.0%    100.0%      0.0%     
 flops    20 x    25 x    23              2760000       0.0%    100.0%      0.0%     
 flops    25 x    25 x    20              2825000       0.0%    100.0%      0.0%     
 flops    20 x    25 x    25              3000000       0.0%    100.0%      0.0%     
 flops    23 x    23 x    32              7719168       0.0%    100.0%      0.0%     
 flops    32 x    23 x    23              8125440       0.0%    100.0%      0.0%     
 flops    23 x    25 x    32              8390400       0.0%    100.0%      0.0%     
 flops    25 x    23 x    32              8390400       0.0%    100.0%      0.0%     
 flops    32 x    23 x    25              8832000       0.0%    100.0%      0.0%     
 flops    32 x    25 x    23              8832000       0.0%    100.0%      0.0%     
 flops    25 x    25 x    32              9120000       0.0%    100.0%      0.0%     
 flops    32 x    25 x    25              9600000       0.0%    100.0%      0.0%     
 flops    20 x    24 x    23             10068480       0.0%    100.0%      0.0%     
 flops    20 x    23 x    24             10068480       0.0%    100.0%      0.0%     
 flops    24 x    23 x    20             10068480       0.0%    100.0%      0.0%     
 flops    23 x    24 x    20             10068480       0.0%    100.0%      0.0%     
 flops    24 x    25 x    20             10848000       0.0%    100.0%      0.0%     
 flops    25 x    24 x    20             10944000       0.0%    100.0%      0.0%     
 flops    20 x    24 x    25             11520000       0.0%    100.0%      0.0%     
 flops    20 x    25 x    24             11520000       0.0%    100.0%      0.0%     
 flops    20 x    23 x    20             14572800       0.0%    100.0%      0.0%     
 flops    20 x    25 x    20             15840000       0.0%    100.0%      0.0%     
 flops    20 x    20 x    47             27072000       0.0%    100.0%      0.0%     
 flops    20 x    20 x    24             27648000       0.0%    100.0%      0.0%     
 flops    20 x    20 x    49             28224000       0.0%    100.0%      0.0%     
 flops    32 x    24 x    23             32219136       0.0%    100.0%      0.0%     
 flops    32 x    23 x    24             32219136       0.0%    100.0%      0.0%     
 flops    24 x    23 x    32             32219136       0.0%    100.0%      0.0%     
 flops    23 x    24 x    32             32219136       0.0%    100.0%      0.0%     
 flops    24 x    25 x    32             35020800       0.0%    100.0%      0.0%     
 flops    25 x    24 x    32             35020800       0.0%    100.0%      0.0%     
 flops    20 x    20 x    28             35481600       0.0%    100.0%      0.0%     
 flops    32 x    24 x    25             36864000       0.0%    100.0%      0.0%     
 flops    32 x    25 x    24             36864000       0.0%    100.0%      0.0%     
 flops    24 x    24 x    20             42024960       0.0%    100.0%      0.0%     
 flops    20 x    24 x    24             42854400       0.0%    100.0%      0.0%     
 flops    20 x    23 x    32             46279680       0.0%    100.0%      0.0%     
 flops    32 x    23 x    20             46632960       0.0%    100.0%      0.0%     
 flops    20 x    25 x    32             50304000       0.0%    100.0%      0.0%     
 flops    32 x    25 x    20             50688000       0.0%    100.0%      0.0%     
 flops    20 x    24 x    20             60768000       0.0%    100.0%      0.0%     
 flops    14 x    14 x    20             60893280       0.0%    100.0%      0.0%     
 flops    32 x    20 x    47             86630400       0.0%    100.0%      0.0%     
 flops    20 x    32 x    47             86630400       0.0%    100.0%      0.0%     
 flops    32 x    20 x    24             88473600       0.0%    100.0%      0.0%     
 flops    20 x    32 x    24             88473600       0.0%    100.0%      0.0%     
 flops    32 x    20 x    49             90316800       0.0%    100.0%      0.0%     
 flops    20 x    32 x    49             90316800       0.0%    100.0%      0.0%     
 flops    20 x    14 x    20             91672000       0.0%    100.0%      0.0%     
 flops    27 x    27 x    14            104591088       0.0%    100.0%      0.0%     
 flops    32 x    20 x    28            113541120       0.0%    100.0%      0.0%     
 flops    20 x    32 x    28            113541120       0.0%    100.0%      0.0%     
 flops    24 x    24 x    32            134479872       0.0%    100.0%      0.0%     
 flops    32 x    24 x    24            137134080       0.0%    100.0%      0.0%     
 flops    14 x    14 x    27            142693488       0.0%    100.0%      0.0%     
 flops    32 x    23 x    32            148094976       0.0%    100.0%      0.0%     
 flops    20 x    14 x    14            151468800       0.0%    100.0%      0.0%     
 flops    32 x    25 x    32            160921600       0.0%    100.0%      0.0%     
 flops    14 x    27 x    28            163332288       0.0%    100.0%      0.0%     
 flops    20 x    20 x    14            178494400       0.0%    100.0%      0.0%     
 flops    20 x    24 x    32            193167360       0.0%    100.0%      0.0%     
 flops    32 x    24 x    20            194580480       0.0%    100.0%      0.0%     
 flops    14 x    14 x    32            195071744       0.0%    100.0%      0.0%     
 flops    27 x    27 x    28            209182176       0.0%    100.0%      0.0%     
 flops    27 x    27 x    27            226590696       0.0%    100.0%      0.0%     
 flops    32 x    32 x    47            277217280       0.0%    100.0%      0.0%     
 flops    32 x    32 x    24            283115520       0.0%    100.0%      0.0%     
 flops    32 x    32 x    49            289013760       0.0%    100.0%      0.0%     
 flops    32 x    14 x    20            293941760       0.0%    100.0%      0.0%     
 flops    20 x    14 x    32            294694400       0.0%    100.0%      0.0%     
 flops    32 x    32 x    28            363331584       0.0%    100.0%      0.0%     
 flops    14 x    27 x    27            392277816       0.0%    100.0%      0.0%     
 flops    32 x    14 x    14            486054912       0.0%    100.0%      0.0%     
 flops    20 x    32 x    14            571665920       0.0%    100.0%      0.0%     
 flops    32 x    20 x    14            572328960       0.0%    100.0%      0.0%     
 flops    14 x    27 x    14            585379872       0.0%    100.0%      0.0%     
 flops    32 x    24 x    32            618233856       0.0%    100.0%      0.0%     
 flops    32 x    14 x    32            948125696       0.0%    100.0%      0.0%     
 flops    32 x    32 x    14           1833947136       0.0%    100.0%      0.0%     
 flops inhomo. stacks                           0       0.0%      0.0%      0.0%
 flops total                        11.996290E+09       0.0%    100.0%      0.0%
 flops max/rank                      1.622164E+09       0.0%    100.0%      0.0%
 matmuls inhomo. stacks                         0       0.0%      0.0%      0.0%
 matmuls total                             518620       0.0%    100.0%      0.0%
 number of processed stacks                248157       0.0%    100.0%      0.0%
 average stack size                                     0.0       2.1       0.0
 marketing flops                    16.725277E+09
 -------------------------------------------------------------------------------
 # multiplications                          14616
 max memory usage/rank              21.735965E+09
 # max total images/rank                        1
 # max 3D layers                                1
 # MPI messages exchanged                 1403136
 MPI messages size (bytes):
  total size                         2.431124E+09
  min size                           0.000000E+00
  max size                         175.232000E+03
  average size                       1.732636E+03
 MPI breakdown and total messages size (bytes):
             size <=      128             1086015                        0
       128 < size <=     8192              281973               1236753480
      8192 < size <=    32768               25137                502550304
     32768 < size <=   131072                8805                506991936
    131072 < size <=  4194304                1206                184828416
   4194304 < size <= 16777216                   0                        0
  16777216 < size                               0                        0
 -------------------------------------------------------------------------------
 -                                                                             -
 -                      DBCSR MESSAGE PASSING PERFORMANCE                      -
 -                                                                             -
 -------------------------------------------------------------------------------
 ROUTINE             CALLS      AVE VOLUME [Bytes]
 MP_Bcast               84                     12.
 MP_Allreduce        70208                      8.
 MP_Alltoall         49360                   1332.
 MP_ISend           235746                   1467.
 MP_IRecv           234168                    950.
 -------------------------------------------------------------------------------

 -------------------------------------------------------------------------------
 -                                                                             -
 -                                GRID STATISTICS                              -
 -                                                                             -
 -------------------------------------------------------------------------------
 LP    KERNEL             BACKEND                              COUNT     PERCENT
 4     collocate ortho    CPU                                  51360      50.00%
 4     integrate ortho    CPU                                  51360      50.00%
 0     collocate general  CPU                                      6       0.01%
 -------------------------------------------------------------------------------

 -------------------------------------------------------------------------------
 -                                                                             -
 -                          OFFLOAD MEMPOOL STATISTICS                         -
 -                                                                             -
 -------------------------------------------------------------------------------
 Memory consumption                Number of allocations  Used [MiB]  Size [MiB]
 Host                                                  6          89    22114128
 -------------------------------------------------------------------------------

 MEMORY| Estimated peak process memory [MiB]                                2150

 -------------------------------------------------------------------------------
 -                                                                             -
 -                         MESSAGE PASSING PERFORMANCE                         -
 -                                                                             -
 -------------------------------------------------------------------------------

 ROUTINE             CALLS      AVE VOLUME [Bytes]
 MP_Group                5
 MP_Bcast            10856                   5839.
 MP_Allreduce        40402                    230.
 MP_Sync               681
 MP_Alltoall         12206              112925381.
 MP_SendRecv         19260                 526336.
 MP_ISendRecv        19260                 526336.
 MP_Wait             78347
 MP_comm_split         678
 MP_ISend            51380                1941185.
 MP_IRecv            51380                1941195.
 -------------------------------------------------------------------------------


 -------------------------------------------------------------------------------
 -                                                                             -
 -                           R E F E R E N C E S                               -
 -                                                                             -
 -------------------------------------------------------------------------------
 
 CP2K version 2026.2 (Development Version), the CP2K developers group (2026).
 CP2K is freely available from https://www.cp2k.org/ .
 
 M. Iannuzzi, J. Wilhelm, F. Stein, A. Bussy, H. Elgabarty, D. Golze, A. Hehn, 
 M. Graml, S. Marek, B. Sertcan Gökmen, C. Schran, H. Forbert, R. Z. 
 Khaliullin, A. Kozhevnikov, M. Taillefumier, R. Meli, V. V. Rybkin, M. Brehm, 
 R. Schade, O. Schütt, J. V. Pototschnig, H. Mirhosseini, A. Knüpfer, D. Marx, 
 M. Krack, J. Hutter, T. D. Kühne.
 J. Phys. Chem. B 130, 1237-1310 (2026).
 The CP2K Program Package Made Simple.
 https://doi.org/10.1021/acs.jpcb.5c05851

 M. Graml, K. Zollner, D. Hernangómez-Pérez, P. E. Faria Junior, J. Wilhelm.
 J. Chem. Theory Comput. 20, 2202-2208 (2024).
 Low-scaling GW algorithm applied to twisted transition-metal dichalcogenide 
 heterobilayers.
 https://doi.org/10.1021/acs.jctc.3c01230

 T. D. Kühne, M. Iannuzzi, M. Del Ben, V. V. Rybkin, P. Seewald, F. Stein, T. 
 Laino, R. Z. Khaliullin, O. Schütt, F. Schiffmann, D. Golze, J. Wilhelm, S. 
 Chulkov, M. H. Bani-Hashemian, V. Weber, U. Borstnik, M. Taillefumier, A. S. 
 Jakobovits, A. Lazzaro, H. Pabst, T. Müller, R. Schade, M. Guidon, S. 
 Andermatt, N. Holmberg, G. K. Schenter, A. Hehn, A. Bussy, F. Belleflamme, G. 
 Tabacchi, A. Glöß, M. Lass, I. Bethune, C. J. Mundy, C. Plessl, M. Watkins, 
 J. VandeVondele, M. Krack, J. Hutter.
 J. Chem. Phys. 152, 194103 (2020).
 CP2K: An electronic structure and molecular dynamics software package - 
 Quickstep: Efficient and accurate electronic structure calculations.
 https://doi.org/10.1063/5.0007045

 O. Schuett, P. Messmer, J. Hutter, J. VandeVondele.
 Electronic Structure Calculations on Graphics Processing Units, 173-190 (2016).
 GPU-Accelerated Sparse Matrix-Matrix Multiplication for Linear Scaling Density 
 Functional Theory.
 https://doi.org/10.1002/9781118670712.ch8

 U. Borstnik, J. VandeVondele, V. Weber, J. Hutter.
 Parallel Comput. 40, 47-58 (2014).
 Sparse matrix multiplication: The distributed block-compressed sparse row 
 library.
 https://doi.org/10.1016/j.parco.2014.03.012

 J. VandeVondele, J. Hutter.
 J. Chem. Phys. 127, 114105 (2007).
 Gaussian basis sets for accurate calculations on molecular systems in gas and 
 condensed phases.
 https://doi.org/10.1063/1.2770708

 J. VandeVondele, M. Krack, F. Mohamed, M. Parrinello, T. Chassaing, J. Hutter.
 Comput. Phys. Commun. 167, 103-128 (2005).
 QUICKSTEP: Fast and accurate density functional calculations using a mixed 
 Gaussian and plane waves approach.
 https://doi.org/10.1016/j.cpc.2004.12.014

 M. Krack.
 Theor. Chem. Acc. 114, 145-152 (2005).
 Pseudopotentials for H to Kr optimized for gradient-corrected 
 exchange-correlation functionals.
 https://doi.org/10.1007/s00214-005-0655-y

 M. Frigo, S. G. Johnson.
 Proc. IEEE 93, 216-231 (2005).
 The design and implementation of FFTW3.
 https://doi.org/10.1109/JPROC.2004.840301

 J. VandeVondele, J. Hutter.
 J. Chem. Phys. 118, 4365-4369 (2003).
 An efficient orbital transformation method for electronic structure 
 calculations.
 https://doi.org/10.1063/1.1543154

 C. Hartwigsen, S. Goedecker, J. Hutter.
 Phys. Rev. B 58, 3641-3662 (1998).
 Relativistic separable dual-space Gaussian pseudopotentials from H to Rn.
 https://doi.org/10.1103/PhysRevB.58.3641

 G. Lippert, J. Hutter, M. Parrinello.
 Mol. Phys. 92, 477-487 (1997).
 A hybrid Gaussian and plane wave density functional scheme.
 https://doi.org/10.1080/002689797170220

 S. Goedecker, M. Teter, J. Hutter.
 Phys. Rev. B 54, 1703-1710 (1996).
 Separable dual-space Gaussian pseudopotentials.
 https://doi.org/10.1103/PhysRevB.54.1703

 J. P. Perdew, K. Burke, M. Ernzerhof.
 Phys. Rev. Lett. 77, 3865-3868 (1996).
 Generalized gradient approximation made simple.
 https://doi.org/10.1103/PhysRevLett.77.3865

 P. E. Blöchl.
 J. Chem. Phys. 103, 7422-7428 (1995).
 Electrostatic decoupling of periodic images of plane‐wave‐expanded 
 densities and derived atomic point charges.
 https://doi.org/10.1063/1.470314

 R. H. Byrd, P. H. Lu, J. Nocedal, C. Y. Zhu.
 SIAM J. Sci. Comput. 16, 1190-1208 (1995).
 A Limited Memory Algorithm for Bound Constrained Optimization.
 https://doi.org/10.1137/0916069


 -------------------------------------------------------------------------------
 -                                                                             -
 -                                T I M I N G                                  -
 -                                                                             -
 -------------------------------------------------------------------------------
 SUBROUTINE                       CALLS  ASD         SELF TIME        TOTAL TIME MAXRANK
                                MAXIMUM       AVERAGE  MAXIMUM  AVERAGE  MAXIMUM
 CP2K                                 1  1.0    0.248    0.255 1084.727 1084.729       0
 qs_energies                          1  2.0    0.053    0.053 1083.543 1083.543      10
 scf_env_do_scf                       1  3.0    0.026    0.027 1079.920 1079.920       3
 scf_env_do_scf_inner_loop          641  4.0    0.095    0.130 1077.085 1077.096       0
 qs_ks_build_kohn_sham_matrix       642  7.0    0.435    0.544  802.610  802.620       4
 qs_ks_update_qs_env                643  5.0    0.009    0.009  802.303  802.314      11
 rebuild_ks_matrix                  641  6.0    0.004    0.005  802.230  802.240       9
 fft_wrap_pw1pw2                  10908 10.4    0.337    0.380  631.910  679.564      10
 fft_wrap_pw1pw2_300               7056 11.8   32.905   33.758  613.702  659.313       7
 qs_vxc_create                      642  8.0    0.046    0.048  548.287  549.630       0
 xc_vxc_pw_create                   641  9.0   11.945   13.379  548.241  549.586       4
 fft3d_ps                         10908 12.4  266.053  274.386  453.153  504.938       6
 xc_pw_derive                      3846 11.0    0.040    0.046  399.490  443.421       1
 xc_pw_divergence                   641 10.0    0.025    0.031  270.714  313.324       7
 xc_rho_set_and_dset_create         641 10.0    7.992    9.867  258.996  280.160       8
 qs_rho_update_rho_low              642  5.0    0.005    0.005  267.937  267.968       6
 calculate_rho_elec                 642  6.0    6.973    7.132  267.932  267.963       0
 mp_alltoall_z22v                 10908 14.4  112.066  163.433  112.066  163.433       0
 density_rs2pw                      642  7.0    0.035    0.039  152.192  153.443      11
 yz_to_x                           5134 12.9   31.774   33.446   88.875  139.312      13
 sum_up_and_integrate               642  8.0    0.049    0.051  110.115  110.255      10
 grid_collocate_task_list           642  7.0  107.336  108.715  107.336  108.715       9
 integrate_v_rspace                 642  9.0    0.057    0.060  106.657  106.781       0
 potential_pw2rs                    642 10.0    0.226    0.230  104.821  104.935      11
 x_to_yz                           5774 13.8   43.047   44.500   98.012  100.843       8
 qs_ks_ddapc                        642  8.0    0.052    0.053   73.204   74.597      10
 pw_derive                         5772 11.3   65.666   67.980   65.666   67.980       1
 xc_functional_eval                 641 11.0    0.025    0.033   43.799   62.958      15
 pbe_lda_eval                       641 12.0   43.775   62.936   43.775   62.936       8
 pw_poisson_solve                   642  8.0    0.050    0.052   60.599   60.774       0
 pw_scatter_p                      5774 12.8   56.134   56.773   56.134   56.773       5
 pw_gather_p                       5134 11.9   49.117   52.697   49.117   52.697       1
 pw_copy                          10268 10.6   51.192   51.575   51.192   51.575      11
 transfer_pw2rs                    2568 11.0    0.025    0.027   39.482   39.525      13
 pw_poisson_set                     643  9.0    0.029    0.030   36.293   36.469      15
 transfer_rs2pw                    2569  8.0    0.047    0.066   29.496   30.265       5
 mp_waitany                       51380 11.5   28.131   29.160   28.131   29.160      12
 transfer_pw2rs_300                 642 12.0   11.542   11.799   27.089   27.600       1
 pw_axpy                           6425  9.3   26.589   27.370   26.589   27.370      10
 pw_copy_to_array                  5134 11.9   24.832   26.236   24.832   26.236       8
 pw_integral_ab_c1d_c1d_gs         1284  9.5   22.096   22.168   22.574   22.732       0
 transfer_rs2pw_300                 643  9.0    9.389    9.657   19.845   20.896       8
 cp_ddapc_apply_CD                  642  9.0    0.119    0.154   16.466   16.627       0
 fft_wrap_pw1pw2_100               1284 10.5    0.807    0.910   14.222   15.715       9
 pw_copy_from_array                5774 12.8   14.395   14.595   14.395   14.595      14
 pw_zero                           3225 10.4    9.037   10.016    9.037   10.016      10
 qs_scf_new_mos                     641  5.0    0.004    0.004    9.116    9.129      14
 qs_scf_loop_do_ot                  641  6.0    0.017    0.017    9.112    9.126      13
 ot_scf_mini                        641  7.0    0.031    0.031    8.757    8.771       9
 dbcsr_multiply_generic           14616 10.1    0.346    0.381    7.526    8.044       9
 transfer_pw2rs_100                 642 12.0    1.408    1.543    6.974    7.616       1
 mp_waitall_1                    728535 14.3    5.663    6.699    5.663    6.699       2
 mp_sum_d                         19166 10.6    4.278    6.402    4.278    6.402      13
 pw_scale                          2565  9.8    4.558    5.612    4.558    5.612       4
 transfer_rs2pw_100                 642  9.0    1.581    1.650    4.932    5.397      11
 ot_mini                            641  8.0    0.027    0.027    4.958    4.979      10
 get_ddapc                          642 10.0    0.112    0.114    4.749    4.910      10
 rs_grid_zero                      1285 13.0    4.669    4.721    4.669    4.721       8
 transfer_pw2rs_40                  642 12.0    1.711    1.892    4.457    4.719       6
 pw_multiply_with                   642  9.0    4.346    4.384    4.346    4.384       1
 qs_ot_get_derivative               641  9.0    0.012    0.013    4.181    4.192      13
 transfer_rs2pw_40                  642  9.0    1.446    1.524    3.798    3.946      15
 fft_wrap_pw1pw2_40                1284 10.5    0.206    0.223    2.979    3.534       0
 qs_ot_get_derivative_diag          637 10.0    0.042    0.042    3.246    3.255      14
 mp_sendrecv_dv                   19260 10.0    2.948    3.167    2.948    3.167       1
 make_m2s                         29232 11.1    0.168    0.177    2.885    2.948       0
 qs_ot_get_p                        643  8.0    0.041    0.042    2.885    2.920       8
 init_scf_loop                        2  4.0    0.026    0.026    2.801    2.802       5
 qs_energies_properties               1  3.0    0.006    0.006    2.520    2.520      12
 post_scf_bandstructure               1  4.0    0.007    0.007    2.513    2.513      14
 multiply_cannon                  14616 11.1    0.688    0.698    2.412    2.492       4
 gw                                   1  5.0    0.003    0.004    2.401    2.411       3
 make_images                      29232 12.1    0.336    0.354    2.202    2.255       9
 xc_pw_smooth                       641 10.0    0.003    0.003    1.796    2.093      11
 qs_ot_p2m_diag                     639  9.0    0.053    0.079    1.996    2.043       0
 grid_integrate_task_list           642 10.0    1.328    1.820    1.328    1.820       9
 create_and_init_bs_env_for_gw        1  6.0    0.033    0.040    1.625    1.625      12
 cp_dbcsr_syevd                     639 10.0    0.061    0.063    1.292    1.313      11
 multiply_cannon_loop             14616 12.1    0.200    0.204    1.090    1.185       4
 mp_sum_l                         69626 11.2    0.719    1.150    0.719    1.150       4
 transfer_pw2rs_20                  642 12.0    0.286    0.312    0.937    1.103       4
 -------------------------------------------------------------------------------

 The number of warnings for this run is : 0
 
 -------------------------------------------------------------------------------
  **** **** ******  **  PROGRAM ENDED AT                 2026-09-17 06:00:13.199
 ***** ** ***  *** **   PROGRAM RAN ON                                  n2cn1045
 **    ****   ******    PROGRAM RAN BY                                  eprop2d1
 ***** **    ** ** **   PROGRAM PROCESS ID                                328848
  **** **  *******  **  PROGRAM STOPPED IN /scratch/hpc-prf-metdyn/eprop2d1_Jan/
                                           53_benchmark_RI_opt/111_GW100_GTH_Leb
                                           edev_riao245_rc3/calculations/10_Na6_
                                           riao4_r06
