 DBCSR| CPU Multiplication driver                                           XSMM (U)
 DBCSR| Multrec recursion limit                                              512 (U)
 DBCSR| Multiplication stack size                                           1000 (D)
 DBCSR| Maximum elements for images                                    UNLIMITED (U)
 DBCSR| Multiplicative factor virtual images                                   1 (U)
 DBCSR| Use multiplication densification                                       T (D)
 DBCSR| Multiplication size stacks                                             3 (U)
 DBCSR| Use memory pool for CPU allocation                                     F (U)
 DBCSR| Number of 3D layers                                               SINGLE (U)
 DBCSR| Use MPI memory allocation                                              F (U)
 DBCSR| Use RMA algorithm                                                      F (U)
 DBCSR| Use Communication thread                                               T (U)
 DBCSR| Communication thread load                                             30 (D)
 DBCSR| MPI: My process id                                                     5
 DBCSR| MPI: Number of processes                                               8
 DBCSR| OMP: Current number of threads                                        16
 DBCSR| OMP: Max number of threads                                            16
 DBCSR| Split modifier for TAS multiplication algorithm                  1.0E+00 (U)


  **** **** ******  **  PROGRAM STARTED AT               2026-09-16 21:12:54.624
 ***** ** ***  *** **   PROGRAM STARTED ON                              n2cn0535
 **    ****   ******    PROGRAM STARTED BY                              eprop2d1
 ***** **    ** ** **   PROGRAM PROCESS ID                                264932
  **** **  *******  **  PROGRAM STARTED IN /scratch/hpc-prf-metdyn/eprop2d1_Jan/
                                           53_benchmark_RI_opt/111_GW100_GTH_Leb
                                           edev_riao245_rc3/calculations/80_OCSe
                                           _riao2_r10

 CP2K| version string:                 CP2K version 2026.2 (Development Version)
 CP2K| source code revision number:                                      unknown
 CP2K| cp2kflags: omp libint fftw3 libxc parallel scalapack openblas            
 CP2K| is freely available from                            https://www.cp2k.org/
 CP2K| Program compiled at                                   2026-09-15 17:57:52
 CP2K| Program compiled on                                              n2login6
 CP2K| Program compiled for                                               x86_64
 CP2K| Data directory path    /scratch/hpc-prf-metdyn/eprop2d1_Jan/53_benchmark_
 CP2K| Input file name                                                 input.inp
 
 eprop2d1@n2cn0535 has created rank and process                      0    264932
 
 eprop2d1@n2cn0535 is running                                        1 processes

 GLOBAL| Force Environment number                                              1
 GLOBAL| Basis set file name            /scratch/hpc-prf-metdyn/eprop2d1_Jan/53_
 GLOBAL| Potential file name            /scratch/hpc-prf-metdyn/eprop2d1_Jan/53_
 GLOBAL| MM Potential file name                                     MM_POTENTIAL
 GLOBAL| Coordinate file name                                      __STD_INPUT__
 GLOBAL| Method name                                                        CP2K
 GLOBAL| Project name                               gw100_106_80_OCSe_a3_leb_r10
 GLOBAL| Run type                                                         ENERGY
 GLOBAL| FFT library                                                       FFTW3
 GLOBAL| Diagonalization library                                       ScaLAPACK
 GLOBAL| Cholesky decomposition library                                ScaLAPACK
 GLOBAL| DGEMM library                                                      BLAS
 GLOBAL| Direct generalized diagonalization requested                          F
 GLOBAL| Orthonormality check for eigenvectors                          DISABLED
 GLOBAL| Matrix multiplication library                                 ScaLAPACK
 GLOBAL| All-to-all communication in single precision                          F
 GLOBAL| Grid backend                                                       AUTO
 GLOBAL| Global print level                                                  LOW
 GLOBAL| MPI I/O enabled                                                       T
 GLOBAL| Total number of message passing processes                             1
 GLOBAL| Number of distributed systems (nodes)                                 1
 GLOBAL| Number of threads for this process                                   16
 GLOBAL| This output is from process                                           0
 GLOBAL| OpenMP stack size per thread (OMP_STACKSIZE)                       128M
 GLOBAL| CPU model name                          AMD EPYC 7763 64-Core Processor

 MEMORY| system memory details [Kb]
 MEMORY|                        rank 0           min           max       average
 MEMORY| MemTotal            263897556     263897556     263897556     263897556
 MEMORY| MemFree             251047164     251047164     251047164     251047164
 MEMORY| Buffers                319932        319932        319932        319932
 MEMORY| Cached                6945932       6945932       6945932       6945932
 MEMORY| Slab                  1365040       1365040       1365040       1365040
 MEMORY| SReclaimable           291720        291720        291720        291720
 MEMORY| MemLikelyFree       258604748     258604748     258604748     258604748


 GENERATE|  Preliminary Number of Bonds generated:                             0
 GENERATE|  Achieved consistency in connectivity generation.

 *******************************************************************************
 *******************************************************************************
 **                                                                           **
 **     #####                         ##              ##                      **
 **    ##   ##            ##          ##              ##                      **
 **   ##     ##                       ##            ######                    **
 **   ##     ##  ##   ##  ##   #####  ##  ##   ####   ##    #####    #####    **
 **   ##     ##  ##   ##  ##  ##      ## ##   ##      ##   ##   ##  ##   ##   **
 **   ##  ## ##  ##   ##  ##  ##      ####     ###    ##   ######   ######    **
 **    ##  ###   ##   ##  ##  ##      ## ##      ##   ##   ##       ##        **
 **     #######   #####   ##   #####  ##  ##  ####    ##    #####   ##        **
 **           ##                                                    ##        **
 **                                                                           **
 **                                                ... make the atoms dance   **
 **                                                                           **
 **            Copyright (C) by CP2K developers group (2000-2026)             **
 **                      J. Chem. Phys. 152, 194103 (2020)                    **
 **                                                                           **
 *******************************************************************************


 TOTAL NUMBERS AND MAXIMUM NUMBERS

  Total number of            - Atomic kinds:                                   3
                             - Atoms:                                          3
                             - Shell sets:                                     3
                             - Shells:                                        15
                             - Primitive Cartesian functions:                 17
                             - Cartesian basis functions:                     42
                             - Spherical basis functions:                     39

  Maximum angular momentum of- Orbital basis functions:                        2
                             - Local part of the GTH pseudopotential:          2
                             - Non-local part of the GTH pseudopotential:      4


 SCF PARAMETERS         Density guess:                                    ATOMIC
                        --------------------------------------------------------
                        max_scf:                                             500
                        max_scf_history:                                       0
                        max_diis:                                              4
                        --------------------------------------------------------
                        eps_scf:                                        1.00E-08
                        eps_scf_history:                                0.00E+00
                        eps_diis:                                       0.00E+00
                        eps_eigval:                                     1.00E-05
                        --------------------------------------------------------
                        level_shift [a.u.]:                             0.000000
                        --------------------------------------------------------
                        Outer loop SCF in use 
                        No variables optimised in outer loop
                        eps_scf                                         1.00E-08
                        max_scf                                               20
                        No outer loop optimization
                        step_size                                       5.00E-01

 Extrapolation method: initial_guess

 Number of electrons:                                                         16
 Number of occupied orbitals:                                                  8
 Number of molecular orbitals:                                                 8

 Number of orbital functions:                                                 39
 Number of independent orbital functions:                                     39


 SCF WAVEFUNCTION OPTIMIZATION

  ----------------------------------- OT ---------------------------------------
  Minimizer      : DIIS                : direct inversion
                                         in the iterative subspace
                                         using   7 DIIS vectors
                                         safer DIIS on
  Preconditioner : FULL_KINETIC        : inversion of T + eS
  Lattice FFT   : OFF
  Precond_solver : DEFAULT
  stepsize       :    0.15000000                  energy_gap     :    0.20000000
  eps_taylor     :   0.10000E-15                  max_taylor     :             4
  ----------------------------------- OT ---------------------------------------

  Step     Update method      Time    Convergence         Total energy    Change
  ------------------------------------------------------------------------------
  Decoupling Energy:                                               0.0000428008
     1 OT DIIS     0.15E+00    7.4     0.09124668       -30.4042876196 -3.04E+01
  Decoupling Energy:                                               0.0000753523
     2 OT DIIS     0.15E+00    6.8     0.05230841       -30.6660520707 -2.62E-01
  Decoupling Energy:                                               0.0000741162
     3 OT DIIS     0.15E+00   14.4     0.04056226       -30.7745701624 -1.09E-01
  Decoupling Energy:                                               0.0000626799
     4 OT DIIS     0.15E+00    6.8     0.03058354       -30.8692397494 -9.47E-02
  Decoupling Energy:                                               0.0000415664
     5 OT DIIS     0.15E+00    6.8     0.02169387       -30.9523712906 -8.31E-02
  Decoupling Energy:                                               0.0000292600
     6 OT DIIS     0.15E+00    6.8     0.01509030       -31.0001541017 -4.78E-02
  Decoupling Energy:                                               0.0000210770
     7 OT DIIS     0.15E+00    6.8     0.00953823       -31.0321578284 -3.20E-02
  Decoupling Energy:                                               0.0000219540
     8 OT DIIS     0.15E+00    6.9     0.00730204       -31.0424059680 -1.02E-02
  Decoupling Energy:                                               0.0000240305
     9 OT DIIS     0.15E+00    6.8     0.00569028       -31.0484439054 -6.04E-03
  Decoupling Energy:                                               0.0000272086
    10 OT DIIS     0.15E+00    6.8     0.00403918       -31.0538525054 -5.41E-03
  Decoupling Energy:                                               0.0000314786
    11 OT DIIS     0.15E+00    6.8     0.00305693       -31.0565436463 -2.69E-03
  Decoupling Energy:                                               0.0000323167
    12 OT DIIS     0.15E+00    6.8     0.00251896       -31.0577733659 -1.23E-03
  Decoupling Energy:                                               0.0000334988
    13 OT DIIS     0.15E+00    6.8     0.00201839       -31.0588015139 -1.03E-03
  Decoupling Energy:                                               0.0000335978
    14 OT DIIS     0.15E+00    6.8     0.00161657       -31.0594720900 -6.71E-04
  Decoupling Energy:                                               0.0000337447
    15 OT DIIS     0.15E+00    6.8     0.00116774       -31.0600301539 -5.58E-04
  Decoupling Energy:                                               0.0000335510
    16 OT DIIS     0.15E+00    6.8     0.00084138       -31.0603148372 -2.85E-04
  Decoupling Energy:                                               0.0000334218
    17 OT DIIS     0.15E+00    6.8     0.00064685       -31.0604298716 -1.15E-04
  Decoupling Energy:                                               0.0000332891
    18 OT DIIS     0.15E+00    6.8     0.00044208       -31.0605049830 -7.51E-05
  Decoupling Energy:                                               0.0000330007
    19 OT DIIS     0.15E+00    6.8     0.00030429       -31.0605373984 -3.24E-05
  Decoupling Energy:                                               0.0000328622
    20 OT DIIS     0.15E+00    6.8     0.00022349       -31.0605502903 -1.29E-05
  Decoupling Energy:                                               0.0000327116
    21 OT DIIS     0.15E+00    6.8     0.00016516       -31.0605568591 -6.57E-06
  Decoupling Energy:                                               0.0000326606
    22 OT DIIS     0.15E+00    6.8     0.00012019       -31.0605603636 -3.50E-06
  Decoupling Energy:                                               0.0000326562
    23 OT DIIS     0.15E+00    6.8     0.00008817       -31.0605620379 -1.67E-06
  Decoupling Energy:                                               0.0000326853
    24 OT DIIS     0.15E+00    6.8     0.00006205       -31.0605629355 -8.98E-07
  Decoupling Energy:                                               0.0000327172
    25 OT DIIS     0.15E+00    6.8     0.00004745       -31.0605632398 -3.04E-07
  Decoupling Energy:                                               0.0000327344
    26 OT DIIS     0.15E+00    6.8     0.00003902       -31.0605633632 -1.23E-07
  Decoupling Energy:                                               0.0000327386
    27 OT DIIS     0.15E+00    6.8     0.00003279       -31.0605634929 -1.30E-07
  Decoupling Energy:                                               0.0000327372
    28 OT DIIS     0.15E+00    6.8     0.00002744       -31.0605636210 -1.28E-07
  Decoupling Energy:                                               0.0000327299
    29 OT DIIS     0.15E+00    6.8     0.00002173       -31.0605637463 -1.25E-07
  Decoupling Energy:                                               0.0000327248
    30 OT DIIS     0.15E+00    6.8     0.00001586       -31.0605638406 -9.43E-08
  Decoupling Energy:                                               0.0000327237
    31 OT DIIS     0.15E+00    6.8     0.00001229       -31.0605638798 -3.93E-08
  Decoupling Energy:                                               0.0000327265
    32 OT DIIS     0.15E+00    6.8     0.00000974       -31.0605639007 -2.08E-08
  Decoupling Energy:                                               0.0000327295
    33 OT DIIS     0.15E+00    6.8     0.00000827       -31.0605639103 -9.59E-09
  Decoupling Energy:                                               0.0000327324
    34 OT DIIS     0.15E+00    6.8     0.00000694       -31.0605639178 -7.49E-09
  Decoupling Energy:                                               0.0000327343
    35 OT DIIS     0.15E+00    6.8     0.00000521       -31.0605639256 -7.80E-09
  Decoupling Energy:                                               0.0000327343
    36 OT DIIS     0.15E+00    6.8     0.00000407       -31.0605639294 -3.81E-09
  Decoupling Energy:                                               0.0000327333
    37 OT DIIS     0.15E+00    6.8     0.00000332       -31.0605639311 -1.75E-09
  Decoupling Energy:                                               0.0000327324
    38 OT DIIS     0.15E+00    6.8     0.00000273       -31.0605639322 -1.07E-09
  Decoupling Energy:                                               0.0000327320
    39 OT DIIS     0.15E+00    6.8     0.00000232       -31.0605639329 -7.24E-10
  Decoupling Energy:                                               0.0000327321
    40 OT DIIS     0.15E+00    6.8     0.00000192       -31.0605639335 -6.16E-10
  Decoupling Energy:                                               0.0000327323
    41 OT DIIS     0.15E+00    6.8     0.00000158       -31.0605639340 -4.69E-10
  Decoupling Energy:                                               0.0000327327
    42 OT DIIS     0.15E+00    7.0     0.00000126       -31.0605639344 -3.72E-10
  Decoupling Energy:                                               0.0000327329
    43 OT DIIS     0.15E+00    6.8     0.00000099       -31.0605639346 -2.47E-10
  Decoupling Energy:                                               0.0000327329
    44 OT DIIS     0.15E+00    6.8     0.00000085       -31.0605639347 -1.06E-10
  Decoupling Energy:                                               0.0000327328
    45 OT DIIS     0.15E+00    6.8     0.00000074       -31.0605639348 -7.25E-11
  Decoupling Energy:                                               0.0000327327
    46 OT DIIS     0.15E+00    6.8     0.00000064       -31.0605639349 -6.01E-11
  Decoupling Energy:                                               0.0000327328
    47 OT DIIS     0.15E+00    6.8     0.00000056       -31.0605639349 -4.83E-11
  Decoupling Energy:                                               0.0000327329
    48 OT DIIS     0.15E+00    6.8     0.00000046       -31.0605639349 -4.27E-11
  Decoupling Energy:                                               0.0000327330
    49 OT DIIS     0.15E+00    6.8     0.00000038       -31.0605639350 -2.93E-11
  Decoupling Energy:                                               0.0000327331
    50 OT DIIS     0.15E+00    6.8     0.00000031       -31.0605639350 -1.60E-11
  Decoupling Energy:                                               0.0000327331
    51 OT DIIS     0.15E+00    6.8     0.00000027       -31.0605639350 -9.81E-12
  Decoupling Energy:                                               0.0000327331
    52 OT DIIS     0.15E+00    6.8     0.00000023       -31.0605639350 -7.19E-12
  Decoupling Energy:                                               0.0000327331
    53 OT DIIS     0.15E+00    6.8     0.00000019       -31.0605639350 -6.65E-12
  Decoupling Energy:                                               0.0000327331
    54 OT DIIS     0.15E+00    6.8     0.00000015       -31.0605639350 -4.42E-12
  Decoupling Energy:                                               0.0000327331
    55 OT DIIS     0.15E+00    6.8     0.00000013       -31.0605639350 -2.71E-12
  Decoupling Energy:                                               0.0000327331
    56 OT DIIS     0.15E+00    6.8     0.00000011       -31.0605639350 -1.73E-12
  Decoupling Energy:                                               0.0000327331
    57 OT DIIS     0.15E+00    6.8     0.00000009       -31.0605639350 -1.15E-12
  Decoupling Energy:                                               0.0000327331
    58 OT DIIS     0.15E+00    7.3     0.00000008       -31.0605639350 -7.53E-13
  Decoupling Energy:                                               0.0000327331
    59 OT DIIS     0.15E+00    6.9     0.00000008       -31.0605639350 -6.32E-13
  Decoupling Energy:                                               0.0000327330
    60 OT DIIS     0.15E+00    6.8     0.00000007       -31.0605639350 -8.24E-13
  Decoupling Energy:                                               0.0000327330
    61 OT DIIS     0.15E+00    6.8     0.00000006       -31.0605639350 -7.18E-13
  Decoupling Energy:                                               0.0000327330
    62 OT DIIS     0.15E+00    6.8     0.00000005       -31.0605639350 -5.04E-13
  Decoupling Energy:                                               0.0000327330
    63 OT DIIS     0.15E+00    6.8     0.00000004       -31.0605639350 -2.81E-13
  Decoupling Energy:                                               0.0000327330
    64 OT DIIS     0.15E+00    6.8     0.00000003       -31.0605639350 -2.10E-13
  Decoupling Energy:                                               0.0000327330
    65 OT DIIS     0.15E+00    6.8     0.00000003       -31.0605639350 -1.46E-13
  Decoupling Energy:                                               0.0000327330
    66 OT DIIS     0.15E+00    6.8     0.00000002       -31.0605639350 -5.68E-14
  Decoupling Energy:                                               0.0000327330
    67 OT DIIS     0.15E+00    6.8     0.00000002       -31.0605639350 -5.68E-14
  Decoupling Energy:                                               0.0000327330
    68 OT DIIS     0.15E+00    6.8     0.00000002       -31.0605639350 -5.33E-14
  Decoupling Energy:                                               0.0000327330
    69 OT DIIS     0.15E+00    6.8     0.00000001       -31.0605639350 -2.13E-14
  Decoupling Energy:                                               0.0000327330
    70 OT DIIS     0.15E+00    6.8     0.00000001       -31.0605639350 -4.97E-14
  Decoupling Energy:                                               0.0000327330
    71 OT DIIS     0.15E+00    6.8     0.00000001       -31.0605639350  1.78E-14
  Decoupling Energy:                                               0.0000327330
    72 OT DIIS     0.15E+00    6.8     0.00000001       -31.0605639350 -4.26E-14
  Decoupling Energy:                                               0.0000327330
    73 OT DIIS     0.15E+00    6.8     8.9842E-09       -31.0605639350 -1.42E-14

  *** SCF run converged in    73 steps ***


  Electronic density on regular grids:        -16.0000000000        0.0000000000
  Core density on regular grids:               16.0000000000       -0.0000000000
  Total charge density on r-space grids:       -0.0000000000
  Total charge density g-space grids:          -0.0000000000

  Overlap energy of the core charge distribution:               0.00000269253667
  Self energy of the core charge distribution:                -74.77378854274372
  Core Hamiltonian energy:                                     20.25950231654310
  Hartree energy:                                              30.59681895077793
  Exchange-correlation energy:                                 -7.14309935213860

  Total energy:                                               -31.06056393502461

  outer SCF iter =    1 RMS gradient =   0.90E-08 energy =        -31.0605639350
  outer SCF loop converged in   1 iterations or   73 steps

  
 -------------------------------------------------------------------------------
 -                                                                             -
 -                          BANDSTRUCTURE CALCULATION                          -
 -                                                                             -
 -------------------------------------------------------------------------------
  
 Number of occupied molecular orbitals (MOs) = Number of occupied bands        8
 Number of unoccupied (= virtual) MOs = Number of unoccupied bands            31
 Number of Gaussian basis functions for MOs                                   39
  
 -------------------------------------------------------------------------------
 -                                                                             -
 -                                GW CALCULATION                               -
 -                                                                             -
 -------------------------------------------------------------------------------
  
 Input: Number of time/freq. points                                           30
 Input: ω_max for fitting Σ(iω) (eV)                                        10.0
 Input: Filter threshold for sparse tensor operations                    1.0E-07
 Input: Apply Hedin shift                                                      F
 Input: Available memory per MPI process                                  8.0 GB
 
 Input: RI-RS Tikhonov regularization                                   1.00E-04
 Input: AO grid hard cutoff radius                                        8.00 Å
 Input: MPI ranks per atom in Z_lP solve                                      -1
 Input: Keep sparsity in χ/G/W panels                                          T
 Input: GW flavour                                                          G0W0
 
 Input: RI-RS grid optimization activated                                      T
 Input: Initial RI-RS grid                                              CHOLESKY
 Input: RS points per AO function                                        10.0000
 Input: Initial RS candidates per AO function                           250.0000
 Input: Additional Lebedev degree                                              2
 Input: Cholesky selection matrix                                        D_PRIME
 Input: Cholesky candidate domain                                      FULL_ATOM
 Input: Initial radial quadrature                                       GAPW_LOG
 Input: Cutoff radius for atomic clusters                                  3.0 Å
 Input: Maximum grid optimization iterations                                 300
 Input: L-BFGS history size                                                    7
 Input: L-BFGS relative-function factor                              0.00000E+00
 Input: L-BFGS projected-gradient tolerance                          1.00000E-09
 
 Input: AUTO_RI basis optimization activated:                                  T
 Input: AUTO_RI requested RI/AO ratio:                                       2.0
 Input: AUTO_RI frontier orbital window:                                  5.0 eV
 Input: AUTO_RI neighbor radius:                                           3.0 Å
 
 Cutoff radius for the truncated Coulomb operator in RI metric:            7.0 Å
 Regularization parameter of RI                                          0.0E+00
 Regularization parameter of minimax grids                               1.0E-06
 
 AUTO_RI| Number of automatic RI functions for χ, ε, W:                       78
 AUTO_RI| Total RI basis optimization time:                                5.0 s
  Decoupling Energy:                                               0.0000327330
 
 SCF direct band gap (eV)                                                   4.90
 Max. SCF eigval diff. (eV)                                               132.61
 E-Range for minimax grid                                                  27.09
 Number of Padé parameters for analytic continuation:                         16
 
 RI-RS basis radii (Å):
     Kind  Elem     r_AO (Å)     r_RI (Å)
        1    O         7.0817        4.4789
        2    C         8.0299        5.0785
        3    Se        6.4896        4.2867
 
 RI-RS initialization: atomic kind                                             1
 RI-RS initialization: Lebedev degree                                          9
 RI-RS initialization: radial shells                                          86
 RI-RS initialization: candidates per atom                                  3268
 RI-RS initialization: retained points per atom                              130
 RI-RS initialization: atomic kind                                             2
 RI-RS initialization: Lebedev degree                                         11
 RI-RS initialization: radial shells                                          65
 RI-RS initialization: candidates per atom                                  3250
 RI-RS initialization: retained points per atom                              130
 RI-RS initialization: atomic kind                                             3
 RI-RS initialization: Lebedev degree                                          9
 RI-RS initialization: radial shells                                          86
 RI-RS initialization: candidates per atom                                  3268
 RI-RS initialization: retained points per atom                              130
 RI-RS initialization: largest cluster candidate count                      9786
 RI-RS initialization: most pivots in one cluster                            474
 RI-RS initialization: most stored AO values in one cluster               358761
 RI-RS initialization: wall time [s]                                       0.331
 Started RI-RS grid optimization
 RI-RS grid initial normalized error                          1.532051757887E-06
 RI-RS grid optimization completed, execution time:                        7.0 s
 Normalized 3C error:                                                    9.1E-09
 Maximum absolute 3C error:                                              2.8E-04
 Optimized points outside molecular Voronoi cells:                            21 / 390
 Total grid points used for RI-RS:                                           390
 
 RI-RS grid row-blocks of Φ_μ(r_l)                                            15
 RI-RS grid points per block (max)                                            32
 
 Percentage of non-zero matrix elements in Φ_μ(r_l)                     100.00 %
 
 RI-RS memory estimate per MPI process:
   Available memory per process (system)                               237.57 GB
   Required for Z_lP (dense upper bound; actual is sparser)              0.00 GB
   Required for χ, W, Σ panels (peak per panel step)                     0.00 GB
   Required for Z_lP solve peak (D_local+φ, worst-case atom)             0.00 GB
   Worst-case local-grid number of grid points:                              390
   Worst-case memory D_local:                                            0.00 GB
 
 Started computing Z_lP
 Computed Z_lP (MPI rank 0) for atom          1 /  3,    Execution time    0.0 s
 Computed Z_lP (MPI rank 0) for atom          2 /  3,    Execution time    0.0 s
 Computed Z_lP (MPI rank 0) for atom          3 /  3,    Execution time    0.0 s
 Computed Z_lP (all MPI ranks) for all atoms,            Execution time    0.1 s

 Number of batches for χ, Σ matrices                                           1
 
 Percentage of non-zero matrix elements in Z_lP                         100.00 %
 Percentage of non-zero matrix elements in G_ll', χ_ll', W_ll'          100.00 %
 Percentage of non-zero matrix elements in χ_PQ for time point 1        100.00 %
 
 Computed χ(iτ,k=0) for time point            1 / 30,    Execution time    0.0 s
 Computed χ(iτ,k=0) for time point            2 / 30,    Execution time    0.0 s
 Computed χ(iτ,k=0) for time point            3 / 30,    Execution time    0.0 s
 Computed χ(iτ,k=0) for time point            4 / 30,    Execution time    0.0 s
 Computed χ(iτ,k=0) for time point            5 / 30,    Execution time    0.0 s
 Computed χ(iτ,k=0) for time point            6 / 30,    Execution time    0.0 s
 Computed χ(iτ,k=0) for time point            7 / 30,    Execution time    0.0 s
 Computed χ(iτ,k=0) for time point            8 / 30,    Execution time    0.0 s
 Computed χ(iτ,k=0) for time point            9 / 30,    Execution time    0.0 s
 Computed χ(iτ,k=0) for time point           10 / 30,    Execution time    0.0 s
 Computed χ(iτ,k=0) for time point           11 / 30,    Execution time    0.0 s
 Computed χ(iτ,k=0) for time point           12 / 30,    Execution time    0.0 s
 Computed χ(iτ,k=0) for time point           13 / 30,    Execution time    0.0 s
 Computed χ(iτ,k=0) for time point           14 / 30,    Execution time    0.0 s
 Computed χ(iτ,k=0) for time point           15 / 30,    Execution time    0.0 s
 Computed χ(iτ,k=0) for time point           16 / 30,    Execution time    0.0 s
 Computed χ(iτ,k=0) for time point           17 / 30,    Execution time    0.0 s
 Computed χ(iτ,k=0) for time point           18 / 30,    Execution time    0.0 s
 Computed χ(iτ,k=0) for time point           19 / 30,    Execution time    0.0 s
 Computed χ(iτ,k=0) for time point           20 / 30,    Execution time    0.0 s
 Computed χ(iτ,k=0) for time point           21 / 30,    Execution time    0.0 s
 Computed χ(iτ,k=0) for time point           22 / 30,    Execution time    0.0 s
 Computed χ(iτ,k=0) for time point           23 / 30,    Execution time    0.0 s
 Computed χ(iτ,k=0) for time point           24 / 30,    Execution time    0.0 s
 Computed χ(iτ,k=0) for time point           25 / 30,    Execution time    0.0 s
 Computed χ(iτ,k=0) for time point           26 / 30,    Execution time    0.0 s
 Computed χ(iτ,k=0) for time point           27 / 30,    Execution time    0.0 s
 Computed χ(iτ,k=0) for time point           28 / 30,    Execution time    0.0 s
 Computed χ(iτ,k=0) for time point           29 / 30,    Execution time    0.0 s
 Computed χ(iτ,k=0) for time point           30 / 30,    Execution time    0.0 s
 
 Computed W(iτ),                                         Execution time    0.1 s
 
 Computed Σ^x(k=0),                                      Execution time    0.0 s
 
 Computed Σ^c(iτ) for time point              1 / 30,    Execution time    0.0 s
 Computed Σ^c(iτ) for time point              2 / 30,    Execution time    0.0 s
 Computed Σ^c(iτ) for time point              3 / 30,    Execution time    0.0 s
 Computed Σ^c(iτ) for time point              4 / 30,    Execution time    0.0 s
 Computed Σ^c(iτ) for time point              5 / 30,    Execution time    0.0 s
 Computed Σ^c(iτ) for time point              6 / 30,    Execution time    0.0 s
 Computed Σ^c(iτ) for time point              7 / 30,    Execution time    0.0 s
 Computed Σ^c(iτ) for time point              8 / 30,    Execution time    0.0 s
 Computed Σ^c(iτ) for time point              9 / 30,    Execution time    0.0 s
 Computed Σ^c(iτ) for time point             10 / 30,    Execution time    0.0 s
 Computed Σ^c(iτ) for time point             11 / 30,    Execution time    0.0 s
 Computed Σ^c(iτ) for time point             12 / 30,    Execution time    0.0 s
 Computed Σ^c(iτ) for time point             13 / 30,    Execution time    0.0 s
 Computed Σ^c(iτ) for time point             14 / 30,    Execution time    0.0 s
 Computed Σ^c(iτ) for time point             15 / 30,    Execution time    0.0 s
 Computed Σ^c(iτ) for time point             16 / 30,    Execution time    0.0 s
 Computed Σ^c(iτ) for time point             17 / 30,    Execution time    0.0 s
 Computed Σ^c(iτ) for time point             18 / 30,    Execution time    0.0 s
 Computed Σ^c(iτ) for time point             19 / 30,    Execution time    0.0 s
 Computed Σ^c(iτ) for time point             20 / 30,    Execution time    0.0 s
 Computed Σ^c(iτ) for time point             21 / 30,    Execution time    0.0 s
 Computed Σ^c(iτ) for time point             22 / 30,    Execution time    0.0 s
 Computed Σ^c(iτ) for time point             23 / 30,    Execution time    0.0 s
 Computed Σ^c(iτ) for time point             24 / 30,    Execution time    0.0 s
 Computed Σ^c(iτ) for time point             25 / 30,    Execution time    0.0 s
 Computed Σ^c(iτ) for time point             26 / 30,    Execution time    0.0 s
 Computed Σ^c(iτ) for time point             27 / 30,    Execution time    0.0 s
 Computed Σ^c(iτ) for time point             28 / 30,    Execution time    0.0 s
 Computed Σ^c(iτ) for time point             29 / 30,    Execution time    0.0 s
 Computed Σ^c(iτ) for time point             30 / 30,    Execution time    0.0 s
 
 SCF valence band maximum (eV):                                           -7.210
 SCF conduction band minimum (eV):                                        -2.314
 SCF indirect band gap (eV):                                               4.896
 SCF direct band gap (eV):                                                 4.896
 
 G0W0 valence band maximum (eV):                                          -9.738
 G0W0 conduction band minimum (eV):                                        1.664
 G0W0 indirect band gap (eV):                                             11.402
 G0W0 direct band gap (eV):                                               11.402
 
 Hartree-Fock with SCF orbitals valence band maximum (eV):               -10.384
 Hartree-Fock with SCF orbitals conduction band minimum (eV)               2.998
 Hartree-Fock with SCF orbitals indirect band gap (eV):                   13.383
 Hartree-Fock with SCF orbitals direct band gap (eV):                     13.383

 ENERGY| Total FORCE_EVAL ( QS ) energy [hartree]            -31.060563935024614

 -------------------------------------------------------------------------------
 -                                                                             -
 -                                DBCSR STATISTICS                             -
 -                                                                             -
 -------------------------------------------------------------------------------
 COUNTER                                    TOTAL       BLAS       SMM       ACC
 flops     2 x     2 x    22                  528     100.0%      0.0%      0.0%     
 flops     2 x     2 x    28                 4480     100.0%      0.0%      0.0%     
 flops     2 x    22 x     2                26224     100.0%      0.0%      0.0%     
 flops     2 x    32 x    22                33792     100.0%      0.0%      0.0%     
 flops     2 x     2 x    39                52728     100.0%      0.0%      0.0%     
 flops     2 x    28 x     2                66080     100.0%      0.0%      0.0%     
 flops     2 x    13 x     2                73008     100.0%      0.0%      0.0%     
 flops    22 x    22 x     2                96800     100.0%      0.0%      0.0%     
 flops     2 x     2 x    78               101088     100.0%      0.0%      0.0%     
 flops    32 x     2 x    22               101376     100.0%      0.0%      0.0%     
 flops     2 x    22 x    22               104544     100.0%      0.0%      0.0%     
 flops     2 x     2 x    13               162136     100.0%      0.0%      0.0%     
 flops    22 x    28 x     2               241472     100.0%      0.0%      0.0%     
 flops    28 x    22 x     2               246400     100.0%      0.0%      0.0%     
 flops     2 x    28 x    22               280896     100.0%      0.0%      0.0%     
 flops     2 x    22 x    28               280896     100.0%      0.0%      0.0%     
 flops     2 x    32 x    28               301056     100.0%      0.0%      0.0%     
 flops    32 x     2 x    28               387072     100.0%      0.0%      0.0%     
 flops    13 x    13 x     2               492128     100.0%      0.0%      0.0%     
 flops    28 x    28 x     2               614656     100.0%      0.0%      0.0%     
 flops     8 x     8 x     8               666624     100.0%      0.0%      0.0%     
 flops     2 x    28 x    28               724416     100.0%      0.0%      0.0%     
 flops    13 x    13 x     8              1200576     100.0%      0.0%      0.0%     
 flops     8 x     8 x    39              1452672     100.0%      0.0%      0.0%     
 flops     2 x    13 x    13              1454076     100.0%      0.0%      0.0%     
 flops    32 x    22 x     2              1743104     100.0%      0.0%      0.0%     
 flops    13 x     8 x    39              1800864     100.0%      0.0%      0.0%     
 flops    13 x     8 x     8              1817088     100.0%      0.0%      0.0%     
 flops     2 x    22 x    32              1875456     100.0%      0.0%      0.0%     
 flops    32 x     2 x    39              3414528     100.0%      0.0%      0.0%     
 flops     2 x    32 x    39              3414528     100.0%      0.0%      0.0%     
 flops    13 x     8 x    13              3772080     100.0%      0.0%      0.0%     
 flops    32 x    28 x     2              4426240     100.0%      0.0%      0.0%     
 flops     2 x    28 x    32              4759552     100.0%      0.0%      0.0%     
 flops    32 x    13 x     2              4995328     100.0%      0.0%      0.0%     
 flops     2 x    13 x    32              5176704     100.0%      0.0%      0.0%     
 flops    22 x    22 x    32              6319104     100.0%      0.0%      0.0%     
 flops    32 x     2 x    78              6469632     100.0%      0.0%      0.0%     
 flops     2 x    32 x    78              6469632     100.0%      0.0%      0.0%     
 flops    32 x    32 x    22              6488064     100.0%      0.0%      0.0%     
 flops    32 x    22 x    22              6690816     100.0%      0.0%      0.0%     
 flops     2 x    32 x    13             10456576     100.0%      0.0%      0.0%     
 flops    32 x     2 x    13             10662912     100.0%      0.0%      0.0%     
 flops    28 x    22 x    32             16084992     100.0%      0.0%      0.0%     
 flops    22 x    28 x    32             16084992     100.0%      0.0%      0.0%     
 flops    32 x    28 x    22             17977344     100.0%      0.0%      0.0%     
 flops    32 x    22 x    28             17977344     100.0%      0.0%      0.0%     
 flops    32 x    32 x    28             24772608     100.0%      0.0%      0.0%     
 flops    13 x    13 x    32             33648576     100.0%      0.0%      0.0%     
 flops    28 x    28 x    32             40943616     100.0%      0.0%      0.0%     
 flops    32 x    28 x    28             46362624     100.0%      0.0%      0.0%     
 flops    32 x    13 x    13             94250624     100.0%      0.0%      0.0%     
 flops    32 x    22 x    32            123047936     100.0%      0.0%      0.0%     
 flops    32 x    32 x    39            218529792     100.0%      0.0%      0.0%     
 flops    32 x    28 x    32            312639488     100.0%      0.0%      0.0%     
 flops    32 x    13 x    32            350638080     100.0%      0.0%      0.0%     
 flops    32 x    32 x    78            414056448     100.0%      0.0%      0.0%     
 flops    32 x    32 x    13            701222912     100.0%      0.0%      0.0%     
 flops inhomo. stacks                           0       0.0%      0.0%      0.0%
 flops total                         2.528155E+09     100.0%      0.0%      0.0%
 flops max/rank                      2.528155E+09     100.0%      0.0%      0.0%
 matmuls inhomo. stacks                         0       0.0%      0.0%      0.0%
 matmuls total                             105855     100.0%      0.0%      0.0%
 number of processed stacks                 10707     100.0%      0.0%      0.0%
 average stack size                                     9.9       0.0       0.0
 marketing flops                     4.123303E+09
 -------------------------------------------------------------------------------
 # multiplications                           2096
 max memory usage/rank              20.203549E+09
 # max total images/rank                        1
 # max 3D layers                                1
 # MPI messages exchanged                       0
 -------------------------------------------------------------------------------
 -                                                                             -
 -                      DBCSR MESSAGE PASSING PERFORMANCE                      -
 -                                                                             -
 -------------------------------------------------------------------------------
 ROUTINE             CALLS      AVE VOLUME [Bytes]
 MP_Bcast               59                     12.
 MP_Allreduce         9888                     10.
 MP_Alltoall          8589                   3377.
 MP_ISend             8026                    251.
 MP_IRecv             8026                    251.
 -------------------------------------------------------------------------------

 -------------------------------------------------------------------------------
 -                                                                             -
 -                                GRID STATISTICS                              -
 -                                                                             -
 -------------------------------------------------------------------------------
 LP    KERNEL             BACKEND                              COUNT     PERCENT
 4     collocate ortho    CPU                                  14134      49.99%
 4     integrate ortho    CPU                                  14134      49.99%
 0     collocate general  CPU                                      3       0.01%
 -------------------------------------------------------------------------------

 -------------------------------------------------------------------------------
 -                                                                             -
 -                          OFFLOAD MEMPOOL STATISTICS                         -
 -                                                                             -
 -------------------------------------------------------------------------------
 Memory consumption                Number of allocations  Used [MiB]  Size [MiB]
 Host                                                  6         260    21452923
 -------------------------------------------------------------------------------

 MEMORY| Estimated peak process memory [MiB]                               11919

 -------------------------------------------------------------------------------
 -                                                                             -
 -                         MESSAGE PASSING PERFORMANCE                         -
 -                                                                             -
 -------------------------------------------------------------------------------

 ROUTINE             CALLS      AVE VOLUME [Bytes]
 MP_Group                5
 MP_Bcast             1372                   1816.
 MP_Allreduce         5732                    514.
 MP_Sync                86
 MP_comm_split          83
 -------------------------------------------------------------------------------


 -------------------------------------------------------------------------------
 -                                                                             -
 -                           R E F E R E N C E S                               -
 -                                                                             -
 -------------------------------------------------------------------------------
 
 CP2K version 2026.2 (Development Version), the CP2K developers group (2026).
 CP2K is freely available from https://www.cp2k.org/ .
 
 M. Iannuzzi, J. Wilhelm, F. Stein, A. Bussy, H. Elgabarty, D. Golze, A. Hehn, 
 M. Graml, S. Marek, B. Sertcan Gökmen, C. Schran, H. Forbert, R. Z. 
 Khaliullin, A. Kozhevnikov, M. Taillefumier, R. Meli, V. V. Rybkin, M. Brehm, 
 R. Schade, O. Schütt, J. V. Pototschnig, H. Mirhosseini, A. Knüpfer, D. Marx, 
 M. Krack, J. Hutter, T. D. Kühne.
 J. Phys. Chem. B 130, 1237-1310 (2026).
 The CP2K Program Package Made Simple.
 https://doi.org/10.1021/acs.jpcb.5c05851

 M. Graml, K. Zollner, D. Hernangómez-Pérez, P. E. Faria Junior, J. Wilhelm.
 J. Chem. Theory Comput. 20, 2202-2208 (2024).
 Low-scaling GW algorithm applied to twisted transition-metal dichalcogenide 
 heterobilayers.
 https://doi.org/10.1021/acs.jctc.3c01230

 T. D. Kühne, M. Iannuzzi, M. Del Ben, V. V. Rybkin, P. Seewald, F. Stein, T. 
 Laino, R. Z. Khaliullin, O. Schütt, F. Schiffmann, D. Golze, J. Wilhelm, S. 
 Chulkov, M. H. Bani-Hashemian, V. Weber, U. Borstnik, M. Taillefumier, A. S. 
 Jakobovits, A. Lazzaro, H. Pabst, T. Müller, R. Schade, M. Guidon, S. 
 Andermatt, N. Holmberg, G. K. Schenter, A. Hehn, A. Bussy, F. Belleflamme, G. 
 Tabacchi, A. Glöß, M. Lass, I. Bethune, C. J. Mundy, C. Plessl, M. Watkins, 
 J. VandeVondele, M. Krack, J. Hutter.
 J. Chem. Phys. 152, 194103 (2020).
 CP2K: An electronic structure and molecular dynamics software package - 
 Quickstep: Efficient and accurate electronic structure calculations.
 https://doi.org/10.1063/5.0007045

 O. Schuett, P. Messmer, J. Hutter, J. VandeVondele.
 Electronic Structure Calculations on Graphics Processing Units, 173-190 (2016).
 GPU-Accelerated Sparse Matrix-Matrix Multiplication for Linear Scaling Density 
 Functional Theory.
 https://doi.org/10.1002/9781118670712.ch8

 U. Borstnik, J. VandeVondele, V. Weber, J. Hutter.
 Parallel Comput. 40, 47-58 (2014).
 Sparse matrix multiplication: The distributed block-compressed sparse row 
 library.
 https://doi.org/10.1016/j.parco.2014.03.012

 J. VandeVondele, J. Hutter.
 J. Chem. Phys. 127, 114105 (2007).
 Gaussian basis sets for accurate calculations on molecular systems in gas and 
 condensed phases.
 https://doi.org/10.1063/1.2770708

 J. VandeVondele, M. Krack, F. Mohamed, M. Parrinello, T. Chassaing, J. Hutter.
 Comput. Phys. Commun. 167, 103-128 (2005).
 QUICKSTEP: Fast and accurate density functional calculations using a mixed 
 Gaussian and plane waves approach.
 https://doi.org/10.1016/j.cpc.2004.12.014

 M. Krack.
 Theor. Chem. Acc. 114, 145-152 (2005).
 Pseudopotentials for H to Kr optimized for gradient-corrected 
 exchange-correlation functionals.
 https://doi.org/10.1007/s00214-005-0655-y

 M. Frigo, S. G. Johnson.
 Proc. IEEE 93, 216-231 (2005).
 The design and implementation of FFTW3.
 https://doi.org/10.1109/JPROC.2004.840301

 J. VandeVondele, J. Hutter.
 J. Chem. Phys. 118, 4365-4369 (2003).
 An efficient orbital transformation method for electronic structure 
 calculations.
 https://doi.org/10.1063/1.1543154

 C. Hartwigsen, S. Goedecker, J. Hutter.
 Phys. Rev. B 58, 3641-3662 (1998).
 Relativistic separable dual-space Gaussian pseudopotentials from H to Rn.
 https://doi.org/10.1103/PhysRevB.58.3641

 G. Lippert, J. Hutter, M. Parrinello.
 Mol. Phys. 92, 477-487 (1997).
 A hybrid Gaussian and plane wave density functional scheme.
 https://doi.org/10.1080/002689797170220

 S. Goedecker, M. Teter, J. Hutter.
 Phys. Rev. B 54, 1703-1710 (1996).
 Separable dual-space Gaussian pseudopotentials.
 https://doi.org/10.1103/PhysRevB.54.1703

 J. P. Perdew, K. Burke, M. Ernzerhof.
 Phys. Rev. Lett. 77, 3865-3868 (1996).
 Generalized gradient approximation made simple.
 https://doi.org/10.1103/PhysRevLett.77.3865

 P. E. Blöchl.
 J. Chem. Phys. 103, 7422-7428 (1995).
 Electrostatic decoupling of periodic images of plane‐wave‐expanded 
 densities and derived atomic point charges.
 https://doi.org/10.1063/1.470314

 R. H. Byrd, P. H. Lu, J. Nocedal, C. Y. Zhu.
 SIAM J. Sci. Comput. 16, 1190-1208 (1995).
 A Limited Memory Algorithm for Bound Constrained Optimization.
 https://doi.org/10.1137/0916069


 -------------------------------------------------------------------------------
 -                                                                             -
 -                                T I M I N G                                  -
 -                                                                             -
 -------------------------------------------------------------------------------
 SUBROUTINE                       CALLS  ASD         SELF TIME        TOTAL TIME MAXRANK
                                MAXIMUM       AVERAGE  MAXIMUM  AVERAGE  MAXIMUM
 CP2K                                 1  1.0    2.258    2.258  554.024  554.024       0
 qs_energies                          1  2.0    0.031    0.031  543.774  543.774       0
 scf_env_do_scf                       1  3.0    0.013    0.013  519.894  519.894       0
 scf_env_do_scf_inner_loop           73  4.0    9.310    9.310  512.493  512.493       0
 qs_ks_build_kohn_sham_matrix        74  7.0    0.186    0.186  400.483  400.483       0
 qs_ks_update_qs_env                 74  5.0    0.001    0.001  398.847  398.847       0
 rebuild_ks_matrix                   73  6.0    0.000    0.000  398.842  398.842       0
 fft_wrap_pw1pw2                   1252 10.3    0.033    0.033  308.515  308.515       0
 fft_wrap_pw1pw2_300                808 11.8   14.720   14.720  297.788  297.788       0
 qs_vxc_create                       74  8.0    0.203    0.203  270.338  270.338       0
 xc_vxc_pw_create                    73  9.0   11.016   11.016  270.135  270.135       0
 xc_pw_derive                       438 11.0    0.004    0.004  195.149  195.149       0
 fft3d_s                           1253 12.3  183.095  183.095  183.102  183.102       0
 xc_pw_divergence                    73 10.0    0.002    0.002  132.929  132.929       0
 xc_rho_set_and_dset_create          73 10.0    6.011    6.011  122.616  122.616       0
 qs_rho_update_rho_low               74  5.0    0.001    0.001  108.690  108.690       0
 calculate_rho_elec                  74  6.0    7.425    7.425  108.689  108.689       0
 density_rs2pw                       74  7.0    0.011    0.011   66.431   66.431       0
 pw_scatter_s                       662 12.8   58.172   58.172   58.172   58.172       0
 qs_ks_ddapc                         74  8.0    0.002    0.002   44.435   44.435       0
 pw_poisson_solve                    74  8.0    0.001    0.001   41.392   41.392       0
 pw_derive                          660 11.3   40.953   40.953   40.953   40.953       0
 sum_up_and_integrate                74  8.0    0.004    0.004   39.276   39.276       0
 integrate_v_rspace                  74  9.0    0.070    0.070   37.274   37.274       0
 potential_pw2rs                     74 10.0    0.268    0.268   36.854   36.854       0
 grid_collocate_task_list            74  7.0   34.833   34.833   34.833   34.833       0
 pw_gather_s                        590 11.9   30.581   30.581   30.581   30.581       0
 pw_copy                           1180 10.6   29.609   29.609   29.609   29.609       0
 pw_poisson_set                      75  9.0    0.005    0.005   23.092   23.092       0
 pw_integral_ab_c1d_c1d_gs          148  9.5   21.780   21.780   21.780   21.780       0
 qs_energies_properties               1  3.0    0.003    0.003   20.337   20.337       0
 post_scf_bandstructure               1  4.0    0.007    0.007   20.334   20.334       0
 gw                                   1  5.0    0.001    0.001   18.100   18.100       0
 pw_axpy                            745  9.2   16.225   16.225   16.225   16.225       0
 cp_ddapc_apply_CD                   74  9.0    0.008    0.008   15.291   15.291       0
 xc_functional_eval                  73 11.0    0.001    0.001   13.306   13.306       0
 pbe_lda_eval                        73 12.0   13.306   13.306   13.306   13.306       0
 pw_copy_to_array                   590 11.9   10.774   10.774   10.774   10.774       0
 pw_copy_from_array                 662 12.8   10.361   10.361   10.361   10.361       0
 create_and_init_bs_env_for_gw        1  6.0    0.162    0.162   10.266   10.266       0
 fft_wrap_pw1pw2_100                148 10.5    0.694    0.694    9.743    9.743       0
 gw_calc_non_periodic_ri_rs           1  6.0    0.004    0.004    7.833    7.833       0
 init_scf_loop                        1  4.0    0.000    0.000    7.388    7.388       0
 ri_rs_grid_assembler                 1  7.0    0.004    0.004    7.334    7.334       0
 optimize_ri_rs_grid                  1  8.0    0.000    0.000    6.999    6.999       0
 rirs_grid_LBFGS                      1  9.0    0.277    0.277    6.723    6.723       0
 qs_init_subsys                       1  2.0    0.001    0.001    6.679    6.679       0
 qs_env_setup                         1  3.0    0.002    0.002    6.677    6.677       0
 qs_env_rebuild_pw_env                2  3.5    0.000    0.000    6.673    6.673       0
 pw_env_rebuild                       1  5.0    0.002    0.002    6.673    6.673       0
 pw_grid_setup                        5  5.2    0.000    0.000    6.461    6.461       0
 pw_grid_setup_internal               5  6.2    0.081    0.081    6.461    6.461       0
 evaluate_rirs_grid_cluster         657 10.0    1.248    1.248    6.446    6.446       0
 pw_grid_sort                         5  7.2    4.714    4.714    6.081    6.081       0
 pw_zero                            385 10.0    5.818    5.818    5.818    5.818       0
 generate_auto_ri_basis               1  7.0    0.004    0.004    4.995    4.995       0
 pw_scale                           293  9.8    4.651    4.651    4.651    4.651       0
 get_ddapc                           74 10.0    1.180    1.180    4.254    4.254       0
 compute_AA_optimized_RI_basis        1  8.0    0.004    0.004    3.131    3.131       0
 init_scf_run                         1  3.0    0.000    0.000    2.619    2.619       0
 scf_env_initial_rho_setup            1  4.0    0.002    0.002    2.618    2.618       0
 pw_multiply_with                    74  9.0    2.432    2.432    2.432    2.432       0
 rirs_cluster_gradient_coordina     657 11.0    2.319    2.319    2.319    2.319       0
 compute_V_xc                         1  7.0    0.001    0.001    2.210    2.210       0
 create_and_init_bs_env               1  5.0    0.005    0.005    2.210    2.210       0
 prepare_preconditioner               1  5.0    0.000    0.000    1.904    1.904       0
 make_preconditioner                  1  6.0    1.173    1.173    1.904    1.904       0
 transfer_rs2pw                     297  8.0    0.005    0.005    1.643    1.643       0
 transfer_pw2rs                     296 11.0    0.003    0.003    1.598    1.598       0
 compute_M_pq_inv_and_V_pq            1  8.0    0.000    0.000    1.532    1.532       0
 cleanup_scf_loop                     1  5.0    1.510    1.510    1.510    1.510       0
 setup_time_and_frequency_minim       1  7.0    0.213    0.213    1.495    1.495       0
 compute_int_3c                       3  9.0    1.482    1.482    1.487    1.487       0
 check_positive_definite_overla       1  6.0    0.004    0.004    1.462    1.462       0
 sort_shells                          5  8.2    1.366    1.366    1.366    1.366       0
 transfer_rs2pw_300                  75  9.0    1.298    1.298    1.298    1.298       0
 transfer_pw2rs_300                  74 12.0    1.257    1.257    1.257    1.257       0
 create_qs_kind_set                   1  2.0    0.000    0.000    1.245    1.245       0
 read_qs_kind                         3  3.0    0.185    0.185    1.245    1.245       0
 compute_M_pq_inv                     1  9.0    0.284    0.284    1.170    1.170       0
 xc_pw_smooth                        73 10.0    0.000    0.000    1.166    1.166       0
 qs_scf_new_mos                      73  5.0    0.003    0.003    1.122    1.122       0
 qs_scf_loop_do_ot                   73  6.0    0.002    0.002    1.119    1.119       0
 get_RI_basis                         1  7.0    0.004    0.004    1.097    1.097       0
 allocate_matrices                    1  8.0    0.001    0.001    1.089    1.089       0
 create_mat_munu                      1  9.0    0.003    0.003    1.088    1.088       0
 ot_scf_mini                         73  7.0    0.025    0.025    1.083    1.083       0
 parser_read_line                101626  4.0    0.017    0.017    1.060    1.060       0
 compute_B_PQ_transition              9 10.7    0.968    0.968    1.049    1.049       0
 parser_read_line_low               106  5.0    1.043    1.043    1.043    1.043       0
 rirs_cluster_gradient_products     657 11.0    1.022    1.022    1.022    1.022       0
 calculate_first_density_matrix       1  5.0    0.004    0.004    0.998    0.998       0
 compute_B_PQ_AA                      3  9.0    0.003    0.003    0.985    0.985       0
 calculate_atomic_block_dm            1  6.0    0.950    0.950    0.982    0.982       0
 cp_fm_geeig                          2  9.5    0.005    0.005    0.886    0.886       0
 cp_fm_cholesky_decompose            35  9.0    0.861    0.861    0.861    0.861       0
 qs_energies_init_hamiltonians        1  3.0    0.012    0.012    0.851    0.851       0
 fft_wrap_pw1pw2_40                 148 10.5    0.064    0.064    0.777    0.777       0
 cfm_ikp_from_fm_Gamma                3  6.3    0.775    0.775    0.775    0.775       0
 transfer_fm_to_dbcsr                 1  7.0    0.729    0.729    0.730    0.730       0
 get_parameters_from_qs_env           1  6.0    0.713    0.713    0.713    0.713       0
 cp_cfm_cholesky_decompose            2  7.0    0.684    0.684    0.684    0.684       0
 ot_mini                             73  8.0    0.013    0.013    0.660    0.660       0
 qs_env_update_s_mstruct              1  4.0    0.000    0.000    0.652    0.652       0
 pw_pool_give_back_pw              2586  9.8    0.641    0.641    0.641    0.641       0
 distribute_molecules_1d              2  6.5    0.633    0.633    0.633    0.633       0
 rirs_cluster_AO_products           657 11.0    0.577    0.577    0.577    0.577       0
 cp_fm_scale_and_add                901  9.0    0.569    0.569    0.569    0.569       0
 -------------------------------------------------------------------------------

 The number of warnings for this run is : 0
 
 -------------------------------------------------------------------------------
  **** **** ******  **  PROGRAM ENDED AT                 2026-09-16 21:22:12.623
 ***** ** ***  *** **   PROGRAM RAN ON                                  n2cn0535
 **    ****   ******    PROGRAM RAN BY                                  eprop2d1
 ***** **    ** ** **   PROGRAM PROCESS ID                                264932
  **** **  *******  **  PROGRAM STOPPED IN /scratch/hpc-prf-metdyn/eprop2d1_Jan/
                                           53_benchmark_RI_opt/111_GW100_GTH_Leb
                                           edev_riao245_rc3/calculations/80_OCSe
                                           _riao2_r10
