 DBCSR| CPU Multiplication driver                                           XSMM (U)
 DBCSR| Multrec recursion limit                                              512 (U)
 DBCSR| Multiplication stack size                                           1000 (D)
 DBCSR| Maximum elements for images                                    UNLIMITED (U)
 DBCSR| Multiplicative factor virtual images                                   1 (U)
 DBCSR| Use multiplication densification                                       T (D)
 DBCSR| Multiplication size stacks                                             3 (U)
 DBCSR| Use memory pool for CPU allocation                                     F (U)
 DBCSR| Number of 3D layers                                               SINGLE (U)
 DBCSR| Use MPI memory allocation                                              F (U)
 DBCSR| Use RMA algorithm                                                      F (U)
 DBCSR| Use Communication thread                                               T (U)
 DBCSR| Communication thread load                                              0 (D)
 DBCSR| MPI: My process id                                                     2
 DBCSR| MPI: Number of processes                                               4
 DBCSR| OMP: Current number of threads                                        32
 DBCSR| OMP: Max number of threads                                            32
 DBCSR| Split modifier for TAS multiplication algorithm                  1.0E+00 (U)


  **** **** ******  **  PROGRAM STARTED AT               2026-09-16 22:26:25.191
 ***** ** ***  *** **   PROGRAM STARTED ON                              n2cn0388
 **    ****   ******    PROGRAM STARTED BY                              eprop2d1
 ***** **    ** ** **   PROGRAM PROCESS ID                                324756
  **** **  *******  **  PROGRAM STARTED IN /scratch/hpc-prf-metdyn/eprop2d1_Jan/
                                           53_benchmark_RI_opt/111_GW100_GTH_Leb
                                           edev_riao245_rc3/calculations/97_urea
                                           _riao2_r06

 CP2K| version string:                 CP2K version 2026.2 (Development Version)
 CP2K| source code revision number:                                      unknown
 CP2K| cp2kflags: omp libint fftw3 libxc parallel scalapack openblas            
 CP2K| is freely available from                            https://www.cp2k.org/
 CP2K| Program compiled at                                   2026-09-15 17:57:52
 CP2K| Program compiled on                                              n2login6
 CP2K| Program compiled for                                               x86_64
 CP2K| Data directory path    /scratch/hpc-prf-metdyn/eprop2d1_Jan/53_benchmark_
 CP2K| Input file name                                                 input.inp
 
 eprop2d1@n2cn0388 has created rank and process                      0    324756
 
 eprop2d1@n2cn0388 is running                                        1 processes

 GLOBAL| Force Environment number                                              1
 GLOBAL| Basis set file name            /scratch/hpc-prf-metdyn/eprop2d1_Jan/53_
 GLOBAL| Potential file name            /scratch/hpc-prf-metdyn/eprop2d1_Jan/53_
 GLOBAL| MM Potential file name                                     MM_POTENTIAL
 GLOBAL| Coordinate file name                                      __STD_INPUT__
 GLOBAL| Method name                                                        CP2K
 GLOBAL| Project name                               gw100_106_97_urea_a3_leb_r06
 GLOBAL| Run type                                                         ENERGY
 GLOBAL| FFT library                                                       FFTW3
 GLOBAL| Diagonalization library                                       ScaLAPACK
 GLOBAL| Cholesky decomposition library                                ScaLAPACK
 GLOBAL| DGEMM library                                                      BLAS
 GLOBAL| Direct generalized diagonalization requested                          F
 GLOBAL| Orthonormality check for eigenvectors                          DISABLED
 GLOBAL| Matrix multiplication library                                 ScaLAPACK
 GLOBAL| All-to-all communication in single precision                          F
 GLOBAL| Grid backend                                                       AUTO
 GLOBAL| Global print level                                                  LOW
 GLOBAL| MPI I/O enabled                                                       T
 GLOBAL| Total number of message passing processes                             1
 GLOBAL| Number of distributed systems (nodes)                                 1
 GLOBAL| Number of threads for this process                                   32
 GLOBAL| This output is from process                                           0
 GLOBAL| OpenMP stack size per thread (OMP_STACKSIZE)                       128M
 GLOBAL| CPU model name                          AMD EPYC 7763 64-Core Processor

 MEMORY| system memory details [Kb]
 MEMORY|                        rank 0           min           max       average
 MEMORY| MemTotal            263902156     263902156     263902156     263902156
 MEMORY| MemFree             248183112     248183112     248183112     248183112
 MEMORY| Buffers                191556        191556        191556        191556
 MEMORY| Cached               10427060      10427060      10427060      10427060
 MEMORY| Slab                  1513748       1513748       1513748       1513748
 MEMORY| SReclaimable           280708        280708        280708        280708
 MEMORY| MemLikelyFree       259082436     259082436     259082436     259082436


 GENERATE|  Preliminary Number of Bonds generated:                             0
 GENERATE|  Achieved consistency in connectivity generation.

 *******************************************************************************
 *******************************************************************************
 **                                                                           **
 **     #####                         ##              ##                      **
 **    ##   ##            ##          ##              ##                      **
 **   ##     ##                       ##            ######                    **
 **   ##     ##  ##   ##  ##   #####  ##  ##   ####   ##    #####    #####    **
 **   ##     ##  ##   ##  ##  ##      ## ##   ##      ##   ##   ##  ##   ##   **
 **   ##  ## ##  ##   ##  ##  ##      ####     ###    ##   ######   ######    **
 **    ##  ###   ##   ##  ##  ##      ## ##      ##   ##   ##       ##        **
 **     #######   #####   ##   #####  ##  ##  ####    ##    #####   ##        **
 **           ##                                                    ##        **
 **                                                                           **
 **                                                ... make the atoms dance   **
 **                                                                           **
 **            Copyright (C) by CP2K developers group (2000-2026)             **
 **                      J. Chem. Phys. 152, 194103 (2020)                    **
 **                                                                           **
 *******************************************************************************


 TOTAL NUMBERS AND MAXIMUM NUMBERS

  Total number of            - Atomic kinds:                                   4
                             - Atoms:                                          8
                             - Shell sets:                                     8
                             - Shells:                                        36
                             - Primitive Cartesian functions:                 52
                             - Cartesian basis functions:                     80
                             - Spherical basis functions:                     76

  Maximum angular momentum of- Orbital basis functions:                        2
                             - Local part of the GTH pseudopotential:          2
                             - Non-local part of the GTH pseudopotential:      0


 SCF PARAMETERS         Density guess:                                    ATOMIC
                        --------------------------------------------------------
                        max_scf:                                             500
                        max_scf_history:                                       0
                        max_diis:                                              4
                        --------------------------------------------------------
                        eps_scf:                                        1.00E-08
                        eps_scf_history:                                0.00E+00
                        eps_diis:                                       0.00E+00
                        eps_eigval:                                     1.00E-05
                        --------------------------------------------------------
                        level_shift [a.u.]:                             0.000000
                        --------------------------------------------------------
                        Outer loop SCF in use 
                        No variables optimised in outer loop
                        eps_scf                                         1.00E-08
                        max_scf                                               20
                        No outer loop optimization
                        step_size                                       5.00E-01

 Extrapolation method: initial_guess

 Number of electrons:                                                         24
 Number of occupied orbitals:                                                 12
 Number of molecular orbitals:                                                12

 Number of orbital functions:                                                 76
 Number of independent orbital functions:                                     76


 SCF WAVEFUNCTION OPTIMIZATION

  ----------------------------------- OT ---------------------------------------
  Minimizer      : DIIS                : direct inversion
                                         in the iterative subspace
                                         using   7 DIIS vectors
                                         safer DIIS on
  Preconditioner : FULL_KINETIC        : inversion of T + eS
  Lattice FFT   : OFF
  Precond_solver : DEFAULT
  stepsize       :    0.15000000                  energy_gap     :    0.20000000
  eps_taylor     :   0.10000E-15                  max_taylor     :             4
  ----------------------------------- OT ---------------------------------------

  Step     Update method      Time    Convergence         Total energy    Change
  ------------------------------------------------------------------------------
  Decoupling Energy:                                               0.0002210322
     1 OT DIIS     0.15E+00    6.1     0.09633007       -41.2342244970 -4.12E+01
  Decoupling Energy:                                               0.0000596299
     2 OT DIIS     0.15E+00    5.8     0.06338314       -42.1412009286 -9.07E-01
  Decoupling Energy:                                               0.0000333944
     3 OT DIIS     0.15E+00    5.8     0.05321662       -42.5750664944 -4.34E-01
  Decoupling Energy:                                               0.0000320919
     4 OT DIIS     0.15E+00    5.8     0.04096853       -42.9357196754 -3.61E-01
  Decoupling Energy:                                               0.0000430408
     5 OT DIIS     0.15E+00    5.8     0.03262517       -43.2645956790 -3.29E-01
  Decoupling Energy:                                               0.0000535129
     6 OT DIIS     0.15E+00    5.8     0.02664100       -43.4858091087 -2.21E-01
  Decoupling Energy:                                               0.0000641755
     7 OT DIIS     0.15E+00    5.8     0.02030571       -43.6774034195 -1.92E-01
  Decoupling Energy:                                               0.0000796455
     8 OT DIIS     0.15E+00    5.8     0.01460507       -43.8166418570 -1.39E-01
  Decoupling Energy:                                               0.0000906951
     9 OT DIIS     0.15E+00    5.8     0.01024962       -43.8895580698 -7.29E-02
  Decoupling Energy:                                               0.0000960377
    10 OT DIIS     0.15E+00    5.8     0.00703195       -43.9274982063 -3.79E-02
  Decoupling Energy:                                               0.0001020708
    11 OT DIIS     0.15E+00    5.8     0.00483936       -43.9457456168 -1.82E-02
  Decoupling Energy:                                               0.0001034071
    12 OT DIIS     0.15E+00    5.8     0.00342256       -43.9532623957 -7.52E-03
  Decoupling Energy:                                               0.0001040635
    13 OT DIIS     0.15E+00    5.8     0.00262524       -43.9563056708 -3.04E-03
  Decoupling Energy:                                               0.0001057332
    14 OT DIIS     0.15E+00    5.8     0.00203663       -43.9584121522 -2.11E-03
  Decoupling Energy:                                               0.0001070221
    15 OT DIIS     0.15E+00    5.8     0.00160007       -43.9597457502 -1.33E-03
  Decoupling Energy:                                               0.0001082146
    16 OT DIIS     0.15E+00    5.8     0.00122502       -43.9605790523 -8.33E-04
  Decoupling Energy:                                               0.0001092216
    17 OT DIIS     0.15E+00    5.8     0.00092684       -43.9611303349 -5.51E-04
  Decoupling Energy:                                               0.0001100160
    18 OT DIIS     0.15E+00    5.8     0.00067534       -43.9614873861 -3.57E-04
  Decoupling Energy:                                               0.0001104413
    19 OT DIIS     0.15E+00    5.8     0.00052774       -43.9616524133 -1.65E-04
  Decoupling Energy:                                               0.0001106662
    20 OT DIIS     0.15E+00    5.8     0.00044386       -43.9617347061 -8.23E-05
  Decoupling Energy:                                               0.0001108731
    21 OT DIIS     0.15E+00    5.8     0.00035868       -43.9618090253 -7.43E-05
  Decoupling Energy:                                               0.0001110308
    22 OT DIIS     0.15E+00    5.8     0.00029405       -43.9618541080 -4.51E-05
  Decoupling Energy:                                               0.0001111686
    23 OT DIIS     0.15E+00    5.8     0.00024502       -43.9618891628 -3.51E-05
  Decoupling Energy:                                               0.0001112920
    24 OT DIIS     0.15E+00    5.8     0.00021094       -43.9619109629 -2.18E-05
  Decoupling Energy:                                               0.0001113953
    25 OT DIIS     0.15E+00    5.8     0.00017870       -43.9619286748 -1.77E-05
  Decoupling Energy:                                               0.0001114863
    26 OT DIIS     0.15E+00    5.8     0.00015571       -43.9619413831 -1.27E-05
  Decoupling Energy:                                               0.0001115969
    27 OT DIIS     0.15E+00    5.8     0.00013147       -43.9619543493 -1.30E-05
  Decoupling Energy:                                               0.0001116849
    28 OT DIIS     0.15E+00    5.8     0.00011318       -43.9619633806 -9.03E-06
  Decoupling Energy:                                               0.0001117645
    29 OT DIIS     0.15E+00    5.8     0.00009738       -43.9619701313 -6.75E-06
  Decoupling Energy:                                               0.0001118267
    30 OT DIIS     0.15E+00    5.8     0.00008409       -43.9619749272 -4.80E-06
  Decoupling Energy:                                               0.0001118819
    31 OT DIIS     0.15E+00    5.8     0.00007163       -43.9619787213 -3.79E-06
  Decoupling Energy:                                               0.0001119174
    32 OT DIIS     0.15E+00    5.8     0.00006180       -43.9619813880 -2.67E-06
  Decoupling Energy:                                               0.0001119470
    33 OT DIIS     0.15E+00    5.8     0.00005232       -43.9619833152 -1.93E-06
  Decoupling Energy:                                               0.0001119622
    34 OT DIIS     0.15E+00    5.8     0.00004335       -43.9619847432 -1.43E-06
  Decoupling Energy:                                               0.0001119703
    35 OT DIIS     0.15E+00    5.8     0.00003597       -43.9619857270 -9.84E-07
  Decoupling Energy:                                               0.0001119712
    36 OT DIIS     0.15E+00    5.8     0.00003049       -43.9619863327 -6.06E-07
  Decoupling Energy:                                               0.0001119682
    37 OT DIIS     0.15E+00    5.8     0.00002606       -43.9619867142 -3.81E-07
  Decoupling Energy:                                               0.0001119645
    38 OT DIIS     0.15E+00    5.8     0.00002209       -43.9619869968 -2.83E-07
  Decoupling Energy:                                               0.0001119603
    39 OT DIIS     0.15E+00    5.8     0.00001896       -43.9619871650 -1.68E-07
  Decoupling Energy:                                               0.0001119578
    40 OT DIIS     0.15E+00    5.8     0.00001649       -43.9619872942 -1.29E-07
  Decoupling Energy:                                               0.0001119549
    41 OT DIIS     0.15E+00    5.8     0.00001455       -43.9619873751 -8.09E-08
  Decoupling Energy:                                               0.0001119539
    42 OT DIIS     0.15E+00    5.8     0.00001279       -43.9619874423 -6.72E-08
  Decoupling Energy:                                               0.0001119533
    43 OT DIIS     0.15E+00    5.8     0.00001152       -43.9619874909 -4.86E-08
  Decoupling Energy:                                               0.0001119535
    44 OT DIIS     0.15E+00    5.8     0.00001037       -43.9619875373 -4.64E-08
  Decoupling Energy:                                               0.0001119545
    45 OT DIIS     0.15E+00    5.8     0.00000946       -43.9619875722 -3.48E-08
  Decoupling Energy:                                               0.0001119561
    46 OT DIIS     0.15E+00    5.8     0.00000853       -43.9619876073 -3.51E-08
  Decoupling Energy:                                               0.0001119583
    47 OT DIIS     0.15E+00   14.7     0.00000774       -43.9619876344 -2.71E-08
  Decoupling Energy:                                               0.0001119611
    48 OT DIIS     0.15E+00   12.9     0.00000694       -43.9619876616 -2.72E-08
  Decoupling Energy:                                               0.0001119645
    49 OT DIIS     0.15E+00    5.8     0.00000625       -43.9619876814 -1.98E-08
  Decoupling Energy:                                               0.0001119681
    50 OT DIIS     0.15E+00    5.8     0.00000545       -43.9619877007 -1.92E-08
  Decoupling Energy:                                               0.0001119719
    51 OT DIIS     0.15E+00    5.9     0.00000474       -43.9619877154 -1.48E-08
  Decoupling Energy:                                               0.0001119756
    52 OT DIIS     0.15E+00    5.8     0.00000402       -43.9619877280 -1.25E-08
  Decoupling Energy:                                               0.0001119778
    53 OT DIIS     0.15E+00    5.8     0.00000352       -43.9619877352 -7.21E-09
  Decoupling Energy:                                               0.0001119791
    54 OT DIIS     0.15E+00    5.8     0.00000306       -43.9619877404 -5.22E-09
  Decoupling Energy:                                               0.0001119795
    55 OT DIIS     0.15E+00    5.8     0.00000268       -43.9619877438 -3.44E-09
  Decoupling Energy:                                               0.0001119790
    56 OT DIIS     0.15E+00    5.8     0.00000233       -43.9619877466 -2.81E-09
  Decoupling Energy:                                               0.0001119781
    57 OT DIIS     0.15E+00    5.8     0.00000206       -43.9619877484 -1.77E-09
  Decoupling Energy:                                               0.0001119769
    58 OT DIIS     0.15E+00    5.8     0.00000178       -43.9619877499 -1.47E-09
  Decoupling Energy:                                               0.0001119758
    59 OT DIIS     0.15E+00    5.8     0.00000158       -43.9619877509 -9.97E-10
  Decoupling Energy:                                               0.0001119748
    60 OT DIIS     0.15E+00    5.8     0.00000140       -43.9619877517 -7.97E-10
  Decoupling Energy:                                               0.0001119743
    61 OT DIIS     0.15E+00    5.8     0.00000128       -43.9619877522 -5.49E-10
  Decoupling Energy:                                               0.0001119742
    62 OT DIIS     0.15E+00    5.8     0.00000117       -43.9619877527 -4.64E-10
  Decoupling Energy:                                               0.0001119744
    63 OT DIIS     0.15E+00    5.8     0.00000108       -43.9619877531 -4.10E-10
  Decoupling Energy:                                               0.0001119749
    64 OT DIIS     0.15E+00    5.8     0.00000098       -43.9619877535 -4.07E-10
  Decoupling Energy:                                               0.0001119755
    65 OT DIIS     0.15E+00    5.8     0.00000090       -43.9619877538 -3.44E-10
  Decoupling Energy:                                               0.0001119762
    66 OT DIIS     0.15E+00    5.8     0.00000081       -43.9619877542 -3.51E-10
  Decoupling Energy:                                               0.0001119770
    67 OT DIIS     0.15E+00    5.8     0.00000072       -43.9619877545 -3.01E-10
  Decoupling Energy:                                               0.0001119776
    68 OT DIIS     0.15E+00    5.8     0.00000063       -43.9619877548 -2.61E-10
  Decoupling Energy:                                               0.0001119780
    69 OT DIIS     0.15E+00    5.8     0.00000056       -43.9619877549 -1.84E-10
  Decoupling Energy:                                               0.0001119781
    70 OT DIIS     0.15E+00    5.8     0.00000050       -43.9619877551 -1.41E-10
  Decoupling Energy:                                               0.0001119781
    71 OT DIIS     0.15E+00    5.8     0.00000044       -43.9619877552 -1.01E-10
  Decoupling Energy:                                               0.0001119779
    72 OT DIIS     0.15E+00    5.8     0.00000038       -43.9619877553 -8.02E-11
  Decoupling Energy:                                               0.0001119777
    73 OT DIIS     0.15E+00    5.8     0.00000033       -43.9619877553 -5.63E-11
  Decoupling Energy:                                               0.0001119775
    74 OT DIIS     0.15E+00    5.8     0.00000029       -43.9619877554 -4.31E-11
  Decoupling Energy:                                               0.0001119773
    75 OT DIIS     0.15E+00    5.8     0.00000025       -43.9619877554 -2.94E-11
  Decoupling Energy:                                               0.0001119772
    76 OT DIIS     0.15E+00    5.8     0.00000022       -43.9619877554 -2.03E-11
  Decoupling Energy:                                               0.0001119772
    77 OT DIIS     0.15E+00    5.8     0.00000020       -43.9619877554 -1.37E-11
  Decoupling Energy:                                               0.0001119772
    78 OT DIIS     0.15E+00    5.8     0.00000018       -43.9619877554 -1.08E-11
  Decoupling Energy:                                               0.0001119773
    79 OT DIIS     0.15E+00    5.8     0.00000017       -43.9619877554 -8.73E-12
  Decoupling Energy:                                               0.0001119774
    80 OT DIIS     0.15E+00    5.8     0.00000015       -43.9619877555 -8.01E-12
  Decoupling Energy:                                               0.0001119775
    81 OT DIIS     0.15E+00    5.8     0.00000014       -43.9619877555 -7.38E-12
  Decoupling Energy:                                               0.0001119776
    82 OT DIIS     0.15E+00    5.8     0.00000013       -43.9619877555 -6.86E-12
  Decoupling Energy:                                               0.0001119776
    83 OT DIIS     0.15E+00    5.8     0.00000011       -43.9619877555 -6.00E-12
  Decoupling Energy:                                               0.0001119777
    84 OT DIIS     0.15E+00    5.8     0.00000010       -43.9619877555 -5.44E-12
  Decoupling Energy:                                               0.0001119777
    85 OT DIIS     0.15E+00    5.8     0.00000009       -43.9619877555 -4.62E-12
  Decoupling Energy:                                               0.0001119777
    86 OT DIIS     0.15E+00    5.8     0.00000008       -43.9619877555 -3.92E-12
  Decoupling Energy:                                               0.0001119777
    87 OT DIIS     0.15E+00    5.8     0.00000007       -43.9619877555 -3.24E-12
  Decoupling Energy:                                               0.0001119777
    88 OT DIIS     0.15E+00    5.8     0.00000007       -43.9619877555 -2.63E-12
  Decoupling Energy:                                               0.0001119777
    89 OT DIIS     0.15E+00    5.8     0.00000006       -43.9619877555 -1.99E-12
  Decoupling Energy:                                               0.0001119777
    90 OT DIIS     0.15E+00    5.8     0.00000005       -43.9619877555 -1.46E-12
  Decoupling Energy:                                               0.0001119777
    91 OT DIIS     0.15E+00    5.8     0.00000004       -43.9619877555 -9.31E-13
  Decoupling Energy:                                               0.0001119777
    92 OT DIIS     0.15E+00    5.8     0.00000004       -43.9619877555 -7.25E-13
  Decoupling Energy:                                               0.0001119777
    93 OT DIIS     0.15E+00    5.8     0.00000003       -43.9619877555 -4.83E-13
  Decoupling Energy:                                               0.0001119777
    94 OT DIIS     0.15E+00    5.8     0.00000003       -43.9619877555 -3.62E-13
  Decoupling Energy:                                               0.0001119777
    95 OT DIIS     0.15E+00    5.8     0.00000003       -43.9619877555 -2.98E-13
  Decoupling Energy:                                               0.0001119777
    96 OT DIIS     0.15E+00    5.8     0.00000002       -43.9619877555 -2.56E-13
  Decoupling Energy:                                               0.0001119777
    97 OT DIIS     0.15E+00    5.8     0.00000002       -43.9619877555 -1.71E-13
  Decoupling Energy:                                               0.0001119777
    98 OT DIIS     0.15E+00    5.8     0.00000002       -43.9619877555 -1.78E-13
  Decoupling Energy:                                               0.0001119777
    99 OT DIIS     0.15E+00    5.8     0.00000002       -43.9619877555 -2.06E-13
  Decoupling Energy:                                               0.0001119777
   100 OT DIIS     0.15E+00    5.8     0.00000002       -43.9619877555 -1.42E-13
  Decoupling Energy:                                               0.0001119777
   101 OT DIIS     0.15E+00    5.8     0.00000002       -43.9619877555 -1.56E-13
  Decoupling Energy:                                               0.0001119777
   102 OT DIIS     0.15E+00    5.8     0.00000001       -43.9619877555 -1.21E-13
  Decoupling Energy:                                               0.0001119777
   103 OT DIIS     0.15E+00    5.8     0.00000001       -43.9619877555 -1.99E-13
  Decoupling Energy:                                               0.0001119777
   104 OT DIIS     0.15E+00    5.8     0.00000001       -43.9619877555 -1.63E-13
  Decoupling Energy:                                               0.0001119777
   105 OT DIIS     0.15E+00    5.8     0.00000001       -43.9619877555 -1.42E-14
  Decoupling Energy:                                               0.0001119777
   106 OT DIIS     0.15E+00    5.8     9.1004E-09       -43.9619877555 -1.35E-13

  *** SCF run converged in   106 steps ***


  Electronic density on regular grids:        -24.0000000000       -0.0000000000
  Core density on regular grids:               24.0000000000       -0.0000000000
  Total charge density on r-space grids:       -0.0000000000
  Total charge density g-space grids:          -0.0000000000

  Overlap energy of the core charge distribution:               0.00000083685395
  Self energy of the core charge distribution:               -110.20434852073244
  Core Hamiltonian energy:                                     32.86491482304459
  Hartree energy:                                              45.13814744817118
  Exchange-correlation energy:                                -11.76070234283562

  Total energy:                                               -43.96198775549834

  outer SCF iter =    1 RMS gradient =   0.91E-08 energy =        -43.9619877555
  outer SCF loop converged in   1 iterations or  106 steps

  
 -------------------------------------------------------------------------------
 -                                                                             -
 -                          BANDSTRUCTURE CALCULATION                          -
 -                                                                             -
 -------------------------------------------------------------------------------
  
 Number of occupied molecular orbitals (MOs) = Number of occupied bands       12
 Number of unoccupied (= virtual) MOs = Number of unoccupied bands            64
 Number of Gaussian basis functions for MOs                                   76
  
 -------------------------------------------------------------------------------
 -                                                                             -
 -                                GW CALCULATION                               -
 -                                                                             -
 -------------------------------------------------------------------------------
  
 Input: Number of time/freq. points                                           30
 Input: ω_max for fitting Σ(iω) (eV)                                        10.0
 Input: Filter threshold for sparse tensor operations                    1.0E-07
 Input: Apply Hedin shift                                                      F
 Input: Available memory per MPI process                                  8.0 GB
 
 Input: RI-RS Tikhonov regularization                                   1.00E-04
 Input: AO grid hard cutoff radius                                        8.00 Å
 Input: MPI ranks per atom in Z_lP solve                                      -1
 Input: Keep sparsity in χ/G/W panels                                          T
 Input: GW flavour                                                          G0W0
 
 Input: RI-RS grid optimization activated                                      T
 Input: Initial RI-RS grid                                              CHOLESKY
 Input: RS points per AO function                                         6.0000
 Input: Initial RS candidates per AO function                            30.0000
 Input: Additional Lebedev degree                                              2
 Input: Cholesky selection matrix                                        D_PRIME
 Input: Cholesky candidate domain                                      FULL_ATOM
 Input: Initial radial quadrature                                       GAPW_LOG
 Input: Cutoff radius for atomic clusters                                  3.0 Å
 Input: Maximum grid optimization iterations                                 300
 Input: L-BFGS history size                                                    7
 Input: L-BFGS relative-function factor                              0.00000E+00
 Input: L-BFGS projected-gradient tolerance                          1.00000E-09
 
 Input: AUTO_RI basis optimization activated:                                  T
 Input: AUTO_RI requested RI/AO ratio:                                       2.0
 Input: AUTO_RI frontier orbital window:                                  5.0 eV
 Input: AUTO_RI neighbor radius:                                           3.0 Å
 
 Cutoff radius for the truncated Coulomb operator in RI metric:            7.0 Å
 Regularization parameter of RI                                          0.0E+00
 Regularization parameter of minimax grids                               1.0E-06
 
 AUTO_RI| Number of automatic RI functions for χ, ε, W:                      152
 AUTO_RI| Total RI basis optimization time:                                3.2 s
  Decoupling Energy:                                               0.0001119777
 
 SCF direct band gap (eV)                                                   5.38
 Max. SCF eigval diff. (eV)                                               180.77
 E-Range for minimax grid                                                  33.58
 Number of Padé parameters for analytic continuation:                         16
 
 RI-RS basis radii (Å):
     Kind  Elem     r_AO (Å)     r_RI (Å)
        1    O         7.0817        4.4789
        2    C         8.0299        5.0785
        3    N         8.0299        5.0785
        4    H         9.5011        6.0090
 
 RI-RS initialization: atomic kind                                             1
 RI-RS initialization: Lebedev degree                                          9
 RI-RS initialization: radial shells                                          11
 RI-RS initialization: candidates per atom                                   418
 RI-RS initialization: retained points per atom                               78
 RI-RS initialization: atomic kind                                             2
 RI-RS initialization: Lebedev degree                                         11
 RI-RS initialization: radial shells                                           8
 RI-RS initialization: candidates per atom                                   400
 RI-RS initialization: retained points per atom                               78
 RI-RS initialization: atomic kind                                             3
 RI-RS initialization: Lebedev degree                                          9
 RI-RS initialization: radial shells                                          11
 RI-RS initialization: candidates per atom                                   418
 RI-RS initialization: retained points per atom                               78
 RI-RS initialization: atomic kind                                             4
 RI-RS initialization: Lebedev degree                                          7
 RI-RS initialization: radial shells                                           7
 RI-RS initialization: candidates per atom                                   182
 RI-RS initialization: retained points per atom                               36
 RI-RS initialization: largest cluster candidate count                      2382
 RI-RS initialization: most pivots in one cluster                            649
 RI-RS initialization: most stored AO values in one cluster               180766
 RI-RS initialization: wall time [s]                                       0.273
 Started RI-RS grid optimization
 RI-RS grid initial normalized error                          1.297088815157E-03
 RI-RS grid optimization completed, execution time:                       87.9 s
 Normalized 3C error:                                                    7.9E-07
 Maximum absolute 3C error:                                              6.0E-03
 Optimized points outside molecular Voronoi cells:                           144 / 456
 Total grid points used for RI-RS:                                           456
 
 RI-RS grid row-blocks of Φ_μ(r_l)                                            20
 RI-RS grid points per block (max)                                            32
 
 Percentage of non-zero matrix elements in Φ_μ(r_l)                     100.00 %
 
 RI-RS memory estimate per MPI process:
   Available memory per process (system)                               263.46 GB
   Required for Z_lP (dense upper bound; actual is sparser)              0.00 GB
   Required for χ, W, Σ panels (peak per panel step)                     0.01 GB
   Required for Z_lP solve peak (D_local+φ, worst-case atom)             0.00 GB
   Worst-case local-grid number of grid points:                              456
   Worst-case memory D_local:                                            0.00 GB
 
 Started computing Z_lP
 Computed Z_lP (MPI rank 0) for atom          1 /  8,    Execution time    0.0 s
 Computed Z_lP (MPI rank 0) for atom          2 /  8,    Execution time    0.0 s
 Computed Z_lP (MPI rank 0) for atom          3 /  8,    Execution time    0.0 s
 Computed Z_lP (MPI rank 0) for atom          4 /  8,    Execution time    0.0 s
 Computed Z_lP (MPI rank 0) for atom          5 /  8,    Execution time    0.0 s
 Computed Z_lP (MPI rank 0) for atom          6 /  8,    Execution time    0.0 s
 Computed Z_lP (MPI rank 0) for atom          7 /  8,    Execution time    0.0 s
 Computed Z_lP (MPI rank 0) for atom          8 /  8,    Execution time    0.0 s
 Computed Z_lP (all MPI ranks) for all atoms,            Execution time    0.2 s

 Number of batches for χ, Σ matrices                                           1
 
 Percentage of non-zero matrix elements in Z_lP                         100.00 %
 Percentage of non-zero matrix elements in G_ll', χ_ll', W_ll'          100.00 %
 Percentage of non-zero matrix elements in χ_PQ for time point 1        100.00 %
 
 Computed χ(iτ,k=0) for time point            1 / 30,    Execution time    0.0 s
 Computed χ(iτ,k=0) for time point            2 / 30,    Execution time    0.0 s
 Computed χ(iτ,k=0) for time point            3 / 30,    Execution time    0.0 s
 Computed χ(iτ,k=0) for time point            4 / 30,    Execution time    0.0 s
 Computed χ(iτ,k=0) for time point            5 / 30,    Execution time    0.0 s
 Computed χ(iτ,k=0) for time point            6 / 30,    Execution time    0.0 s
 Computed χ(iτ,k=0) for time point            7 / 30,    Execution time    0.0 s
 Computed χ(iτ,k=0) for time point            8 / 30,    Execution time    0.0 s
 Computed χ(iτ,k=0) for time point            9 / 30,    Execution time    0.0 s
 Computed χ(iτ,k=0) for time point           10 / 30,    Execution time    0.0 s
 Computed χ(iτ,k=0) for time point           11 / 30,    Execution time    0.0 s
 Computed χ(iτ,k=0) for time point           12 / 30,    Execution time    0.0 s
 Computed χ(iτ,k=0) for time point           13 / 30,    Execution time    0.0 s
 Computed χ(iτ,k=0) for time point           14 / 30,    Execution time    0.0 s
 Computed χ(iτ,k=0) for time point           15 / 30,    Execution time    0.0 s
 Computed χ(iτ,k=0) for time point           16 / 30,    Execution time    0.0 s
 Computed χ(iτ,k=0) for time point           17 / 30,    Execution time    0.0 s
 Computed χ(iτ,k=0) for time point           18 / 30,    Execution time    0.0 s
 Computed χ(iτ,k=0) for time point           19 / 30,    Execution time    0.0 s
 Computed χ(iτ,k=0) for time point           20 / 30,    Execution time    0.0 s
 Computed χ(iτ,k=0) for time point           21 / 30,    Execution time    0.0 s
 Computed χ(iτ,k=0) for time point           22 / 30,    Execution time    0.0 s
 Computed χ(iτ,k=0) for time point           23 / 30,    Execution time    0.0 s
 Computed χ(iτ,k=0) for time point           24 / 30,    Execution time    0.0 s
 Computed χ(iτ,k=0) for time point           25 / 30,    Execution time    0.0 s
 Computed χ(iτ,k=0) for time point           26 / 30,    Execution time    0.0 s
 Computed χ(iτ,k=0) for time point           27 / 30,    Execution time    0.0 s
 Computed χ(iτ,k=0) for time point           28 / 30,    Execution time    0.0 s
 Computed χ(iτ,k=0) for time point           29 / 30,    Execution time    0.0 s
 Computed χ(iτ,k=0) for time point           30 / 30,    Execution time    0.0 s
 
 Computed W(iτ),                                         Execution time    0.1 s
 
 Computed Σ^x(k=0),                                      Execution time    0.0 s
 
 Computed Σ^c(iτ) for time point              1 / 30,    Execution time    0.0 s
 Computed Σ^c(iτ) for time point              2 / 30,    Execution time    0.0 s
 Computed Σ^c(iτ) for time point              3 / 30,    Execution time    0.0 s
 Computed Σ^c(iτ) for time point              4 / 30,    Execution time    0.0 s
 Computed Σ^c(iτ) for time point              5 / 30,    Execution time    0.0 s
 Computed Σ^c(iτ) for time point              6 / 30,    Execution time    0.0 s
 Computed Σ^c(iτ) for time point              7 / 30,    Execution time    0.0 s
 Computed Σ^c(iτ) for time point              8 / 30,    Execution time    0.0 s
 Computed Σ^c(iτ) for time point              9 / 30,    Execution time    0.0 s
 Computed Σ^c(iτ) for time point             10 / 30,    Execution time    0.0 s
 Computed Σ^c(iτ) for time point             11 / 30,    Execution time    0.0 s
 Computed Σ^c(iτ) for time point             12 / 30,    Execution time    0.0 s
 Computed Σ^c(iτ) for time point             13 / 30,    Execution time    0.0 s
 Computed Σ^c(iτ) for time point             14 / 30,    Execution time    0.0 s
 Computed Σ^c(iτ) for time point             15 / 30,    Execution time    0.0 s
 Computed Σ^c(iτ) for time point             16 / 30,    Execution time    0.0 s
 Computed Σ^c(iτ) for time point             17 / 30,    Execution time    0.0 s
 Computed Σ^c(iτ) for time point             18 / 30,    Execution time    0.0 s
 Computed Σ^c(iτ) for time point             19 / 30,    Execution time    0.0 s
 Computed Σ^c(iτ) for time point             20 / 30,    Execution time    0.0 s
 Computed Σ^c(iτ) for time point             21 / 30,    Execution time    0.0 s
 Computed Σ^c(iτ) for time point             22 / 30,    Execution time    0.0 s
 Computed Σ^c(iτ) for time point             23 / 30,    Execution time    0.0 s
 Computed Σ^c(iτ) for time point             24 / 30,    Execution time    0.0 s
 Computed Σ^c(iτ) for time point             25 / 30,    Execution time    0.0 s
 Computed Σ^c(iτ) for time point             26 / 30,    Execution time    0.0 s
 Computed Σ^c(iτ) for time point             27 / 30,    Execution time    0.0 s
 Computed Σ^c(iτ) for time point             28 / 30,    Execution time    0.0 s
 Computed Σ^c(iτ) for time point             29 / 30,    Execution time    0.0 s
 Computed Σ^c(iτ) for time point             30 / 30,    Execution time    0.0 s
 
 SCF valence band maximum (eV):                                           -6.178
 SCF conduction band minimum (eV):                                        -0.794
 SCF indirect band gap (eV):                                               5.383
 SCF direct band gap (eV):                                                 5.383
 
 G0W0 valence band maximum (eV):                                          -8.770
 G0W0 conduction band minimum (eV):                                        1.134
 G0W0 indirect band gap (eV):                                              9.904
 G0W0 direct band gap (eV):                                                9.904
 
 Hartree-Fock with SCF orbitals valence band maximum (eV):               -11.545
 Hartree-Fock with SCF orbitals conduction band minimum (eV)               1.776
 Hartree-Fock with SCF orbitals indirect band gap (eV):                   13.320
 Hartree-Fock with SCF orbitals direct band gap (eV):                     13.320

 ENERGY| Total FORCE_EVAL ( QS ) energy [hartree]            -43.961987755498342

 -------------------------------------------------------------------------------
 -                                                                             -
 -                                DBCSR STATISTICS                             -
 -                                                                             -
 -------------------------------------------------------------------------------
 COUNTER                                    TOTAL       BLAS       SMM       ACC
 flops    15 x    15 x     4               115200     100.0%      0.0%      0.0%     
 flops     4 x    15 x     4               133920     100.0%      0.0%      0.0%     
 flops     4 x    15 x    15               144000     100.0%      0.0%      0.0%     
 flops    15 x    19 x     4               287280     100.0%      0.0%      0.0%     
 flops    19 x    15 x     4               291840     100.0%      0.0%      0.0%     
 flops    15 x    22 x     4               330000     100.0%      0.0%      0.0%     
 flops    22 x    15 x     4               337920     100.0%      0.0%      0.0%     
 flops     4 x    19 x     4               339872     100.0%      0.0%      0.0%     
 flops     4 x     6 x     4               364032     100.0%      0.0%      0.0%     
 flops     4 x    19 x    15               364800     100.0%      0.0%      0.0%     
 flops     4 x    15 x    19               364800     100.0%      0.0%      0.0%     
 flops     4 x    22 x     4               393536     100.0%      0.0%      0.0%     
 flops     4 x    22 x    15               422400     100.0%      0.0%      0.0%     
 flops     4 x    15 x    22               422400     100.0%      0.0%      0.0%     
 flops    15 x    15 x    14               434700     100.0%      0.0%      0.0%     
 flops     4 x    15 x    14               482160     100.0%      0.0%      0.0%     
 flops    14 x    15 x     4               492240     100.0%      0.0%      0.0%     
 flops    14 x    15 x    15               504000     100.0%      0.0%      0.0%     
 flops     6 x     6 x     4               525024     100.0%      0.0%      0.0%     
 flops     4 x     4 x    76               705280     100.0%      0.0%      0.0%     
 flops     4 x     4 x     6               708480     100.0%      0.0%      0.0%     
 flops    19 x    19 x     4               727776     100.0%      0.0%      0.0%     
 flops     4 x    13 x     4               792896     100.0%      0.0%      0.0%     
 flops    19 x    22 x     4               836000     100.0%      0.0%      0.0%     
 flops    22 x    19 x     4               842688     100.0%      0.0%      0.0%     
 flops     4 x    19 x    19               924160     100.0%      0.0%      0.0%     
 flops     6 x     6 x    12               924480     100.0%      0.0%      0.0%     
 flops    22 x    22 x     4               968000     100.0%      0.0%      0.0%     
 flops     4 x    19 x    22              1070080     100.0%      0.0%      0.0%     
 flops     4 x    22 x    19              1070080     100.0%      0.0%      0.0%     
 flops    15 x    19 x    14              1085280     100.0%      0.0%      0.0%     
 flops    19 x    15 x    14              1101240     100.0%      0.0%      0.0%     
 flops    13 x     6 x     4              1146288     100.0%      0.0%      0.0%     
 flops     6 x    13 x     4              1152528     100.0%      0.0%      0.0%     
 flops     4 x    19 x    14              1223600     100.0%      0.0%      0.0%     
 flops     4 x    22 x    22              1239040     100.0%      0.0%      0.0%     
 flops    14 x    19 x     4              1253392     100.0%      0.0%      0.0%     
 flops    15 x    22 x    14              1256640     100.0%      0.0%      0.0%     
 flops    14 x     6 x     4              1269408     100.0%      0.0%      0.0%     
 flops    22 x    15 x    14              1275120     100.0%      0.0%      0.0%     
 flops    14 x    19 x    15              1276800     100.0%      0.0%      0.0%     
 flops    14 x    15 x    19              1276800     100.0%      0.0%      0.0%     
 flops     4 x     6 x    14              1312416     100.0%      0.0%      0.0%     
 flops     4 x    22 x    14              1419264     100.0%      0.0%      0.0%     
 flops    14 x    22 x     4              1446368     100.0%      0.0%      0.0%     
 flops     4 x     6 x     6              1460736     100.0%      0.0%      0.0%     
 flops    14 x    22 x    15              1478400     100.0%      0.0%      0.0%     
 flops    14 x    15 x    22              1478400     100.0%      0.0%      0.0%     
 flops     4 x     4 x   152              1556480     100.0%      0.0%      0.0%     
 flops     4 x     4 x    13              1557920     100.0%      0.0%      0.0%     
 flops    13 x     6 x    12              1602432     100.0%      0.0%      0.0%     
 flops     6 x    13 x    12              1602432     100.0%      0.0%      0.0%     
 flops    14 x    15 x    14              1769880     100.0%      0.0%      0.0%     
 flops     6 x     6 x    14              1891008     100.0%      0.0%      0.0%     
 flops    13 x    13 x     4              2517424     100.0%      0.0%      0.0%     
 flops     4 x    14 x     6              2536800     100.0%      0.0%      0.0%     
 flops     4 x    14 x    76              2587648     100.0%      0.0%      0.0%     
 flops    14 x     4 x    76              2587648     100.0%      0.0%      0.0%     
 flops    14 x     4 x     6              2588544     100.0%      0.0%      0.0%     
 flops    19 x    19 x    14              2749376     100.0%      0.0%      0.0%     
 flops    14 x    13 x     4              2764944     100.0%      0.0%      0.0%     
 flops     4 x    13 x    14              2914912     100.0%      0.0%      0.0%     
 flops    15 x    15 x    32              2923200     100.0%      0.0%      0.0%     
 flops     6 x    12 x     6              3082752     100.0%      0.0%      0.0%     
 flops    22 x    19 x    14              3183488     100.0%      0.0%      0.0%     
 flops    19 x    22 x    14              3183488     100.0%      0.0%      0.0%     
 flops     4 x    13 x     6              3207360     100.0%      0.0%      0.0%     
 flops     4 x     6 x    13              3218592     100.0%      0.0%      0.0%     
 flops    14 x    19 x    19              3234560     100.0%      0.0%      0.0%     
 flops    12 x    12 x    12              3276288     100.0%      0.0%      0.0%     
 flops    32 x    15 x     4              3344640     100.0%      0.0%      0.0%     
 flops     4 x    15 x    32              3352320     100.0%      0.0%      0.0%     
 flops    32 x    15 x    15              3456000     100.0%      0.0%      0.0%     
 flops     6 x    12 x    12              3656448     100.0%      0.0%      0.0%     
 flops    22 x    22 x    14              3686144     100.0%      0.0%      0.0%     
 flops    14 x    19 x    22              3745280     100.0%      0.0%      0.0%     
 flops    14 x    22 x    19              3745280     100.0%      0.0%      0.0%     
 flops    13 x     6 x    14              4097184     100.0%      0.0%      0.0%     
 flops     6 x    13 x    14              4114656     100.0%      0.0%      0.0%     
 flops    14 x    22 x    22              4336640     100.0%      0.0%      0.0%     
 flops    13 x    13 x    12              4339920     100.0%      0.0%      0.0%     
 flops    14 x    19 x    14              4498592     100.0%      0.0%      0.0%     
 flops    14 x     6 x    14              4633440     100.0%      0.0%      0.0%     
 flops     6 x    12 x    76              4684032     100.0%      0.0%      0.0%     
 flops    14 x     6 x     6              5128704     100.0%      0.0%      0.0%     
 flops    14 x    22 x    14              5234768     100.0%      0.0%      0.0%     
 flops     4 x    14 x   152              5447680     100.0%      0.0%      0.0%     
 flops    14 x     4 x   152              5447680     100.0%      0.0%      0.0%     
 flops     4 x    14 x    13              5531344     100.0%      0.0%      0.0%     
 flops    14 x     4 x    13              5672576     100.0%      0.0%      0.0%     
 flops    13 x    12 x     6              6679296     100.0%      0.0%      0.0%     
 flops     6 x    12 x    13              6679296     100.0%      0.0%      0.0%     
 flops     4 x    13 x    13              7006064     100.0%      0.0%      0.0%     
 flops    15 x    19 x    32              7368960     100.0%      0.0%      0.0%     
 flops    19 x    15 x    32              7405440     100.0%      0.0%      0.0%     
 flops    13 x    12 x    12              7922304     100.0%      0.0%      0.0%     
 flops    32 x    19 x     4              8531456     100.0%      0.0%      0.0%     
 flops     4 x    19 x    32              8531456     100.0%      0.0%      0.0%     
 flops    15 x    22 x    32              8553600     100.0%      0.0%      0.0%     
 flops    22 x    15 x    32              8574720     100.0%      0.0%      0.0%     
 flops    32 x    19 x    15              8755200     100.0%      0.0%      0.0%     
 flops    32 x    15 x    19              8755200     100.0%      0.0%      0.0%     
 flops    32 x     6 x     4              8910336     100.0%      0.0%      0.0%     
 flops    13 x    13 x    14              8915088     100.0%      0.0%      0.0%     
 flops    14 x    14 x    76              9056768     100.0%      0.0%      0.0%     
 flops    12 x    12 x    76              9258624     100.0%      0.0%      0.0%     
 flops    14 x    14 x     6              9285696     100.0%      0.0%      0.0%     
 flops     4 x     6 x    32              9288192     100.0%      0.0%      0.0%     
 flops    32 x    22 x     4              9850368     100.0%      0.0%      0.0%     
 flops     4 x    22 x    32              9878528     100.0%      0.0%      0.0%     
 flops    32 x    22 x    15             10137600     100.0%      0.0%      0.0%     
 flops    32 x    15 x    22             10137600     100.0%      0.0%      0.0%     
 flops    13 x    12 x    76             10148736     100.0%      0.0%      0.0%     
 flops    14 x    13 x    14             10268440     100.0%      0.0%      0.0%     
 flops    14 x     6 x    13             11321856     100.0%      0.0%      0.0%     
 flops    14 x    13 x     6             11321856     100.0%      0.0%      0.0%     
 flops    32 x    15 x    14             11961600     100.0%      0.0%      0.0%     
 flops    14 x    15 x    32             12284160     100.0%      0.0%      0.0%     
 flops     6 x     6 x    32             13178880     100.0%      0.0%      0.0%     
 flops    13 x    12 x    13             14471808     100.0%      0.0%      0.0%     
 flops     4 x    32 x     6             17381376     100.0%      0.0%      0.0%     
 flops    32 x     4 x     6             17685504     100.0%      0.0%      0.0%     
 flops    32 x     4 x    76             17685504     100.0%      0.0%      0.0%     
 flops     4 x    32 x    76             17704960     100.0%      0.0%      0.0%     
 flops    19 x    19 x    32             18668032     100.0%      0.0%      0.0%     
 flops    14 x    14 x   152             19066880     100.0%      0.0%      0.0%     
 flops    32 x    13 x     4             19395584     100.0%      0.0%      0.0%     
 flops    14 x    14 x    13             20231120     100.0%      0.0%      0.0%     
 flops     4 x    13 x    32             20450560     100.0%      0.0%      0.0%     
 flops    22 x    19 x    32             21615616     100.0%      0.0%      0.0%     
 flops    19 x    22 x    32             21669120     100.0%      0.0%      0.0%     
 flops    32 x    19 x    19             22179840     100.0%      0.0%      0.0%     
 flops    14 x    13 x    13             24568544     100.0%      0.0%      0.0%     
 flops    22 x    22 x    32             25090560     100.0%      0.0%      0.0%     
 flops    32 x    19 x    22             25681920     100.0%      0.0%      0.0%     
 flops    32 x    22 x    19             25681920     100.0%      0.0%      0.0%     
 flops    13 x     6 x    32             28554240     100.0%      0.0%      0.0%     
 flops     6 x    13 x    32             28853760     100.0%      0.0%      0.0%     
 flops    32 x    22 x    22             29736960     100.0%      0.0%      0.0%     
 flops    32 x    19 x    14             30489984     100.0%      0.0%      0.0%     
 flops    14 x    19 x    32             31290112     100.0%      0.0%      0.0%     
 flops    32 x     6 x    14             32481792     100.0%      0.0%      0.0%     
 flops    14 x     6 x    32             32755968     100.0%      0.0%      0.0%     
 flops    32 x     6 x     6             35159040     100.0%      0.0%      0.0%     
 flops    32 x    22 x    14             35481600     100.0%      0.0%      0.0%     
 flops    14 x    22 x    32             36250368     100.0%      0.0%      0.0%     
 flops    32 x     4 x   152             37355520     100.0%      0.0%      0.0%     
 flops     4 x    32 x   152             37355520     100.0%      0.0%      0.0%     
 flops     4 x    32 x    13             37919232     100.0%      0.0%      0.0%     
 flops    32 x     4 x    13             38774528     100.0%      0.0%      0.0%     
 flops    32 x    14 x    76             62103552     100.0%      0.0%      0.0%     
 flops    14 x    32 x    76             62103552     100.0%      0.0%      0.0%     
 flops    13 x    13 x    32             62516480     100.0%      0.0%      0.0%     
 flops    32 x    14 x     6             63307776     100.0%      0.0%      0.0%     
 flops    14 x    32 x     6             63630336     100.0%      0.0%      0.0%     
 flops    32 x    13 x    14             71949696     100.0%      0.0%      0.0%     
 flops    14 x    13 x    32             72019584     100.0%      0.0%      0.0%     
 flops    32 x    13 x     6             77615616     100.0%      0.0%      0.0%     
 flops    32 x     6 x    13             77635584     100.0%      0.0%      0.0%     
 flops    32 x    15 x    32             83650560     100.0%      0.0%      0.0%     
 flops    32 x    14 x   152            130744320     100.0%      0.0%      0.0%     
 flops    14 x    32 x   152            130744320     100.0%      0.0%      0.0%     
 flops    32 x    14 x    13            138401536     100.0%      0.0%      0.0%     
 flops    14 x    32 x    13            138611200     100.0%      0.0%      0.0%     
 flops    32 x    13 x    13            168470016     100.0%      0.0%      0.0%     
 flops    32 x    19 x    32            212848640     100.0%      0.0%      0.0%     
 flops    32 x     6 x    32            228753408     100.0%      0.0%      0.0%     
 flops    32 x    22 x    32            246996992     100.0%      0.0%      0.0%     
 flops    32 x    32 x    76            425852928     100.0%      0.0%      0.0%     
 flops    32 x    32 x     6            433668096     100.0%      0.0%      0.0%     
 flops    32 x    13 x    32            502368256     100.0%      0.0%      0.0%     
 flops    32 x    32 x   152            896532480     100.0%      0.0%      0.0%     
 flops    32 x    32 x    13            948453376     100.0%      0.0%      0.0%     
 flops inhomo. stacks                  1893602304     100.0%      0.0%      0.0%
 flops total                         8.468398E+09     100.0%      0.0%      0.0%
 flops max/rank                      8.468398E+09     100.0%      0.0%      0.0%
 matmuls inhomo. stacks                     50944     100.0%      0.0%      0.0%
 matmuls total                             583982     100.0%      0.0%      0.0%
 number of processed stacks                 42148     100.0%      0.0%      0.0%
 average stack size                                    13.9       0.0       0.0
 marketing flops                    11.937081E+09
 -------------------------------------------------------------------------------
 # multiplications                           2824
 max memory usage/rank              44.195418E+09
 # max total images/rank                        1
 # max 3D layers                                1
 # MPI messages exchanged                       0
 -------------------------------------------------------------------------------
 -                                                                             -
 -                      DBCSR MESSAGE PASSING PERFORMANCE                      -
 -                                                                             -
 -------------------------------------------------------------------------------
 ROUTINE             CALLS      AVE VOLUME [Bytes]
 MP_Bcast              174                     12.
 MP_Allreduce        13624                     11.
 MP_Alltoall         10965                  10079.
 MP_ISend            10958                    622.
 MP_IRecv            10958                    622.
 -------------------------------------------------------------------------------

 -------------------------------------------------------------------------------
 -                                                                             -
 -                                GRID STATISTICS                              -
 -                                                                             -
 -------------------------------------------------------------------------------
 LP    KERNEL             BACKEND                              COUNT     PERCENT
 3     collocate ortho    CPU                                  67838      21.86%
 3     integrate ortho    CPU                                  67838      21.86%
 2     collocate ortho    CPU                                  49755      16.03%
 2     integrate ortho    CPU                                  49755      16.03%
 4     collocate ortho    CPU                                  37557      12.10%
 4     integrate ortho    CPU                                  37557      12.10%
 0     collocate general  CPU                                      8       0.00%
 -------------------------------------------------------------------------------

 -------------------------------------------------------------------------------
 -                                                                             -
 -                          OFFLOAD MEMPOOL STATISTICS                         -
 -                                                                             -
 -------------------------------------------------------------------------------
 Memory consumption                Number of allocations  Used [MiB]  Size [MiB]
 Host                                                  6         260    22199575
 -------------------------------------------------------------------------------

 MEMORY| Estimated peak process memory [MiB]                               15426

 -------------------------------------------------------------------------------
 -                                                                             -
 -                         MESSAGE PASSING PERFORMANCE                         -
 -                                                                             -
 -------------------------------------------------------------------------------

 ROUTINE             CALLS      AVE VOLUME [Bytes]
 MP_Group                5
 MP_Bcast             2900                    999.
 MP_Allreduce        10398                    545.
 MP_Sync               121
 MP_comm_split         118
 -------------------------------------------------------------------------------


 -------------------------------------------------------------------------------
 -                                                                             -
 -                           R E F E R E N C E S                               -
 -                                                                             -
 -------------------------------------------------------------------------------
 
 CP2K version 2026.2 (Development Version), the CP2K developers group (2026).
 CP2K is freely available from https://www.cp2k.org/ .
 
 M. Iannuzzi, J. Wilhelm, F. Stein, A. Bussy, H. Elgabarty, D. Golze, A. Hehn, 
 M. Graml, S. Marek, B. Sertcan Gökmen, C. Schran, H. Forbert, R. Z. 
 Khaliullin, A. Kozhevnikov, M. Taillefumier, R. Meli, V. V. Rybkin, M. Brehm, 
 R. Schade, O. Schütt, J. V. Pototschnig, H. Mirhosseini, A. Knüpfer, D. Marx, 
 M. Krack, J. Hutter, T. D. Kühne.
 J. Phys. Chem. B 130, 1237-1310 (2026).
 The CP2K Program Package Made Simple.
 https://doi.org/10.1021/acs.jpcb.5c05851

 M. Graml, K. Zollner, D. Hernangómez-Pérez, P. E. Faria Junior, J. Wilhelm.
 J. Chem. Theory Comput. 20, 2202-2208 (2024).
 Low-scaling GW algorithm applied to twisted transition-metal dichalcogenide 
 heterobilayers.
 https://doi.org/10.1021/acs.jctc.3c01230

 T. D. Kühne, M. Iannuzzi, M. Del Ben, V. V. Rybkin, P. Seewald, F. Stein, T. 
 Laino, R. Z. Khaliullin, O. Schütt, F. Schiffmann, D. Golze, J. Wilhelm, S. 
 Chulkov, M. H. Bani-Hashemian, V. Weber, U. Borstnik, M. Taillefumier, A. S. 
 Jakobovits, A. Lazzaro, H. Pabst, T. Müller, R. Schade, M. Guidon, S. 
 Andermatt, N. Holmberg, G. K. Schenter, A. Hehn, A. Bussy, F. Belleflamme, G. 
 Tabacchi, A. Glöß, M. Lass, I. Bethune, C. J. Mundy, C. Plessl, M. Watkins, 
 J. VandeVondele, M. Krack, J. Hutter.
 J. Chem. Phys. 152, 194103 (2020).
 CP2K: An electronic structure and molecular dynamics software package - 
 Quickstep: Efficient and accurate electronic structure calculations.
 https://doi.org/10.1063/5.0007045

 O. Schuett, P. Messmer, J. Hutter, J. VandeVondele.
 Electronic Structure Calculations on Graphics Processing Units, 173-190 (2016).
 GPU-Accelerated Sparse Matrix-Matrix Multiplication for Linear Scaling Density 
 Functional Theory.
 https://doi.org/10.1002/9781118670712.ch8

 U. Borstnik, J. VandeVondele, V. Weber, J. Hutter.
 Parallel Comput. 40, 47-58 (2014).
 Sparse matrix multiplication: The distributed block-compressed sparse row 
 library.
 https://doi.org/10.1016/j.parco.2014.03.012

 J. VandeVondele, J. Hutter.
 J. Chem. Phys. 127, 114105 (2007).
 Gaussian basis sets for accurate calculations on molecular systems in gas and 
 condensed phases.
 https://doi.org/10.1063/1.2770708

 J. VandeVondele, M. Krack, F. Mohamed, M. Parrinello, T. Chassaing, J. Hutter.
 Comput. Phys. Commun. 167, 103-128 (2005).
 QUICKSTEP: Fast and accurate density functional calculations using a mixed 
 Gaussian and plane waves approach.
 https://doi.org/10.1016/j.cpc.2004.12.014

 M. Krack.
 Theor. Chem. Acc. 114, 145-152 (2005).
 Pseudopotentials for H to Kr optimized for gradient-corrected 
 exchange-correlation functionals.
 https://doi.org/10.1007/s00214-005-0655-y

 M. Frigo, S. G. Johnson.
 Proc. IEEE 93, 216-231 (2005).
 The design and implementation of FFTW3.
 https://doi.org/10.1109/JPROC.2004.840301

 J. VandeVondele, J. Hutter.
 J. Chem. Phys. 118, 4365-4369 (2003).
 An efficient orbital transformation method for electronic structure 
 calculations.
 https://doi.org/10.1063/1.1543154

 C. Hartwigsen, S. Goedecker, J. Hutter.
 Phys. Rev. B 58, 3641-3662 (1998).
 Relativistic separable dual-space Gaussian pseudopotentials from H to Rn.
 https://doi.org/10.1103/PhysRevB.58.3641

 G. Lippert, J. Hutter, M. Parrinello.
 Mol. Phys. 92, 477-487 (1997).
 A hybrid Gaussian and plane wave density functional scheme.
 https://doi.org/10.1080/002689797170220

 S. Goedecker, M. Teter, J. Hutter.
 Phys. Rev. B 54, 1703-1710 (1996).
 Separable dual-space Gaussian pseudopotentials.
 https://doi.org/10.1103/PhysRevB.54.1703

 J. P. Perdew, K. Burke, M. Ernzerhof.
 Phys. Rev. Lett. 77, 3865-3868 (1996).
 Generalized gradient approximation made simple.
 https://doi.org/10.1103/PhysRevLett.77.3865

 P. E. Blöchl.
 J. Chem. Phys. 103, 7422-7428 (1995).
 Electrostatic decoupling of periodic images of plane‐wave‐expanded 
 densities and derived atomic point charges.
 https://doi.org/10.1063/1.470314

 R. H. Byrd, P. H. Lu, J. Nocedal, C. Y. Zhu.
 SIAM J. Sci. Comput. 16, 1190-1208 (1995).
 A Limited Memory Algorithm for Bound Constrained Optimization.
 https://doi.org/10.1137/0916069


 -------------------------------------------------------------------------------
 -                                                                             -
 -                                T I M I N G                                  -
 -                                                                             -
 -------------------------------------------------------------------------------
 SUBROUTINE                       CALLS  ASD         SELF TIME        TOTAL TIME MAXRANK
                                MAXIMUM       AVERAGE  MAXIMUM  AVERAGE  MAXIMUM
 CP2K                                 1  1.0    0.134    0.134  744.367  744.367       0
 qs_energies                          1  2.0    0.003    0.003  734.633  734.633       0
 scf_env_do_scf                       1  3.0    0.000    0.000  637.032  637.032       0
 scf_env_do_scf_inner_loop          106  4.0    0.433    0.433  630.948  630.948       0
 qs_ks_build_kohn_sham_matrix       107  7.0    0.162    0.162  486.685  486.685       0
 qs_ks_update_qs_env                107  5.0    0.001    0.001  485.366  485.366       0
 rebuild_ks_matrix                  106  6.0    0.000    0.000  485.354  485.354       0
 fft_wrap_pw1pw2                   1813 10.3    0.044    0.044  392.503  392.503       0
 fft_wrap_pw1pw2_300               1171 11.8   22.010   22.010  380.329  380.329       0
 qs_vxc_create                      107  8.0    1.151    1.151  341.068  341.068       0
 xc_vxc_pw_create                   106  9.0   17.817   17.817  339.918  339.918       0
 xc_pw_derive                       636 11.0    0.004    0.004  235.435  235.435       0
 fft3d_s                           1814 12.3  221.674  221.674  221.689  221.689       0
 xc_pw_divergence                   106 10.0    0.346    0.346  162.570  162.570       0
 xc_rho_set_and_dset_create         106 10.0    8.978    8.978  153.306  153.306       0
 qs_rho_update_rho_low              107  5.0    0.035    0.035  147.040  147.040       0
 calculate_rho_elec                 107  6.0   11.244   11.244  147.005  147.005       0
 qs_energies_properties               1  3.0    0.000    0.000   95.189   95.189       0
 post_scf_bandstructure               1  4.0    0.000    0.000   95.189   95.189       0
 gw                                   1  5.0    0.000    0.000   95.159   95.159       0
 gw_calc_non_periodic_ri_rs           1  6.0    0.000    0.000   90.272   90.272       0
 ri_rs_grid_assembler                 1  7.0    0.001    0.001   88.158   88.158       0
 optimize_ri_rs_grid                  1  8.0    0.000    0.000   87.884   87.884       0
 density_rs2pw                      107  7.0    1.461    1.461   84.949   84.949       0
 rirs_grid_LBFGS                      1  9.0    1.304    1.304   84.324   84.324       0
 evaluate_rirs_grid_cluster        2408 10.0   10.498   10.498   83.019   83.019       0
 pw_scatter_s                       959 12.8   81.004   81.004   81.004   81.004       0
 qs_ks_ddapc                        107  8.0    0.004    0.004   52.688   52.688       0
 grid_collocate_task_list           107  7.0   50.812   50.812   50.812   50.812       0
 sum_up_and_integrate               107  8.0    1.694    1.694   50.122   50.122       0
 integrate_v_rspace                 107  9.0    0.007    0.007   46.192   46.192       0
 potential_pw2rs                    107 10.0    0.401    0.401   45.662   45.662       0
 pw_poisson_solve                   107  8.0    0.003    0.003   39.136   39.136       0
 pw_gather_s                        854 11.9   36.276   36.276   36.276   36.276       0
 pw_derive                          957 11.3   35.294   35.294   35.294   35.294       0
 pw_integral_ab_c1d_c1d_gs          214  9.5   31.883   31.883   31.883   31.883       0
 rirs_cluster_gradient_coordina    2408 11.0   26.137   26.137   26.137   26.137       0
 pw_copy                           1708 10.6   25.660   25.660   25.660   25.660       0
 rirs_cluster_AO_products          2408 11.0   19.623   19.623   19.623   19.623       0
 xc_functional_eval                 106 11.0    0.200    0.200   19.487   19.487       0
 pbe_lda_eval                       106 12.0   19.287   19.287   19.287   19.287       0
 cp_ddapc_apply_CD                  107  9.0    0.014    0.014   18.614   18.614       0
 pw_poisson_set                     108  9.0    0.002    0.002   17.205   17.205       0
 pw_axpy                           1075  9.2   15.525   15.525   15.525   15.525       0
 pw_copy_from_array                 959 12.8   15.334   15.334   15.334   15.334       0
 pw_copy_to_array                   854 11.9   15.030   15.030   15.030   15.030       0
 rirs_cluster_gradient_products    2408 11.0   12.281   12.281   12.281   12.281       0
 fft_wrap_pw1pw2_100                214 10.5    1.019    1.019   10.668   10.668       0
 qs_init_subsys                       1  2.0    0.047    0.047    7.925    7.925       0
 rirs_cluster_residual             2408 11.0    7.462    7.462    7.462    7.462       0
 qs_env_setup                         1  3.0    0.001    0.001    7.123    7.123       0
 qs_env_rebuild_pw_env                2  3.5    0.250    0.250    7.119    7.119       0
 pw_env_rebuild                       1  5.0    0.411    0.411    6.869    6.869       0
 pw_grid_setup                        5  5.2    0.004    0.004    6.459    6.459       0
 pw_grid_setup_internal               5  6.2    0.077    0.077    6.454    6.454       0
 init_scf_loop                        1  4.0    0.408    0.408    6.083    6.083       0
 pw_grid_sort                         5  7.2    4.713    4.713    6.080    6.080       0
 pw_zero                            550 10.1    5.853    5.853    5.853    5.853       0
 create_and_init_bs_env_for_gw        1  6.0    0.012    0.012    4.887    4.887       0
 transfer_rs2pw                     429  8.0    0.892    0.892    3.967    3.967       0
 pw_scale                           425  9.8    3.909    3.909    3.909    3.909       0
 rirs_grid_build_clusters             1  9.0    2.524    2.524    3.559    3.559       0
 rirs_cluster_D_ll                 2408 11.0    3.536    3.536    3.536    3.536       0
 rirs_cluster_d_lP                 2408 11.0    3.482    3.482    3.482    3.482       0
 generate_auto_ri_basis               1  7.0    0.000    0.000    3.171    3.171       0
 xc_pw_smooth                       106 10.0    0.000    0.000    2.779    2.779       0
 transfer_rs2pw_300                 108  9.0    2.630    2.630    2.630    2.630       0
 qs_scf_new_mos                     106  5.0    0.001    0.001    2.448    2.448       0
 qs_scf_loop_do_ot                  106  6.0    0.001    0.001    2.448    2.448       0
 pw_multiply_with                   107  9.0    2.270    2.270    2.270    2.270       0
 ot_scf_mini                        106  7.0    0.058    0.058    2.257    2.257       0
 get_ddapc                          107 10.0    0.004    0.004    2.132    2.132       0
 transfer_pw2rs                     428 11.0    0.003    0.003    2.023    2.023       0
 compute_M_PQ_AB                   1344 11.0    0.002    0.002    1.698    1.698       0
 compute_M_PQ                      1344 12.0    0.002    0.002    1.696    1.696       0
 int_operators_r12_ab_os           1344 13.0    0.001    0.001    1.694    1.694       0
 int_operator_ab_os_low            1344 14.0    0.736    0.736    1.693    1.693       0
 init_scf_run                         1  3.0    0.001    0.001    1.656    1.656       0
 scf_env_initial_rho_setup            1  4.0    0.002    0.002    1.655    1.655       0
 compute_M_pq_inv_and_V_pq            1  8.0    0.000    0.000    1.655    1.655       0
 compute_contracted_RI_matrix         2  9.0    0.001    0.001    1.651    1.651       0
 compute_optimized_RI_matrix_bl      72 10.0    0.057    0.057    1.648    1.648       0
 transfer_pw2rs_300                 107 12.0    1.635    1.635    1.635    1.635       0
 create_qs_kind_set                   1  2.0    0.000    0.000    1.566    1.566       0
 read_qs_kind                         4  3.0    0.257    0.257    1.566    1.566       0
 write_mo_set_to_restart            106  5.0    0.426    0.426    1.536    1.536       0
 ot_mini                            106  8.0    0.001    0.001    1.532    1.532       0
 sort_shells                          5  8.2    1.367    1.367    1.367    1.367       0
 compute_V_xc                         1  7.0    0.000    0.000    1.332    1.332       0
 parser_read_line                 57897  4.0    0.010    0.010    1.309    1.309       0
 parser_read_line_low                65  5.0    1.299    1.299    1.299    1.299       0
 compute_AB_optimized_RI_basis        1  8.0    0.000    0.000    1.257    1.257       0
 compute_AB_optimized_RI_basis_       1  9.0    0.000    0.000    1.257    1.257       0
 qs_ot_get_derivative               106  9.0    0.277    0.277    1.245    1.245       0
 compute_Z_lP                         1  7.0    0.000    0.000    1.195    1.195       0
 compute_Z_lP_auto_ri                 1  8.0    1.041    1.041    1.195    1.195       0
 prepare_preconditioner               1  5.0    0.000    0.000    1.195    1.195       0
 make_preconditioner                  1  6.0    0.611    0.611    1.195    1.195       0
 abc_contract_xsmm                50301 10.1    1.161    1.161    1.161    1.161       0
 fft_wrap_pw1pw2_40                 214 10.5    0.081    0.081    1.158    1.158       0
 write_mo_set_low                     6  6.0    1.064    1.064    1.108    1.108       0
 compute_B_PQ_AB                     21 10.0    0.285    0.285    1.075    1.075       0
 qs_ot_get_derivative_diag          105 10.0    0.934    0.934    0.952    0.952       0
 -------------------------------------------------------------------------------

 The number of warnings for this run is : 0
 
 -------------------------------------------------------------------------------
  **** **** ******  **  PROGRAM ENDED AT                 2026-09-16 22:39:08.021
 ***** ** ***  *** **   PROGRAM RAN ON                                  n2cn0388
 **    ****   ******    PROGRAM RAN BY                                  eprop2d1
 ***** **    ** ** **   PROGRAM PROCESS ID                                324756
  **** **  *******  **  PROGRAM STOPPED IN /scratch/hpc-prf-metdyn/eprop2d1_Jan/
                                           53_benchmark_RI_opt/111_GW100_GTH_Leb
                                           edev_riao245_rc3/calculations/97_urea
                                           _riao2_r06
