 DBCSR| CPU Multiplication driver                                           XSMM (U)
 DBCSR| Multrec recursion limit                                              512 (U)
 DBCSR| Multiplication stack size                                           1000 (D)
 DBCSR| Maximum elements for images                                    UNLIMITED (U)
 DBCSR| Multiplicative factor virtual images                                   1 (U)
 DBCSR| Use multiplication densification                                       T (D)
 DBCSR| Multiplication size stacks                                             3 (U)
 DBCSR| Use memory pool for CPU allocation                                     F (U)
 DBCSR| Number of 3D layers                                               SINGLE (U)
 DBCSR| Use MPI memory allocation                                              F (U)
 DBCSR| Use RMA algorithm                                                      F (U)
 DBCSR| Use Communication thread                                               T (U)
 DBCSR| Communication thread load                                             75 (D)
 DBCSR| MPI: My process id                                                     0
 DBCSR| MPI: Number of processes                                              32
 DBCSR| OMP: Current number of threads                                         4
 DBCSR| OMP: Max number of threads                                             4
 DBCSR| Split modifier for TAS multiplication algorithm                  1.0E+00 (U)


  **** **** ******  **  PROGRAM STARTED AT               2026-10-01 15:12:55.061
 ***** ** ***  *** **   PROGRAM STARTED ON                              n2cn0808
 **    ****   ******    PROGRAM STARTED BY                              eprop2d1
 ***** **    ** ** **   PROGRAM PROCESS ID                               1320720
  **** **  *******  **  PROGRAM STARTED IN /scratch/hpc-prf-metdyn/eprop2d1_Jan/
                                           53_benchmark_RI_opt/403_figure4_epsfi
                                           lter_20261001/si45_c3_a5_r07_e10

 CP2K| version string:                 CP2K version 2026.2 (Development Version)
 CP2K| source code revision number:                                      unknown
 CP2K| cp2kflags: omp libint fftw3 libxc parallel scalapack openblas            
 CP2K| is freely available from                            https://www.cp2k.org/
 CP2K| Program compiled at                                   2026-09-15 17:57:52
 CP2K| Program compiled on                                              n2login6
 CP2K| Program compiled for                                               x86_64
 CP2K| Data directory path    /scratch/hpc-prf-metdyn/eprop2d1_Jan/53_benchmark_
 CP2K| Input file name        /scratch/hpc-prf-metdyn/eprop2d1_Jan/53_benchmark_
 
 eprop2d1@n2cn0808 has created rank and process                      0   1320720
 eprop2d1@n2cn0808 has created rank and process                      1   1320721
 eprop2d1@n2cn0808 has created rank and process                      2   1320722
 eprop2d1@n2cn0808 has created rank and process                      3   1320723
 eprop2d1@n2cn0808 has created rank and process                      4   1320724
 eprop2d1@n2cn0808 has created rank and process                      5   1320725
 eprop2d1@n2cn0808 has created rank and process                      6   1320726
 eprop2d1@n2cn0808 has created rank and process                      7   1320727
 eprop2d1@n2cn0808 has created rank and process                      8   1320728
 eprop2d1@n2cn0808 has created rank and process                      9   1320729
 eprop2d1@n2cn0808 has created rank and process                     10   1320730
 eprop2d1@n2cn0808 has created rank and process                     11   1320731
 eprop2d1@n2cn0808 has created rank and process                     12   1320732
 eprop2d1@n2cn0808 has created rank and process                     13   1320733
 eprop2d1@n2cn0808 has created rank and process                     14   1320734
 eprop2d1@n2cn0808 has created rank and process                     15   1320735
 eprop2d1@n2cn0808 has created rank and process                     16   1320736
 eprop2d1@n2cn0808 has created rank and process                     17   1320737
 eprop2d1@n2cn0808 has created rank and process                     18   1320738
 eprop2d1@n2cn0808 has created rank and process                     19   1320739
 eprop2d1@n2cn0808 has created rank and process                     20   1320740
 eprop2d1@n2cn0808 has created rank and process                     21   1320741
 eprop2d1@n2cn0808 has created rank and process                     22   1320742
 eprop2d1@n2cn0808 has created rank and process                     23   1320743
 eprop2d1@n2cn0808 has created rank and process                     24   1320744
 eprop2d1@n2cn0808 has created rank and process                     25   1320745
 eprop2d1@n2cn0808 has created rank and process                     26   1320746
 eprop2d1@n2cn0808 has created rank and process                     27   1320747
 eprop2d1@n2cn0808 has created rank and process                     28   1320748
 eprop2d1@n2cn0808 has created rank and process                     29   1320749
 eprop2d1@n2cn0808 has created rank and process                     30   1320750
 eprop2d1@n2cn0808 has created rank and process                     31   1320751
 
 eprop2d1@n2cn0808 is running                                       32 processes

 GLOBAL| Force Environment number                                              1
 GLOBAL| Basis set file name            /scratch/hpc-prf-metdyn/eprop2d1_Jan/53_
 GLOBAL| Potential file name            /scratch/hpc-prf-metdyn/eprop2d1_Jan/53_
 GLOBAL| MM Potential file name                                     MM_POTENTIAL
 GLOBAL| Coordinate file name           /scratch/hpc-prf-metdyn/eprop2d1_Jan/53_
 GLOBAL| Method name                                                        CP2K
 GLOBAL| Project name                                         si45_c3_a5_r07_e10
 GLOBAL| Run type                                                         ENERGY
 GLOBAL| FFT library                                                       FFTW3
 GLOBAL| Diagonalization library                                       ScaLAPACK
 GLOBAL| Cholesky decomposition library                                ScaLAPACK
 GLOBAL| DGEMM library                                                      BLAS
 GLOBAL| Direct generalized diagonalization requested                          F
 GLOBAL| Orthonormality check for eigenvectors                          DISABLED
 GLOBAL| Matrix multiplication library                                 ScaLAPACK
 GLOBAL| All-to-all communication in single precision                          F
 GLOBAL| Grid backend                                                       AUTO
 GLOBAL| Global print level                                                  LOW
 GLOBAL| MPI I/O enabled                                                       T
 GLOBAL| Total number of message passing processes                            32
 GLOBAL| Number of distributed systems (nodes)                                 1
 GLOBAL| Number of threads for this process                                    4
 GLOBAL| This output is from process                                           0
 GLOBAL| OpenMP stack size per thread (OMP_STACKSIZE)                       128M
 GLOBAL| CPU model name                          AMD EPYC 7763 64-Core Processor

 MEMORY| system memory details [Kb]
 MEMORY|                        rank 0           min           max       average
 MEMORY| MemTotal            263897596     263897596     263897596     263897596
 MEMORY| MemFree             244745008     244745008     244745008     244745008
 MEMORY| Buffers                313604        313604        313604        313604
 MEMORY| Cached                7655308       7655308       7655308       7655308
 MEMORY| Slab                  1782236       1782236       1782236       1782236
 MEMORY| SReclaimable           311384        311384        311384        311384
 MEMORY| MemLikelyFree       253025304     253025304     253025304     253025304


 GENERATE|  Preliminary Number of Bonds generated:                             0
 GENERATE|  Achieved consistency in connectivity generation.

 *******************************************************************************
 *******************************************************************************
 **                                                                           **
 **     #####                         ##              ##                      **
 **    ##   ##            ##          ##              ##                      **
 **   ##     ##                       ##            ######                    **
 **   ##     ##  ##   ##  ##   #####  ##  ##   ####   ##    #####    #####    **
 **   ##     ##  ##   ##  ##  ##      ## ##   ##      ##   ##   ##  ##   ##   **
 **   ##  ## ##  ##   ##  ##  ##      ####     ###    ##   ######   ######    **
 **    ##  ###   ##   ##  ##  ##      ## ##      ##   ##   ##       ##        **
 **     #######   #####   ##   #####  ##  ##  ####    ##    #####   ##        **
 **           ##                                                    ##        **
 **                                                                           **
 **                                                ... make the atoms dance   **
 **                                                                           **
 **            Copyright (C) by CP2K developers group (2000-2026)             **
 **                      J. Chem. Phys. 152, 194103 (2020)                    **
 **                                                                           **
 *******************************************************************************


 TOTAL NUMBERS AND MAXIMUM NUMBERS

  Total number of            - Atomic kinds:                                   2
                             - Atoms:                                        101
                             - Shell sets:                                   101
                             - Shells:                                       449
                             - Primitive Cartesian functions:                662
                             - Cartesian basis functions:                    966
                             - Spherical basis functions:                    921

  Maximum angular momentum of- Orbital basis functions:                        2
                             - Local part of the GTH pseudopotential:          2
                             - Non-local part of the GTH pseudopotential:      2


 SCF PARAMETERS         Density guess:                                   RESTART
                        --------------------------------------------------------
                        max_scf:                                             100
                        max_scf_history:                                       0
                        max_diis:                                              4
                        --------------------------------------------------------
                        eps_scf:                                        1.00E-07
                        eps_scf_history:                                0.00E+00
                        eps_diis:                                       0.00E+00
                        eps_eigval:                                     1.00E-05
                        --------------------------------------------------------
                        level_shift [a.u.]:                             0.000000
                        --------------------------------------------------------
                        Outer loop SCF in use 
                        No variables optimised in outer loop
                        eps_scf                                         1.00E-07
                        max_scf                                               20
                        No outer loop optimization
                        step_size                                       5.00E-01

 Extrapolation method: initial_guess

 Number of electrons:                                                        236
 Number of occupied orbitals:                                                118
 Number of molecular orbitals:                                               118

 Number of orbital functions:                                                921
 Number of independent orbital functions:                                    921


 SCF WAVEFUNCTION OPTIMIZATION

  ----------------------------------- OT ---------------------------------------
  Minimizer      : DIIS                : direct inversion
                                         in the iterative subspace
                                         using   7 DIIS vectors
                                         safer DIIS on
  Preconditioner : FULL_KINETIC        : inversion of T + eS
  Lattice FFT   : OFF
  Precond_solver : DEFAULT
  stepsize       :    0.15000000                  energy_gap     :    0.20000000
  eps_taylor     :   0.10000E-15                  max_taylor     :             4
  ----------------------------------- OT ---------------------------------------

  Step     Update method      Time    Convergence         Total energy    Change
  ------------------------------------------------------------------------------
     1 OT DIIS     0.15E+00    2.5     0.00000005      -209.4766380852 -2.09E+02

  *** SCF run converged in     1 steps ***


  Electronic density on regular grids:       -236.0000000000        0.0000000000
  Core density on regular grids:              235.9999999996       -0.0000000004
  Total charge density on r-space grids:       -0.0000000004
  Total charge density g-space grids:          -0.0000000004

  Overlap energy of the core charge distribution:               0.00000057541286
  Self energy of the core charge distribution:               -540.59620096303195
  Core Hamiltonian energy:                                    124.75176991433690
  Hartree energy:                                             279.78225953321862
  Exchange-correlation energy:                                -73.41446714518088

  Total energy:                                              -209.47663808524442

  outer SCF iter =    1 RMS gradient =   0.45E-07 energy =       -209.4766380852
  outer SCF loop converged in   1 iterations or    1 steps

  
 -------------------------------------------------------------------------------
 -                                                                             -
 -                          BANDSTRUCTURE CALCULATION                          -
 -                                                                             -
 -------------------------------------------------------------------------------
  
 Number of occupied molecular orbitals (MOs) = Number of occupied bands      118
 Number of unoccupied (= virtual) MOs = Number of unoccupied bands           803
 Number of Gaussian basis functions for MOs                                  921
  
 -------------------------------------------------------------------------------
 -                                                                             -
 -                                GW CALCULATION                               -
 -                                                                             -
 -------------------------------------------------------------------------------
  
 Input: Number of time/freq. points                                           30
 Input: ω_max for fitting Σ(iω) (eV)                                        10.0
 Input: Filter threshold for sparse tensor operations                    1.0E-10
 Input: Apply Hedin shift                                                      F
 Input: Available memory per MPI process                                  2.0 GB
 
 Input: RI-RS Tikhonov regularization                                   1.00E-08
 Input: AO grid hard cutoff radius                                        8.00 Å
 Input: MPI ranks per atom in Z_lP solve                                      -1
 Input: Keep sparsity in χ/G/W panels                                          T
 Input: GW flavour                                                          G0W0
 
 Input: RI-RS grid optimization activated                                      T
 Input: Initial RI-RS grid                                              CHOLESKY
 Input: RS points per AO function                                         7.0000
 Input: Initial RS candidates per AO function                            30.0000
 Input: Additional Lebedev degree                                              2
 Input: Cholesky selection matrix                                              D
 Input: Cholesky candidate domain                                      FULL_ATOM
 Input: Initial radial quadrature                                       GAPW_LOG
 Input: Cutoff radius for atomic clusters                                  3.0 Å
 Input: Maximum grid optimization iterations                                 100
 Input: L-BFGS history size                                                    7
 Input: L-BFGS relative-function factor                              0.00000E+00
 Input: L-BFGS projected-gradient tolerance                          1.00000E-09
 
 Input: AUTO_RI basis optimization activated:                                  T
 Input: AUTO_RI requested RI/AO ratio:                                       5.0
 Input: AUTO_RI frontier orbital window:                                  5.0 eV
 Input: AUTO_RI neighbor radius:                                           3.0 Å
 
 Cutoff radius for the truncated Coulomb operator in RI metric:            6.0 Å
 Regularization parameter of RI                                          0.0E+00
 Regularization parameter of minimax grids                               1.0E-06
 
 AUTO_RI| Number of automatic RI functions for χ, ε, W:                     4605
 AUTO_RI| Total RI basis optimization time:                                6.4 s
 
 SCF direct band gap (eV)                                                   3.16
 Max. SCF eigval diff. (eV)                                               132.05
 E-Range for minimax grid                                                  41.78
 Number of Padé parameters for analytic continuation:                         16
 
 RI-RS basis radii (Å):
     Kind  Elem     r_AO (Å)     r_RI (Å)
        1    Si        9.7225        8.0761
        2    H        11.3560       10.8501
 
 RI-RS initialization: atomic kind                                             1
 RI-RS initialization: Lebedev degree                                         11
 RI-RS initialization: radial shells                                           8
 RI-RS initialization: candidates per atom                                   400
 RI-RS initialization: retained points per atom                               91
 RI-RS initialization: atomic kind                                             2
 RI-RS initialization: Lebedev degree                                          7
 RI-RS initialization: radial shells                                           7
 RI-RS initialization: candidates per atom                                   182
 RI-RS initialization: retained points per atom                               42
 RI-RS initialization: largest cluster candidate count                      2000
 RI-RS initialization: most pivots in one cluster                            475
 RI-RS initialization: most stored AO values in one cluster               130000
 RI-RS initialization: wall time [s]                                       0.150
 Started RI-RS grid optimization
 RI-RS grid initial normalized error                          1.718678702386E-03
 RI-RS grid optimization completed, execution time:                       16.9 s
 Normalized 3C error:                                                    5.0E-07
 Maximum absolute 3C error:                                              1.2E-02
 Optimized points outside molecular Voronoi cells:                          2704 / 6447
 Total grid points used for RI-RS:                                          6447
 
 RI-RS grid row-blocks of Φ_μ(r_l)                                           247
 RI-RS grid points per block (max)                                            32
 
 Percentage of non-zero matrix elements in Φ_μ(r_l)                      85.23 %
 
 RI-RS memory estimate per MPI process:
   Available memory per process (system)                                 7.42 GB
   Required for Z_lP (dense upper bound; actual is sparser)              0.01 GB
   Required for χ, W, Σ panels (peak per panel step)                     0.05 GB
   Required for Z_lP solve peak (D_local+φ, worst-case atom)             0.40 GB
   Worst-case local-grid number of grid points:                             6447
   Worst-case memory D_local:                                            0.33 GB
 
 Started computing Z_lP
 Computed Z_lP (MPI rank 0) for atom          1 /  4,    Execution time    7.0 s
 Computed Z_lP (MPI rank 0) for atom          2 /  4,    Execution time    7.1 s
 Computed Z_lP (MPI rank 0) for atom          3 /  4,    Execution time    2.3 s
 Computed Z_lP (MPI rank 0) for atom          4 /  4,    Execution time    2.5 s
 Computed Z_lP (all MPI ranks) for all atoms,            Execution time   26.8 s

 Number of batches for χ, Σ matrices                                           1
 
 Percentage of non-zero matrix elements in Z_lP                         100.00 %
 Percentage of non-zero matrix elements in G_ll', χ_ll', W_ll'          100.00 %
 Percentage of non-zero matrix elements in χ_PQ for time point 1        100.00 %
 
 Computed χ(iτ,k=0) for time point            1 / 30,    Execution time    0.5 s
 Computed χ(iτ,k=0) for time point            2 / 30,    Execution time    0.5 s
 Computed χ(iτ,k=0) for time point            3 / 30,    Execution time    0.5 s
 Computed χ(iτ,k=0) for time point            4 / 30,    Execution time    0.5 s
 Computed χ(iτ,k=0) for time point            5 / 30,    Execution time    0.5 s
 Computed χ(iτ,k=0) for time point            6 / 30,    Execution time    0.5 s
 Computed χ(iτ,k=0) for time point            7 / 30,    Execution time    0.5 s
 Computed χ(iτ,k=0) for time point            8 / 30,    Execution time    0.5 s
 Computed χ(iτ,k=0) for time point            9 / 30,    Execution time    0.5 s
 Computed χ(iτ,k=0) for time point           10 / 30,    Execution time    0.5 s
 Computed χ(iτ,k=0) for time point           11 / 30,    Execution time    0.5 s
 Computed χ(iτ,k=0) for time point           12 / 30,    Execution time    0.5 s
 Computed χ(iτ,k=0) for time point           13 / 30,    Execution time    0.5 s
 Computed χ(iτ,k=0) for time point           14 / 30,    Execution time    0.5 s
 Computed χ(iτ,k=0) for time point           15 / 30,    Execution time    0.6 s
 Computed χ(iτ,k=0) for time point           16 / 30,    Execution time    0.5 s
 Computed χ(iτ,k=0) for time point           17 / 30,    Execution time    0.5 s
 Computed χ(iτ,k=0) for time point           18 / 30,    Execution time    0.5 s
 Computed χ(iτ,k=0) for time point           19 / 30,    Execution time    0.5 s
 Computed χ(iτ,k=0) for time point           20 / 30,    Execution time    0.3 s
 Computed χ(iτ,k=0) for time point           21 / 30,    Execution time    0.2 s
 Computed χ(iτ,k=0) for time point           22 / 30,    Execution time    0.2 s
 Computed χ(iτ,k=0) for time point           23 / 30,    Execution time    0.1 s
 Computed χ(iτ,k=0) for time point           24 / 30,    Execution time    0.1 s
 Computed χ(iτ,k=0) for time point           25 / 30,    Execution time    0.1 s
 Computed χ(iτ,k=0) for time point           26 / 30,    Execution time    0.1 s
 Computed χ(iτ,k=0) for time point           27 / 30,    Execution time    0.1 s
 Computed χ(iτ,k=0) for time point           28 / 30,    Execution time    0.1 s
 Computed χ(iτ,k=0) for time point           29 / 30,    Execution time    0.1 s
 Computed χ(iτ,k=0) for time point           30 / 30,    Execution time    0.1 s
 
 Computed W(iτ),                                         Execution time   23.1 s
 
 Computed Σ^x(k=0),                                      Execution time    0.7 s
 
 Computed Σ^c(iτ) for time point              1 / 30,    Execution time    0.6 s
 Computed Σ^c(iτ) for time point              2 / 30,    Execution time    0.7 s
 Computed Σ^c(iτ) for time point              3 / 30,    Execution time    0.7 s
 Computed Σ^c(iτ) for time point              4 / 30,    Execution time    0.7 s
 Computed Σ^c(iτ) for time point              5 / 30,    Execution time    0.6 s
 Computed Σ^c(iτ) for time point              6 / 30,    Execution time    0.6 s
 Computed Σ^c(iτ) for time point              7 / 30,    Execution time    0.6 s
 Computed Σ^c(iτ) for time point              8 / 30,    Execution time    0.7 s
 Computed Σ^c(iτ) for time point              9 / 30,    Execution time    0.7 s
 Computed Σ^c(iτ) for time point             10 / 30,    Execution time    0.6 s
 Computed Σ^c(iτ) for time point             11 / 30,    Execution time    0.6 s
 Computed Σ^c(iτ) for time point             12 / 30,    Execution time    0.6 s
 Computed Σ^c(iτ) for time point             13 / 30,    Execution time    0.6 s
 Computed Σ^c(iτ) for time point             14 / 30,    Execution time    0.6 s
 Computed Σ^c(iτ) for time point             15 / 30,    Execution time    0.6 s
 Computed Σ^c(iτ) for time point             16 / 30,    Execution time    0.6 s
 Computed Σ^c(iτ) for time point             17 / 30,    Execution time    0.6 s
 Computed Σ^c(iτ) for time point             18 / 30,    Execution time    0.6 s
 Computed Σ^c(iτ) for time point             19 / 30,    Execution time    0.6 s
 Computed Σ^c(iτ) for time point             20 / 30,    Execution time    0.6 s
 Computed Σ^c(iτ) for time point             21 / 30,    Execution time    0.3 s
 Computed Σ^c(iτ) for time point             22 / 30,    Execution time    0.3 s
 Computed Σ^c(iτ) for time point             23 / 30,    Execution time    0.1 s
 Computed Σ^c(iτ) for time point             24 / 30,    Execution time    0.1 s
 Computed Σ^c(iτ) for time point             25 / 30,    Execution time    0.1 s
 Computed Σ^c(iτ) for time point             26 / 30,    Execution time    0.1 s
 Computed Σ^c(iτ) for time point             27 / 30,    Execution time    0.1 s
 Computed Σ^c(iτ) for time point             28 / 30,    Execution time    0.1 s
 Computed Σ^c(iτ) for time point             29 / 30,    Execution time    0.1 s
 Computed Σ^c(iτ) for time point             30 / 30,    Execution time    0.1 s
 
 SCF valence band maximum (eV):                                           -5.871
 SCF conduction band minimum (eV):                                        -2.711
 SCF indirect band gap (eV):                                               3.161
 SCF direct band gap (eV):                                                 3.161
 
 G0W0 valence band maximum (eV):                                          -6.939
 G0W0 conduction band minimum (eV):                                       -1.121
 G0W0 indirect band gap (eV):                                              5.818
 G0W0 direct band gap (eV):                                                5.818
 
 Hartree-Fock with SCF orbitals valence band maximum (eV):                -8.038
 Hartree-Fock with SCF orbitals conduction band minimum (eV)               1.190
 Hartree-Fock with SCF orbitals indirect band gap (eV):                    9.229
 Hartree-Fock with SCF orbitals direct band gap (eV):                      9.229

 ENERGY| Total FORCE_EVAL ( QS ) energy [hartree]           -209.476638085244417

 -------------------------------------------------------------------------------
 -                                                                             -
 -                                DBCSR STATISTICS                             -
 -                                                                             -
 -------------------------------------------------------------------------------
 COUNTER                                    TOTAL       BLAS       SMM       ACC
 flops    22 x    22 x    22                21296       0.0%    100.0%      0.0%     
 flops    26 x    22 x    22                75504       0.0%    100.0%      0.0%     
 flops    22 x    22 x    32                92928       0.0%    100.0%      0.0%     
 flops    22 x    32 x    22                92928       0.0%    100.0%      0.0%     
 flops    32 x    22 x    22                92928       0.0%    100.0%      0.0%     
 flops    51 x    22 x    22               148104       0.0%    100.0%      0.0%     
 flops    57 x    22 x    22               165528       0.0%    100.0%      0.0%     
 flops    62 x    22 x    22               180048       0.0%    100.0%      0.0%     
 flops    76 x    22 x    22               220704       0.0%    100.0%      0.0%     
 flops    89 x    22 x    22               258456       0.0%    100.0%      0.0%     
 flops    26 x    22 x   119               272272       0.0%    100.0%      0.0%     
 flops     6 x    22 x    22               325248       0.0%    100.0%      0.0%     
 flops    56 x    22 x    22               325248       0.0%    100.0%      0.0%     
 flops    26 x    22 x    32               329472       0.0%    100.0%      0.0%     
 flops    26 x    32 x    22               329472       0.0%    100.0%      0.0%     
 flops    38 x    22 x    22               331056       0.0%    100.0%      0.0%     
 flops    22 x    22 x   119               345576       0.0%    100.0%      0.0%     
 flops    32 x    32 x    22               405504       0.0%    100.0%      0.0%     
 flops    22 x    32 x    32               405504       0.0%    100.0%      0.0%     
 flops    32 x    22 x    32               405504       0.0%    100.0%      0.0%     
 flops    26 x    22 x   113               517088       0.0%    100.0%      0.0%     
 flops    51 x    22 x   119               534072       0.0%    100.0%      0.0%     
 flops    63 x    22 x    22               548856       0.0%    100.0%      0.0%     
 flops    13 x    22 x    22               566280       0.0%    100.0%      0.0%     
 flops    57 x    22 x   119               596904       0.0%    100.0%      0.0%     
 flops    51 x    22 x    32               646272       0.0%    100.0%      0.0%     
 flops    51 x    32 x    22               646272       0.0%    100.0%      0.0%     
 flops    62 x    22 x   119               649264       0.0%    100.0%      0.0%     
 flops    22 x    22 x   113               656304       0.0%    100.0%      0.0%     
 flops    57 x    22 x    32               722304       0.0%    100.0%      0.0%     
 flops    57 x    32 x    22               722304       0.0%    100.0%      0.0%     
 flops    62 x    32 x    22               785664       0.0%    100.0%      0.0%     
 flops    62 x    22 x    32               785664       0.0%    100.0%      0.0%     
 flops    76 x    22 x   119               795872       0.0%    100.0%      0.0%     
 flops    89 x    22 x   119               932008       0.0%    100.0%      0.0%     
 flops    76 x    22 x    32               963072       0.0%    100.0%      0.0%     
 flops    76 x    32 x    22               963072       0.0%    100.0%      0.0%     
 flops    51 x    22 x   113              1014288       0.0%    100.0%      0.0%     
 flops    26 x    22 x   114              1043328       0.0%    100.0%      0.0%     
 flops    89 x    22 x    32              1127808       0.0%    100.0%      0.0%     
 flops    89 x    32 x    22              1127808       0.0%    100.0%      0.0%     
 flops    57 x    22 x   113              1133616       0.0%    100.0%      0.0%     
 flops    56 x    22 x   119              1172864       0.0%    100.0%      0.0%     
 flops    26 x    32 x   119              1188096       0.0%    100.0%      0.0%     
 flops    38 x    22 x   119              1193808       0.0%    100.0%      0.0%     
 flops    62 x    22 x   113              1233056       0.0%    100.0%      0.0%     
 flops    22 x    22 x   114              1324224       0.0%    100.0%      0.0%     
 flops    56 x    32 x    22              1419264       0.0%    100.0%      0.0%     
 flops    56 x    22 x    32              1419264       0.0%    100.0%      0.0%     
 flops    26 x    32 x    32              1437696       0.0%    100.0%      0.0%     
 flops    38 x    32 x    22              1444608       0.0%    100.0%      0.0%     
 flops    38 x    22 x    32              1444608       0.0%    100.0%      0.0%     
 flops    22 x    32 x   119              1507968       0.0%    100.0%      0.0%     
 flops    32 x    22 x   119              1507968       0.0%    100.0%      0.0%     
 flops    76 x    22 x   113              1511488       0.0%    100.0%      0.0%     
 flops    89 x    22 x   113              1770032       0.0%    100.0%      0.0%     
 flops    63 x    22 x   119              1979208       0.0%    100.0%      0.0%     
 flops    51 x    22 x   114              2046528       0.0%    100.0%      0.0%     
 flops     6 x    32 x    32              2064384       0.0%    100.0%      0.0%     
 flops    56 x    22 x   113              2227456       0.0%    100.0%      0.0%     
 flops    26 x    32 x   113              2256384       0.0%    100.0%      0.0%     
 flops    38 x    22 x   113              2267232       0.0%    100.0%      0.0%     
 flops    57 x    22 x   114              2287296       0.0%    100.0%      0.0%     
 flops    51 x    32 x   119              2330496       0.0%    100.0%      0.0%     
 flops    63 x    22 x    32              2395008       0.0%    100.0%      0.0%     
 flops    63 x    32 x    22              2395008       0.0%    100.0%      0.0%     
 flops    62 x    22 x   114              2487936       0.0%    100.0%      0.0%     
 flops    57 x    32 x   119              2604672       0.0%    100.0%      0.0%     
 flops    51 x    32 x    32              2820096       0.0%    100.0%      0.0%     
 flops    62 x    32 x   119              2833152       0.0%    100.0%      0.0%     
 flops    22 x    32 x   113              2863872       0.0%    100.0%      0.0%     
 flops    32 x    22 x   113              2863872       0.0%    100.0%      0.0%     
 flops    76 x    22 x   114              3049728       0.0%    100.0%      0.0%     
 flops    57 x    32 x    32              3151872       0.0%    100.0%      0.0%     
 flops    62 x    32 x    32              3428352       0.0%    100.0%      0.0%     
 flops    76 x    32 x   119              3472896       0.0%    100.0%      0.0%     
 flops    89 x    22 x   114              3571392       0.0%    100.0%      0.0%     
 flops    13 x    32 x    32              3594240       0.0%    100.0%      0.0%     
 flops    63 x    22 x   113              3758832       0.0%    100.0%      0.0%     
 flops    89 x    32 x   119              4066944       0.0%    100.0%      0.0%     
 flops    76 x    32 x    32              4202496       0.0%    100.0%      0.0%     
 flops    51 x    32 x   113              4425984       0.0%    100.0%      0.0%     
 flops    56 x    22 x   114              4494336       0.0%    100.0%      0.0%     
 flops    26 x    32 x   114              4552704       0.0%    100.0%      0.0%     
 flops    38 x    22 x   114              4574592       0.0%    100.0%      0.0%     
 flops    89 x    32 x    32              4921344       0.0%    100.0%      0.0%     
 flops    57 x    32 x   113              4946688       0.0%    100.0%      0.0%     
 flops     6 x     6 x    22              5056128       0.0%    100.0%      0.0%     
 flops    56 x    32 x   119              5117952       0.0%    100.0%      0.0%     
 flops    38 x    32 x   119              5209344       0.0%    100.0%      0.0%     
 flops    62 x    32 x   113              5380608       0.0%    100.0%      0.0%     
 flops    22 x    32 x   114              5778432       0.0%    100.0%      0.0%     
 flops    32 x    22 x   114              5778432       0.0%    100.0%      0.0%     
 flops    56 x    32 x    32              6193152       0.0%    100.0%      0.0%     
 flops    38 x    32 x    32              6303744       0.0%    100.0%      0.0%     
 flops    32 x    32 x   119              6580224       0.0%    100.0%      0.0%     
 flops    76 x    32 x   113              6595584       0.0%    100.0%      0.0%     
 flops    10 x    45 x    67              6753600       0.0%    100.0%      0.0%     
 flops    63 x    22 x   114              7584192       0.0%    100.0%      0.0%     
 flops    89 x    32 x   113              7723776       0.0%    100.0%      0.0%     
 flops    63 x    32 x   119              8636544       0.0%    100.0%      0.0%     
 flops    13 x     6 x    22              8648640       0.0%    100.0%      0.0%     
 flops     6 x    13 x    22              8648640       0.0%    100.0%      0.0%     
 flops    51 x    32 x   114              8930304       0.0%    100.0%      0.0%     
 flops    10 x    45 x    94              9475200       0.0%    100.0%      0.0%     
 flops    56 x    32 x   113              9719808       0.0%    100.0%      0.0%     
 flops    10 x    31 x    35              9721600       0.0%    100.0%      0.0%     
 flops    38 x    32 x   113              9893376       0.0%    100.0%      0.0%     
 flops    10 x    47 x    94              9896320       0.0%    100.0%      0.0%     
 flops    57 x    32 x   114              9980928       0.0%    100.0%      0.0%     
 flops    10 x    46 x    67             10355520       0.0%    100.0%      0.0%     
 flops    63 x    32 x    32             10450944       0.0%    100.0%      0.0%     
 flops    62 x    32 x   114             10856448       0.0%    100.0%      0.0%     
 flops    32 x    32 x   113             12496896       0.0%    100.0%      0.0%     
 flops    76 x    32 x   114             13307904       0.0%    100.0%      0.0%     
 flops    27 x    45 x    67             14652900       0.0%    100.0%      0.0%     
 flops    10 x    32 x    35             15052800       0.0%    100.0%      0.0%     
 flops    13 x    13 x    22             15392520       0.0%    100.0%      0.0%     
 flops    89 x    32 x   114             15584256       0.0%    100.0%      0.0%     
 flops    63 x    32 x   113             16402176       0.0%    100.0%      0.0%     
 flops    10 x    59 x    94             18634560       0.0%    100.0%      0.0%     
 flops    56 x    32 x   114             19611648       0.0%    100.0%      0.0%     
 flops    38 x    32 x   114             19961856       0.0%    100.0%      0.0%     
 flops    27 x    45 x    94             20557800       0.0%    100.0%      0.0%     
 flops    27 x    31 x    35             21092400       0.0%    100.0%      0.0%     
 flops    27 x    47 x    94             21471480       0.0%    100.0%      0.0%     
 flops    27 x    46 x    67             22467780       0.0%    100.0%      0.0%     
 flops    10 x    46 x    94             24214400       0.0%    100.0%      0.0%     
 flops    32 x    32 x   114             25214976       0.0%    100.0%      0.0%     
 flops     6 x    22 x     6             29804544       0.0%    100.0%      0.0%     
 flops    10 x    30 x    94             31584000       0.0%    100.0%      0.0%     
 flops    27 x    32 x    35             32659200       0.0%    100.0%      0.0%     
 flops    63 x    32 x   114             33094656       0.0%    100.0%      0.0%     
 flops    27 x    59 x    94             40430340       0.0%    100.0%      0.0%     
 flops    13 x    22 x     6             51891840       0.0%    100.0%      0.0%     
 flops     6 x    22 x    13             51891840       0.0%    100.0%      0.0%     
 flops    27 x    46 x    94             52536600       0.0%    100.0%      0.0%     
 flops    31 x    28 x    10             53121600       0.0%    100.0%      0.0%     
 flops    32 x    45 x    67             56344320       0.0%    100.0%      0.0%     
 flops    27 x    30 x    94             68526000       0.0%    100.0%      0.0%     
 flops    31 x    40 x    10             75813600       0.0%    100.0%      0.0%     
 flops    32 x    45 x    94             79050240       0.0%    100.0%      0.0%     
 flops    47 x    28 x    10             80539200       0.0%    100.0%      0.0%     
 flops    32 x    31 x    35             81105920       0.0%    100.0%      0.0%     
 flops    32 x    47 x    94             82563584       0.0%    100.0%      0.0%     
 flops    32 x    46 x    67             86394624       0.0%    100.0%      0.0%     
 flops    13 x    22 x    13             90347400       0.0%    100.0%      0.0%     
 flops    54 x    28 x    10             92534400       0.0%    100.0%      0.0%     
 flops    60 x    28 x    10            102816000       0.0%    100.0%      0.0%     
 flops    31 x    29 x    10            109983660       0.0%    100.0%      0.0%     
 flops    47 x    40 x    10            114943200       0.0%    100.0%      0.0%     
 flops    31 x    28 x    27            120086064       0.0%    100.0%      0.0%     
 flops    32 x    32 x    35            125583360       0.0%    100.0%      0.0%     
 flops     6 x    32 x     6            130056192       0.0%    100.0%      0.0%     
 flops    54 x    40 x    10            132062400       0.0%    100.0%      0.0%     
 flops    60 x    40 x    10            146736000       0.0%    100.0%      0.0%     
 flops    32 x    59 x    94            155465472       0.0%    100.0%      0.0%     
 flops    47 x    29 x    10            166749420       0.0%    100.0%      0.0%     
 flops    31 x    40 x    27            171551520       0.0%    100.0%      0.0%     
 flops    45 x    28 x    10            179928000       0.0%    100.0%      0.0%     
 flops    47 x    28 x    27            182065968       0.0%    100.0%      0.0%     
 flops    30 x    28 x    10            188496000       0.0%    100.0%      0.0%     
 flops    54 x    29 x    10            191584440       0.0%    100.0%      0.0%     
 flops    31 x    51 x    10            193988700       0.0%    100.0%      0.0%     
 flops    32 x    51 x    10            200246400       0.0%    100.0%      0.0%     
 flops    32 x    46 x    94            202017280       0.0%    100.0%      0.0%     
 flops    10 x    10 x    30            206640000       0.0%    100.0%      0.0%     
 flops    54 x    28 x    27            209182176       0.0%    100.0%      0.0%     
 flops    31 x    55 x    10            211454100       0.0%    100.0%      0.0%     
 flops    10 x    28 x    30            212620800       0.0%    100.0%      0.0%     
 flops    60 x    29 x    10            212871600       0.0%    100.0%      0.0%     
 flops    32 x    55 x    10            218275200       0.0%    100.0%      0.0%     
 flops    13 x    32 x     6            226437120       0.0%    100.0%      0.0%     
 flops     6 x    32 x    13            226437120       0.0%    100.0%      0.0%     
 flops    31 x    60 x    10            229896000       0.0%    100.0%      0.0%     
 flops    10 x    10 x    46            230809600       0.0%    100.0%      0.0%     
 flops    60 x    28 x    27            232424640       0.0%    100.0%      0.0%     
 flops    31 x    31 x    10            235252800       0.0%    100.0%      0.0%     
 flops    32 x    60 x    10            237312000       0.0%    100.0%      0.0%     
 flops    10 x    28 x    46            242350080       0.0%    100.0%      0.0%     
 flops    31 x    29 x    27            248312790       0.0%    100.0%      0.0%     
 flops    10 x    10 x    45            254016000       0.0%    100.0%      0.0%     
 flops    31 x    45 x    10            256205700       0.0%    100.0%      0.0%     
 flops    45 x    40 x    10            256788000       0.0%    100.0%      0.0%     
 flops    47 x    40 x    27            260094240       0.0%    100.0%      0.0%     
 flops    32 x    30 x    94            263500800       0.0%    100.0%      0.0%     
 flops    10 x    28 x    45            266716800       0.0%    100.0%      0.0%     
 flops    30 x    40 x    10            269016000       0.0%    100.0%      0.0%     
 flops    31 x    47 x    10            270914580       0.0%    100.0%      0.0%     
 flops    47 x    51 x    10            294111900       0.0%    100.0%      0.0%     
 flops    54 x    40 x    27            298831680       0.0%    100.0%      0.0%     
 flops    31 x    32 x    10            303492480       0.0%    100.0%      0.0%     
 flops    10 x    40 x    30            310464000       0.0%    100.0%      0.0%     
 flops    31 x    54 x    10            310962240       0.0%    100.0%      0.0%     
 flops    47 x    55 x    10            320591700       0.0%    100.0%      0.0%     
 flops    32 x    54 x    10            320993280       0.0%    100.0%      0.0%     
 flops    10 x    28 x    10            329296800       0.0%    100.0%      0.0%     
 flops    60 x    40 x    27            332035200       0.0%    100.0%      0.0%     
 flops    54 x    51 x    10            337915800       0.0%    100.0%      0.0%     
 flops    10 x    40 x    46            346214400       0.0%    100.0%      0.0%     
 flops    47 x    60 x    10            348552000       0.0%    100.0%      0.0%     
 flops    47 x    31 x    10            356673600       0.0%    100.0%      0.0%     
 flops    54 x    55 x    10            368339400       0.0%    100.0%      0.0%     
 flops    45 x    29 x    10            372525300       0.0%    100.0%      0.0%     
 flops    60 x    51 x    10            375462000       0.0%    100.0%      0.0%     
 flops    47 x    29 x    27            376474230       0.0%    100.0%      0.0%     
 flops    10 x    40 x    45            381024000       0.0%    100.0%      0.0%     
 flops    47 x    45 x    10            388440900       0.0%    100.0%      0.0%     
 flops    30 x    29 x    10            390264600       0.0%    100.0%      0.0%     
 flops    13 x    32 x    13            394243200       0.0%    100.0%      0.0%     
 flops    54 x    60 x    10            400464000       0.0%    100.0%      0.0%     
 flops    45 x    28 x    27            406743120       0.0%    100.0%      0.0%     
 flops    60 x    55 x    10            409266000       0.0%    100.0%      0.0%     
 flops    54 x    31 x    10            409795200       0.0%    100.0%      0.0%     
 flops    47 x    47 x    10            410741460       0.0%    100.0%      0.0%     
 flops    27 x    10 x    30            414590400       0.0%    100.0%      0.0%     
 flops    30 x    28 x    27            426111840       0.0%    100.0%      0.0%     
 flops    54 x    29 x    27            432544860       0.0%    100.0%      0.0%     
 flops    31 x    51 x    27            437712498       0.0%    100.0%      0.0%     
 flops    31 x    46 x    10            441147360       0.0%    100.0%      0.0%     
 flops    60 x    60 x    10            444960000       0.0%    100.0%      0.0%     
 flops    54 x    45 x    10            446293800       0.0%    100.0%      0.0%     
 flops    10 x    27 x    30            448335000       0.0%    100.0%      0.0%     
 flops    10 x    29 x    30            450172800       0.0%    100.0%      0.0%     
 flops    32 x    51 x    27            451832256       0.0%    100.0%      0.0%     
 flops    60 x    31 x    10            455328000       0.0%    100.0%      0.0%     
 flops    47 x    32 x    10            460133760       0.0%    100.0%      0.0%     
 flops    31 x    28 x    32            460303872       0.0%    100.0%      0.0%     
 flops    27 x    28 x    30            461311200       0.0%    100.0%      0.0%     
 flops    10 x    40 x    10            468816000       0.0%    100.0%      0.0%     
 flops    47 x    54 x    10            471458880       0.0%    100.0%      0.0%     
 flops    54 x    47 x    10            471915720       0.0%    100.0%      0.0%     
 flops    31 x    55 x    27            472319100       0.0%    100.0%      0.0%     
 flops    60 x    29 x    27            480605400       0.0%    100.0%      0.0%     
 flops    32 x    55 x    27            487555200       0.0%    100.0%      0.0%     
 flops    27 x    10 x    46            492428160       0.0%    100.0%      0.0%     
 flops    60 x    45 x    10            495882000       0.0%    100.0%      0.0%     
 flops    10 x    27 x    46            500774400       0.0%    100.0%      0.0%     
 flops    10 x    29 x    46            502010880       0.0%    100.0%      0.0%     
 flops    31 x    60 x    27            515257200       0.0%    100.0%      0.0%     
 flops    60 x    47 x    10            524350800       0.0%    100.0%      0.0%     
 flops    27 x    28 x    46            525813120       0.0%    100.0%      0.0%     
 flops    54 x    32 x    10            528664320       0.0%    100.0%      0.0%     
 flops    31 x    31 x    27            531809712       0.0%    100.0%      0.0%     
 flops    32 x    60 x    27            531878400       0.0%    100.0%      0.0%     
 flops    54 x    54 x    10            541676160       0.0%    100.0%      0.0%     
 flops    27 x    10 x    45            549763200       0.0%    100.0%      0.0%     
 flops    10 x    27 x    45            551124000       0.0%    100.0%      0.0%     
 flops    10 x    29 x    45            552484800       0.0%    100.0%      0.0%     
 flops    31 x    30 x    10            570331800       0.0%    100.0%      0.0%     
 flops    27 x    28 x    45            578680200       0.0%    100.0%      0.0%     
 flops    31 x    45 x    27            578986380       0.0%    100.0%      0.0%     
 flops    45 x    40 x    27            581061600       0.0%    100.0%      0.0%     
 flops    60 x    32 x    10            587404800       0.0%    100.0%      0.0%     
 flops    60 x    54 x    10            601862400       0.0%    100.0%      0.0%     
 flops    31 x    47 x    27            605427210       0.0%    100.0%      0.0%     
 flops    30 x    40 x    27            608731200       0.0%    100.0%      0.0%     
 flops    45 x    51 x    10            657058500       0.0%    100.0%      0.0%     
 flops    31 x    40 x    32            658053120       0.0%    100.0%      0.0%     
 flops    47 x    51 x    27            663628626       0.0%    100.0%      0.0%     
 flops    47 x    46 x    10            668836320       0.0%    100.0%      0.0%     
 flops    27 x    40 x    30            673596000       0.0%    100.0%      0.0%     
 flops    10 x    29 x    10            681233200       0.0%    100.0%      0.0%     
 flops    31 x    32 x    27            686206080       0.0%    100.0%      0.0%     
 flops    30 x    51 x    10            688347000       0.0%    100.0%      0.0%     
 flops    31 x    54 x    27            695597220       0.0%    100.0%      0.0%     
 flops    47 x    28 x    32            697880064       0.0%    100.0%      0.0%     
 flops    47 x    55 x    27            716096700       0.0%    100.0%      0.0%     
 flops    45 x    55 x    10            716215500       0.0%    100.0%      0.0%     
 flops    32 x    54 x    27            718035840       0.0%    100.0%      0.0%     
 flops    10 x    28 x    27            728058240       0.0%    100.0%      0.0%     
 flops    27 x    28 x    10            728663040       0.0%    100.0%      0.0%     
 flops    10 x    47 x    30            729590400       0.0%    100.0%      0.0%     
 flops    30 x    55 x    10            750321000       0.0%    100.0%      0.0%     
 flops    27 x    40 x    46            751161600       0.0%    100.0%      0.0%     
 flops    54 x    51 x    27            762466932       0.0%    100.0%      0.0%     
 flops    54 x    46 x    10            768450240       0.0%    100.0%      0.0%     
 flops    45 x    60 x    10            778680000       0.0%    100.0%      0.0%     
 flops    47 x    60 x    27            781196400       0.0%    100.0%      0.0%     
 flops    45 x    31 x    10            796824000       0.0%    100.0%      0.0%     
 flops    54 x    28 x    32            801819648       0.0%    100.0%      0.0%     
 flops    47 x    31 x    27            806292144       0.0%    100.0%      0.0%     
 flops    10 x    47 x    46            813603840       0.0%    100.0%      0.0%     
 flops    30 x    60 x    10            815760000       0.0%    100.0%      0.0%     
 flops    54 x    55 x    27            822749400       0.0%    100.0%      0.0%     
 flops    27 x    40 x    45            826686000       0.0%    100.0%      0.0%     
 flops    30 x    31 x    10            834768000       0.0%    100.0%      0.0%     
 flops    45 x    29 x    27            841059450       0.0%    100.0%      0.0%     
 flops    60 x    51 x    27            847185480       0.0%    100.0%      0.0%     
 flops    60 x    46 x    10            853833600       0.0%    100.0%      0.0%     
 flops    47 x    30 x    10            864696600       0.0%    100.0%      0.0%     
 flops    45 x    45 x    10            867793500       0.0%    100.0%      0.0%     
 flops    47 x    45 x    27            877818060       0.0%    100.0%      0.0%     
 flops    30 x    29 x    27            881109900       0.0%    100.0%      0.0%     
 flops    60 x    28 x    32            890910720       0.0%    100.0%      0.0%     
 flops    10 x    47 x    45            895406400       0.0%    100.0%      0.0%     
 flops    54 x    60 x    27            897544800       0.0%    100.0%      0.0%     
 flops    27 x    27 x    30            899513100       0.0%    100.0%      0.0%     
 flops    30 x    45 x    10            909117000       0.0%    100.0%      0.0%     
 flops    60 x    55 x    27            914166000       0.0%    100.0%      0.0%     
 flops    10 x    59 x    30            915868800       0.0%    100.0%      0.0%     
 flops    45 x    47 x    10            917613900       0.0%    100.0%      0.0%     
 flops    47 x    47 x    27            917905770       0.0%    100.0%      0.0%     
 flops    54 x    31 x    27            926378208       0.0%    100.0%      0.0%     
 flops    31 x    29 x    32            953486592       0.0%    100.0%      0.0%     
 flops    30 x    47 x    10            961309800       0.0%    100.0%      0.0%     
 flops    10 x    31 x    30            961396800       0.0%    100.0%      0.0%     
 flops    27 x    29 x    30            976714200       0.0%    100.0%      0.0%     
 flops    31 x    46 x    27            987576300       0.0%    100.0%      0.0%     
 flops    54 x    30 x    10            993481200       0.0%    100.0%      0.0%     
 flops    60 x    60 x    27            997272000       0.0%    100.0%      0.0%     
 flops    47 x    40 x    32            997693440       0.0%    100.0%      0.0%     
 flops    54 x    45 x    27           1008556920       0.0%    100.0%      0.0%     
 flops    10 x    59 x    46           1021332480       0.0%    100.0%      0.0%     
 flops    45 x    32 x    10           1027958400       0.0%    100.0%      0.0%     
 flops    60 x    31 x    27           1029309120       0.0%    100.0%      0.0%     
 flops    10 x    40 x    27           1039500000       0.0%    100.0%      0.0%     
 flops    47 x    32 x    27           1040376960       0.0%    100.0%      0.0%     
 flops    27 x    40 x    10           1042372800       0.0%    100.0%      0.0%     
 flops    45 x    54 x    10           1053259200       0.0%    100.0%      0.0%     
 flops    47 x    54 x    27           1054615140       0.0%    100.0%      0.0%     
 flops    54 x    47 x    27           1054615140       0.0%    100.0%      0.0%     
 flops    27 x    27 x    46           1068393240       0.0%    100.0%      0.0%     
 flops    10 x    31 x    46           1073264640       0.0%    100.0%      0.0%     
 flops    30 x    32 x    10           1076908800       0.0%    100.0%      0.0%     
 flops    27 x    29 x    46           1089184320       0.0%    100.0%      0.0%     
 flops    30 x    54 x    10           1103414400       0.0%    100.0%      0.0%     
 flops    60 x    30 x    10           1103868000       0.0%    100.0%      0.0%     
 flops    10 x    47 x    10           1108231800       0.0%    100.0%      0.0%     
 flops    60 x    45 x    27           1120618800       0.0%    100.0%      0.0%     
 flops    10 x    59 x    45           1124020800       0.0%    100.0%      0.0%     
 flops    54 x    40 x    32           1146286080       0.0%    100.0%      0.0%     
 flops    60 x    47 x    27           1171794600       0.0%    100.0%      0.0%     
 flops    10 x    31 x    45           1181174400       0.0%    100.0%      0.0%     
 flops    27 x    27 x    45           1192789800       0.0%    100.0%      0.0%     
 flops    54 x    32 x    27           1195326720       0.0%    100.0%      0.0%     
 flops    27 x    29 x    45           1198694700       0.0%    100.0%      0.0%     
 flops    54 x    54 x    27           1211685480       0.0%    100.0%      0.0%     
 flops    60 x    40 x    32           1273651200       0.0%    100.0%      0.0%     
 flops    31 x    30 x    27           1287691020       0.0%    100.0%      0.0%     
 flops    60 x    32 x    27           1328140800       0.0%    100.0%      0.0%     
 flops    60 x    54 x    27           1346317200       0.0%    100.0%      0.0%     
 flops    10 x    59 x    10           1390346800       0.0%    100.0%      0.0%     
 flops    10 x    45 x    30           1397088000       0.0%    100.0%      0.0%     
 flops    47 x    29 x    32           1445608704       0.0%    100.0%      0.0%     
 flops    10 x    31 x    10           1455084200       0.0%    100.0%      0.0%     
 flops    45 x    51 x    27           1482574590       0.0%    100.0%      0.0%     
 flops    45 x    46 x    10           1494208800       0.0%    100.0%      0.0%     
 flops    47 x    46 x    27           1497293100       0.0%    100.0%      0.0%     
 flops    10 x    29 x    27           1508339880       0.0%    100.0%      0.0%     
 flops    27 x    29 x    10           1508496480       0.0%    100.0%      0.0%     
 flops    30 x    51 x    27           1553173380       0.0%    100.0%      0.0%     
 flops    10 x    45 x    46           1557964800       0.0%    100.0%      0.0%     
 flops    45 x    28 x    32           1559093760       0.0%    100.0%      0.0%     
 flops    30 x    46 x    10           1565361600       0.0%    100.0%      0.0%     
 flops    27 x    47 x    30           1582950600       0.0%    100.0%      0.0%     
 flops    45 x    55 x    27           1599790500       0.0%    100.0%      0.0%     
 flops    27 x    28 x    27           1616467104       0.0%    100.0%      0.0%     
 flops    30 x    28 x    32           1633336320       0.0%    100.0%      0.0%     
 flops    54 x    29 x    32           1660912128       0.0%    100.0%      0.0%     
 flops    30 x    55 x    27           1675971000       0.0%    100.0%      0.0%     
 flops    31 x    51 x    32           1678339008       0.0%    100.0%      0.0%     
 flops    32 x    10 x    30           1683763200       0.0%    100.0%      0.0%     
 flops    10 x    45 x    45           1714608000       0.0%    100.0%      0.0%     
 flops    54 x    46 x    27           1720294200       0.0%    100.0%      0.0%     
 flops    32 x    51 x    32           1732478976       0.0%    100.0%      0.0%     
 flops    45 x    60 x    27           1745226000       0.0%    100.0%      0.0%     
 flops    27 x    47 x    46           1765229760       0.0%    100.0%      0.0%     
 flops    32 x    28 x    30           1773864960       0.0%    100.0%      0.0%     
 flops    45 x    31 x    27           1801290960       0.0%    100.0%      0.0%     
 flops    31 x    55 x    32           1815538560       0.0%    100.0%      0.0%     
 flops    30 x    60 x    27           1828332000       0.0%    100.0%      0.0%     
 flops    60 x    29 x    32           1845457920       0.0%    100.0%      0.0%     
 flops    32 x    55 x    32           1874104320       0.0%    100.0%      0.0%     
 flops    30 x    31 x    27           1887066720       0.0%    100.0%      0.0%     
 flops    60 x    46 x    27           1911438000       0.0%    100.0%      0.0%     
 flops    32 x    10 x    46           1919016960       0.0%    100.0%      0.0%     
 flops    45 x    30 x    10           1931769000       0.0%    100.0%      0.0%     
 flops    27 x    47 x    45           1942712100       0.0%    100.0%      0.0%     
 flops     6 x     6 x    10           1944531360       0.0%    100.0%      0.0%     
 flops    47 x    30 x    27           1952305740       0.0%    100.0%      0.0%     
 flops    45 x    45 x    27           1961082900       0.0%    100.0%      0.0%     
 flops    31 x    60 x    32           1978087680       0.0%    100.0%      0.0%     
 flops    27 x    59 x    30           1987108200       0.0%    100.0%      0.0%     
 flops    32 x    28 x    46           2021892096       0.0%    100.0%      0.0%     
 flops    30 x    30 x    10           2023758000       0.0%    100.0%      0.0%     
 flops    31 x    31 x    32           2038304064       0.0%    100.0%      0.0%     
 flops    32 x    60 x    32           2041896960       0.0%    100.0%      0.0%     
 flops    45 x    47 x    27           2050640550       0.0%    100.0%      0.0%     
 flops    30 x    45 x    27           2054467800       0.0%    100.0%      0.0%     
 flops    27 x    31 x    30           2085887700       0.0%    100.0%      0.0%     
 flops    10 x    45 x    10           2112597000       0.0%    100.0%      0.0%     
 flops    32 x    10 x    45           2117606400       0.0%    100.0%      0.0%     
 flops    10 x    46 x    30           2142201600       0.0%    100.0%      0.0%     
 flops    30 x    47 x    27           2148290100       0.0%    100.0%      0.0%     
 flops    27 x    59 x    46           2215926720       0.0%    100.0%      0.0%     
 flops    31 x    45 x    32           2221464960       0.0%    100.0%      0.0%     
 flops    32 x    28 x    45           2225180160       0.0%    100.0%      0.0%     
 flops    45 x    40 x    32           2228889600       0.0%    100.0%      0.0%     
 flops    54 x    30 x    27           2243074680       0.0%    100.0%      0.0%     
 flops    10 x    32 x    10           2252332800       0.0%    100.0%      0.0%     
 flops    27 x    40 x    27           2301015600       0.0%    100.0%      0.0%     
 flops    45 x    32 x    27           2324246400       0.0%    100.0%      0.0%     
 flops    31 x    47 x    32           2325791616       0.0%    100.0%      0.0%     
 flops    10 x    30 x    30           2326464000       0.0%    100.0%      0.0%     
 flops    27 x    31 x    46           2328600960       0.0%    100.0%      0.0%     
 flops    30 x    40 x    32           2335027200       0.0%    100.0%      0.0%     
 flops    45 x    54 x    27           2356055100       0.0%    100.0%      0.0%     
 flops    10 x    46 x    46           2388879360       0.0%    100.0%      0.0%     
 flops    30 x    32 x    27           2434924800       0.0%    100.0%      0.0%     
 flops    27 x    59 x    45           2438723700       0.0%    100.0%      0.0%     
 flops    27 x    47 x    10           2451784140       0.0%    100.0%      0.0%     
 flops    10 x    47 x    27           2463661980       0.0%    100.0%      0.0%     
 flops    30 x    54 x    27           2468248200       0.0%    100.0%      0.0%     
 flops    60 x    30 x    27           2492305200       0.0%    100.0%      0.0%     
 flops    47 x    51 x    32           2544578496       0.0%    100.0%      0.0%     
 flops    27 x    31 x    45           2562726600       0.0%    100.0%      0.0%     
 flops    32 x    40 x    30           2590156800       0.0%    100.0%      0.0%     
 flops    10 x    30 x    46           2596608000       0.0%    100.0%      0.0%     
 flops    31 x    32 x    32           2628403200       0.0%    100.0%      0.0%     
 flops    10 x    46 x    45           2629065600       0.0%    100.0%      0.0%     
 flops    31 x    54 x    32           2670900480       0.0%    100.0%      0.0%     
 flops    47 x    55 x    32           2752590720       0.0%    100.0%      0.0%     
 flops    32 x    54 x    32           2757058560       0.0%    100.0%      0.0%     
 flops    10 x    28 x    32           2808081920       0.0%    100.0%      0.0%     
 flops    32 x    28 x    10           2852218880       0.0%    100.0%      0.0%     
 flops    10 x    30 x    45           2857680000       0.0%    100.0%      0.0%     
 flops    32 x    40 x    46           2888417280       0.0%    100.0%      0.0%     
 flops    54 x    51 x    32           2923558272       0.0%    100.0%      0.0%     
 flops    47 x    60 x    32           2999036160       0.0%    100.0%      0.0%     
 flops    27 x    45 x    30           3031182000       0.0%    100.0%      0.0%     
 flops    27 x    59 x    10           3079938060       0.0%    100.0%      0.0%     
 flops    10 x    59 x    27           3086979120       0.0%    100.0%      0.0%     
 flops    47 x    31 x    32           3090331968       0.0%    100.0%      0.0%     
 flops    54 x    55 x    32           3162551040       0.0%    100.0%      0.0%     
 flops    32 x    40 x    45           3178828800       0.0%    100.0%      0.0%     
 flops    10 x    32 x    30           3210969600       0.0%    100.0%      0.0%     
 flops    10 x    31 x    27           3223471140       0.0%    100.0%      0.0%     
 flops    45 x    29 x    32           3229551360       0.0%    100.0%      0.0%     
 flops    27 x    31 x    10           3232510740       0.0%    100.0%      0.0%     
 flops    60 x    51 x    32           3248398080       0.0%    100.0%      0.0%     
 flops    10 x    46 x    10           3249955200       0.0%    100.0%      0.0%     
 flops    10 x     6 x    10           3313280400       0.0%    100.0%      0.0%     
 flops    45 x    46 x    27           3345016500       0.0%    100.0%      0.0%     
 flops    27 x    29 x    27           3346578018       0.0%    100.0%      0.0%     
 flops    47 x    45 x    32           3368027520       0.0%    100.0%      0.0%     
 flops    27 x    45 x    46           3380227200       0.0%    100.0%      0.0%     
 flops    30 x    29 x    32           3383339520       0.0%    100.0%      0.0%     
 flops    54 x    60 x    32           3445701120       0.0%    100.0%      0.0%     
 flops     6 x    13 x    10           3457404600       0.0%    100.0%      0.0%     
 flops    30 x    46 x    27           3504303000       0.0%    100.0%      0.0%     
 flops    60 x    55 x    32           3513945600       0.0%    100.0%      0.0%     
 flops    47 x    47 x    32           3526200192       0.0%    100.0%      0.0%     
 flops    10 x    30 x    10           3529758000       0.0%    100.0%      0.0%     
 flops    54 x    31 x    32           3550594176       0.0%    100.0%      0.0%     
 flops    10 x    32 x    46           3587440640       0.0%    100.0%      0.0%     
 flops    32 x    27 x    30           3653164800       0.0%    100.0%      0.0%     
 flops    27 x    45 x    45           3720087000       0.0%    100.0%      0.0%     
 flops    32 x    29 x    30           3755727360       0.0%    100.0%      0.0%     
 flops    31 x    46 x    32           3793114368       0.0%    100.0%      0.0%     
 flops    60 x    60 x    32           3828556800       0.0%    100.0%      0.0%     
 flops    54 x    45 x    32           3869648640       0.0%    100.0%      0.0%     
 flops    60 x    31 x    32           3945104640       0.0%    100.0%      0.0%     
 flops    10 x    32 x    45           3948134400       0.0%    100.0%      0.0%     
 flops    47 x    32 x    32           3984998400       0.0%    100.0%      0.0%     
 flops    10 x    40 x    32           4005094400       0.0%    100.0%      0.0%     
 flops    47 x    54 x    32           4049429760       0.0%    100.0%      0.0%     
 flops    54 x    47 x    32           4051378944       0.0%    100.0%      0.0%     
 flops    32 x    40 x    10           4076134400       0.0%    100.0%      0.0%     
 flops    32 x    27 x    46           4163581440       0.0%    100.0%      0.0%     
 flops    32 x    29 x    46           4188205056       0.0%    100.0%      0.0%     
 flops    60 x    45 x    32           4299609600       0.0%    100.0%      0.0%     
 flops    45 x    30 x    27           4361534100       0.0%    100.0%      0.0%     
 flops    13 x     6 x    10           4367583480       0.0%    100.0%      0.0%     
 flops    60 x    47 x    32           4501532160       0.0%    100.0%      0.0%     
 flops    30 x    30 x    27           4569226200       0.0%    100.0%      0.0%     
 flops    54 x    32 x    32           4578508800       0.0%    100.0%      0.0%     
 flops    32 x    27 x    45           4594449600       0.0%    100.0%      0.0%     
 flops    32 x    29 x    45           4609301760       0.0%    100.0%      0.0%     
 flops    27 x    46 x    30           4647812400       0.0%    100.0%      0.0%     
 flops    54 x    54 x    32           4652536320       0.0%    100.0%      0.0%     
 flops    10 x    45 x    27           4687081200       0.0%    100.0%      0.0%     
 flops    27 x    45 x    10           4688757900       0.0%    100.0%      0.0%     
 flops    31 x    30 x    32           4936648320       0.0%    100.0%      0.0%     
 flops    10 x    32 x    27           4989824640       0.0%    100.0%      0.0%     
 flops    27 x    32 x    10           4999587840       0.0%    100.0%      0.0%     
 flops    27 x    30 x    30           5047596000       0.0%    100.0%      0.0%     
 flops    60 x    32 x    32           5087232000       0.0%    100.0%      0.0%     
 flops    60 x    54 x    32           5169484800       0.0%    100.0%      0.0%     
 flops    27 x    46 x    46           5183015040       0.0%    100.0%      0.0%     
 flops    27 x    47 x    27           5466935754       0.0%    100.0%      0.0%     
 flops    10 x     6 x     6           5497371360       0.0%    100.0%      0.0%     
 flops    27 x    30 x    46           5633712000       0.0%    100.0%      0.0%     
 flops    45 x    51 x    32           5684696640       0.0%    100.0%      0.0%     
 flops    27 x    46 x    45           5704133400       0.0%    100.0%      0.0%     
 flops    47 x    46 x    32           5750850816       0.0%    100.0%      0.0%     
 flops    10 x    29 x    32           5811748480       0.0%    100.0%      0.0%     
 flops    32 x    29 x    10           5905105280       0.0%    100.0%      0.0%     
 flops    30 x    51 x    32           5955396480       0.0%    100.0%      0.0%     
 flops    32 x    47 x    30           6086868480       0.0%    100.0%      0.0%     
 flops    45 x    55 x    32           6149404800       0.0%    100.0%      0.0%     
 flops    27 x    30 x    45           6200145000       0.0%    100.0%      0.0%     
 flops    27 x    28 x    32           6218360064       0.0%    100.0%      0.0%     
 flops    32 x    28 x    27           6329981952       0.0%    100.0%      0.0%     
 flops    30 x    55 x    32           6442233600       0.0%    100.0%      0.0%     
 flops    10 x    10 x   518           6497792000       0.0%    100.0%      0.0%     
 flops    54 x    46 x    32           6607360512       0.0%    100.0%      0.0%     
 flops    27 x    32 x    30           6685130880       0.0%    100.0%      0.0%     
 flops    45 x    60 x    32           6699974400       0.0%    100.0%      0.0%     
 flops    32 x    47 x    46           6787780608       0.0%    100.0%      0.0%     
 flops    10 x    10 x   542           6798848000       0.0%    100.0%      0.0%     
 flops    27 x    59 x    27           6855093180       0.0%    100.0%      0.0%     
 flops    10 x    10 x   548           6874112000       0.0%    100.0%      0.0%     
 flops    45 x    31 x    32           6903933120       0.0%    100.0%      0.0%     
 flops    30 x    60 x    32           7019020800       0.0%    100.0%      0.0%     
 flops    27 x    31 x    27           7141374396       0.0%    100.0%      0.0%     
 flops    27 x    46 x    10           7200122400       0.0%    100.0%      0.0%     
 flops    10 x    46 x    27           7220416680       0.0%    100.0%      0.0%     
 flops    30 x    31 x    32           7232691840       0.0%    100.0%      0.0%     
 flops     6 x     6 x    27           7285122504       0.0%    100.0%      0.0%     
 flops    27 x     6 x    10           7339565520       0.0%    100.0%      0.0%     
 flops    60 x    46 x    32           7341511680       0.0%    100.0%      0.0%     
 flops    10 x    13 x    10           7381121800       0.0%    100.0%      0.0%     
 flops    32 x    47 x    45           7470247680       0.0%    100.0%      0.0%     
 flops    47 x    30 x    32           7484595840       0.0%    100.0%      0.0%     
 flops    45 x    45 x    32           7524316800       0.0%    100.0%      0.0%     
 flops    32 x    59 x    30           7640962560       0.0%    100.0%      0.0%     
 flops    27 x    32 x    46           7713833472       0.0%    100.0%      0.0%     
 flops    13 x    13 x    10           7794449000       0.0%    100.0%      0.0%     
 flops    10 x    30 x    27           7814442600       0.0%    100.0%      0.0%     
 flops    27 x    30 x    10           7826770800       0.0%    100.0%      0.0%     
 flops    45 x    47 x    32           7877681280       0.0%    100.0%      0.0%     
 flops    30 x    45 x    32           7882617600       0.0%    100.0%      0.0%     
 flops    32 x    31 x    30           8020796160       0.0%    100.0%      0.0%     
 flops    30 x    47 x    32           8252808960       0.0%    100.0%      0.0%     
 flops    32 x    59 x    46           8520830976       0.0%    100.0%      0.0%     
 flops    27 x    32 x    45           8554688640       0.0%    100.0%      0.0%     
 flops    54 x    30 x    32           8599322880       0.0%    100.0%      0.0%     
 flops    27 x    40 x    32           8868165120       0.0%    100.0%      0.0%     
 flops    45 x    32 x    32           8902656000       0.0%    100.0%      0.0%     
 flops    32 x    31 x    46           8954093568       0.0%    100.0%      0.0%     
 flops    32 x    40 x    27           9015736320       0.0%    100.0%      0.0%     
 flops    45 x    54 x    32           9046598400       0.0%    100.0%      0.0%     
 flops    10 x    10 x     6           9096292800       0.0%    100.0%      0.0%     
 flops    30 x    32 x    32           9326592000       0.0%    100.0%      0.0%     
 flops    32 x    59 x    45           9377544960       0.0%    100.0%      0.0%     
 flops    10 x    47 x    32           9474839040       0.0%    100.0%      0.0%     
 flops    30 x    54 x    32           9477388800       0.0%    100.0%      0.0%     
 flops    60 x    30 x    32           9554803200       0.0%    100.0%      0.0%     
 flops    32 x    47 x    10           9696378240       0.0%    100.0%      0.0%     
 flops    10 x    13 x     6           9714127800       0.0%    100.0%      0.0%     
 flops    32 x    31 x    45           9854369280       0.0%    100.0%      0.0%     
 flops    27 x    45 x    27          10380551760       0.0%    100.0%      0.0%     
 flops    27 x    32 x    27          11049867072       0.0%    100.0%      0.0%     
 flops    32 x    45 x    30          11655705600       0.0%    100.0%      0.0%     
 flops    32 x    59 x    10          11825639040       0.0%    100.0%      0.0%     
 flops    10 x    59 x    32          11887792000       0.0%    100.0%      0.0%     
 flops    10 x     6 x    27          12351307680       0.0%    100.0%      0.0%     
 flops    10 x    31 x    32          12427280000       0.0%    100.0%      0.0%     
 flops    32 x    31 x    10          12647226240       0.0%    100.0%      0.0%     
 flops    10 x     6 x    13          12781685280       0.0%    100.0%      0.0%     
 flops    45 x    46 x    32          12847645440       0.0%    100.0%      0.0%     
 flops    27 x    29 x    32          12866957568       0.0%    100.0%      0.0%     
 flops     6 x    13 x    27          12978983160       0.0%    100.0%      0.0%     
 flops    32 x    45 x    46          12997877760       0.0%    100.0%      0.0%     
 flops    32 x    29 x    27          13098475008       0.0%    100.0%      0.0%     
 flops    30 x    46 x    32          13459438080       0.0%    100.0%      0.0%     
 flops    10 x    27 x   518          14097888000       0.0%    100.0%      0.0%     
 flops    27 x    10 x   518          14097888000       0.0%    100.0%      0.0%     
 flops    13 x     6 x    27          14211515448       0.0%    100.0%      0.0%     
 flops    32 x    45 x    45          14304729600       0.0%    100.0%      0.0%     
 flops    10 x    27 x   542          14751072000       0.0%    100.0%      0.0%     
 flops    27 x    10 x   542          14751072000       0.0%    100.0%      0.0%     
 flops    10 x    27 x   548          14914368000       0.0%    100.0%      0.0%     
 flops    27 x    10 x   548          14914368000       0.0%    100.0%      0.0%     
 flops    27 x    46 x    27          16023215880       0.0%    100.0%      0.0%     
 flops    27 x    13 x    10          16398516420       0.0%    100.0%      0.0%     
 flops    45 x    30 x    32          16720905600       0.0%    100.0%      0.0%     
 flops    27 x    30 x    27          17329700520       0.0%    100.0%      0.0%     
 flops    30 x    30 x    32          17517139200       0.0%    100.0%      0.0%     
 flops    32 x    46 x    30          17872081920       0.0%    100.0%      0.0%     
 flops    10 x    45 x    32          18053395200       0.0%    100.0%      0.0%     
 flops    32 x    45 x    10          18262137600       0.0%    100.0%      0.0%     
 flops    10 x    32 x    32          19233873920       0.0%    100.0%      0.0%     
 flops    32 x    30 x    30          19409356800       0.0%    100.0%      0.0%     
 flops    32 x    32 x    10          19500810240       0.0%    100.0%      0.0%     
 flops    32 x    46 x    46          19930079232       0.0%    100.0%      0.0%     
 flops    27 x     6 x     6          20065419792       0.0%    100.0%      0.0%     
 flops    27 x    10 x     6          20208009600       0.0%    100.0%      0.0%     
 flops    27 x    47 x    32          21016345536       0.0%    100.0%      0.0%     
 flops    10 x    10 x    13          21247886400       0.0%    100.0%      0.0%     
 flops    32 x    47 x    27          21616694208       0.0%    100.0%      0.0%     
 flops    32 x    30 x    46          21663129600       0.0%    100.0%      0.0%     
 flops    32 x    46 x    45          21933918720       0.0%    100.0%      0.0%     
 flops    10 x    13 x    13          22485477040       0.0%    100.0%      0.0%     
 flops    32 x    30 x    45          23841216000       0.0%    100.0%      0.0%     
 flops    10 x    13 x    27          24259842360       0.0%    100.0%      0.0%     
 flops    32 x    28 x    32          24356921344       0.0%    100.0%      0.0%     
 flops    13 x    13 x    27          25308953280       0.0%    100.0%      0.0%     
 flops     6 x     6 x    32          25755833088       0.0%    100.0%      0.0%     
 flops    32 x    59 x    27          26315340480       0.0%    100.0%      0.0%     
 flops    27 x    59 x    32          26338177728       0.0%    100.0%      0.0%     
 flops    32 x    32 x    30          26453237760       0.0%    100.0%      0.0%     
 flops    27 x    31 x    32          27480919680       0.0%    100.0%      0.0%     
 flops    27 x     6 x    27          27542885544       0.0%    100.0%      0.0%     
 flops    10 x    46 x    32          27783705600       0.0%    100.0%      0.0%     
 flops    32 x    31 x    27          27963513792       0.0%    100.0%      0.0%     
 flops    32 x    46 x    10          28095887360       0.0%    100.0%      0.0%     
 flops    32 x     6 x    10          28252715520       0.0%    100.0%      0.0%     
 flops    32 x    32 x    46          29874487296       0.0%    100.0%      0.0%     
 flops    10 x    30 x    32          30117580800       0.0%    100.0%      0.0%     
 flops    27 x    27 x   518          30587382000       0.0%    100.0%      0.0%     
 flops    32 x    30 x    10          30627283200       0.0%    100.0%      0.0%     
 flops    27 x    27 x   542          32004558000       0.0%    100.0%      0.0%     
 flops    27 x    27 x   548          32358852000       0.0%    100.0%      0.0%     
 flops    32 x    32 x    45          32925265920       0.0%    100.0%      0.0%     
 flops    10 x    27 x     6          33152710320       0.0%    100.0%      0.0%     
 flops    32 x    40 x    32          34735554560       0.0%    100.0%      0.0%     
 flops    27 x    13 x     6          35464109148       0.0%    100.0%      0.0%     
 flops    27 x     6 x    13          39714316200       0.0%    100.0%      0.0%     
 flops    27 x    45 x    32          39970895040       0.0%    100.0%      0.0%     
 flops    32 x    45 x    27          40455650880       0.0%    100.0%      0.0%     
 flops    27 x    32 x    32          42548502528       0.0%    100.0%      0.0%     
 flops    32 x    32 x    27          43122751488       0.0%    100.0%      0.0%     
 flops    10 x     6 x    32          43761623040       0.0%    100.0%      0.0%     
 flops     6 x    13 x    32          45815842176       0.0%    100.0%      0.0%     
 flops    27 x    10 x    13          46908229680       0.0%    100.0%      0.0%     
 flops    32 x    29 x    32          50393636864       0.0%    100.0%      0.0%     
 flops    13 x     6 x    32          51413566464       0.0%    100.0%      0.0%     
 flops    27 x    13 x    27          54004874040       0.0%    100.0%      0.0%     
 flops    10 x    32 x   518          54210150400       0.0%    100.0%      0.0%     
 flops    32 x    10 x   518          54210150400       0.0%    100.0%      0.0%     
 flops    10 x    32 x   542          56721817600       0.0%    100.0%      0.0%     
 flops    32 x    10 x   542          56721817600       0.0%    100.0%      0.0%     
 flops    10 x    32 x   548          57349734400       0.0%    100.0%      0.0%     
 flops    32 x    10 x   548          57349734400       0.0%    100.0%      0.0%     
 flops    27 x    46 x    32          61542153216       0.0%    100.0%      0.0%     
 flops    32 x    46 x    27          62531858304       0.0%    100.0%      0.0%     
 flops    32 x    13 x    10          63210584320       0.0%    100.0%      0.0%     
 flops    10 x    27 x    13          65805557220       0.0%    100.0%      0.0%     
 flops    27 x    30 x    32          66726270720       0.0%    100.0%      0.0%     
 flops    32 x    30 x    27          67849902720       0.0%    100.0%      0.0%     
 flops    27 x    13 x    13          69651247302       0.0%    100.0%      0.0%     
 flops    32 x     6 x     6          70787962368       0.0%    100.0%      0.0%     
 flops    27 x    27 x     6          73786274460       0.0%    100.0%      0.0%     
 flops    32 x    10 x     6          77520184320       0.0%    100.0%      0.0%     
 flops    32 x    47 x    32          83087120384       0.0%    100.0%      0.0%     
 flops    10 x    13 x    32          87627196800       0.0%    100.0%      0.0%     
 flops    13 x    13 x    32          91533796224       0.0%    100.0%      0.0%     
 flops    27 x     6 x    32          97263586944       0.0%    100.0%      0.0%     
 flops    32 x    59 x    32         101131550720       0.0%    100.0%      0.0%     
 flops    32 x     6 x    27         105705917568       0.0%    100.0%      0.0%     
 flops    32 x    31 x    32         107645618176       0.0%    100.0%      0.0%     
 flops    10 x    32 x     6         116857382400       0.0%    100.0%      0.0%     
 flops    27 x    32 x   518         117616665600       0.0%    100.0%      0.0%     
 flops    32 x    27 x   518         117616665600       0.0%    100.0%      0.0%     
 flops    27 x    32 x   542         123066086400       0.0%    100.0%      0.0%     
 flops    32 x    27 x   542         123066086400       0.0%    100.0%      0.0%     
 flops    27 x    32 x   548         124428441600       0.0%    100.0%      0.0%     
 flops    32 x    27 x   548         124428441600       0.0%    100.0%      0.0%     
 flops    32 x    13 x     6         125082552192       0.0%    100.0%      0.0%     
 flops    32 x     6 x    13         144136342272       0.0%    100.0%      0.0%     
 flops    27 x    27 x    13         144940688334       0.0%    100.0%      0.0%     
 flops    32 x    45 x    32         155772702720       0.0%    100.0%      0.0%     
 flops    32 x    32 x    32         166120718336       0.0%    100.0%      0.0%     
 flops    32 x    10 x    13         180150954880       0.0%    100.0%      0.0%     
 flops    27 x    13 x    32         194579798400       0.0%    100.0%      0.0%     
 flops    32 x    13 x    27         207340024320       0.0%    100.0%      0.0%     
 flops    10 x    32 x    13         238952371840       0.0%    100.0%      0.0%     
 flops    32 x    46 x    32         240226725888       0.0%    100.0%      0.0%     
 flops    32 x    13 x    13         252948243392       0.0%    100.0%      0.0%     
 flops    27 x    32 x     6         260324492544       0.0%    100.0%      0.0%     
 flops    32 x    30 x    32         261338726400       0.0%    100.0%      0.0%     
 flops    32 x    27 x     6         283061288448       0.0%    100.0%      0.0%     
 flops    32 x     6 x    32         373746892800       0.0%    100.0%      0.0%     
 flops    32 x    32 x   518         452267540480       0.0%    100.0%      0.0%     
 flops    32 x    32 x   542         473222021120       0.0%    100.0%      0.0%     
 flops    32 x    32 x   548         478460641280       0.0%    100.0%      0.0%     
 flops    27 x    32 x    13         526942608192       0.0%    100.0%      0.0%     
 flops    32 x    27 x    13         556954512192       0.0%    100.0%      0.0%     
 flops    32 x    13 x    32         748184825856       0.0%    100.0%      0.0%     
 flops    32 x    32 x     6         998502838272       0.0%    100.0%      0.0%     
 flops    32 x    32 x    13        2024566542336       0.0%    100.0%      0.0%     
 flops inhomo. stacks              38824334842624     100.0%      0.0%      0.0%
 flops total                        53.727804E+12      72.3%     27.7%      0.0%
 flops max/rank                      1.897836E+12      72.1%     27.9%      0.0%
 matmuls inhomo. stacks                 173365668     100.0%      0.0%      0.0%
 matmuls total                         1050321391      16.5%     83.5%      0.0%
 number of processed stacks               5335302       4.0%     96.0%      0.0%
 average stack size                                   812.6     171.2       0.0
 marketing flops                    56.367117E+12
 -------------------------------------------------------------------------------
 # multiplications                            506
 max memory usage/rank              19.906994E+09
 # max total images/rank                        2
 # max 3D layers                                1
 # MPI messages exchanged                  210496
 MPI messages size (bytes):
  total size                       471.753490E+09
  min size                           0.000000E+00
  max size                          12.409880E+06
  average size                       2.241152E+06
 MPI breakdown and total messages size (bytes):
             size <=      128               33165                        0
       128 < size <=     8192                 430                  2760680
      8192 < size <=    32768                2172                 56173728
     32768 < size <=   131072               17844               1850922696
    131072 < size <=  4194304              122148             170918579024
   4194304 < size <= 16777216               34737             298925343656
  16777216 < size                               0                        0
 -------------------------------------------------------------------------------

 *** WARNING in dbcsr_mm.F:301 :: Using a non-square number of MPI ranks ***
 *** might lead to poor performance. Used ranks: 32 Suggested: 36 64     ***

 -------------------------------------------------------------------------------
 -                                                                             -
 -                      DBCSR MESSAGE PASSING PERFORMANCE                      -
 -                                                                             -
 -------------------------------------------------------------------------------
 ROUTINE             CALLS      AVE VOLUME [Bytes]
 MP_Bcast              684                     12.
 MP_Allreduce         3489                     42.
 MP_Alltoall          3387                 478082.
 MP_ISend            25310                 671212.
 MP_IRecv            22316                 737814.
 -------------------------------------------------------------------------------

 -------------------------------------------------------------------------------
 -                                                                             -
 -                                GRID STATISTICS                              -
 -                                                                             -
 -------------------------------------------------------------------------------
 LP    KERNEL             BACKEND                              COUNT     PERCENT
 3     collocate ortho    CPU                                   6420      24.87%
 3     integrate ortho    CPU                                   6420      24.87%
 2     collocate ortho    CPU                                   3324      12.88%
 2     integrate ortho    CPU                                   3324      12.88%
 4     collocate ortho    CPU                                   3114      12.06%
 4     integrate ortho    CPU                                   3114      12.06%
 0     collocate general  CPU                                    101       0.39%
 -------------------------------------------------------------------------------

 -------------------------------------------------------------------------------
 -                                                                             -
 -                          OFFLOAD MEMPOOL STATISTICS                         -
 -                                                                             -
 -------------------------------------------------------------------------------
 Memory consumption                Number of allocations  Used [MiB]  Size [MiB]
 Host                                                  6         101    21576646
 -------------------------------------------------------------------------------

 MEMORY| Estimated peak process memory [MiB]                                1742

 -------------------------------------------------------------------------------
 -                                                                             -
 -                         MESSAGE PASSING PERFORMANCE                         -
 -                                                                             -
 -------------------------------------------------------------------------------

 ROUTINE             CALLS      AVE VOLUME [Bytes]
 MP_Group                5
 MP_Bcast              525                  76610.
 MP_Allreduce         1299                  69468.
 MP_Sync                10
 MP_Alltoall            46               60880394.
 MP_SendRecv           124                 511920.
 MP_ISendRecv          124                 511920.
 MP_Wait               358
 MP_comm_split           8
 MP_ISend              198                1785008.
 MP_IRecv              198                1788778.
 -------------------------------------------------------------------------------


 -------------------------------------------------------------------------------
 -                                                                             -
 -                           R E F E R E N C E S                               -
 -                                                                             -
 -------------------------------------------------------------------------------
 
 CP2K version 2026.2 (Development Version), the CP2K developers group (2026).
 CP2K is freely available from https://www.cp2k.org/ .
 
 M. Iannuzzi, J. Wilhelm, F. Stein, A. Bussy, H. Elgabarty, D. Golze, A. Hehn, 
 M. Graml, S. Marek, B. Sertcan Gökmen, C. Schran, H. Forbert, R. Z. 
 Khaliullin, A. Kozhevnikov, M. Taillefumier, R. Meli, V. V. Rybkin, M. Brehm, 
 R. Schade, O. Schütt, J. V. Pototschnig, H. Mirhosseini, A. Knüpfer, D. Marx, 
 M. Krack, J. Hutter, T. D. Kühne.
 J. Phys. Chem. B 130, 1237-1310 (2026).
 The CP2K Program Package Made Simple.
 https://doi.org/10.1021/acs.jpcb.5c05851

 M. Graml, K. Zollner, D. Hernangómez-Pérez, P. E. Faria Junior, J. Wilhelm.
 J. Chem. Theory Comput. 20, 2202-2208 (2024).
 Low-scaling GW algorithm applied to twisted transition-metal dichalcogenide 
 heterobilayers.
 https://doi.org/10.1021/acs.jctc.3c01230

 T. D. Kühne, M. Iannuzzi, M. Del Ben, V. V. Rybkin, P. Seewald, F. Stein, T. 
 Laino, R. Z. Khaliullin, O. Schütt, F. Schiffmann, D. Golze, J. Wilhelm, S. 
 Chulkov, M. H. Bani-Hashemian, V. Weber, U. Borstnik, M. Taillefumier, A. S. 
 Jakobovits, A. Lazzaro, H. Pabst, T. Müller, R. Schade, M. Guidon, S. 
 Andermatt, N. Holmberg, G. K. Schenter, A. Hehn, A. Bussy, F. Belleflamme, G. 
 Tabacchi, A. Glöß, M. Lass, I. Bethune, C. J. Mundy, C. Plessl, M. Watkins, 
 J. VandeVondele, M. Krack, J. Hutter.
 J. Chem. Phys. 152, 194103 (2020).
 CP2K: An electronic structure and molecular dynamics software package - 
 Quickstep: Efficient and accurate electronic structure calculations.
 https://doi.org/10.1063/5.0007045

 O. Schuett, P. Messmer, J. Hutter, J. VandeVondele.
 Electronic Structure Calculations on Graphics Processing Units, 173-190 (2016).
 GPU-Accelerated Sparse Matrix-Matrix Multiplication for Linear Scaling Density 
 Functional Theory.
 https://doi.org/10.1002/9781118670712.ch8

 U. Borstnik, J. VandeVondele, V. Weber, J. Hutter.
 Parallel Comput. 40, 47-58 (2014).
 Sparse matrix multiplication: The distributed block-compressed sparse row 
 library.
 https://doi.org/10.1016/j.parco.2014.03.012

 J. VandeVondele, J. Hutter.
 J. Chem. Phys. 127, 114105 (2007).
 Gaussian basis sets for accurate calculations on molecular systems in gas and 
 condensed phases.
 https://doi.org/10.1063/1.2770708

 J. VandeVondele, M. Krack, F. Mohamed, M. Parrinello, T. Chassaing, J. Hutter.
 Comput. Phys. Commun. 167, 103-128 (2005).
 QUICKSTEP: Fast and accurate density functional calculations using a mixed 
 Gaussian and plane waves approach.
 https://doi.org/10.1016/j.cpc.2004.12.014

 M. Krack.
 Theor. Chem. Acc. 114, 145-152 (2005).
 Pseudopotentials for H to Kr optimized for gradient-corrected 
 exchange-correlation functionals.
 https://doi.org/10.1007/s00214-005-0655-y

 M. Frigo, S. G. Johnson.
 Proc. IEEE 93, 216-231 (2005).
 The design and implementation of FFTW3.
 https://doi.org/10.1109/JPROC.2004.840301

 J. VandeVondele, J. Hutter.
 J. Chem. Phys. 118, 4365-4369 (2003).
 An efficient orbital transformation method for electronic structure 
 calculations.
 https://doi.org/10.1063/1.1543154

 C. Hartwigsen, S. Goedecker, J. Hutter.
 Phys. Rev. B 58, 3641-3662 (1998).
 Relativistic separable dual-space Gaussian pseudopotentials from H to Rn.
 https://doi.org/10.1103/PhysRevB.58.3641

 G. Lippert, J. Hutter, M. Parrinello.
 Mol. Phys. 92, 477-487 (1997).
 A hybrid Gaussian and plane wave density functional scheme.
 https://doi.org/10.1080/002689797170220

 S. Goedecker, M. Teter, J. Hutter.
 Phys. Rev. B 54, 1703-1710 (1996).
 Separable dual-space Gaussian pseudopotentials.
 https://doi.org/10.1103/PhysRevB.54.1703

 J. P. Perdew, K. Burke, M. Ernzerhof.
 Phys. Rev. Lett. 77, 3865-3868 (1996).
 Generalized gradient approximation made simple.
 https://doi.org/10.1103/PhysRevLett.77.3865

 P. E. Blöchl.
 J. Chem. Phys. 103, 7422-7428 (1995).
 Electrostatic decoupling of periodic images of plane‐wave‐expanded 
 densities and derived atomic point charges.
 https://doi.org/10.1063/1.470314

 R. H. Byrd, P. H. Lu, J. Nocedal, C. Y. Zhu.
 SIAM J. Sci. Comput. 16, 1190-1208 (1995).
 A Limited Memory Algorithm for Bound Constrained Optimization.
 https://doi.org/10.1137/0916069


 -------------------------------------------------------------------------------
 -                                                                             -
 -                                T I M I N G                                  -
 -                                                                             -
 -------------------------------------------------------------------------------
 SUBROUTINE                       CALLS  ASD         SELF TIME        TOTAL TIME MAXRANK
                                MAXIMUM       AVERAGE  MAXIMUM  AVERAGE  MAXIMUM
 CP2K                                 1  1.0    0.075    0.077  108.034  108.034      14
 qs_energies                          1  2.0    0.018    0.019  107.231  107.232      17
 qs_energies_properties               1  3.0    0.001    0.001  102.627  102.627       4
 post_scf_bandstructure               1  4.0    0.001    0.001  102.626  102.627      16
 gw                                   1  5.0    0.000    0.001  102.216  102.233      14
 gw_calc_non_periodic_ri_rs           1  6.0    0.007    0.008   94.755   94.782      24
 dbcsr_multiply_generic             506  9.6    0.030    0.036   29.197   32.172      25
 compute_Z_lP                         1  7.0    0.000    0.000   27.003   27.011      26
 compute_Z_lP_auto_ri                 1  8.0    0.004    0.004   27.003   27.011      22
 compute_W                            1  7.0    0.001    0.001   23.065   23.067      28
 compute_auto_ri_d_lp                 1  9.0    0.000    0.000   20.554   20.562       6
 compute_auto_ri_d_lp_AB_d_lp         1 10.0    0.006    0.010   15.012   20.501      10
 multiply_cannon                    506 10.6    0.047    0.058   18.671   19.943      13
 compute_d_lp_auto_ri_atom            4 11.0    8.978   12.637   14.124   19.414       4
 multiply_cannon_loop               506 11.6    0.042    0.047   17.904   19.248      31
 cp_fm_gemm                         434 10.5   17.083   17.444   17.083   17.444      22
 parallel_gemm_fm_gemm              431  9.6    0.001    0.002   17.077   17.437      12
 ri_rs_grid_assembler                 1  7.0    0.010    0.013   17.032   17.042      21
 optimize_ri_rs_grid                  1  8.0    0.000    0.001   16.878   16.879       0
 rirs_grid_LBFGS                      1  9.0    0.606    0.816   16.264   16.588       4
 multiply_cannon_multrec           4048 12.6   15.208   16.442   15.225   16.461       3
 compute_fm_W_freq                   30  8.0    0.001    0.001   15.915   15.948       4
 compute_Sigma_c_and_QP_energie       1  7.0    0.000    0.000   15.222   15.239      15
 evaluate_rirs_grid_cluster         404 10.0    1.001    1.510    9.657   15.059       3
 compute_Sigma_c                      1  8.0    0.001    0.004   14.858   14.859       0
 contract_grid_panels_sigma_c        30  9.0    0.003    0.003   14.125   14.136       1
 contract_grid_panels                31  8.0    0.002    0.003   11.495   11.924      13
 get_mat_chi_Gamma_tau                1  7.0    0.001    0.001   11.695   11.697       0
 mp_sum_d                           558  3.1    6.015   11.566    6.015   11.566      31
 mp_sum_l                          1706 10.5    7.502   11.341    7.502   11.341      23
 compute_auto_ri_d_lp_transform       1 10.0    0.000    0.000    5.542    8.451      13
 create_and_init_bs_env_for_gw        1  6.0    0.017    0.024    7.461    7.519      10
 generate_auto_ri_basis               1  7.0    0.001    0.001    6.405    6.405       1
 fit_auto_ri_z_lp                     1  9.0    2.701    3.275    5.101    6.279       0
 compute_M_pq_inv_and_V_pq            1  8.0    0.000    0.000    5.465    5.466      15
 mp_waitall_1                     32544 13.8    3.423    4.298    3.423    4.298      21
 rirs_cluster_gradient_products     404 11.0    2.710    4.260    2.710    4.260       3
 build_3c_integral_block_auto_r   20402 12.0    2.946    3.900    2.946    3.900       1
 compute_contracted_RI_matrix         2  9.0    0.002    0.003    3.743    3.748       8
 compute_optimized_RI_matrix_bl     322 10.0    0.292    0.299    3.617    3.687       3
 compute_M_PQ_AB                   3850 11.0    0.004    0.004    3.347    3.412       7
 compute_M_PQ                      3850 12.0    0.005    0.006    3.343    3.408      27
 int_operators_r12_ab_os           3850 13.0    0.003    0.003    3.338    3.403      13
 int_operator_ab_os_low            3850 14.0    1.459    1.491    3.336    3.400      20
 rirs_cluster_gradient_coordina     404 11.0    2.081    3.278    2.081    3.278       4
 abc_contract_xsmm                33648 12.0    2.367    3.221    2.367    3.221       2
 scf_env_do_scf                       1  3.0    0.000    0.001    3.208    3.208       5
 cp_fm_cholesky_invert               31  9.0    3.178    3.188    3.178    3.188      14
 qs_ks_build_kohn_sham_matrix         2  7.5    0.019    0.028    3.021    3.022       9
 build_3c_integral_block_auto_r   20402 12.0    0.021    0.030    2.187    2.990       4
 make_m2s                          1012 10.6    0.014    0.015    2.856    2.898       0
 make_images                       1012 11.6    0.295    0.417    2.773    2.815       3
 fft_wrap_pw1pw2                     28 10.0    0.001    0.001    2.620    2.729       9
 fft_wrap_pw1pw2_250                 16 11.2    0.147    0.172    2.463    2.558       5
 init_scf_loop                        1  4.0    0.015    0.016    2.411    2.413       2
 multiply_cannon_metrocomm3        4048 12.6    0.009    0.010    1.546    2.376       6
 qs_ks_update_qs_env                  2  5.0    0.000    0.000    2.286    2.286       0
 rebuild_ks_matrix                    1  6.0    0.001    0.002    2.285    2.286      28
 build_phi_on_sphere                  8 10.5    0.060    0.077    1.717    2.218       2
 evaluate_ao_on_points              812 11.5    1.665    2.155    1.665    2.155       0
 fft3d_ps                            28 12.0    1.105    1.148    1.898    2.014      14
 cp_fm_cholesky_decompose            35  9.0    1.780    1.894    1.780    1.894       4
 build_gram_jacobi_blas               4 10.0    0.411    0.571    1.442    1.832       1
 rirs_cluster_residual              404 11.0    1.099    1.759    1.099    1.759       3
 make_images_data                  1012 12.6    0.013    0.014    1.664    1.749      23
 compute_M_pq_inv                     1  9.0    0.001    0.001    1.721    1.726       7
 cp_fm_geeig                          2  9.5    0.001    0.001    1.697    1.697       9
 hybrid_alltoall_any               1116 13.4    0.103    0.496    1.531    1.675       0
 rirs_cluster_D_ll                  404 11.0    1.075    1.654    1.075    1.654       3
 mp_sync                             10  9.2    1.177    1.516    1.177    1.516      28
 cp_fm_syevd                          5  9.0    0.001    0.001    1.500    1.504      15
 cp_fm_redistribute_end               5 10.0    0.751    1.497    0.752    1.497      26
 qs_vxc_create                        2  8.5    0.002    0.004    1.475    1.476       9
 cp_fm_syevd_base                     5 10.0    0.735    1.476    0.735    1.476      15
 xc_vxc_pw_create                     1  9.0    0.021    0.030    1.473    1.473       2
 rirs_cluster_d_lP                  404 11.0    0.929    1.443    0.929    1.443       3
 qs_rho_update_rho_low                2  5.0    0.001    0.001    1.390    1.390       2
 calculate_rho_elec                   2  6.0    0.019    0.020    1.389    1.390      14
 build_gram_jacobi_blas_dsyrk         4 11.0    1.031    1.278    1.031    1.278       2
 build_G_ao                         121  8.5    0.001    0.001    0.976    1.228       0
 rirs_cluster_AO_products           404 11.0    0.763    1.180    0.763    1.180       7
 xc_pw_derive                         6 11.0    0.000    0.000    1.099    1.179       1
 G_occ_vir                          121  9.5    0.032    0.043    0.840    1.111       9
 operator2                      1391976 15.0    1.057    1.094    1.057    1.094      15
 Fourier_transform_w_to_t            30  8.0    0.001    0.001    1.007    1.034       3
 cp_fm_scale_and_add                901  9.0    1.006    1.033    1.006    1.033      11
 dbcsr_complete_redistribute        265 10.4    0.286    0.366    0.910    0.989      27
 rirs_grid_build_clusters             1  9.0    0.439    0.711    0.614    0.980       3
 density_rs2pw                        2  7.0    0.007    0.007    0.886    0.945      29
 compute_fm_chi_Gamma_freq           30  8.0    0.002    0.002    0.846    0.911      12
 extract_grid_panel                 122  9.5    0.540    0.789    0.614    0.870       1
 ab_contract                    1392656 15.0    0.820    0.836    0.820    0.836       3
 init_scf_run                         1  3.0    0.007    0.007    0.822    0.823      23
 scf_env_initial_rho_setup            1  4.0    0.001    0.003    0.815    0.815       1
 xc_pw_divergence                     1 10.0    0.000    0.000    0.740    0.815       7
 scf_env_do_scf_inner_loop            1  4.0    0.003    0.003    0.781    0.795      21
 calculate_norms                   6816 12.6    0.697    0.790    0.697    0.790       0
 xc_rho_set_and_dset_create           1 10.0    0.027    0.042    0.693    0.772      14
 compute_V_xc                         1  7.0    0.011    0.011    0.749    0.749       2
 copy_dbcsr_to_fm                   104  9.5    0.002    0.003    0.681    0.748      12
 extract_masked_blocks              244  9.6    0.452    0.638    0.526    0.734       2
 sum_up_and_integrate                 2  8.5    0.014    0.020    0.709    0.731       1
 compute_Sigma_x                      1  7.0    0.000    0.000    0.710    0.711       8
 integrate_v_rspace                   2  9.5    0.000    0.000    0.686    0.702       1
 cp_fm_uplo_to_full                  63  9.0    0.479    0.682    0.479    0.682       7
 make_images_pack                  1012 12.6    0.439    0.666    0.443    0.670       1
 potential_pw2rs                      2 10.5    0.001    0.002    0.599    0.616      25
 buffer_matrices_ensure_size       1012 11.6    0.532    0.606    0.532    0.606      21
 copy_fm_to_dbcsr                   161  9.3    0.001    0.001    0.560    0.596       6
 dbcsr_finalize                    2009 10.8    0.021    0.026    0.462    0.555      27
 qs_energies_init_hamiltonians        1  3.0    0.003    0.004    0.548    0.548      12
 qs_init_subsys                       1  2.0    0.014    0.015    0.545    0.545       1
 compute_AA_optimized_RI_basis        1  8.0    0.003    0.004    0.544    0.544       2
 qs_env_setup                         1  3.0    0.002    0.003    0.524    0.525      21
 dbcsr_merge_all                   1744 11.9    0.044    0.061    0.426    0.521      20
 qs_env_rebuild_pw_env                2  3.5    0.001    0.002    0.518    0.519      16
 pw_env_rebuild                       1  5.0    0.005    0.005    0.517    0.517      25
 mp_alltoall_z22v                    28 14.0    0.388    0.502    0.388    0.502       5
 grid_collocate_task_list             2  7.0    0.463    0.495    0.463    0.495      30
 pw_grid_setup                        5  5.2    0.001    0.001    0.487    0.488      22
 pw_grid_setup_internal               5  6.2    0.010    0.011    0.486    0.487      16
 yz_to_x                             14 12.2    0.163    0.177    0.372    0.485       8
 qs_env_update_s_mstruct              1  4.0    0.003    0.004    0.457    0.457      19
 x_to_yz                             14 13.8    0.227    0.254    0.406    0.430      10
 mp_sum_iv                          568 11.3    0.319    0.428    0.319    0.428       5
 qs_ks_ddapc                          2  8.5    0.003    0.008    0.411    0.426       1
 collect_used_col_blocks             92  9.7    0.003    0.004    0.311    0.421       0
 mp_alltoall_d11v                  1111 11.7    0.325    0.415    0.325    0.415      22
 multiply_cannon_metrocomm1        4048 12.6    0.005    0.006    0.347    0.408       5
 pw_grid_sort                         5  7.2    0.290    0.295    0.403    0.407      18
 mp_sum_root_rm                     114 10.1    0.329    0.403    0.329    0.403       4
 dbcsr_add_d                        935  9.0    0.008    0.008    0.343    0.400      26
 compute_AB_optimized_RI_basis        1  8.0    0.001    0.002    0.394    0.394      25
 dbcsr_add_anytype                  935 10.0    0.283    0.324    0.335    0.392       0
 compute_AB_optimized_RI_basis_       1  9.0    0.001    0.001    0.380    0.384      22
 dbcsr_desymmetrize_deep            104 10.5    0.021    0.024    0.211    0.371       3
 mp_alltoall_i22                    369 11.4    0.302    0.367    0.302    0.367      29
 compute_QP_energies                  1  8.0    0.007    0.007    0.362    0.367      17
 pw_poisson_solve                     2  8.5    0.007    0.011    0.349    0.351      30
 mp_bcast_dm                        282  9.4    0.307    0.344    0.307    0.344      31
 hadamard_product                    91  9.7    0.164    0.199    0.292    0.331      15
 dbcsr_data_copy_aa2                629 12.8    0.227    0.313    0.227    0.313       3
 dbcsr_copy                        1160 10.5    0.239    0.300    0.246    0.308       0
 compute_B_PQ_AB                      6 10.0    0.068    0.088    0.231    0.306       0
 transfer_rs2pw                       9  7.8    0.000    0.001    0.249    0.299       7
 to_Gamma_and_mo_real                62  9.0    0.001    0.001    0.280    0.280      16
 calculate_rho_core                   1  5.0    0.017    0.019    0.272    0.275      10
 pw_gather_p                         14 11.2    0.226    0.272    0.226    0.272       3
 make_images_sizes                 1012 12.6    0.001    0.001    0.199    0.270      25
 mp_alltoall_i44                   1012 13.6    0.197    0.269    0.197    0.269      31
 pw_derive                           12 11.2    0.237    0.260    0.237    0.260       3
 pw_copy                             28 10.5    0.247    0.256    0.247    0.256       0
 compute_B_PQ_AA                    101  9.0    0.001    0.002    0.246    0.248      19
 initialize_auto_ri_integrals         2  9.0    0.008    0.241    0.243    0.243       0
 transfer_rs2pw_250                   3  8.3    0.093    0.107    0.185    0.229      12
 dbcsr_sort_data                   1467 14.0    0.191    0.226    0.191    0.226      17
 eval_bandstructure_properties        1  5.0    0.001    0.002    0.224    0.225      31
 compute_V_MinvVsqrt                  1  8.0    0.001    0.001    0.218    0.222      17
 pw_poisson_set                       3  8.3    0.001    0.002    0.213    0.215      16
 transfer_pw2rs                       8 11.5    0.000    0.000    0.208    0.209      20
 pw_scatter_p                        14 12.8    0.197    0.206    0.197    0.206      30
 mp_waitany                         198 11.3    0.159    0.203    0.159    0.203       8
 cp_fm_triangular_multiply            7 10.0    0.199    0.202    0.199    0.202       2
 cp_cfm_geeig                         1  6.0    0.013    0.014    0.195    0.196      16
 setup_time_and_frequency_minim       1  7.0    0.000    0.001    0.177    0.192      23
 mp_allgather_i34                   506 11.6    0.135    0.186    0.135    0.186       7
 mp_sum_dm                          359 11.0    0.116    0.186    0.116    0.186      31
 create_and_init_bs_env               1  5.0    0.001    0.002    0.185    0.185       7
 dbcsr_special_finalize            1518 12.6    0.004    0.005    0.159    0.176       8
 cp_fm_get_submatrix                356 10.0    0.009    0.011    0.116    0.175       3
 dbcsr_binary_write                   1  9.0    0.164    0.172    0.164    0.172      12
 check_for_restart_files              1  7.0    0.104    0.168    0.104    0.168      12
 fit_auto_ri_z_lp_gather_rhs          4 10.0    0.000    0.000    0.092    0.167      11
 dbcsr_merge_single_wm              994 13.6    0.015    0.028    0.142    0.159      27
 xc_functional_eval                   1 11.0    0.000    0.004    0.092    0.154      21
 pbe_lda_eval                         1 12.0    0.092    0.154    0.092    0.154      16
 build_grid_cache                     1  8.0    0.000    0.001    0.143    0.151       3
 initialize_cholesky_rirs_grids       1  9.0    0.073    0.111    0.143    0.150       4
 cp_ddapc_init                        1  5.0    0.000    0.000    0.149    0.150      28
 cp_ddapc_create                      1  6.0    0.000    0.001    0.149    0.149      17
 contract_B_PQ                       32 11.8    0.096    0.134    0.104    0.145       0
 fft_wrap_pw1pw2_90                   4 10.8    0.006    0.010    0.126    0.145       5
 diagonalize_ks_matrix                1  6.0    0.000    0.000    0.137    0.137      12
 cp_fm_geeig_canon                    1  7.0    0.006    0.006    0.137    0.137       7
 ddapc_eval_AmI                       1  7.0    0.032    0.033    0.131    0.132      13
 transfer_pw2rs_250                   2 12.5    0.062    0.067    0.125    0.130       0
 cp_cfm_heevd                         1  7.0    0.000    0.000    0.126    0.126      13
 cp_cfm_heevd_base                    1  8.0    0.126    0.126    0.126    0.126      18
 sort_shells                          5  8.2    0.113    0.114    0.113    0.114      20
 pw_axpy                             25  6.6    0.098    0.110    0.098    0.110      31
 -------------------------------------------------------------------------------

 The number of warnings for this run is : 1
 
 -------------------------------------------------------------------------------
  **** **** ******  **  PROGRAM ENDED AT                 2026-10-01 15:15:09.627
 ***** ** ***  *** **   PROGRAM RAN ON                                  n2cn0808
 **    ****   ******    PROGRAM RAN BY                                  eprop2d1
 ***** **    ** ** **   PROGRAM PROCESS ID                               1320720
  **** **  *******  **  PROGRAM STOPPED IN /scratch/hpc-prf-metdyn/eprop2d1_Jan/
                                           53_benchmark_RI_opt/403_figure4_epsfi
                                           lter_20261001/si45_c3_a5_r07_e10
