 DBCSR| CPU Multiplication driver                                           XSMM (U)
 DBCSR| Multrec recursion limit                                              512 (U)
 DBCSR| Multiplication stack size                                           1000 (D)
 DBCSR| Maximum elements for images                                    UNLIMITED (U)
 DBCSR| Multiplicative factor virtual images                                   1 (U)
 DBCSR| Use multiplication densification                                       T (D)
 DBCSR| Multiplication size stacks                                             3 (U)
 DBCSR| Use memory pool for CPU allocation                                     F (U)
 DBCSR| Number of 3D layers                                               SINGLE (U)
 DBCSR| Use MPI memory allocation                                              F (U)
 DBCSR| Use RMA algorithm                                                      F (U)
 DBCSR| Use Communication thread                                               T (U)
 DBCSR| Communication thread load                                             75 (D)
 DBCSR| MPI: My process id                                                     0
 DBCSR| MPI: Number of processes                                              32
 DBCSR| OMP: Current number of threads                                         4
 DBCSR| OMP: Max number of threads                                             4
 DBCSR| Split modifier for TAS multiplication algorithm                  1.0E+00 (U)


  **** **** ******  **  PROGRAM STARTED AT               2026-09-17 14:41:09.841
 ***** ** ***  *** **   PROGRAM STARTED ON                              n2cn0741
 **    ****   ******    PROGRAM STARTED BY                              eprop2d1
 ***** **    ** ** **   PROGRAM PROCESS ID                                264186
  **** **  *******  **  PROGRAM STARTED IN /scratch/hpc-prf-metdyn/eprop2d1_Jan/
                                           53_benchmark_RI_opt/108_Si45H56_RIAO_
                                           cluster_radius_sweep/calculations/c5_
                                           a2_r07

 CP2K| version string:                 CP2K version 2026.2 (Development Version)
 CP2K| source code revision number:                                      unknown
 CP2K| cp2kflags: omp libint fftw3 libxc parallel scalapack openblas            
 CP2K| is freely available from                            https://www.cp2k.org/
 CP2K| Program compiled at                                   2026-09-15 17:57:52
 CP2K| Program compiled on                                              n2login6
 CP2K| Program compiled for                                               x86_64
 CP2K| Data directory path    /scratch/hpc-prf-metdyn/eprop2d1_Jan/53_benchmark_
 CP2K| Input file name        /scratch/hpc-prf-metdyn/eprop2d1_Jan/53_benchmark_
 
 eprop2d1@n2cn0741 has created rank and process                      0    264186
 eprop2d1@n2cn0741 has created rank and process                      1    264185
 eprop2d1@n2cn0741 has created rank and process                      2    264188
 eprop2d1@n2cn0741 has created rank and process                      3    264187
 eprop2d1@n2cn0741 has created rank and process                      4    264192
 eprop2d1@n2cn0741 has created rank and process                      5    264189
 eprop2d1@n2cn0741 has created rank and process                      6    264191
 eprop2d1@n2cn0741 has created rank and process                      7    264190
 eprop2d1@n2cn0741 has created rank and process                      8    264196
 eprop2d1@n2cn0741 has created rank and process                      9    264194
 eprop2d1@n2cn0741 has created rank and process                     10    264195
 eprop2d1@n2cn0741 has created rank and process                     11    264193
 eprop2d1@n2cn0741 has created rank and process                     12    264200
 eprop2d1@n2cn0741 has created rank and process                     13    264198
 eprop2d1@n2cn0741 has created rank and process                     14    264199
 eprop2d1@n2cn0741 has created rank and process                     15    264197
 eprop2d1@n2cn0741 has created rank and process                     16    264204
 eprop2d1@n2cn0741 has created rank and process                     17    264203
 eprop2d1@n2cn0741 has created rank and process                     18    264202
 eprop2d1@n2cn0741 has created rank and process                     19    264201
 eprop2d1@n2cn0741 has created rank and process                     20    264209
 eprop2d1@n2cn0741 has created rank and process                     21    264208
 eprop2d1@n2cn0741 has created rank and process                     22    264206
 eprop2d1@n2cn0741 has created rank and process                     23    264205
 eprop2d1@n2cn0741 has created rank and process                     24    264214
 eprop2d1@n2cn0741 has created rank and process                     25    264212
 eprop2d1@n2cn0741 has created rank and process                     26    264211
 eprop2d1@n2cn0741 has created rank and process                     27    264210
 eprop2d1@n2cn0741 has created rank and process                     28    264217
 eprop2d1@n2cn0741 has created rank and process                     29    264216
 eprop2d1@n2cn0741 has created rank and process                     30    264215
 eprop2d1@n2cn0741 has created rank and process                     31    264213
 
 eprop2d1@n2cn0741 is running                                       32 processes

 GLOBAL| Force Environment number                                              1
 GLOBAL| Basis set file name            /scratch/hpc-prf-metdyn/eprop2d1_Jan/53_
 GLOBAL| Potential file name            /scratch/hpc-prf-metdyn/eprop2d1_Jan/53_
 GLOBAL| MM Potential file name                                     MM_POTENTIAL
 GLOBAL| Coordinate file name           /scratch/hpc-prf-metdyn/eprop2d1_Jan/53_
 GLOBAL| Method name                                                        CP2K
 GLOBAL| Project name                                      si45h56_108_c5_a2_r07
 GLOBAL| Run type                                                         ENERGY
 GLOBAL| FFT library                                                       FFTW3
 GLOBAL| Diagonalization library                                       ScaLAPACK
 GLOBAL| Cholesky decomposition library                                ScaLAPACK
 GLOBAL| DGEMM library                                                      BLAS
 GLOBAL| Direct generalized diagonalization requested                          F
 GLOBAL| Orthonormality check for eigenvectors                          DISABLED
 GLOBAL| Matrix multiplication library                                 ScaLAPACK
 GLOBAL| All-to-all communication in single precision                          F
 GLOBAL| Grid backend                                                       AUTO
 GLOBAL| Global print level                                                  LOW
 GLOBAL| MPI I/O enabled                                                       T
 GLOBAL| Total number of message passing processes                            32
 GLOBAL| Number of distributed systems (nodes)                                 1
 GLOBAL| Number of threads for this process                                    4
 GLOBAL| This output is from process                                           0
 GLOBAL| OpenMP stack size per thread (OMP_STACKSIZE)                       128M
 GLOBAL| CPU model name                          AMD EPYC 7763 64-Core Processor

 MEMORY| system memory details [Kb]
 MEMORY|                        rank 0           min           max       average
 MEMORY| MemTotal            263897600     263897600     263897600     263897600
 MEMORY| MemFree             246324200     246324200     246324200     246324200
 MEMORY| Buffers                148092        148092        148092        148092
 MEMORY| Cached                6839348       6839348       6839348       6839348
 MEMORY| Slab                  1415428       1415428       1415428       1415428
 MEMORY| SReclaimable           327092        327092        327092        327092
 MEMORY| MemLikelyFree       253638732     253638732     253638732     253638732


 GENERATE|  Preliminary Number of Bonds generated:                             0
 GENERATE|  Achieved consistency in connectivity generation.

 *******************************************************************************
 *******************************************************************************
 **                                                                           **
 **     #####                         ##              ##                      **
 **    ##   ##            ##          ##              ##                      **
 **   ##     ##                       ##            ######                    **
 **   ##     ##  ##   ##  ##   #####  ##  ##   ####   ##    #####    #####    **
 **   ##     ##  ##   ##  ##  ##      ## ##   ##      ##   ##   ##  ##   ##   **
 **   ##  ## ##  ##   ##  ##  ##      ####     ###    ##   ######   ######    **
 **    ##  ###   ##   ##  ##  ##      ## ##      ##   ##   ##       ##        **
 **     #######   #####   ##   #####  ##  ##  ####    ##    #####   ##        **
 **           ##                                                    ##        **
 **                                                                           **
 **                                                ... make the atoms dance   **
 **                                                                           **
 **            Copyright (C) by CP2K developers group (2000-2026)             **
 **                      J. Chem. Phys. 152, 194103 (2020)                    **
 **                                                                           **
 *******************************************************************************


 TOTAL NUMBERS AND MAXIMUM NUMBERS

  Total number of            - Atomic kinds:                                   2
                             - Atoms:                                        101
                             - Shell sets:                                   101
                             - Shells:                                       449
                             - Primitive Cartesian functions:                662
                             - Cartesian basis functions:                    966
                             - Spherical basis functions:                    921

  Maximum angular momentum of- Orbital basis functions:                        2
                             - Local part of the GTH pseudopotential:          2
                             - Non-local part of the GTH pseudopotential:      2


 SCF PARAMETERS         Density guess:                                    ATOMIC
                        --------------------------------------------------------
                        max_scf:                                             100
                        max_scf_history:                                       0
                        max_diis:                                              4
                        --------------------------------------------------------
                        eps_scf:                                        1.00E-07
                        eps_scf_history:                                0.00E+00
                        eps_diis:                                       0.00E+00
                        eps_eigval:                                     1.00E-05
                        --------------------------------------------------------
                        level_shift [a.u.]:                             0.000000
                        --------------------------------------------------------
                        Outer loop SCF in use 
                        No variables optimised in outer loop
                        eps_scf                                         1.00E-07
                        max_scf                                               20
                        No outer loop optimization
                        step_size                                       5.00E-01

 Extrapolation method: initial_guess

 Number of electrons:                                                        236
 Number of occupied orbitals:                                                118
 Number of molecular orbitals:                                               118

 Number of orbital functions:                                                921
 Number of independent orbital functions:                                    921


 SCF WAVEFUNCTION OPTIMIZATION

  ----------------------------------- OT ---------------------------------------
  Minimizer      : DIIS                : direct inversion
                                         in the iterative subspace
                                         using   7 DIIS vectors
                                         safer DIIS on
  Preconditioner : FULL_KINETIC        : inversion of T + eS
  Lattice FFT   : OFF
  Precond_solver : DEFAULT
  stepsize       :    0.15000000                  energy_gap     :    0.20000000
  eps_taylor     :   0.10000E-15                  max_taylor     :             4
  ----------------------------------- OT ---------------------------------------

  Step     Update method      Time    Convergence         Total energy    Change
  ------------------------------------------------------------------------------
     1 OT DIIS     0.15E+00    2.4     0.02029763      -196.3207424987 -1.96E+02
     2 OT DIIS     0.15E+00    2.9     0.01319550      -201.0653571557 -4.74E+00
     3 OT DIIS     0.15E+00    2.9     0.01013722      -203.4026525938 -2.34E+00
     4 OT DIIS     0.15E+00    2.9     0.00686255      -205.9251437329 -2.52E+00
     5 OT DIIS     0.15E+00    2.9     0.00473802      -207.3030693317 -1.38E+00
     6 OT DIIS     0.15E+00    2.9     0.00321557      -208.0453817186 -7.42E-01
     7 OT DIIS     0.15E+00    2.9     0.00239959      -208.4080792175 -3.63E-01
     8 OT DIIS     0.15E+00    2.9     0.00168886      -208.6991166696 -2.91E-01
     9 OT DIIS     0.15E+00    2.9     0.00150013      -208.8108805508 -1.12E-01
    10 OT DIIS     0.15E+00    2.9     0.00133481      -208.8993523405 -8.85E-02
    11 OT DIIS     0.15E+00    2.9     0.00130104      -208.9764238860 -7.71E-02
    12 OT DIIS     0.15E+00    2.9     0.00109387      -209.0337084933 -5.73E-02
    13 OT DIIS     0.15E+00    2.9     0.00090041      -209.0891553114 -5.54E-02
    14 OT DIIS     0.15E+00    2.9     0.00071417      -209.1445280475 -5.54E-02
    15 OT DIIS     0.15E+00    2.9     0.00070080      -209.1600868375 -1.56E-02
    16 OT DIIS     0.15E+00    2.9     0.00069556      -209.1749466603 -1.49E-02
    17 OT SD       0.15E+00    2.9     0.00071000      -209.1776718598 -2.73E-03
    18 OT SD       0.15E+00    2.8     0.00068578      -209.1857024754 -8.03E-03
    19 OT SD       0.15E+00    2.9     0.00068288      -209.1933330608 -7.63E-03
    20 OT SD       0.15E+00    2.9     0.00068948      -209.2009611119 -7.63E-03
    21 OT SD       0.15E+00    2.9     0.00070097      -209.2087688636 -7.81E-03
    22 OT SD       0.15E+00    2.9     0.00071506      -209.2168552971 -8.09E-03
    23 OT DIIS     0.15E+00    2.9     0.00073032      -209.2252769413 -8.42E-03
    24 OT SD       0.15E+00    2.9     0.00101154      -209.2207270001  4.55E-03
    25 OT SD       0.15E+00    2.9     0.00095513      -209.2368029427 -1.61E-02
    26 OT SD       0.15E+00    2.8     0.00093311      -209.2514648000 -1.47E-02
    27 OT SD       0.15E+00    2.9     0.00091986      -209.2655415733 -1.41E-02
    28 OT SD       0.15E+00    2.9     0.00090824      -209.2792407295 -1.37E-02
    29 OT SD       0.15E+00    2.9     0.00089536      -209.2925895160 -1.33E-02
    30 OT DIIS     0.15E+00    2.9     0.00088003      -209.3055452222 -1.30E-02
    31 OT SD       0.15E+00    2.9     0.00096647      -209.4071839256 -1.02E-01
    32 OT SD       0.15E+00    2.9     0.00074327      -209.4205139090 -1.33E-02
    33 OT DIIS     0.15E+00    2.9     0.00061336      -209.4286745996 -8.16E-03
    34 OT DIIS     0.15E+00    2.8     0.00043769      -209.4570060559 -2.83E-02
    35 OT DIIS     0.15E+00    2.9     0.00041052      -209.4591844814 -2.18E-03
    36 OT DIIS     0.15E+00    2.9     0.00028816      -209.4683868348 -9.20E-03
    37 OT DIIS     0.15E+00    2.9     0.00019133      -209.4678832500  5.04E-04
    38 OT DIIS     0.15E+00    2.9     0.00014902      -209.4698222323 -1.94E-03
    39 OT DIIS     0.15E+00    2.9     0.00013230      -209.4709944793 -1.17E-03
    40 OT DIIS     0.15E+00    2.9     0.00012872      -209.4720796432 -1.09E-03
    41 OT DIIS     0.15E+00    2.9     0.00008013      -209.4730507309 -9.71E-04
    42 OT DIIS     0.15E+00    2.8     0.00006938      -209.4735541767 -5.03E-04
    43 OT DIIS     0.15E+00    2.9     0.00005959      -209.4740294061 -4.75E-04
    44 OT DIIS     0.15E+00    2.9     0.00005169      -209.4744118147 -3.82E-04
    45 OT DIIS     0.15E+00    2.9     0.00004462      -209.4747580701 -3.46E-04
    46 OT DIIS     0.15E+00    2.9     0.00003920      -209.4750060510 -2.48E-04
    47 OT DIIS     0.15E+00    2.9     0.00003434      -209.4752185434 -2.12E-04
    48 OT DIIS     0.15E+00    2.9     0.00003025      -209.4753972313 -1.79E-04
    49 OT DIIS     0.15E+00    2.9     0.00002673      -209.4755389315 -1.42E-04
    50 OT DIIS     0.15E+00    2.8     0.00002422      -209.4756406532 -1.02E-04
    51 OT DIIS     0.15E+00    2.9     0.00002223      -209.4757165346 -7.59E-05
    52 OT DIIS     0.15E+00    2.9     0.00002035      -209.4757852100 -6.87E-05
    53 OT DIIS     0.15E+00    2.9     0.00001873      -209.4758416623 -5.65E-05
    54 OT DIIS     0.15E+00    2.9     0.00001720      -209.4758924523 -5.08E-05
    55 OT DIIS     0.15E+00    2.9     0.00001591      -209.4759363644 -4.39E-05
    56 OT DIIS     0.15E+00    2.9     0.00001507      -209.4759688331 -3.25E-05
    57 OT DIIS     0.15E+00    2.9     0.00001428      -209.4759988205 -3.00E-05
    58 OT DIIS     0.15E+00    2.8     0.00001346      -209.4760322719 -3.35E-05
    59 OT DIIS     0.15E+00    2.9     0.00001282      -209.4760592290 -2.70E-05
    60 OT DIIS     0.15E+00    2.9     0.00001233      -209.4760800641 -2.08E-05
    61 OT DIIS     0.15E+00    2.9     0.00001196      -209.4760973018 -1.72E-05
    62 OT DIIS     0.15E+00    2.9     0.00001166      -209.4761119375 -1.46E-05
    63 OT DIIS     0.15E+00    2.9     0.00001129      -209.4761311497 -1.92E-05
    64 OT DIIS     0.15E+00    2.9     0.00001090      -209.4761523787 -2.12E-05
    65 OT DIIS     0.15E+00    2.9     0.00001052      -209.4761752097 -2.28E-05
    66 OT DIIS     0.15E+00    2.8     0.00001019      -209.4761959658 -2.08E-05
    67 OT DIIS     0.15E+00    2.9     0.00000991      -209.4762133747 -1.74E-05
    68 OT DIIS     0.15E+00    2.9     0.00000964      -209.4762292694 -1.59E-05
    69 OT DIIS     0.15E+00    2.9     0.00000937      -209.4762456479 -1.64E-05
    70 OT DIIS     0.15E+00    2.9     0.00000908      -209.4762619706 -1.63E-05
    71 OT DIIS     0.15E+00    2.9     0.00000871      -209.4762819507 -2.00E-05
    72 OT DIIS     0.15E+00    2.9     0.00000837      -209.4763002690 -1.83E-05
    73 OT DIIS     0.15E+00    2.9     0.00000808      -209.4763157477 -1.55E-05
    74 OT DIIS     0.15E+00    2.8     0.00000788      -209.4763269138 -1.12E-05
    75 OT DIIS     0.15E+00    2.9     0.00000770      -209.4763358980 -8.98E-06
    76 OT DIIS     0.15E+00    2.9     0.00000752      -209.4763441602 -8.26E-06
    77 OT DIIS     0.15E+00    2.9     0.00000735      -209.4763518554 -7.70E-06
    78 OT DIIS     0.15E+00    2.9     0.00000720      -209.4763587876 -6.93E-06
    79 OT DIIS     0.15E+00    2.9     0.00000703      -209.4763663369 -7.55E-06
    80 OT DIIS     0.15E+00    2.9     0.00000688      -209.4763732880 -6.95E-06
    81 OT DIIS     0.15E+00    2.9     0.00000676      -209.4763795177 -6.23E-06
    82 OT DIIS     0.15E+00    2.8     0.00000666      -209.4763847709 -5.25E-06
    83 OT DIIS     0.15E+00    2.9     0.00000656      -209.4763897500 -4.98E-06
    84 OT DIIS     0.15E+00    2.9     0.00000646      -209.4763951714 -5.42E-06
    85 OT DIIS     0.15E+00    2.9     0.00000637      -209.4764002895 -5.12E-06
    86 OT DIIS     0.15E+00    2.9     0.00000628      -209.4764049388 -4.65E-06
    87 OT DIIS     0.15E+00    2.9     0.00000618      -209.4764105048 -5.57E-06
    88 OT DIIS     0.15E+00    2.9     0.00000608      -209.4764162668 -5.76E-06
    89 OT DIIS     0.15E+00    2.9     0.00000599      -209.4764218216 -5.55E-06
    90 OT DIIS     0.15E+00    2.8     0.00000589      -209.4764274392 -5.62E-06
    91 OT DIIS     0.15E+00    2.9     0.00000578      -209.4764336441 -6.20E-06
    92 OT DIIS     0.15E+00    2.9     0.00000567      -209.4764400873 -6.44E-06
    93 OT DIIS     0.15E+00    2.9     0.00000557      -209.4764456806 -5.59E-06
    94 OT DIIS     0.15E+00    3.0     0.00000547      -209.4764507067 -5.03E-06
    95 OT DIIS     0.15E+00    2.9     0.00000536      -209.4764557468 -5.04E-06
    96 OT DIIS     0.15E+00    2.9     0.00000526      -209.4764607960 -5.05E-06
    97 OT DIIS     0.15E+00    3.2     0.00000515      -209.4764657586 -4.96E-06
    98 OT DIIS     0.15E+00    2.9     0.00000504      -209.4764705107 -4.75E-06
    99 OT DIIS     0.15E+00    2.9     0.00000494      -209.4764750108 -4.50E-06
   100 OT DIIS     0.15E+00    2.9     0.00000484      -209.4764790474 -4.04E-06

  Leaving inner SCF loop after reaching   100 steps.


  Electronic density on regular grids:       -236.0000000000        0.0000000000
  Core density on regular grids:              235.9999999996       -0.0000000004
  Total charge density on r-space grids:       -0.0000000004
  Total charge density g-space grids:          -0.0000000004

  Overlap energy of the core charge distribution:               0.00000057541286
  Self energy of the core charge distribution:               -540.59620096303195
  Core Hamiltonian energy:                                    124.75198134497901
  Hartree energy:                                             279.78224142657837
  Exchange-correlation energy:                                -73.41450143132933

  Total energy:                                              -209.47647904739102

  outer SCF iter =    1 RMS gradient =   0.48E-05 energy =       -209.4764790474

  ----------------------------------- OT ---------------------------------------
  Minimizer      : DIIS                : direct inversion
                                         in the iterative subspace
                                         using   7 DIIS vectors
                                         safer DIIS on
  Preconditioner : FULL_KINETIC        : inversion of T + eS
  Lattice FFT   : OFF
  Precond_solver : DEFAULT
  stepsize       :    0.15000000                  energy_gap     :    0.20000000
  eps_taylor     :   0.10000E-15                  max_taylor     :             4
  ----------------------------------- OT ---------------------------------------

  Step     Update method      Time    Convergence         Total energy    Change
  ------------------------------------------------------------------------------
     1 OT DIIS     0.15E+00    5.9     0.00005872      -209.4764819838 -2.94E-06
     2 OT DIIS     0.15E+00    2.9     0.00004573      -209.4765315428 -4.96E-05
     3 OT DIIS     0.15E+00    2.8     0.00002431      -209.4766046381 -7.31E-05
     4 OT DIIS     0.15E+00    2.9     0.00001071      -209.4766316032 -2.70E-05
     5 OT DIIS     0.15E+00    2.9     0.00000610      -209.4766359543 -4.35E-06
     6 OT DIIS     0.15E+00    2.8     0.00000340      -209.4766373982 -1.44E-06
     7 OT DIIS     0.15E+00    2.9     0.00000192      -209.4766378613 -4.63E-07
     8 OT DIIS     0.15E+00    2.9     0.00000109      -209.4766380148 -1.53E-07
     9 OT DIIS     0.15E+00    2.9     0.00000062      -209.4766380620 -4.72E-08
    10 OT DIIS     0.15E+00    2.9     0.00000037      -209.4766380770 -1.50E-08
    11 OT DIIS     0.15E+00    2.9     0.00000022      -209.4766380824 -5.40E-09
    12 OT DIIS     0.15E+00    2.9     0.00000013      -209.4766380844 -1.93E-09
    13 OT DIIS     0.15E+00    2.9     0.00000008      -209.4766380850 -6.48E-10

  *** SCF run converged in    13 steps ***


  Electronic density on regular grids:       -236.0000000000       -0.0000000000
  Core density on regular grids:              235.9999999996       -0.0000000004
  Total charge density on r-space grids:       -0.0000000004
  Total charge density g-space grids:          -0.0000000004

  Overlap energy of the core charge distribution:               0.00000057541286
  Self energy of the core charge distribution:               -540.59620096303195
  Core Hamiltonian energy:                                    124.75176970335224
  Hartree energy:                                             279.78225964653427
  Exchange-correlation energy:                                -73.41446704729118

  Total energy:                                              -209.47663808502375

  outer SCF iter =    2 RMS gradient =   0.75E-07 energy =       -209.4766380850
  outer SCF loop converged in   2 iterations or  113 steps

  
 -------------------------------------------------------------------------------
 -                                                                             -
 -                          BANDSTRUCTURE CALCULATION                          -
 -                                                                             -
 -------------------------------------------------------------------------------
  
 Number of occupied molecular orbitals (MOs) = Number of occupied bands      118
 Number of unoccupied (= virtual) MOs = Number of unoccupied bands           803
 Number of Gaussian basis functions for MOs                                  921
  
 -------------------------------------------------------------------------------
 -                                                                             -
 -                                GW CALCULATION                               -
 -                                                                             -
 -------------------------------------------------------------------------------
  
 Input: Number of time/freq. points                                           30
 Input: ω_max for fitting Σ(iω) (eV)                                        10.0
 Input: Filter threshold for sparse tensor operations                    1.0E-07
 Input: Apply Hedin shift                                                      F
 Input: Available memory per MPI process                                  2.0 GB
 
 Input: RI-RS Tikhonov regularization                                   1.00E-08
 Input: AO grid hard cutoff radius                                        8.00 Å
 Input: MPI ranks per atom in Z_lP solve                                      -1
 Input: Keep sparsity in χ/G/W panels                                          T
 Input: GW flavour                                                          G0W0
 
 Input: RI-RS grid optimization activated                                      T
 Input: Initial RI-RS grid                                              CHOLESKY
 Input: RS points per AO function                                         7.0000
 Input: Initial RS candidates per AO function                            30.0000
 Input: Additional Lebedev degree                                              2
 Input: Cholesky selection matrix                                              D
 Input: Cholesky candidate domain                                      FULL_ATOM
 Input: Initial radial quadrature                                       GAPW_LOG
 Input: Cutoff radius for atomic clusters                                  5.0 Å
 Input: Maximum grid optimization iterations                                 100
 Input: L-BFGS history size                                                    7
 Input: L-BFGS relative-function factor                              0.00000E+00
 Input: L-BFGS projected-gradient tolerance                          1.00000E-09
 
 Input: AUTO_RI basis optimization activated:                                  T
 Input: AUTO_RI requested RI/AO ratio:                                       2.0
 Input: AUTO_RI frontier orbital window:                                  5.0 eV
 Input: AUTO_RI neighbor radius:                                           3.0 Å
 
 Cutoff radius for the truncated Coulomb operator in RI metric:            6.0 Å
 Regularization parameter of RI                                          0.0E+00
 Regularization parameter of minimax grids                               1.0E-06
 
 AUTO_RI| Number of automatic RI functions for χ, ε, W:                     1842
 AUTO_RI| Total RI basis optimization time:                                4.7 s
 
 SCF direct band gap (eV)                                                   3.16
 Max. SCF eigval diff. (eV)                                               132.05
 E-Range for minimax grid                                                  41.78
 Number of Padé parameters for analytic continuation:                         16
 
 RI-RS basis radii (Å):
     Kind  Elem     r_AO (Å)     r_RI (Å)
        1    Si        8.1344        6.7570
        2    H         9.5011        9.0778
 
 RI-RS initialization: atomic kind                                             1
 RI-RS initialization: Lebedev degree                                         11
 RI-RS initialization: radial shells                                           8
 RI-RS initialization: candidates per atom                                   400
 RI-RS initialization: retained points per atom                               91
 RI-RS initialization: atomic kind                                             2
 RI-RS initialization: Lebedev degree                                          7
 RI-RS initialization: radial shells                                           7
 RI-RS initialization: candidates per atom                                   182
 RI-RS initialization: retained points per atom                               42
 RI-RS initialization: largest cluster candidate count                     12038
 RI-RS initialization: most pivots in one cluster                           2507
 RI-RS initialization: most stored AO values in one cluster              4368310
 RI-RS initialization: wall time [s]                                      49.566
 Started RI-RS grid optimization
 RI-RS grid initial normalized error                          7.241998367924E-04
 RI-RS grid optimization completed, execution time:                     6412.8 s
 Normalized 3C error:                                                    6.4E-07
 Maximum absolute 3C error:                                              1.8E-02
 Optimized points outside molecular Voronoi cells:                          2578 / 6447
 Total grid points used for RI-RS:                                          6447
 
 RI-RS grid row-blocks of Φ_μ(r_l)                                           247
 RI-RS grid points per block (max)                                            32
 
 Percentage of non-zero matrix elements in Φ_μ(r_l)                      81.71 %
 
 RI-RS memory estimate per MPI process:
   Available memory per process (system)                                 7.43 GB
   Required for Z_lP (dense upper bound; actual is sparser)              0.00 GB
   Required for χ, W, Σ panels (peak per panel step)                     0.04 GB
   Required for Z_lP solve peak (D_local+φ, worst-case atom)             0.39 GB
   Worst-case local-grid number of grid points:                             6447
   Worst-case memory D_local:                                            0.33 GB
 
 Started computing Z_lP
 Computed Z_lP (MPI rank 0) for atom          1 /  4,    Execution time    4.4 s
 Computed Z_lP (MPI rank 0) for atom          2 /  4,    Execution time    4.2 s
 Computed Z_lP (MPI rank 0) for atom          3 /  4,    Execution time    1.6 s
 Computed Z_lP (MPI rank 0) for atom          4 /  4,    Execution time    1.5 s
 Computed Z_lP (all MPI ranks) for all atoms,            Execution time   18.3 s

 Number of batches for χ, Σ matrices                                           1
 
 Percentage of non-zero matrix elements in Z_lP                         100.00 %
 Percentage of non-zero matrix elements in G_ll', χ_ll', W_ll'          100.00 %
 Percentage of non-zero matrix elements in χ_PQ for time point 1        100.00 %
 
 Computed χ(iτ,k=0) for time point            1 / 30,    Execution time    0.3 s
 Computed χ(iτ,k=0) for time point            2 / 30,    Execution time    0.3 s
 Computed χ(iτ,k=0) for time point            3 / 30,    Execution time    0.3 s
 Computed χ(iτ,k=0) for time point            4 / 30,    Execution time    0.3 s
 Computed χ(iτ,k=0) for time point            5 / 30,    Execution time    0.3 s
 Computed χ(iτ,k=0) for time point            6 / 30,    Execution time    0.3 s
 Computed χ(iτ,k=0) for time point            7 / 30,    Execution time    0.3 s
 Computed χ(iτ,k=0) for time point            8 / 30,    Execution time    0.3 s
 Computed χ(iτ,k=0) for time point            9 / 30,    Execution time    0.3 s
 Computed χ(iτ,k=0) for time point           10 / 30,    Execution time    0.3 s
 Computed χ(iτ,k=0) for time point           11 / 30,    Execution time    0.3 s
 Computed χ(iτ,k=0) for time point           12 / 30,    Execution time    0.3 s
 Computed χ(iτ,k=0) for time point           13 / 30,    Execution time    0.3 s
 Computed χ(iτ,k=0) for time point           14 / 30,    Execution time    0.3 s
 Computed χ(iτ,k=0) for time point           15 / 30,    Execution time    0.3 s
 Computed χ(iτ,k=0) for time point           16 / 30,    Execution time    0.3 s
 Computed χ(iτ,k=0) for time point           17 / 30,    Execution time    0.3 s
 Computed χ(iτ,k=0) for time point           18 / 30,    Execution time    0.2 s
 Computed χ(iτ,k=0) for time point           19 / 30,    Execution time    0.2 s
 Computed χ(iτ,k=0) for time point           20 / 30,    Execution time    0.2 s
 Computed χ(iτ,k=0) for time point           21 / 30,    Execution time    0.1 s
 Computed χ(iτ,k=0) for time point           22 / 30,    Execution time    0.1 s
 Computed χ(iτ,k=0) for time point           23 / 30,    Execution time    0.1 s
 Computed χ(iτ,k=0) for time point           24 / 30,    Execution time    0.1 s
 Computed χ(iτ,k=0) for time point           25 / 30,    Execution time    0.1 s
 Computed χ(iτ,k=0) for time point           26 / 30,    Execution time    0.1 s
 Computed χ(iτ,k=0) for time point           27 / 30,    Execution time    0.1 s
 Computed χ(iτ,k=0) for time point           28 / 30,    Execution time    0.1 s
 Computed χ(iτ,k=0) for time point           29 / 30,    Execution time    0.1 s
 Computed χ(iτ,k=0) for time point           30 / 30,    Execution time    0.1 s
 
 Computed W(iτ),                                         Execution time    3.1 s
 
 Computed Σ^x(k=0),                                      Execution time    0.3 s
 
 Computed Σ^c(iτ) for time point              1 / 30,    Execution time    0.4 s
 Computed Σ^c(iτ) for time point              2 / 30,    Execution time    0.4 s
 Computed Σ^c(iτ) for time point              3 / 30,    Execution time    0.4 s
 Computed Σ^c(iτ) for time point              4 / 30,    Execution time    0.4 s
 Computed Σ^c(iτ) for time point              5 / 30,    Execution time    0.4 s
 Computed Σ^c(iτ) for time point              6 / 30,    Execution time    0.4 s
 Computed Σ^c(iτ) for time point              7 / 30,    Execution time    0.4 s
 Computed Σ^c(iτ) for time point              8 / 30,    Execution time    0.4 s
 Computed Σ^c(iτ) for time point              9 / 30,    Execution time    0.4 s
 Computed Σ^c(iτ) for time point             10 / 30,    Execution time    0.4 s
 Computed Σ^c(iτ) for time point             11 / 30,    Execution time    0.4 s
 Computed Σ^c(iτ) for time point             12 / 30,    Execution time    0.4 s
 Computed Σ^c(iτ) for time point             13 / 30,    Execution time    0.4 s
 Computed Σ^c(iτ) for time point             14 / 30,    Execution time    0.4 s
 Computed Σ^c(iτ) for time point             15 / 30,    Execution time    0.3 s
 Computed Σ^c(iτ) for time point             16 / 30,    Execution time    0.3 s
 Computed Σ^c(iτ) for time point             17 / 30,    Execution time    0.3 s
 Computed Σ^c(iτ) for time point             18 / 30,    Execution time    0.3 s
 Computed Σ^c(iτ) for time point             19 / 30,    Execution time    0.3 s
 Computed Σ^c(iτ) for time point             20 / 30,    Execution time    0.3 s
 Computed Σ^c(iτ) for time point             21 / 30,    Execution time    0.1 s
 Computed Σ^c(iτ) for time point             22 / 30,    Execution time    0.1 s
 Computed Σ^c(iτ) for time point             23 / 30,    Execution time    0.1 s
 Computed Σ^c(iτ) for time point             24 / 30,    Execution time    0.1 s
 Computed Σ^c(iτ) for time point             25 / 30,    Execution time    0.1 s
 Computed Σ^c(iτ) for time point             26 / 30,    Execution time    0.1 s
 Computed Σ^c(iτ) for time point             27 / 30,    Execution time    0.1 s
 Computed Σ^c(iτ) for time point             28 / 30,    Execution time    0.1 s
 Computed Σ^c(iτ) for time point             29 / 30,    Execution time    0.1 s
 Computed Σ^c(iτ) for time point             30 / 30,    Execution time    0.1 s
 
 SCF valence band maximum (eV):                                           -5.871
 SCF conduction band minimum (eV):                                        -2.711
 SCF indirect band gap (eV):                                               3.161
 SCF direct band gap (eV):                                                 3.161
 
 G0W0 valence band maximum (eV):                                          -6.935
 G0W0 conduction band minimum (eV):                                       -1.075
 G0W0 indirect band gap (eV):                                              5.860
 G0W0 direct band gap (eV):                                                5.860
 
 Hartree-Fock with SCF orbitals valence band maximum (eV):                -8.038
 Hartree-Fock with SCF orbitals conduction band minimum (eV)               1.203
 Hartree-Fock with SCF orbitals indirect band gap (eV):                    9.240
 Hartree-Fock with SCF orbitals direct band gap (eV):                      9.240

 ENERGY| Total FORCE_EVAL ( QS ) energy [hartree]           -209.476638085023751

 -------------------------------------------------------------------------------
 -                                                                             -
 -                                DBCSR STATISTICS                             -
 -                                                                             -
 -------------------------------------------------------------------------------
 COUNTER                                    TOTAL       BLAS       SMM       ACC
 flops    10 x    17 x    16               304640       0.0%    100.0%      0.0%     
 flops    10 x    12 x    34               456960       0.0%    100.0%      0.0%     
 flops     6 x    22 x    22               650496       0.0%    100.0%      0.0%     
 flops    27 x    17 x    16               660960       0.0%    100.0%      0.0%     
 flops    27 x    12 x    34               991440       0.0%    100.0%      0.0%     
 flops    13 x    22 x    22              1132560       0.0%    100.0%      0.0%     
 flops    10 x    17 x    34              1942080       0.0%    100.0%      0.0%     
 flops    10 x    14 x    16              2007040       0.0%    100.0%      0.0%     
 flops    10 x    15 x    16              2150400       0.0%    100.0%      0.0%     
 flops    32 x    17 x    16              2541568       0.0%    100.0%      0.0%     
 flops    10 x    13 x    34              3465280       0.0%    100.0%      0.0%     
 flops    32 x    12 x    34              3812352       0.0%    100.0%      0.0%     
 flops     6 x    32 x    32              4128768       0.0%    100.0%      0.0%     
 flops    27 x    17 x    34              4213620       0.0%    100.0%      0.0%     
 flops    27 x    14 x    16              4354560       0.0%    100.0%      0.0%     
 flops    27 x    15 x    16              4665600       0.0%    100.0%      0.0%     
 flops    10 x    20 x    34              6092800       0.0%    100.0%      0.0%     
 flops    13 x    32 x    32              7188480       0.0%    100.0%      0.0%     
 flops    27 x    13 x    34              7518420       0.0%    100.0%      0.0%     
 flops    10 x    19 x    34              7958720       0.0%    100.0%      0.0%     
 flops    10 x    21 x    34              9596160       0.0%    100.0%      0.0%     
 flops    27 x    20 x    34             13219200       0.0%    100.0%      0.0%     
 flops    26 x    22 x    22             14119248       0.0%    100.0%      0.0%     
 flops    26 x    22 x   119             15655640       0.0%    100.0%      0.0%     
 flops    32 x    17 x    34             16202496       0.0%    100.0%      0.0%     
 flops    32 x    14 x    16             16744448       0.0%    100.0%      0.0%     
 flops    27 x    19 x    34             17267580       0.0%    100.0%      0.0%     
 flops    14 x    12 x    10             17892000       0.0%    100.0%      0.0%     
 flops    32 x    15 x    16             17940480       0.0%    100.0%      0.0%     
 flops    15 x    12 x    10             19170000       0.0%    100.0%      0.0%     
 flops    16 x    12 x    10             20448000       0.0%    100.0%      0.0%     
 flops    22 x    22 x    22             20614528       0.0%    100.0%      0.0%     
 flops    27 x    21 x    34             20820240       0.0%    100.0%      0.0%     
 flops    14 x    15 x    10             22453200       0.0%    100.0%      0.0%     
 flops    15 x    15 x    10             24057000       0.0%    100.0%      0.0%     
 flops    14 x    16 x    10             24192000       0.0%    100.0%      0.0%     
 flops    16 x    15 x    10             25660800       0.0%    100.0%      0.0%     
 flops    15 x    16 x    10             25920000       0.0%    100.0%      0.0%     
 flops    16 x    16 x    10             27648000       0.0%    100.0%      0.0%     
 flops    51 x    22 x    22             27695448       0.0%    100.0%      0.0%     
 flops    32 x    13 x    34             28910336       0.0%    100.0%      0.0%     
 flops    26 x    22 x   113             29732560       0.0%    100.0%      0.0%     
 flops    51 x    22 x   119             30709140       0.0%    100.0%      0.0%     
 flops    57 x    22 x    22             30953736       0.0%    100.0%      0.0%     
 flops    19 x    12 x    10             32376000       0.0%    100.0%      0.0%     
 flops    14 x    22 x    10             33485760       0.0%    100.0%      0.0%     
 flops    62 x    22 x    22             33668976       0.0%    100.0%      0.0%     
 flops    57 x    22 x   119             34321980       0.0%    100.0%      0.0%     
 flops    14 x    23 x    10             34776000       0.0%    100.0%      0.0%     
 flops    15 x    22 x    10             35877600       0.0%    100.0%      0.0%     
 flops    15 x    23 x    10             37260000       0.0%    100.0%      0.0%     
 flops    62 x    22 x   119             37332680       0.0%    100.0%      0.0%     
 flops    16 x    22 x    10             38269440       0.0%    100.0%      0.0%     
 flops    16 x    23 x    10             39744000       0.0%    100.0%      0.0%     
 flops    19 x    15 x    10             40629600       0.0%    100.0%      0.0%     
 flops    76 x    22 x    22             41271648       0.0%    100.0%      0.0%     
 flops    14 x    12 x    27             41558832       0.0%    100.0%      0.0%     
 flops    14 x    14 x    10             41748000       0.0%    100.0%      0.0%     
 flops    20 x    12 x    10             42600000       0.0%    100.0%      0.0%     
 flops    14 x    19 x    10             43203720       0.0%    100.0%      0.0%     
 flops    19 x    16 x    10             43776000       0.0%    100.0%      0.0%     
 flops    15 x    12 x    27             44527320       0.0%    100.0%      0.0%     
 flops    15 x    14 x    10             44730000       0.0%    100.0%      0.0%     
 flops    76 x    22 x   119             45762640       0.0%    100.0%      0.0%     
 flops    15 x    19 x    10             46289700       0.0%    100.0%      0.0%     
 flops    16 x    12 x    27             47495808       0.0%    100.0%      0.0%     
 flops    16 x    14 x    10             47712000       0.0%    100.0%      0.0%     
 flops    89 x    22 x    22             48331272       0.0%    100.0%      0.0%     
 flops    16 x    19 x    10             49375680       0.0%    100.0%      0.0%     
 flops    13 x    12 x    10             49842000       0.0%    100.0%      0.0%     
 flops    32 x    20 x    34             50831360       0.0%    100.0%      0.0%     
 flops    22 x    22 x   119             51836400       0.0%    100.0%      0.0%     
 flops    14 x    15 x    27             51846480       0.0%    100.0%      0.0%     
 flops    20 x    15 x    10             53460000       0.0%    100.0%      0.0%     
 flops    89 x    22 x   119             53590460       0.0%    100.0%      0.0%     
 flops    14 x    16 x    27             55266624       0.0%    100.0%      0.0%     
 flops    15 x    15 x    27             55549800       0.0%    100.0%      0.0%     
 flops    20 x    16 x    10             57600000       0.0%    100.0%      0.0%     
 flops    17 x    12 x    10             57936000       0.0%    100.0%      0.0%     
 flops    51 x    22 x   113             58321560       0.0%    100.0%      0.0%     
 flops    15 x    16 x    27             59214240       0.0%    100.0%      0.0%     
 flops    16 x    15 x    27             59253120       0.0%    100.0%      0.0%     
 flops    26 x    22 x   114             59991360       0.0%    100.0%      0.0%     
 flops    19 x    22 x    10             60593280       0.0%    100.0%      0.0%     
 flops    56 x    22 x    22             60821376       0.0%    100.0%      0.0%     
 flops    26 x    22 x    32             61611264       0.0%    100.0%      0.0%     
 flops    26 x    32 x    22             61611264       0.0%    100.0%      0.0%     
 flops    38 x    22 x    22             61907472       0.0%    100.0%      0.0%     
 flops    13 x    15 x    10             62548200       0.0%    100.0%      0.0%     
 flops    19 x    23 x    10             62928000       0.0%    100.0%      0.0%     
 flops    16 x    16 x    27             63161856       0.0%    100.0%      0.0%     
 flops    57 x    22 x   113             65182920       0.0%    100.0%      0.0%     
 flops    32 x    19 x    34             66398464       0.0%    100.0%      0.0%     
 flops    13 x    16 x    10             67392000       0.0%    100.0%      0.0%     
 flops    56 x    22 x   119             67439680       0.0%    100.0%      0.0%     
 flops    26 x    32 x   119             68315520       0.0%    100.0%      0.0%     
 flops    38 x    22 x   119             68643960       0.0%    100.0%      0.0%     
 flops    62 x    22 x   113             70900720       0.0%    100.0%      0.0%     
 flops    17 x    15 x    10             72705600       0.0%    100.0%      0.0%     
 flops    19 x    12 x    27             75201696       0.0%    100.0%      0.0%     
 flops    19 x    14 x    10             75544000       0.0%    100.0%      0.0%     
 flops    14 x    22 x    27             76340880       0.0%    100.0%      0.0%     
 flops    10 x    12 x    13             77226240       0.0%    100.0%      0.0%     
 flops    19 x    19 x    10             78178160       0.0%    100.0%      0.0%     
 flops    17 x    16 x    10             78336000       0.0%    100.0%      0.0%     
 flops    14 x    23 x    27             79654428       0.0%    100.0%      0.0%     
 flops    20 x    22 x    10             79728000       0.0%    100.0%      0.0%     
 flops    32 x    21 x    34             80059392       0.0%    100.0%      0.0%     
 flops    21 x    12 x    10             80514000       0.0%    100.0%      0.0%     
 flops    15 x    22 x    27             81793800       0.0%    100.0%      0.0%     
 flops    20 x    23 x    10             82800000       0.0%    100.0%      0.0%     
 flops    15 x    23 x    27             85344030       0.0%    100.0%      0.0%     
 flops    76 x    22 x   113             86910560       0.0%    100.0%      0.0%     
 flops    16 x    22 x    27             87246720       0.0%    100.0%      0.0%     
 flops    14 x    13 x    10             87785880       0.0%    100.0%      0.0%     
 flops    22 x    22 x    32             89954304       0.0%    100.0%      0.0%     
 flops    22 x    32 x    22             89954304       0.0%    100.0%      0.0%     
 flops    32 x    22 x    22             89954304       0.0%    100.0%      0.0%     
 flops    14 x    17 x    10             90592320       0.0%    100.0%      0.0%     
 flops    16 x    23 x    27             91033632       0.0%    100.0%      0.0%     
 flops    13 x    22 x    10             93281760       0.0%    100.0%      0.0%     
 flops    19 x    15 x    27             93817440       0.0%    100.0%      0.0%     
 flops    15 x    13 x    10             94056300       0.0%    100.0%      0.0%     
 flops    14 x    14 x    27             96494328       0.0%    100.0%      0.0%     
 flops    13 x    23 x    10             96876000       0.0%    100.0%      0.0%     
 flops    15 x    17 x    10             97063200       0.0%    100.0%      0.0%     
 flops    22 x    22 x   113             98445600       0.0%    100.0%      0.0%     
 flops    14 x    19 x    27             98637588       0.0%    100.0%      0.0%     
 flops    20 x    12 x    27             98949600       0.0%    100.0%      0.0%     
 flops    20 x    14 x    10             99400000       0.0%    100.0%      0.0%     
 flops    19 x    16 x    27            100006272       0.0%    100.0%      0.0%     
 flops    16 x    13 x    10            100326720       0.0%    100.0%      0.0%     
 flops    21 x    15 x    10            101039400       0.0%    100.0%      0.0%     
 flops    89 x    22 x   113            101776840       0.0%    100.0%      0.0%     
 flops    63 x    22 x    22            102636072       0.0%    100.0%      0.0%     
 flops    20 x    19 x    10            102866000       0.0%    100.0%      0.0%     
 flops    15 x    14 x    27            103386780       0.0%    100.0%      0.0%     
 flops    16 x    17 x    10            103534080       0.0%    100.0%      0.0%     
 flops    15 x    19 x    27            105683130       0.0%    100.0%      0.0%     
 flops    10 x    16 x    13            107394560       0.0%    100.0%      0.0%     
 flops    17 x    22 x    10            108430080       0.0%    100.0%      0.0%     
 flops    21 x    16 x    10            108864000       0.0%    100.0%      0.0%     
 flops    16 x    14 x    27            110279232       0.0%    100.0%      0.0%     
 flops    10 x    12 x    17            110584320       0.0%    100.0%      0.0%     
 flops    17 x    23 x    10            112608000       0.0%    100.0%      0.0%     
 flops    16 x    19 x    27            112728672       0.0%    100.0%      0.0%     
 flops    63 x    22 x   119            113804460       0.0%    100.0%      0.0%     
 flops    13 x    12 x    27            115771032       0.0%    100.0%      0.0%     
 flops    13 x    14 x    10            116298000       0.0%    100.0%      0.0%     
 flops    51 x    22 x   114            117675360       0.0%    100.0%      0.0%     
 flops    13 x    19 x    10            120353220       0.0%    100.0%      0.0%     
 flops    51 x    22 x    32            120852864       0.0%    100.0%      0.0%     
 flops    51 x    32 x    22            120852864       0.0%    100.0%      0.0%     
 flops    20 x    15 x    27            123444000       0.0%    100.0%      0.0%     
 flops    14 x    21 x    10            127501920       0.0%    100.0%      0.0%     
 flops    56 x    22 x   113            128078720       0.0%    100.0%      0.0%     
 flops    26 x    32 x   113            129742080       0.0%    100.0%      0.0%     
 flops    38 x    22 x   113            130365840       0.0%    100.0%      0.0%     
 flops    57 x    22 x   114            131519520       0.0%    100.0%      0.0%     
 flops    20 x    16 x    27            131587200       0.0%    100.0%      0.0%     
 flops    51 x    32 x   119            134003520       0.0%    100.0%      0.0%     
 flops    17 x    12 x    27            134571456       0.0%    100.0%      0.0%     
 flops    57 x    22 x    32            135070848       0.0%    100.0%      0.0%     
 flops    57 x    32 x    22            135070848       0.0%    100.0%      0.0%     
 flops    17 x    14 x    10            135184000       0.0%    100.0%      0.0%     
 flops    15 x    21 x    10            136609200       0.0%    100.0%      0.0%     
 flops    14 x    20 x    10            137138400       0.0%    100.0%      0.0%     
 flops    19 x    22 x    27            138140640       0.0%    100.0%      0.0%     
 flops    17 x    19 x    10            139897760       0.0%    100.0%      0.0%     
 flops    62 x    22 x   114            143056320       0.0%    100.0%      0.0%     
 flops    19 x    23 x    27            144136584       0.0%    100.0%      0.0%     
 flops    13 x    15 x    27            144429480       0.0%    100.0%      0.0%     
 flops    16 x    21 x    10            145716480       0.0%    100.0%      0.0%     
 flops    62 x    32 x    22            146919168       0.0%    100.0%      0.0%     
 flops    62 x    22 x    32            146919168       0.0%    100.0%      0.0%     
 flops    15 x    20 x    10            146934000       0.0%    100.0%      0.0%     
 flops    57 x    32 x   119            149768640       0.0%    100.0%      0.0%     
 flops    21 x    22 x    10            150685920       0.0%    100.0%      0.0%     
 flops    10 x    16 x    17            153538560       0.0%    100.0%      0.0%     
 flops    13 x    16 x    27            153957024       0.0%    100.0%      0.0%     
 flops    21 x    23 x    10            156492000       0.0%    100.0%      0.0%     
 flops    16 x    20 x    10            156729600       0.0%    100.0%      0.0%     
 flops    14 x    12 x    32            158022144       0.0%    100.0%      0.0%     
 flops    19 x    13 x    10            158850640       0.0%    100.0%      0.0%     
 flops    10 x    12 x    21            161441280       0.0%    100.0%      0.0%     
 flops    62 x    32 x   119            162906240       0.0%    100.0%      0.0%     
 flops    19 x    17 x    10            163928960       0.0%    100.0%      0.0%     
 flops    27 x    12 x    13            167553360       0.0%    100.0%      0.0%     
 flops    17 x    15 x    27            167883840       0.0%    100.0%      0.0%     
 flops    15 x    12 x    32            169309440       0.0%    100.0%      0.0%     
 flops    19 x    14 x    27            174608784       0.0%    100.0%      0.0%     
 flops    76 x    22 x   114            175359360       0.0%    100.0%      0.0%     
 flops    19 x    19 x    27            178487064       0.0%    100.0%      0.0%     
 flops    17 x    16 x    27            178958592       0.0%    100.0%      0.0%     
 flops    76 x    22 x    32            180094464       0.0%    100.0%      0.0%     
 flops    76 x    32 x    22            180094464       0.0%    100.0%      0.0%     
 flops    16 x    12 x    32            180596736       0.0%    100.0%      0.0%     
 flops    20 x    22 x    27            181764000       0.0%    100.0%      0.0%     
 flops    21 x    12 x    27            187014744       0.0%    100.0%      0.0%     
 flops    21 x    14 x    10            187866000       0.0%    100.0%      0.0%     
 flops    10 x    14 x    13            187940480       0.0%    100.0%      0.0%     
 flops    20 x    23 x    27            189653400       0.0%    100.0%      0.0%     
 flops    21 x    19 x    10            194416740       0.0%    100.0%      0.0%     
 flops    14 x    15 x    32            197809920       0.0%    100.0%      0.0%     
 flops    22 x    22 x   114            198633600       0.0%    100.0%      0.0%     
 flops    76 x    32 x   119            199691520       0.0%    100.0%      0.0%     
 flops    10 x    15 x    13            200709600       0.0%    100.0%      0.0%     
 flops    14 x    13 x    27            202378176       0.0%    100.0%      0.0%     
 flops    89 x    22 x   114            205355040       0.0%    100.0%      0.0%     
 flops    14 x    17 x    27            206467380       0.0%    100.0%      0.0%     
 flops    20 x    13 x    10            209014000       0.0%    100.0%      0.0%     
 flops    89 x    22 x    32            210900096       0.0%    100.0%      0.0%     
 flops    89 x    32 x    22            210900096       0.0%    100.0%      0.0%     
 flops    15 x    15 x    32            211939200       0.0%    100.0%      0.0%     
 flops    14 x    16 x    32            211986432       0.0%    100.0%      0.0%     
 flops    13 x    22 x    27            212663880       0.0%    100.0%      0.0%     
 flops    20 x    17 x    10            215696000       0.0%    100.0%      0.0%     
 flops    63 x    22 x   113            216132840       0.0%    100.0%      0.0%     
 flops    15 x    13 x    27            216833760       0.0%    100.0%      0.0%     
 flops    10 x    16 x    21            220899840       0.0%    100.0%      0.0%     
 flops    15 x    17 x    27            221215050       0.0%    100.0%      0.0%     
 flops    13 x    23 x    27            221894478       0.0%    100.0%      0.0%     
 flops    16 x    15 x    32            226068480       0.0%    100.0%      0.0%     
 flops    22 x    32 x   119            226195200       0.0%    100.0%      0.0%     
 flops    32 x    22 x   119            226195200       0.0%    100.0%      0.0%     
 flops    15 x    16 x    32            227128320       0.0%    100.0%      0.0%     
 flops    20 x    14 x    27            229748400       0.0%    100.0%      0.0%     
 flops    19 x    21 x    10            230717760       0.0%    100.0%      0.0%     
 flops    16 x    13 x    27            231289344       0.0%    100.0%      0.0%     
 flops    10 x    12 x    10            231919200       0.0%    100.0%      0.0%     
 flops    27 x    16 x    13            233007840       0.0%    100.0%      0.0%     
 flops    21 x    15 x    27            233309160       0.0%    100.0%      0.0%     
 flops    89 x    32 x   119            233849280       0.0%    100.0%      0.0%     
 flops    20 x    19 x    27            234851400       0.0%    100.0%      0.0%     
 flops    16 x    17 x    27            235962720       0.0%    100.0%      0.0%     
 flops    27 x    12 x    17            239928480       0.0%    100.0%      0.0%     
 flops    16 x    16 x    32            242270208       0.0%    100.0%      0.0%     
 flops    17 x    22 x    27            247199040       0.0%    100.0%      0.0%     
 flops    19 x    20 x    10            248155200       0.0%    100.0%      0.0%     
 flops    21 x    16 x    27            248699808       0.0%    100.0%      0.0%     
 flops    13 x    17 x    10            252364320       0.0%    100.0%      0.0%     
 flops    51 x    32 x   113            254494080       0.0%    100.0%      0.0%     
 flops    17 x    23 x    27            257928624       0.0%    100.0%      0.0%     
 flops    56 x    22 x   114            258424320       0.0%    100.0%      0.0%     
 flops    26 x    32 x   114            261780480       0.0%    100.0%      0.0%     
 flops    38 x    22 x   114            263039040       0.0%    100.0%      0.0%     
 flops    56 x    32 x    22            265402368       0.0%    100.0%      0.0%     
 flops    56 x    22 x    32            265402368       0.0%    100.0%      0.0%     
 flops    10 x    14 x    17            268692480       0.0%    100.0%      0.0%     
 flops    13 x    14 x    27            268805628       0.0%    100.0%      0.0%     
 flops    26 x    32 x    32            268849152       0.0%    100.0%      0.0%     
 flops    38 x    32 x    22            270141696       0.0%    100.0%      0.0%     
 flops    38 x    22 x    32            270141696       0.0%    100.0%      0.0%     
 flops    13 x    19 x    27            274776138       0.0%    100.0%      0.0%     
 flops    17 x    13 x    10            284259040       0.0%    100.0%      0.0%     
 flops    57 x    32 x   113            284434560       0.0%    100.0%      0.0%     
 flops    19 x    12 x    32            285944832       0.0%    100.0%      0.0%     
 flops    10 x    15 x    17            287599200       0.0%    100.0%      0.0%     
 flops     6 x     6 x    22            288199296       0.0%    100.0%      0.0%     
 flops    14 x    21 x    27            291388104       0.0%    100.0%      0.0%     
 flops    14 x    22 x    32            292486656       0.0%    100.0%      0.0%     
 flops    17 x    17 x    10            293346560       0.0%    100.0%      0.0%     
 flops    56 x    32 x   119            294282240       0.0%    100.0%      0.0%     
 flops    38 x    32 x   119            299537280       0.0%    100.0%      0.0%     
 flops    20 x    21 x    10            303576000       0.0%    100.0%      0.0%     
 flops    14 x    23 x    32            305286912       0.0%    100.0%      0.0%     
 flops    10 x    16 x    10            309379200       0.0%    100.0%      0.0%     
 flops    62 x    32 x   113            309384960       0.0%    100.0%      0.0%     
 flops    15 x    21 x    27            312201540       0.0%    100.0%      0.0%     
 flops    14 x    20 x    27            312212880       0.0%    100.0%      0.0%     
 flops    17 x    14 x    27            312457824       0.0%    100.0%      0.0%     
 flops    15 x    22 x    32            313378560       0.0%    100.0%      0.0%     
 flops    17 x    19 x    27            319397904       0.0%    100.0%      0.0%     
 flops    20 x    20 x    10            326520000       0.0%    100.0%      0.0%     
 flops    15 x    23 x    32            327093120       0.0%    100.0%      0.0%     
 flops    16 x    21 x    27            333014976       0.0%    100.0%      0.0%     
 flops    27 x    16 x    17            333123840       0.0%    100.0%      0.0%     
 flops    16 x    22 x    32            334270464       0.0%    100.0%      0.0%     
 flops    15 x    20 x    27            334513800       0.0%    100.0%      0.0%     
 flops    21 x    22 x    27            343533960       0.0%    100.0%      0.0%     
 flops    16 x    23 x    32            348899328       0.0%    100.0%      0.0%     
 flops    27 x    12 x    21            350269920       0.0%    100.0%      0.0%     
 flops    13 x    21 x    10            355183920       0.0%    100.0%      0.0%     
 flops    16 x    20 x    27            356814720       0.0%    100.0%      0.0%     
 flops    19 x    15 x    32            357941760       0.0%    100.0%      0.0%     
 flops    21 x    23 x    27            358444926       0.0%    100.0%      0.0%     
 flops    19 x    13 x    27            366208128       0.0%    100.0%      0.0%     
 flops    14 x    14 x    32            368454912       0.0%    100.0%      0.0%     
 flops    19 x    17 x    27            373607640       0.0%    100.0%      0.0%     
 flops    20 x    12 x    32            376243200       0.0%    100.0%      0.0%     
 flops    14 x    19 x    32            378086016       0.0%    100.0%      0.0%     
 flops    76 x    32 x   113            379246080       0.0%    100.0%      0.0%     
 flops    13 x    20 x    10            382028400       0.0%    100.0%      0.0%     
 flops    19 x    16 x    32            383594496       0.0%    100.0%      0.0%     
 flops    10 x    17 x    13            387121280       0.0%    100.0%      0.0%     
 flops    10 x    14 x    21            387233280       0.0%    100.0%      0.0%     
 flops    32 x    32 x    22            392527872       0.0%    100.0%      0.0%     
 flops    22 x    32 x    32            392527872       0.0%    100.0%      0.0%     
 flops    32 x    22 x    32            392527872       0.0%    100.0%      0.0%     
 flops    15 x    14 x    32            394773120       0.0%    100.0%      0.0%     
 flops    21 x    13 x    10            395036460       0.0%    100.0%      0.0%     
 flops    15 x    19 x    32            405092160       0.0%    100.0%      0.0%     
 flops    21 x    17 x    10            407665440       0.0%    100.0%      0.0%     
 flops    27 x    14 x    13            407763720       0.0%    100.0%      0.0%     
 flops    17 x    21 x    10            412863360       0.0%    100.0%      0.0%     
 flops    10 x    15 x    21            414892800       0.0%    100.0%      0.0%     
 flops    10 x    13 x    17            421031520       0.0%    100.0%      0.0%     
 flops    16 x    14 x    32            421091328       0.0%    100.0%      0.0%     
 flops    22 x    32 x   113            429580800       0.0%    100.0%      0.0%     
 flops    32 x    22 x   113            429580800       0.0%    100.0%      0.0%     
 flops    16 x    19 x    32            432098304       0.0%    100.0%      0.0%     
 flops    21 x    14 x    27            434224476       0.0%    100.0%      0.0%     
 flops    27 x    15 x    13            435468150       0.0%    100.0%      0.0%     
 flops    63 x    22 x   114            436091040       0.0%    100.0%      0.0%     
 flops    13 x    12 x    32            440204544       0.0%    100.0%      0.0%     
 flops    21 x    19 x    27            443869146       0.0%    100.0%      0.0%     
 flops    17 x    20 x    10            444067200       0.0%    100.0%      0.0%     
 flops    89 x    32 x   113            444117120       0.0%    100.0%      0.0%     
 flops    63 x    22 x    32            447866496       0.0%    100.0%      0.0%     
 flops    63 x    32 x    22            447866496       0.0%    100.0%      0.0%     
 flops    10 x    20 x    13            456019200       0.0%    100.0%      0.0%     
 flops    20 x    15 x    32            470976000       0.0%    100.0%      0.0%     
 flops    27 x    16 x    21            479273760       0.0%    100.0%      0.0%     
 flops    20 x    13 x    27            481852800       0.0%    100.0%      0.0%     
 flops    20 x    17 x    27            491589000       0.0%    100.0%      0.0%     
 flops    13 x     6 x    22            492972480       0.0%    100.0%      0.0%     
 flops     6 x    13 x    22            492972480       0.0%    100.0%      0.0%     
 flops    63 x    32 x   119            496601280       0.0%    100.0%      0.0%     
 flops    10 x    19 x    13            496845440       0.0%    100.0%      0.0%     
 flops    20 x    16 x    32            504729600       0.0%    100.0%      0.0%     
 flops    17 x    12 x    32            511690752       0.0%    100.0%      0.0%     
 flops    51 x    32 x   114            513492480       0.0%    100.0%      0.0%     
 flops    19 x    21 x    27            527273712       0.0%    100.0%      0.0%     
 flops    51 x    32 x    32            527357952       0.0%    100.0%      0.0%     
 flops    19 x    22 x    32            529261568       0.0%    100.0%      0.0%     
 flops    10 x    14 x    10            537594400       0.0%    100.0%      0.0%     
 flops    27 x    12 x    10            549860400       0.0%    100.0%      0.0%     
 flops    13 x    15 x    32            551041920       0.0%    100.0%      0.0%     
 flops    19 x    23 x    32            552423936       0.0%    100.0%      0.0%     
 flops    10 x    12 x    27            556981920       0.0%    100.0%      0.0%     
 flops    10 x    17 x    17            558671680       0.0%    100.0%      0.0%     
 flops    56 x    32 x   113            558888960       0.0%    100.0%      0.0%     
 flops    19 x    20 x    27            564956640       0.0%    100.0%      0.0%     
 flops    38 x    32 x   113            568869120       0.0%    100.0%      0.0%     
 flops    21 x    21 x    10            573758640       0.0%    100.0%      0.0%     
 flops    57 x    32 x   114            573903360       0.0%    100.0%      0.0%     
 flops    13 x    17 x    27            575159130       0.0%    100.0%      0.0%     
 flops    10 x    15 x    10            580782000       0.0%    100.0%      0.0%     
 flops    27 x    14 x    17            582966720       0.0%    100.0%      0.0%     
 flops    57 x    32 x    32            589400064       0.0%    100.0%      0.0%     
 flops    13 x    16 x    32            590533632       0.0%    100.0%      0.0%     
 flops    10 x    13 x    21            613354560       0.0%    100.0%      0.0%     
 flops    21 x    20 x    10            617122800       0.0%    100.0%      0.0%     
 flops    27 x    15 x    17            623987550       0.0%    100.0%      0.0%     
 flops    62 x    32 x   114            624245760       0.0%    100.0%      0.0%     
 flops    17 x    15 x    32            640527360       0.0%    100.0%      0.0%     
 flops    62 x    32 x    32            641101824       0.0%    100.0%      0.0%     
 flops    32 x    12 x    13            644287488       0.0%    100.0%      0.0%     
 flops    17 x    13 x    27            655319808       0.0%    100.0%      0.0%     
 flops    10 x    20 x    17            657641600       0.0%    100.0%      0.0%     
 flops    19 x    14 x    32            666727936       0.0%    100.0%      0.0%     
 flops    17 x    17 x    27            668561040       0.0%    100.0%      0.0%     
 flops    19 x    19 x    32            684155648       0.0%    100.0%      0.0%     
 flops    17 x    16 x    32            686432256       0.0%    100.0%      0.0%     
 flops    10 x    21 x    13            691017600       0.0%    100.0%      0.0%     
 flops    20 x    21 x    27            693781200       0.0%    100.0%      0.0%     
 flops    20 x    22 x    32            696396800       0.0%    100.0%      0.0%     
 flops    21 x    12 x    32            711099648       0.0%    100.0%      0.0%     
 flops    10 x    19 x    17            711581920       0.0%    100.0%      0.0%     
 flops    20 x    23 x    32            726873600       0.0%    100.0%      0.0%     
 flops    27 x    16 x    10            733328640       0.0%    100.0%      0.0%     
 flops    10 x    16 x    27            739739520       0.0%    100.0%      0.0%     
 flops    20 x    20 x    27            743364000       0.0%    100.0%      0.0%     
 flops    76 x    32 x   114            765204480       0.0%    100.0%      0.0%     
 flops    14 x    13 x    32            772681728       0.0%    100.0%      0.0%     
 flops    76 x    32 x    32            785866752       0.0%    100.0%      0.0%     
 flops    14 x    17 x    32            792871296       0.0%    100.0%      0.0%     
 flops    10 x    17 x    21            811675200       0.0%    100.0%      0.0%     
 flops    13 x    21 x    27            811724004       0.0%    100.0%      0.0%     
 flops    13 x    22 x    32            814784256       0.0%    100.0%      0.0%     
 flops    15 x    13 x    32            827873280       0.0%    100.0%      0.0%     
 flops    27 x    17 x    13            839914920       0.0%    100.0%      0.0%     
 flops    27 x    14 x    21            840157920       0.0%    100.0%      0.0%     
 flops    15 x    17 x    32            849504960       0.0%    100.0%      0.0%     
 flops    13 x    23 x    32            850442112       0.0%    100.0%      0.0%     
 flops    22 x    32 x   114            866764800       0.0%    100.0%      0.0%     
 flops    32 x    22 x   114            866764800       0.0%    100.0%      0.0%     
 flops    13 x    20 x    27            869735880       0.0%    100.0%      0.0%     
 flops    20 x    14 x    32            877273600       0.0%    100.0%      0.0%     
 flops    13 x    13 x    22            877373640       0.0%    100.0%      0.0%     
 flops    16 x    13 x    32            883064832       0.0%    100.0%      0.0%     
 flops    21 x    15 x    32            890144640       0.0%    100.0%      0.0%     
 flops    32 x    16 x    13            895977472       0.0%    100.0%      0.0%     
 flops    89 x    32 x   114            896094720       0.0%    100.0%      0.0%     
 flops    27 x    15 x    21            900169200       0.0%    100.0%      0.0%     
 flops    20 x    19 x    32            900204800       0.0%    100.0%      0.0%     
 flops    16 x    17 x    32            906138624       0.0%    100.0%      0.0%     
 flops    21 x    13 x    27            910701792       0.0%    100.0%      0.0%     
 flops    27 x    13 x    17            913488030       0.0%    100.0%      0.0%     
 flops    89 x    32 x    32            920291328       0.0%    100.0%      0.0%     
 flops    32 x    12 x    17            922589184       0.0%    100.0%      0.0%     
 flops    21 x    17 x    27            929103210       0.0%    100.0%      0.0%     
 flops    63 x    32 x   113            943125120       0.0%    100.0%      0.0%     
 flops    17 x    21 x    27            943542432       0.0%    100.0%      0.0%     
 flops    17 x    22 x    32            947099648       0.0%    100.0%      0.0%     
 flops    21 x    16 x    32            953938944       0.0%    100.0%      0.0%     
 flops    10 x    20 x    21            955382400       0.0%    100.0%      0.0%     
 flops    32 x    32 x   119            987033600       0.0%    100.0%      0.0%     
 flops    17 x    23 x    32            988548096       0.0%    100.0%      0.0%     
 flops    27 x    20 x    13            989398800       0.0%    100.0%      0.0%     
 flops    10 x    21 x    17            991203360       0.0%    100.0%      0.0%     
 flops    17 x    20 x    27           1010975040       0.0%    100.0%      0.0%     
 flops    13 x    14 x    32           1026410112       0.0%    100.0%      0.0%     
 flops    10 x    19 x    21           1036314720       0.0%    100.0%      0.0%     
 flops    13 x    19 x    32           1053239616       0.0%    100.0%      0.0%     
 flops    27 x    19 x    13           1077977160       0.0%    100.0%      0.0%     
 flops    14 x    21 x    32           1117218816       0.0%    100.0%      0.0%     
 flops    56 x    32 x   114           1127669760       0.0%    100.0%      0.0%     
 flops    38 x    32 x   114           1147806720       0.0%    100.0%      0.0%     
 flops    56 x    32 x    32           1158119424       0.0%    100.0%      0.0%     
 flops    38 x    32 x    32           1178800128       0.0%    100.0%      0.0%     
 flops     6 x    22 x     6           1187214336       0.0%    100.0%      0.0%     
 flops    17 x    14 x    32           1193092096       0.0%    100.0%      0.0%     
 flops    10 x    17 x    10           1196072400       0.0%    100.0%      0.0%     
 flops    15 x    21 x    32           1197020160       0.0%    100.0%      0.0%     
 flops    14 x    20 x    32           1198471680       0.0%    100.0%      0.0%     
 flops    27 x    17 x    17           1212118020       0.0%    100.0%      0.0%     
 flops    17 x    19 x    32           1224278528       0.0%    100.0%      0.0%     
 flops    27 x    12 x    27           1257874920       0.0%    100.0%      0.0%     
 flops    16 x    21 x    32           1276821504       0.0%    100.0%      0.0%     
 flops    27 x    14 x    10           1278713520       0.0%    100.0%      0.0%     
 flops    32 x    16 x    17           1280950272       0.0%    100.0%      0.0%     
 flops    15 x    20 x    32           1284076800       0.0%    100.0%      0.0%     
 flops    10 x    14 x    27           1289834280       0.0%    100.0%      0.0%     
 flops    21 x    21 x    27           1311246468       0.0%    100.0%      0.0%     
 flops    21 x    22 x    32           1316189952       0.0%    100.0%      0.0%     
 flops    27 x    13 x    21           1330760340       0.0%    100.0%      0.0%     
 flops    32 x    12 x    21           1346881536       0.0%    100.0%      0.0%     
 flops    16 x    20 x    32           1369681920       0.0%    100.0%      0.0%     
 flops    21 x    23 x    32           1373791104       0.0%    100.0%      0.0%     
 flops    27 x    15 x    10           1374877800       0.0%    100.0%      0.0%     
 flops     6 x     6 x    10           1380801600       0.0%    100.0%      0.0%     
 flops    10 x    15 x    27           1386177300       0.0%    100.0%      0.0%     
 flops    19 x    13 x    32           1398185984       0.0%    100.0%      0.0%     
 flops    21 x    20 x    27           1404957960       0.0%    100.0%      0.0%     
 flops    10 x    20 x    10           1407224000       0.0%    100.0%      0.0%     
 flops    27 x    20 x    17           1426847400       0.0%    100.0%      0.0%     
 flops    19 x    17 x    32           1434719488       0.0%    100.0%      0.0%     
 flops    10 x    21 x    21           1440270720       0.0%    100.0%      0.0%     
 flops    27 x    21 x    13           1499261400       0.0%    100.0%      0.0%     
 flops    10 x    19 x    10           1520874000       0.0%    100.0%      0.0%     
 flops    27 x    19 x    17           1543878630       0.0%    100.0%      0.0%     
 flops    32 x    14 x    13           1567960576       0.0%    100.0%      0.0%     
 flops    21 x    14 x    32           1658047104       0.0%    100.0%      0.0%     
 flops    27 x    16 x    27           1671731136       0.0%    100.0%      0.0%     
 flops    32 x    15 x    13           1674491520       0.0%    100.0%      0.0%     
 flops    21 x    19 x    32           1701387072       0.0%    100.0%      0.0%     
 flops    32 x    32 x    32           1712848896       0.0%    100.0%      0.0%     
 flops    27 x    17 x    21           1761045300       0.0%    100.0%      0.0%     
 flops    20 x    13 x    32           1839718400       0.0%    100.0%      0.0%     
 flops    32 x    16 x    21           1842935808       0.0%    100.0%      0.0%     
 flops    32 x    32 x   113           1874534400       0.0%    100.0%      0.0%     
 flops    20 x    17 x    32           1887788800       0.0%    100.0%      0.0%     
 flops    63 x    32 x   114           1902942720       0.0%    100.0%      0.0%     
 flops    63 x    32 x    32           1954326528       0.0%    100.0%      0.0%     
 flops    19 x    21 x    32           2021634048       0.0%    100.0%      0.0%     
 flops    13 x    22 x     6           2067024960       0.0%    100.0%      0.0%     
 flops     6 x    22 x    13           2067024960       0.0%    100.0%      0.0%     
 flops    27 x    20 x    21           2072838600       0.0%    100.0%      0.0%     
 flops    32 x    12 x    10           2096547840       0.0%    100.0%      0.0%     
 flops    10 x    21 x    10           2097568200       0.0%    100.0%      0.0%     
 flops    10 x    12 x    32           2120378880       0.0%    100.0%      0.0%     
 flops    27 x    21 x    17           2150557290       0.0%    100.0%      0.0%     
 flops    19 x    20 x    32           2168663040       0.0%    100.0%      0.0%     
 flops    13 x    17 x    32           2208712896       0.0%    100.0%      0.0%     
 flops    32 x    14 x    17           2241662976       0.0%    100.0%      0.0%     
 flops    27 x    19 x    21           2248432830       0.0%    100.0%      0.0%     
 flops    32 x    15 x    17           2399399040       0.0%    100.0%      0.0%     
 flops    10 x     6 x    10           2405610000       0.0%    100.0%      0.0%     
 flops    17 x    13 x    32           2502017024       0.0%    100.0%      0.0%     
 flops    17 x    17 x    32           2567392768       0.0%    100.0%      0.0%     
 flops     6 x    13 x    10           2582030880       0.0%    100.0%      0.0%     
 flops    10 x    10 x   206           2608866400       0.0%    100.0%      0.0%     
 flops    20 x    21 x    32           2660044800       0.0%    100.0%      0.0%     
 flops    27 x    17 x    10           2776390020       0.0%    100.0%      0.0%     
 flops    13 x     6 x    10           2781774840       0.0%    100.0%      0.0%     
 flops    32 x    16 x    10           2795202560       0.0%    100.0%      0.0%     
 flops    10 x    17 x    27           2806261740       0.0%    100.0%      0.0%     
 flops    10 x    16 x    32           2823454720       0.0%    100.0%      0.0%     
 flops    20 x    20 x    32           2853504000       0.0%    100.0%      0.0%     
 flops    27 x    14 x    27           2918732292       0.0%    100.0%      0.0%     
 flops    10 x    10 x   233           2950805200       0.0%    100.0%      0.0%     
 flops    13 x    21 x    32           3112252416       0.0%    100.0%      0.0%     
 flops    27 x    21 x    21           3124873080       0.0%    100.0%      0.0%     
 flops    27 x    15 x    27           3133074330       0.0%    100.0%      0.0%     
 flops    32 x    17 x    13           3229697536       0.0%    100.0%      0.0%     
 flops    32 x    14 x    21           3230631936       0.0%    100.0%      0.0%     
 flops    27 x    20 x    10           3264451200       0.0%    100.0%      0.0%     
 flops    10 x    20 x    27           3304832400       0.0%    100.0%      0.0%     
 flops    13 x    20 x    32           3338599680       0.0%    100.0%      0.0%     
 flops    32 x    15 x    21           3461391360       0.0%    100.0%      0.0%     
 flops    21 x    13 x    32           3477067776       0.0%    100.0%      0.0%     
 flops    32 x    13 x    17           3512605824       0.0%    100.0%      0.0%     
 flops    27 x    19 x    10           3537832680       0.0%    100.0%      0.0%     
 flops    21 x    17 x    32           3567920832       0.0%    100.0%      0.0%     
 flops    10 x    19 x    27           3570849360       0.0%    100.0%      0.0%     
 flops    13 x    22 x    13           3598838100       0.0%    100.0%      0.0%     
 flops    17 x    21 x    32           3617660928       0.0%    100.0%      0.0%     
 flops    32 x    32 x   114           3782246400       0.0%    100.0%      0.0%     
 flops    32 x    20 x    13           3804503040       0.0%    100.0%      0.0%     
 flops    17 x    20 x    32           3880765440       0.0%    100.0%      0.0%     
 flops    32 x    19 x    13           4145110528       0.0%    100.0%      0.0%     
 flops    32 x    17 x    17           4660918016       0.0%    100.0%      0.0%     
 flops    27 x    12 x    32           4810026240       0.0%    100.0%      0.0%     
 flops    32 x    12 x    27           4819834368       0.0%    100.0%      0.0%     
 flops    32 x    14 x    10           4872483840       0.0%    100.0%      0.0%     
 flops    27 x    21 x    10           4883015340       0.0%    100.0%      0.0%     
 flops    10 x    21 x    27           4929429960       0.0%    100.0%      0.0%     
 flops    10 x    14 x    32           4932085760       0.0%    100.0%      0.0%     
 flops    10 x     6 x     6           5012900640       0.0%    100.0%      0.0%     
 flops    21 x    21 x    32           5027484672       0.0%    100.0%      0.0%     
 flops    32 x    13 x    21           5117129472       0.0%    100.0%      0.0%     
 flops     6 x    32 x     6           5180571648       0.0%    100.0%      0.0%     
 flops    32 x    15 x    10           5241292800       0.0%    100.0%      0.0%     
 flops     6 x     6 x    27           5290335504       0.0%    100.0%      0.0%     
 flops    10 x    15 x    32           5299545600       0.0%    100.0%      0.0%     
 flops    21 x    20 x    32           5393122560       0.0%    100.0%      0.0%     
 flops    13 x    13 x    10           5463783520       0.0%    100.0%      0.0%     
 flops    32 x    20 x    17           5486609920       0.0%    100.0%      0.0%     
 flops    27 x     6 x    10           5581233720       0.0%    100.0%      0.0%     
 flops    10 x    13 x    10           5597139600       0.0%    100.0%      0.0%     
 flops    10 x    10 x   221           5597664800       0.0%    100.0%      0.0%     
 flops    32 x    21 x    13           5765061120       0.0%    100.0%      0.0%     
 flops    10 x    27 x   206           5868354960       0.0%    100.0%      0.0%     
 flops    27 x    10 x   206           5868799920       0.0%    100.0%      0.0%     
 flops    32 x    19 x    17           5936626304       0.0%    100.0%      0.0%     
 flops    27 x    17 x    27           6302782368       0.0%    100.0%      0.0%     
 flops    27 x    16 x    32           6400650240       0.0%    100.0%      0.0%     
 flops    32 x    16 x    27           6404133888       0.0%    100.0%      0.0%     
 flops    10 x    27 x   233           6637508280       0.0%    100.0%      0.0%     
 flops    27 x    10 x   233           6638011560       0.0%    100.0%      0.0%     
 flops    32 x    17 x    21           6771690240       0.0%    100.0%      0.0%     
 flops    27 x    20 x    27           7422590520       0.0%    100.0%      0.0%     
 flops    32 x    20 x    21           7970618880       0.0%    100.0%      0.0%     
 flops    27 x    19 x    27           8033496894       0.0%    100.0%      0.0%     
 flops    32 x    21 x    17           8269468032       0.0%    100.0%      0.0%     
 flops    10 x    10 x     6           8274783600       0.0%    100.0%      0.0%     
 flops    32 x    19 x    21           8645825664       0.0%    100.0%      0.0%     
 flops    10 x    13 x     6           8941831080       0.0%    100.0%      0.0%     
 flops    13 x    32 x     6           9019745280       0.0%    100.0%      0.0%     
 flops     6 x    32 x    13           9019745280       0.0%    100.0%      0.0%     
 flops    10 x     6 x    27           9092988720       0.0%    100.0%      0.0%     
 flops     6 x    13 x    27           9836506836       0.0%    100.0%      0.0%     
 flops    13 x     6 x    27          10346752728       0.0%    100.0%      0.0%     
 flops    32 x    17 x    10          10598610560       0.0%    100.0%      0.0%     
 flops    10 x    17 x    32          10728713600       0.0%    100.0%      0.0%     
 flops    27 x    21 x    27          11090758140       0.0%    100.0%      0.0%     
 flops    10 x     6 x    13          11165748360       0.0%    100.0%      0.0%     
 flops    32 x    14 x    27          11177526528       0.0%    100.0%      0.0%     
 flops    27 x    14 x    32          11199371904       0.0%    100.0%      0.0%     
 flops    32 x    15 x    27          12003707520       0.0%    100.0%      0.0%     
 flops    32 x    21 x    21          12015972864       0.0%    100.0%      0.0%     
 flops    27 x    15 x    32          12020140800       0.0%    100.0%      0.0%     
 flops    32 x    20 x    10          12463526400       0.0%    100.0%      0.0%     
 flops    10 x    27 x   221          12591324720       0.0%    100.0%      0.0%     
 flops    27 x    10 x   221          12592279440       0.0%    100.0%      0.0%     
 flops    10 x    20 x    32          12623667200       0.0%    100.0%      0.0%     
 flops    27 x    27 x   206          12772298700       0.0%    100.0%      0.0%     
 flops    27 x    13 x    10          13118288040       0.0%    100.0%      0.0%     
 flops    32 x    19 x    10          13509383040       0.0%    100.0%      0.0%     
 flops    10 x    19 x    32          13667536000       0.0%    100.0%      0.0%     
 flops    27 x    27 x   233          14446337850       0.0%    100.0%      0.0%     
 flops    13 x    32 x    13          15704020800       0.0%    100.0%      0.0%     
 flops    27 x     6 x     6          17465794128       0.0%    100.0%      0.0%     
 flops    32 x    12 x    32          18413568000       0.0%    100.0%      0.0%     
 flops    10 x    10 x    13          18480771400       0.0%    100.0%      0.0%     
 flops    32 x    21 x    10          18638524800       0.0%    100.0%      0.0%     
 flops    27 x    10 x     6          18701743320       0.0%    100.0%      0.0%     
 flops    10 x    21 x    32          18858873600       0.0%    100.0%      0.0%     
 flops     6 x     6 x    32          19092386304       0.0%    100.0%      0.0%     
 flops    13 x    13 x    27          19666000692       0.0%    100.0%      0.0%     
 flops    10 x    13 x    27          20156111820       0.0%    100.0%      0.0%     
 flops    10 x    13 x    13          20554922440       0.0%    100.0%      0.0%     
 flops    27 x     6 x    27          21214206180       0.0%    100.0%      0.0%     
 flops    32 x     6 x    10          21467877120       0.0%    100.0%      0.0%     
 flops    10 x    32 x   206          22480697600       0.0%    100.0%      0.0%     
 flops    32 x    10 x   206          22511548160       0.0%    100.0%      0.0%     
 flops    32 x    17 x    27          24146836992       0.0%    100.0%      0.0%     
 flops    27 x    17 x    32          24163669440       0.0%    100.0%      0.0%     
 flops    32 x    16 x    32          24505712640       0.0%    100.0%      0.0%     
 flops    10 x    32 x   233          25427196800       0.0%    100.0%      0.0%     
 flops    32 x    10 x   233          25462090880       0.0%    100.0%      0.0%     
 flops    27 x    27 x   221          27404640900       0.0%    100.0%      0.0%     
 flops    32 x    20 x    27          28438283520       0.0%    100.0%      0.0%     
 flops    27 x    20 x    32          28451831040       0.0%    100.0%      0.0%     
 flops    10 x    27 x     6          28781318520       0.0%    100.0%      0.0%     
 flops    32 x    19 x    27          30780919296       0.0%    100.0%      0.0%     
 flops    10 x     6 x    32          30798466560       0.0%    100.0%      0.0%     
 flops    27 x    19 x    32          30825275328       0.0%    100.0%      0.0%     
 flops    27 x    13 x     6          30999149064       0.0%    100.0%      0.0%     
 flops    27 x     6 x    13          34658319852       0.0%    100.0%      0.0%     
 flops     6 x    13 x    32          35311221504       0.0%    100.0%      0.0%     
 flops    13 x     6 x    32          37742265600       0.0%    100.0%      0.0%     
 flops    27 x    10 x    13          42343116660       0.0%    100.0%      0.0%     
 flops    32 x    21 x    27          42494155200       0.0%    100.0%      0.0%     
 flops    27 x    21 x    32          42543797184       0.0%    100.0%      0.0%     
 flops    32 x    14 x    32          42864668672       0.0%    100.0%      0.0%     
 flops    32 x    15 x    32          46011033600       0.0%    100.0%      0.0%     
 flops    27 x    13 x    27          46671779934       0.0%    100.0%      0.0%     
 flops    10 x    32 x   221          48235283200       0.0%    100.0%      0.0%     
 flops    32 x    10 x   221          48301477120       0.0%    100.0%      0.0%     
 flops    27 x    32 x   206          49112904960       0.0%    100.0%      0.0%     
 flops    32 x    27 x   206          49112904960       0.0%    100.0%      0.0%     
 flops    32 x    13 x    10          50430199040       0.0%    100.0%      0.0%     
 flops    27 x    32 x   233          55550033280       0.0%    100.0%      0.0%     
 flops    32 x    27 x   233          55550033280       0.0%    100.0%      0.0%     
 flops    10 x    27 x    13          57443473620       0.0%    100.0%      0.0%     
 flops    32 x     6 x     6          59361903360       0.0%    100.0%      0.0%     
 flops    27 x    13 x    13          62645627772       0.0%    100.0%      0.0%     
 flops    27 x    27 x     6          64546286940       0.0%    100.0%      0.0%     
 flops    10 x    13 x    32          69580351360       0.0%    100.0%      0.0%     
 flops    32 x    10 x     6          71661722880       0.0%    100.0%      0.0%     
 flops    27 x     6 x    32          71707534848       0.0%    100.0%      0.0%     
 flops    13 x    13 x    32          71751051008       0.0%    100.0%      0.0%     
 flops    32 x     6 x    27          81165794688       0.0%    100.0%      0.0%     
 flops    32 x    17 x    32          92556421120       0.0%    100.0%      0.0%     
 flops    10 x    32 x     6          97893715200       0.0%    100.0%      0.0%     
 flops    27 x    32 x   221         105378174720       0.0%    100.0%      0.0%     
 flops    32 x    27 x   221         105378174720       0.0%    100.0%      0.0%     
 flops    32 x    13 x     6         105484634112       0.0%    100.0%      0.0%     
 flops    32 x    20 x    32         108961464320       0.0%    100.0%      0.0%     
 flops    32 x    19 x    32         118056790016       0.0%    100.0%      0.0%     
 flops    32 x     6 x    13         122332669056       0.0%    100.0%      0.0%     
 flops    27 x    27 x    13         127660800384       0.0%    100.0%      0.0%     
 flops    27 x    13 x    32         161293362048       0.0%    100.0%      0.0%     
 flops    32 x    10 x    13         162073367040       0.0%    100.0%      0.0%     
 flops    32 x    21 x    32         162923034624       0.0%    100.0%      0.0%     
 flops    32 x    13 x    27         178771746816       0.0%    100.0%      0.0%     
 flops    32 x    32 x   206         188852256768       0.0%    100.0%      0.0%     
 flops    10 x    32 x    13         202611601920       0.0%    100.0%      0.0%     
 flops    32 x    32 x   233         213604737024       0.0%    100.0%      0.0%     
 flops    27 x    32 x     6         220055761152       0.0%    100.0%      0.0%     
 flops    32 x    13 x    13         222405287104       0.0%    100.0%      0.0%     
 flops    32 x    27 x     6         247656413952       0.0%    100.0%      0.0%     
 flops    32 x     6 x    32         274928603136       0.0%    100.0%      0.0%     
 flops    32 x    32 x   221         405207269376       0.0%    100.0%      0.0%     
 flops    27 x    32 x    13         454830674688       0.0%    100.0%      0.0%     
 flops    32 x    27 x    13         489996584064       0.0%    100.0%      0.0%     
 flops    32 x    13 x    32         618601611264       0.0%    100.0%      0.0%     
 flops    32 x    32 x     6         844196278272       0.0%    100.0%      0.0%     
 flops    32 x    32 x    13        1744444735488       0.0%    100.0%      0.0%     
 flops inhomo. stacks               8243892423200     100.0%      0.0%      0.0%
 flops total                        18.829391E+12      43.8%     56.2%      0.0%
 flops max/rank                    668.559116E+09      42.6%     57.4%      0.0%
 matmuls inhomo. stacks                 133981116     100.0%      0.0%      0.0%
 matmuls total                          898165808      14.9%     85.1%      0.0%
 number of processed stacks               6069260       3.5%     96.5%      0.0%
 average stack size                                   635.7     130.4       0.0
 marketing flops                    28.122196E+12
 -------------------------------------------------------------------------------
 # multiplications                           2938
 max memory usage/rank              20.889661E+09
 # max total images/rank                        2
 # max 3D layers                                1
 # MPI messages exchanged                 1222208
 MPI messages size (bytes):
  total size                       351.512822E+09
  min size                           0.000000E+00
  max size                          11.857160E+06
  average size                     287.604750E+03
 MPI breakdown and total messages size (bytes):
             size <=      128              527527                        0
       128 < size <=     8192              182349               1268504608
      8192 < size <=    32768              190038               5154932464
     32768 < size <=   131072               92113               5830968992
    131072 < size <=  4194304              216363             196887851520
   4194304 < size <= 16777216               13818             142369945704
  16777216 < size                               0                        0
 -------------------------------------------------------------------------------

 *** WARNING in dbcsr_mm.F:301 :: Using a non-square number of MPI ranks ***
 *** might lead to poor performance. Used ranks: 32 Suggested: 36 64     ***

 -------------------------------------------------------------------------------
 -                                                                             -
 -                      DBCSR MESSAGE PASSING PERFORMANCE                      -
 -                                                                             -
 -------------------------------------------------------------------------------
 ROUTINE             CALLS      AVE VOLUME [Bytes]
 MP_Bcast              652                     12.
 MP_Allreduce        15117                     16.
 MP_Alltoall         11300                  36235.
 MP_ISend            99906                 125891.
 MP_IRecv            96686                 125778.
 -------------------------------------------------------------------------------

 -------------------------------------------------------------------------------
 -                                                                             -
 -                                GRID STATISTICS                              -
 -                                                                             -
 -------------------------------------------------------------------------------
 LP    KERNEL             BACKEND                              COUNT     PERCENT
 3     collocate ortho    CPU                                 365940      24.96%
 3     integrate ortho    CPU                                 365940      24.96%
 2     collocate ortho    CPU                                 189468      12.92%
 2     integrate ortho    CPU                                 189468      12.92%
 4     collocate ortho    CPU                                 177498      12.11%
 4     integrate ortho    CPU                                 177498      12.11%
 0     collocate general  CPU                                    101       0.01%
 -------------------------------------------------------------------------------

 -------------------------------------------------------------------------------
 -                                                                             -
 -                          OFFLOAD MEMPOOL STATISTICS                         -
 -                                                                             -
 -------------------------------------------------------------------------------
 Memory consumption                Number of allocations  Used [MiB]  Size [MiB]
 Host                                                  6         101    22250844
 -------------------------------------------------------------------------------

 MEMORY| Estimated peak process memory [MiB]                                1737

 -------------------------------------------------------------------------------
 -                                                                             -
 -                         MESSAGE PASSING PERFORMANCE                         -
 -                                                                             -
 -------------------------------------------------------------------------------

 ROUTINE             CALLS      AVE VOLUME [Bytes]
 MP_Group                5
 MP_Bcast             7053                   5629.
 MP_Allreduce        20212                   3677.
 MP_Sync               115
 MP_Alltoall          2174               98761646.
 MP_SendRecv          7068                 511920.
 MP_ISendRecv         7068                 511920.
 MP_Wait             18950
 MP_comm_split         113
 MP_ISend            10054                1698027.
 MP_IRecv            10054                1698101.
 -------------------------------------------------------------------------------


 -------------------------------------------------------------------------------
 -                                                                             -
 -                           R E F E R E N C E S                               -
 -                                                                             -
 -------------------------------------------------------------------------------
 
 CP2K version 2026.2 (Development Version), the CP2K developers group (2026).
 CP2K is freely available from https://www.cp2k.org/ .
 
 M. Iannuzzi, J. Wilhelm, F. Stein, A. Bussy, H. Elgabarty, D. Golze, A. Hehn, 
 M. Graml, S. Marek, B. Sertcan Gökmen, C. Schran, H. Forbert, R. Z. 
 Khaliullin, A. Kozhevnikov, M. Taillefumier, R. Meli, V. V. Rybkin, M. Brehm, 
 R. Schade, O. Schütt, J. V. Pototschnig, H. Mirhosseini, A. Knüpfer, D. Marx, 
 M. Krack, J. Hutter, T. D. Kühne.
 J. Phys. Chem. B 130, 1237-1310 (2026).
 The CP2K Program Package Made Simple.
 https://doi.org/10.1021/acs.jpcb.5c05851

 M. Graml, K. Zollner, D. Hernangómez-Pérez, P. E. Faria Junior, J. Wilhelm.
 J. Chem. Theory Comput. 20, 2202-2208 (2024).
 Low-scaling GW algorithm applied to twisted transition-metal dichalcogenide 
 heterobilayers.
 https://doi.org/10.1021/acs.jctc.3c01230

 T. D. Kühne, M. Iannuzzi, M. Del Ben, V. V. Rybkin, P. Seewald, F. Stein, T. 
 Laino, R. Z. Khaliullin, O. Schütt, F. Schiffmann, D. Golze, J. Wilhelm, S. 
 Chulkov, M. H. Bani-Hashemian, V. Weber, U. Borstnik, M. Taillefumier, A. S. 
 Jakobovits, A. Lazzaro, H. Pabst, T. Müller, R. Schade, M. Guidon, S. 
 Andermatt, N. Holmberg, G. K. Schenter, A. Hehn, A. Bussy, F. Belleflamme, G. 
 Tabacchi, A. Glöß, M. Lass, I. Bethune, C. J. Mundy, C. Plessl, M. Watkins, 
 J. VandeVondele, M. Krack, J. Hutter.
 J. Chem. Phys. 152, 194103 (2020).
 CP2K: An electronic structure and molecular dynamics software package - 
 Quickstep: Efficient and accurate electronic structure calculations.
 https://doi.org/10.1063/5.0007045

 O. Schuett, P. Messmer, J. Hutter, J. VandeVondele.
 Electronic Structure Calculations on Graphics Processing Units, 173-190 (2016).
 GPU-Accelerated Sparse Matrix-Matrix Multiplication for Linear Scaling Density 
 Functional Theory.
 https://doi.org/10.1002/9781118670712.ch8

 U. Borstnik, J. VandeVondele, V. Weber, J. Hutter.
 Parallel Comput. 40, 47-58 (2014).
 Sparse matrix multiplication: The distributed block-compressed sparse row 
 library.
 https://doi.org/10.1016/j.parco.2014.03.012

 J. VandeVondele, J. Hutter.
 J. Chem. Phys. 127, 114105 (2007).
 Gaussian basis sets for accurate calculations on molecular systems in gas and 
 condensed phases.
 https://doi.org/10.1063/1.2770708

 J. VandeVondele, M. Krack, F. Mohamed, M. Parrinello, T. Chassaing, J. Hutter.
 Comput. Phys. Commun. 167, 103-128 (2005).
 QUICKSTEP: Fast and accurate density functional calculations using a mixed 
 Gaussian and plane waves approach.
 https://doi.org/10.1016/j.cpc.2004.12.014

 M. Krack.
 Theor. Chem. Acc. 114, 145-152 (2005).
 Pseudopotentials for H to Kr optimized for gradient-corrected 
 exchange-correlation functionals.
 https://doi.org/10.1007/s00214-005-0655-y

 M. Frigo, S. G. Johnson.
 Proc. IEEE 93, 216-231 (2005).
 The design and implementation of FFTW3.
 https://doi.org/10.1109/JPROC.2004.840301

 J. VandeVondele, J. Hutter.
 J. Chem. Phys. 118, 4365-4369 (2003).
 An efficient orbital transformation method for electronic structure 
 calculations.
 https://doi.org/10.1063/1.1543154

 C. Hartwigsen, S. Goedecker, J. Hutter.
 Phys. Rev. B 58, 3641-3662 (1998).
 Relativistic separable dual-space Gaussian pseudopotentials from H to Rn.
 https://doi.org/10.1103/PhysRevB.58.3641

 G. Lippert, J. Hutter, M. Parrinello.
 Mol. Phys. 92, 477-487 (1997).
 A hybrid Gaussian and plane wave density functional scheme.
 https://doi.org/10.1080/002689797170220

 S. Goedecker, M. Teter, J. Hutter.
 Phys. Rev. B 54, 1703-1710 (1996).
 Separable dual-space Gaussian pseudopotentials.
 https://doi.org/10.1103/PhysRevB.54.1703

 J. P. Perdew, K. Burke, M. Ernzerhof.
 Phys. Rev. Lett. 77, 3865-3868 (1996).
 Generalized gradient approximation made simple.
 https://doi.org/10.1103/PhysRevLett.77.3865

 P. E. Blöchl.
 J. Chem. Phys. 103, 7422-7428 (1995).
 Electrostatic decoupling of periodic images of plane‐wave‐expanded 
 densities and derived atomic point charges.
 https://doi.org/10.1063/1.470314

 R. H. Byrd, P. H. Lu, J. Nocedal, C. Y. Zhu.
 SIAM J. Sci. Comput. 16, 1190-1208 (1995).
 A Limited Memory Algorithm for Bound Constrained Optimization.
 https://doi.org/10.1137/0916069


 -------------------------------------------------------------------------------
 -                                                                             -
 -                                T I M I N G                                  -
 -                                                                             -
 -------------------------------------------------------------------------------
 SUBROUTINE                       CALLS  ASD         SELF TIME        TOTAL TIME MAXRANK
                                MAXIMUM       AVERAGE  MAXIMUM  AVERAGE  MAXIMUM
 CP2K                                 1  1.0    0.154    0.164 6833.087 6833.090       0
 qs_energies                          1  2.0    0.022    0.023 6832.170 6832.170      15
 qs_energies_properties               1  3.0    0.002    0.003 6505.118 6505.118      12
 post_scf_bandstructure               1  4.0    0.002    0.002 6505.116 6505.117       3
 gw                                   1  5.0    0.001    0.001 6504.641 6504.648       7
 gw_calc_non_periodic_ri_rs           1  6.0    0.006    0.009 6498.835 6498.842      21
 ri_rs_grid_assembler                 1  7.0    0.020    0.034 6462.423 6462.434       1
 optimize_ri_rs_grid                  1  8.0    0.002    0.006 6412.835 6412.838       0
 rirs_grid_LBFGS                      1  9.0   10.863   16.980 6356.565 6390.280       1
 evaluate_rirs_grid_cluster         404 10.0  110.731  246.540 2784.540 6275.735       1
 mp_sum_d                          6103 10.6 3563.109 5576.836 3563.109 5576.836      31
 rirs_cluster_gradient_products     404 11.0 1107.553 2267.776 1107.553 2267.776       1
 rirs_cluster_residual              404 11.0  434.785 1100.040  434.785 1100.040       1
 rirs_cluster_D_ll                  404 11.0  399.067 1042.023  399.067 1042.023       1
 rirs_cluster_d_lP                  404 11.0  382.755  988.217  382.755  988.217       2
 rirs_cluster_gradient_coordina     404 11.0  203.059  378.519  203.059  378.519       1
 scf_env_do_scf                       1  3.0    0.011    0.012  325.625  325.626      29
 rirs_cluster_AO_products           404 11.0  146.590  321.062  146.590  321.062       1
 scf_env_do_scf_inner_loop          113  4.0    0.026    0.035  321.003  321.006       0
 qs_ks_build_kohn_sham_matrix       114  7.0    0.074    0.088  248.070  248.084      17
 qs_ks_update_qs_env                115  5.0    0.002    0.002  247.371  247.386      27
 rebuild_ks_matrix                  113  6.0    0.003    0.003  247.341  247.354      10
 fft_wrap_pw1pw2                   1932 10.3    0.071    0.081  200.178  210.299       9
 fft_wrap_pw1pw2_250               1248 11.8   11.595   13.883  191.394  201.095       1
 qs_vxc_create                      114  8.0    0.010    0.012  163.653  164.974      13
 xc_vxc_pw_create                   113  9.0    2.193    2.894  163.644  164.963       7
 fft3d_ps                          1932 12.3   83.536   87.023  145.156  156.773      12
 xc_pw_derive                       678 11.0    0.010    0.015  123.332  132.977       5
 rirs_grid_build_clusters             1  9.0   38.051   79.347   56.269  120.034       1
 xc_pw_divergence                   113 10.0    0.010    0.020   83.644   92.705      21
 xc_rho_set_and_dset_create         113 10.0    2.520    4.312   75.732   83.646      30
 qs_rho_update_rho_low              114  5.0    0.004    0.006   75.577   75.588       1
 calculate_rho_elec                 114  6.0    1.076    1.114   75.572   75.582      28
 density_rs2pw                      114  7.0    0.008    0.009   48.744   51.519       1
 build_grid_cache                     1  8.0    0.000    0.001   49.567   49.567      19
 initialize_cholesky_rirs_grids       1  9.0   20.859   49.563   49.566   49.566       1
 mp_alltoall_z22v                  1932 14.3   32.299   46.038   32.299   46.038       1
 abc_contract_xsmm              1338870 10.1   20.050   43.101   20.050   43.101       1
 mp_bcast_dm                        396 10.1   28.931   41.638   28.931   41.638      28
 sum_up_and_integrate               114  8.0    0.035    0.040   40.341   40.362       1
 yz_to_x                            910 12.9   10.416   11.675   28.315   39.657       4
 integrate_v_rspace                 114  9.0    0.020    0.024   39.286   39.353      31
 x_to_yz                           1022 13.8   18.837   21.293   33.236   35.149      10
 potential_pw2rs                    114 10.0    0.061    0.066   34.333   34.419       8
 grid_collocate_task_list           114  7.0   24.878   26.568   24.878   26.568      19
 qs_ks_ddapc                        114  8.0    0.004    0.005   23.108   24.162       4
 pw_derive                         1020 11.3   19.243   21.492   19.243   21.492       3
 dbcsr_multiply_generic            2938 10.0    0.110    0.116   17.662   19.171      24
 compute_Z_lP                         1  7.0    0.001    0.001   18.401   18.401      23
 compute_Z_lP_auto_ri                 1  8.0    0.010    0.011   18.400   18.400      15
 pw_gather_p                        910 11.9   15.409   18.134   15.409   18.134      27
 pw_poisson_solve                   114  8.0    0.011    0.012   17.810   17.916      28
 pw_scatter_p                      1022 12.8   16.754   17.356   16.754   17.356      14
 xc_functional_eval                 113 11.0    0.004    0.017    9.975   16.645      11
 pbe_lda_eval                       113 12.0    9.971   16.644    9.971   16.644      16
 pw_copy                           1820 10.6   15.331   15.647   15.331   15.647      22
 transfer_rs2pw                     457  8.0    0.009    0.012   10.257   12.772       1
 compute_auto_ri_d_lp                 1  9.0    0.000    0.000   12.063   12.064      19
 compute_auto_ri_d_lp_AB_d_lp         1 10.0    0.012    0.042    9.081   11.983       6
 transfer_pw2rs                     456 11.0    0.008    0.012   11.912   11.941      20
 pw_poisson_set                     115  9.0    0.004    0.004   11.411   11.517       4
 multiply_cannon                   2938 11.0    0.166    0.174   10.262   11.168      21
 compute_d_lp_auto_ri_atom            4 11.0    3.883    5.184    8.225   10.911       3
 mp_waitany                       10054 11.5    7.967   10.617    7.967   10.617      20
 multiply_cannon_loop              2938 12.0    0.101    0.105    9.483   10.406      24
 transfer_rs2pw_250                 115  9.0    2.534    3.070    6.534    8.825      14
 compute_Sigma_c_and_QP_energie       1  7.0    0.001    0.001    8.700    8.711      17
 fft_wrap_pw1pw2_90                 228 10.5    0.309    0.444    7.515    8.696      31
 compute_Sigma_c                      1  8.0    0.001    0.002    8.301    8.301       0
 pw_axpy                           1145  9.2    7.686    8.229    7.686    8.229      31
 contract_grid_panels_sigma_c        30  9.0    0.002    0.003    7.901    7.917       1
 multiply_cannon_multrec          23504 13.0    6.980    7.828    7.005    7.854       3
 transfer_pw2rs_250                 114 12.0    3.426    3.629    7.060    7.263      14
 pw_copy_to_array                   910 11.9    6.271    6.952    6.271    6.952      26
 -------------------------------------------------------------------------------

 The number of warnings for this run is : 1
 
 -------------------------------------------------------------------------------
  **** **** ******  **  PROGRAM ENDED AT                 2026-09-17 16:35:05.205
 ***** ** ***  *** **   PROGRAM RAN ON                                  n2cn0741
 **    ****   ******    PROGRAM RAN BY                                  eprop2d1
 ***** **    ** ** **   PROGRAM PROCESS ID                                264186
  **** **  *******  **  PROGRAM STOPPED IN /scratch/hpc-prf-metdyn/eprop2d1_Jan/
                                           53_benchmark_RI_opt/108_Si45H56_RIAO_
                                           cluster_radius_sweep/calculations/c5_
                                           a2_r07
