 DBCSR| CPU Multiplication driver                                           XSMM (U)
 DBCSR| Multrec recursion limit                                              512 (U)
 DBCSR| Multiplication stack size                                           1000 (D)
 DBCSR| Maximum elements for images                                    UNLIMITED (U)
 DBCSR| Multiplicative factor virtual images                                   1 (U)
 DBCSR| Use multiplication densification                                       T (D)
 DBCSR| Multiplication size stacks                                             3 (U)
 DBCSR| Use memory pool for CPU allocation                                     F (U)
 DBCSR| Number of 3D layers                                               SINGLE (U)
 DBCSR| Use MPI memory allocation                                              F (U)
 DBCSR| Use RMA algorithm                                                      F (U)
 DBCSR| Use Communication thread                                               T (U)
 DBCSR| Communication thread load                                             75 (D)
 DBCSR| MPI: My process id                                                     1
 DBCSR| MPI: Number of processes                                              32
 DBCSR| OMP: Current number of threads                                         4
 DBCSR| OMP: Max number of threads                                             4
 DBCSR| Split modifier for TAS multiplication algorithm                  1.0E+00 (U)


  **** **** ******  **  PROGRAM STARTED AT               2026-09-16 11:04:46.604
 ***** ** ***  *** **   PROGRAM STARTED ON                              n2cn0825
 **    ****   ******    PROGRAM STARTED BY                              eprop2d1
 ***** **    ** ** **   PROGRAM PROCESS ID                                272400
  **** **  *******  **  PROGRAM STARTED IN /scratch/hpc-prf-metdyn/eprop2d1_Jan/
                                           53_benchmark_RI_opt/108_Si45H56_RIAO_
                                           cluster_radius_sweep/calculations/c3_
                                           a4_r08

 CP2K| version string:                 CP2K version 2026.2 (Development Version)
 CP2K| source code revision number:                                      unknown
 CP2K| cp2kflags: omp libint fftw3 libxc parallel scalapack openblas            
 CP2K| is freely available from                            https://www.cp2k.org/
 CP2K| Program compiled at                                   2026-09-15 17:57:52
 CP2K| Program compiled on                                              n2login6
 CP2K| Program compiled for                                               x86_64
 CP2K| Data directory path    /scratch/hpc-prf-metdyn/eprop2d1_Jan/53_benchmark_
 CP2K| Input file name                                                 input.inp
 
 eprop2d1@n2cn0825 has created rank and process                      0    272400
 eprop2d1@n2cn0825 has created rank and process                      1    272399
 eprop2d1@n2cn0825 has created rank and process                      2    272398
 eprop2d1@n2cn0825 has created rank and process                      3    272402
 eprop2d1@n2cn0825 has created rank and process                      4    272404
 eprop2d1@n2cn0825 has created rank and process                      5    272403
 eprop2d1@n2cn0825 has created rank and process                      6    272401
 eprop2d1@n2cn0825 has created rank and process                      7    272407
 eprop2d1@n2cn0825 has created rank and process                      8    272408
 eprop2d1@n2cn0825 has created rank and process                      9    272406
 eprop2d1@n2cn0825 has created rank and process                     10    272405
 eprop2d1@n2cn0825 has created rank and process                     11    272411
 eprop2d1@n2cn0825 has created rank and process                     12    272412
 eprop2d1@n2cn0825 has created rank and process                     13    272410
 eprop2d1@n2cn0825 has created rank and process                     14    272409
 eprop2d1@n2cn0825 has created rank and process                     15    272415
 eprop2d1@n2cn0825 has created rank and process                     16    272416
 eprop2d1@n2cn0825 has created rank and process                     17    272414
 eprop2d1@n2cn0825 has created rank and process                     18    272413
 eprop2d1@n2cn0825 has created rank and process                     19    272419
 eprop2d1@n2cn0825 has created rank and process                     20    272422
 eprop2d1@n2cn0825 has created rank and process                     21    272417
 eprop2d1@n2cn0825 has created rank and process                     22    272418
 eprop2d1@n2cn0825 has created rank and process                     23    272423
 eprop2d1@n2cn0825 has created rank and process                     24    272427
 eprop2d1@n2cn0825 has created rank and process                     25    272421
 eprop2d1@n2cn0825 has created rank and process                     26    272420
 eprop2d1@n2cn0825 has created rank and process                     27    272426
 eprop2d1@n2cn0825 has created rank and process                     28    272428
 eprop2d1@n2cn0825 has created rank and process                     29    272424
 eprop2d1@n2cn0825 has created rank and process                     30    272425
 
 eprop2d1@n2cn0825 is running                                       31 processes

 GLOBAL| Force Environment number                                              1
 GLOBAL| Basis set file name            /scratch/hpc-prf-metdyn/eprop2d1_Jan/53_
 GLOBAL| Potential file name            /scratch/hpc-prf-metdyn/eprop2d1_Jan/53_
 GLOBAL| MM Potential file name                                     MM_POTENTIAL
 GLOBAL| Coordinate file name           /scratch/hpc-prf-metdyn/eprop2d1_Jan/53_
 GLOBAL| Method name                                                        CP2K
 GLOBAL| Project name                                      si45h56_108_c3_a4_r08
 GLOBAL| Run type                                                         ENERGY
 GLOBAL| FFT library                                                       FFTW3
 GLOBAL| Diagonalization library                                       ScaLAPACK
 GLOBAL| Cholesky decomposition library                                ScaLAPACK
 GLOBAL| DGEMM library                                                      BLAS
 GLOBAL| Direct generalized diagonalization requested                          F
 GLOBAL| Orthonormality check for eigenvectors                          DISABLED
 GLOBAL| Matrix multiplication library                                 ScaLAPACK
 GLOBAL| All-to-all communication in single precision                          F
 GLOBAL| Grid backend                                                       AUTO
 GLOBAL| Global print level                                                  LOW
 GLOBAL| MPI I/O enabled                                                       T
 GLOBAL| Total number of message passing processes                            31
 GLOBAL| Number of distributed systems (nodes)                                 1
 GLOBAL| Number of threads for this process                                    4
 GLOBAL| This output is from process                                           0
 GLOBAL| OpenMP stack size per thread (OMP_STACKSIZE)                       128M
 GLOBAL| CPU model name                          AMD EPYC 7763 64-Core Processor

 MEMORY| system memory details [Kb]
 MEMORY|                        rank 0           min           max       average
 MEMORY| MemTotal            263897572     263897572     263897572     263897572
 MEMORY| MemFree             246102956     246102956     246102956     246102956
 MEMORY| Buffers                382088        382088        382088        382088
 MEMORY| Cached                6872604       6872604       6872604       6872604
 MEMORY| Slab                  1325852       1325852       1325852       1325852
 MEMORY| SReclaimable           286408        286408        286408        286408
 MEMORY| MemLikelyFree       253644056     253644056     253644056     253644056


 GENERATE|  Preliminary Number of Bonds generated:                             0
 GENERATE|  Achieved consistency in connectivity generation.

 *******************************************************************************
 *******************************************************************************
 **                                                                           **
 **     #####                         ##              ##                      **
 **    ##   ##            ##          ##              ##                      **
 **   ##     ##                       ##            ######                    **
 **   ##     ##  ##   ##  ##   #####  ##  ##   ####   ##    #####    #####    **
 **   ##     ##  ##   ##  ##  ##      ## ##   ##      ##   ##   ##  ##   ##   **
 **   ##  ## ##  ##   ##  ##  ##      ####     ###    ##   ######   ######    **
 **    ##  ###   ##   ##  ##  ##      ## ##      ##   ##   ##       ##        **
 **     #######   #####   ##   #####  ##  ##  ####    ##    #####   ##        **
 **           ##                                                    ##        **
 **                                                                           **
 **                                                ... make the atoms dance   **
 **                                                                           **
 **            Copyright (C) by CP2K developers group (2000-2026)             **
 **                      J. Chem. Phys. 152, 194103 (2020)                    **
 **                                                                           **
 *******************************************************************************


 TOTAL NUMBERS AND MAXIMUM NUMBERS

  Total number of            - Atomic kinds:                                   2
                             - Atoms:                                        101
                             - Shell sets:                                   101
                             - Shells:                                       449
                             - Primitive Cartesian functions:                662
                             - Cartesian basis functions:                    966
                             - Spherical basis functions:                    921

  Maximum angular momentum of- Orbital basis functions:                        2
                             - Local part of the GTH pseudopotential:          2
                             - Non-local part of the GTH pseudopotential:      2


 SCF PARAMETERS         Density guess:                                    ATOMIC
                        --------------------------------------------------------
                        max_scf:                                             100
                        max_scf_history:                                       0
                        max_diis:                                              4
                        --------------------------------------------------------
                        eps_scf:                                        1.00E-07
                        eps_scf_history:                                0.00E+00
                        eps_diis:                                       0.00E+00
                        eps_eigval:                                     1.00E-05
                        --------------------------------------------------------
                        level_shift [a.u.]:                             0.000000
                        --------------------------------------------------------
                        Outer loop SCF in use 
                        No variables optimised in outer loop
                        eps_scf                                         1.00E-07
                        max_scf                                               20
                        No outer loop optimization
                        step_size                                       5.00E-01

 Extrapolation method: initial_guess

 Number of electrons:                                                        236
 Number of occupied orbitals:                                                118
 Number of molecular orbitals:                                               118

 Number of orbital functions:                                                921
 Number of independent orbital functions:                                    921


 SCF WAVEFUNCTION OPTIMIZATION

  ----------------------------------- OT ---------------------------------------
  Minimizer      : DIIS                : direct inversion
                                         in the iterative subspace
                                         using   7 DIIS vectors
                                         safer DIIS on
  Preconditioner : FULL_KINETIC        : inversion of T + eS
  Lattice FFT   : OFF
  Precond_solver : DEFAULT
  stepsize       :    0.15000000                  energy_gap     :    0.20000000
  eps_taylor     :   0.10000E-15                  max_taylor     :             4
  ----------------------------------- OT ---------------------------------------

  Step     Update method      Time    Convergence         Total energy    Change
  ------------------------------------------------------------------------------
     1 OT DIIS     0.15E+00    2.5     0.02029763      -196.3207424987 -1.96E+02
     2 OT DIIS     0.15E+00    3.2     0.01319550      -201.0653571557 -4.74E+00
     3 OT DIIS     0.15E+00    3.2     0.01013722      -203.4026525938 -2.34E+00
     4 OT DIIS     0.15E+00    3.2     0.00686255      -205.9251437329 -2.52E+00
     5 OT DIIS     0.15E+00    3.2     0.00473802      -207.3030693317 -1.38E+00
     6 OT DIIS     0.15E+00    3.2     0.00321557      -208.0453817186 -7.42E-01
     7 OT DIIS     0.15E+00    3.2     0.00239959      -208.4080792175 -3.63E-01
     8 OT DIIS     0.15E+00    3.2     0.00168886      -208.6991166696 -2.91E-01
     9 OT DIIS     0.15E+00    3.2     0.00150013      -208.8108805508 -1.12E-01
    10 OT DIIS     0.15E+00    3.2     0.00133481      -208.8993523405 -8.85E-02
    11 OT DIIS     0.15E+00    3.1     0.00130104      -208.9764238860 -7.71E-02
    12 OT DIIS     0.15E+00    3.1     0.00109387      -209.0337084933 -5.73E-02
    13 OT DIIS     0.15E+00    3.1     0.00090041      -209.0891553114 -5.54E-02
    14 OT DIIS     0.15E+00    3.1     0.00071417      -209.1445280475 -5.54E-02
    15 OT DIIS     0.15E+00    3.1     0.00070080      -209.1600868375 -1.56E-02
    16 OT DIIS     0.15E+00    3.1     0.00069556      -209.1749466603 -1.49E-02
    17 OT SD       0.15E+00    3.2     0.00071000      -209.1776718598 -2.73E-03
    18 OT SD       0.15E+00    3.2     0.00068578      -209.1857024754 -8.03E-03
    19 OT SD       0.15E+00    3.1     0.00068288      -209.1933330608 -7.63E-03
    20 OT SD       0.15E+00    3.1     0.00068948      -209.2009611119 -7.63E-03
    21 OT SD       0.15E+00    3.1     0.00070097      -209.2087688636 -7.81E-03
    22 OT SD       0.15E+00    3.1     0.00071506      -209.2168552971 -8.09E-03
    23 OT DIIS     0.15E+00    3.1     0.00073032      -209.2252769413 -8.42E-03
    24 OT SD       0.15E+00    3.1     0.00101154      -209.2207269997  4.55E-03
    25 OT SD       0.15E+00    3.2     0.00095513      -209.2368029422 -1.61E-02
    26 OT SD       0.15E+00    3.2     0.00093311      -209.2514647995 -1.47E-02
    27 OT SD       0.15E+00    3.1     0.00091986      -209.2655415727 -1.41E-02
    28 OT SD       0.15E+00    3.1     0.00090824      -209.2792407289 -1.37E-02
    29 OT SD       0.15E+00    3.1     0.00089536      -209.2925895154 -1.33E-02
    30 OT DIIS     0.15E+00    3.2     0.00088003      -209.3055452216 -1.30E-02
    31 OT SD       0.15E+00    3.1     0.00096647      -209.4071839245 -1.02E-01
    32 OT SD       0.15E+00    3.2     0.00074327      -209.4205139081 -1.33E-02
    33 OT DIIS     0.15E+00    3.2     0.00061336      -209.4286745989 -8.16E-03
    34 OT DIIS     0.15E+00    3.2     0.00043769      -209.4570060559 -2.83E-02
    35 OT DIIS     0.15E+00    3.1     0.00041052      -209.4591844806 -2.18E-03
    36 OT DIIS     0.15E+00    3.1     0.00028816      -209.4683868342 -9.20E-03
    37 OT DIIS     0.15E+00    3.1     0.00019133      -209.4678832505  5.04E-04
    38 OT DIIS     0.15E+00    3.1     0.00014902      -209.4698222318 -1.94E-03
    39 OT DIIS     0.15E+00    3.4     0.00013230      -209.4709944792 -1.17E-03
    40 OT DIIS     0.15E+00    3.2     0.00012872      -209.4720796430 -1.09E-03
    41 OT DIIS     0.15E+00    3.2     0.00008013      -209.4730507309 -9.71E-04
    42 OT DIIS     0.15E+00    3.2     0.00006938      -209.4735541769 -5.03E-04
    43 OT DIIS     0.15E+00    3.1     0.00005959      -209.4740294062 -4.75E-04
    44 OT DIIS     0.15E+00    3.1     0.00005169      -209.4744118148 -3.82E-04
    45 OT DIIS     0.15E+00    3.1     0.00004462      -209.4747580701 -3.46E-04
    46 OT DIIS     0.15E+00    3.1     0.00003920      -209.4750060510 -2.48E-04
    47 OT DIIS     0.15E+00    3.1     0.00003434      -209.4752185434 -2.12E-04
    48 OT DIIS     0.15E+00    3.1     0.00003025      -209.4753972313 -1.79E-04
    49 OT DIIS     0.15E+00    3.2     0.00002673      -209.4755389315 -1.42E-04
    50 OT DIIS     0.15E+00    3.2     0.00002422      -209.4756406532 -1.02E-04
    51 OT DIIS     0.15E+00    3.1     0.00002223      -209.4757165346 -7.59E-05
    52 OT DIIS     0.15E+00    3.1     0.00002035      -209.4757852100 -6.87E-05
    53 OT DIIS     0.15E+00    3.1     0.00001873      -209.4758416623 -5.65E-05
    54 OT DIIS     0.15E+00    3.1     0.00001720      -209.4758924523 -5.08E-05
    55 OT DIIS     0.15E+00    3.1     0.00001591      -209.4759363644 -4.39E-05
    56 OT DIIS     0.15E+00    3.1     0.00001507      -209.4759688331 -3.25E-05
    57 OT DIIS     0.15E+00    3.2     0.00001428      -209.4759988205 -3.00E-05
    58 OT DIIS     0.15E+00    3.2     0.00001346      -209.4760322720 -3.35E-05
    59 OT DIIS     0.15E+00    3.1     0.00001282      -209.4760592290 -2.70E-05
    60 OT DIIS     0.15E+00    3.1     0.00001233      -209.4760800641 -2.08E-05
    61 OT DIIS     0.15E+00    3.1     0.00001196      -209.4760973018 -1.72E-05
    62 OT DIIS     0.15E+00    3.1     0.00001166      -209.4761119376 -1.46E-05
    63 OT DIIS     0.15E+00    3.1     0.00001129      -209.4761311498 -1.92E-05
    64 OT DIIS     0.15E+00    3.1     0.00001090      -209.4761523788 -2.12E-05
    65 OT DIIS     0.15E+00    3.2     0.00001052      -209.4761752097 -2.28E-05
    66 OT DIIS     0.15E+00    3.2     0.00001019      -209.4761959658 -2.08E-05
    67 OT DIIS     0.15E+00    3.1     0.00000991      -209.4762133747 -1.74E-05
    68 OT DIIS     0.15E+00    3.1     0.00000964      -209.4762292694 -1.59E-05
    69 OT DIIS     0.15E+00    3.1     0.00000937      -209.4762456479 -1.64E-05
    70 OT DIIS     0.15E+00    3.1     0.00000908      -209.4762619706 -1.63E-05
    71 OT DIIS     0.15E+00    3.1     0.00000871      -209.4762819507 -2.00E-05
    72 OT DIIS     0.15E+00    3.1     0.00000837      -209.4763002690 -1.83E-05
    73 OT DIIS     0.15E+00    3.2     0.00000808      -209.4763157477 -1.55E-05
    74 OT DIIS     0.15E+00    3.2     0.00000788      -209.4763269138 -1.12E-05
    75 OT DIIS     0.15E+00    3.1     0.00000770      -209.4763358980 -8.98E-06
    76 OT DIIS     0.15E+00    3.1     0.00000752      -209.4763441602 -8.26E-06
    77 OT DIIS     0.15E+00    3.1     0.00000735      -209.4763518554 -7.70E-06
    78 OT DIIS     0.15E+00    3.1     0.00000720      -209.4763587876 -6.93E-06
    79 OT DIIS     0.15E+00    3.1     0.00000703      -209.4763663369 -7.55E-06
    80 OT DIIS     0.15E+00    3.1     0.00000688      -209.4763732880 -6.95E-06
    81 OT DIIS     0.15E+00    3.2     0.00000676      -209.4763795177 -6.23E-06
    82 OT DIIS     0.15E+00    3.2     0.00000666      -209.4763847709 -5.25E-06
    83 OT DIIS     0.15E+00    3.1     0.00000656      -209.4763897500 -4.98E-06
    84 OT DIIS     0.15E+00    3.1     0.00000646      -209.4763951714 -5.42E-06
    85 OT DIIS     0.15E+00    3.1     0.00000637      -209.4764002896 -5.12E-06
    86 OT DIIS     0.15E+00    3.1     0.00000628      -209.4764049388 -4.65E-06
    87 OT DIIS     0.15E+00    3.1     0.00000618      -209.4764105048 -5.57E-06
    88 OT DIIS     0.15E+00    3.1     0.00000608      -209.4764162668 -5.76E-06
    89 OT DIIS     0.15E+00    3.2     0.00000599      -209.4764218216 -5.55E-06
    90 OT DIIS     0.15E+00    3.2     0.00000589      -209.4764274392 -5.62E-06
    91 OT DIIS     0.15E+00    3.1     0.00000578      -209.4764336441 -6.20E-06
    92 OT DIIS     0.15E+00    3.1     0.00000567      -209.4764400873 -6.44E-06
    93 OT DIIS     0.15E+00    3.1     0.00000557      -209.4764456806 -5.59E-06
    94 OT DIIS     0.15E+00    3.1     0.00000547      -209.4764507067 -5.03E-06
    95 OT DIIS     0.15E+00    3.1     0.00000536      -209.4764557468 -5.04E-06
    96 OT DIIS     0.15E+00    3.1     0.00000526      -209.4764607960 -5.05E-06
    97 OT DIIS     0.15E+00    3.2     0.00000515      -209.4764657586 -4.96E-06
    98 OT DIIS     0.15E+00    3.2     0.00000504      -209.4764705107 -4.75E-06
    99 OT DIIS     0.15E+00    3.1     0.00000494      -209.4764750108 -4.50E-06
   100 OT DIIS     0.15E+00    3.1     0.00000484      -209.4764790474 -4.04E-06

  Leaving inner SCF loop after reaching   100 steps.


  Electronic density on regular grids:       -236.0000000000        0.0000000000
  Core density on regular grids:              235.9999999996       -0.0000000004
  Total charge density on r-space grids:       -0.0000000004
  Total charge density g-space grids:          -0.0000000004

  Overlap energy of the core charge distribution:               0.00000057541286
  Self energy of the core charge distribution:               -540.59620096303195
  Core Hamiltonian energy:                                    124.75198134502207
  Hartree energy:                                             279.78224142654119
  Exchange-correlation energy:                                -73.41450143134483

  Total energy:                                              -209.47647904740069

  outer SCF iter =    1 RMS gradient =   0.48E-05 energy =       -209.4764790474

  ----------------------------------- OT ---------------------------------------
  Minimizer      : DIIS                : direct inversion
                                         in the iterative subspace
                                         using   7 DIIS vectors
                                         safer DIIS on
  Preconditioner : FULL_KINETIC        : inversion of T + eS
  Lattice FFT   : OFF
  Precond_solver : DEFAULT
  stepsize       :    0.15000000                  energy_gap     :    0.20000000
  eps_taylor     :   0.10000E-15                  max_taylor     :             4
  ----------------------------------- OT ---------------------------------------

  Step     Update method      Time    Convergence         Total energy    Change
  ------------------------------------------------------------------------------
     1 OT DIIS     0.15E+00    6.4     0.00005872      -209.4764819838 -2.94E-06
     2 OT DIIS     0.15E+00    3.1     0.00004573      -209.4765315428 -4.96E-05
     3 OT DIIS     0.15E+00    3.1     0.00002431      -209.4766046381 -7.31E-05
     4 OT DIIS     0.15E+00    3.1     0.00001071      -209.4766316032 -2.70E-05
     5 OT DIIS     0.15E+00    3.2     0.00000610      -209.4766359543 -4.35E-06
     6 OT DIIS     0.15E+00    3.2     0.00000340      -209.4766373982 -1.44E-06
     7 OT DIIS     0.15E+00    3.1     0.00000192      -209.4766378613 -4.63E-07
     8 OT DIIS     0.15E+00    3.1     0.00000109      -209.4766380148 -1.53E-07
     9 OT DIIS     0.15E+00    3.1     0.00000062      -209.4766380620 -4.72E-08
    10 OT DIIS     0.15E+00    3.1     0.00000037      -209.4766380770 -1.50E-08
    11 OT DIIS     0.15E+00    3.1     0.00000022      -209.4766380824 -5.40E-09
    12 OT DIIS     0.15E+00    3.1     0.00000013      -209.4766380844 -1.93E-09
    13 OT DIIS     0.15E+00    3.2     0.00000008      -209.4766380850 -6.48E-10

  *** SCF run converged in    13 steps ***


  Electronic density on regular grids:       -236.0000000000        0.0000000000
  Core density on regular grids:              235.9999999996       -0.0000000004
  Total charge density on r-space grids:       -0.0000000004
  Total charge density g-space grids:          -0.0000000004

  Overlap energy of the core charge distribution:               0.00000057541286
  Self energy of the core charge distribution:               -540.59620096303195
  Core Hamiltonian energy:                                    124.75176970334981
  Hartree energy:                                             279.78225964653586
  Exchange-correlation energy:                                -73.41446704729034

  Total energy:                                              -209.47663808502378

  outer SCF iter =    2 RMS gradient =   0.75E-07 energy =       -209.4766380850
  outer SCF loop converged in   2 iterations or  113 steps

  
 -------------------------------------------------------------------------------
 -                                                                             -
 -                          BANDSTRUCTURE CALCULATION                          -
 -                                                                             -
 -------------------------------------------------------------------------------
  
 Number of occupied molecular orbitals (MOs) = Number of occupied bands      118
 Number of unoccupied (= virtual) MOs = Number of unoccupied bands           803
 Number of Gaussian basis functions for MOs                                  921
  
 -------------------------------------------------------------------------------
 -                                                                             -
 -                                GW CALCULATION                               -
 -                                                                             -
 -------------------------------------------------------------------------------
  
 Input: Number of time/freq. points                                           30
 Input: ω_max for fitting Σ(iω) (eV)                                        10.0
 Input: Filter threshold for sparse tensor operations                    1.0E-07
 Input: Apply Hedin shift                                                      F
 Input: Available memory per MPI process                                  8.0 GB
 
 Input: RI-RS Tikhonov regularization                                   1.00E-08
 Input: AO grid hard cutoff radius                                        8.00 Å
 Input: MPI ranks per atom in Z_lP solve                                      -1
 Input: Keep sparsity in χ/G/W panels                                          T
 Input: GW flavour                                                          G0W0
 
 Input: RI-RS grid optimization activated                                      T
 Input: Initial RI-RS grid                                              CHOLESKY
 Input: RS points per AO function                                         8.0000
 Input: Initial RS candidates per AO function                            30.0000
 Input: Additional Lebedev degree                                              2
 Input: Cholesky selection matrix                                              D
 Input: Cholesky candidate domain                                      FULL_ATOM
 Input: Initial radial quadrature                                       GAPW_LOG
 Input: Cutoff radius for atomic clusters                                  3.0 Å
 Input: Maximum grid optimization iterations                                 100
 Input: L-BFGS history size                                                    7
 Input: L-BFGS relative-function factor                              0.00000E+00
 Input: L-BFGS projected-gradient tolerance                          1.00000E-09
 
 Input: AUTO_RI basis optimization activated:                                  T
 Input: AUTO_RI requested RI/AO ratio:                                       4.0
 Input: AUTO_RI frontier orbital window:                                  5.0 eV
 Input: AUTO_RI neighbor radius:                                           3.0 Å
 
 Cutoff radius for the truncated Coulomb operator in RI metric:            6.0 Å
 Regularization parameter of RI                                          0.0E+00
 Regularization parameter of minimax grids                               1.0E-06
 
 AUTO_RI| Number of automatic RI functions for χ, ε, W:                     3684
 AUTO_RI| Total RI basis optimization time:                                6.0 s
 
 SCF direct band gap (eV)                                                   3.16
 Max. SCF eigval diff. (eV)                                               132.05
 E-Range for minimax grid                                                  41.78
 Number of Padé parameters for analytic continuation:                         16
 
 RI-RS basis radii (Å):
     Kind  Elem     r_AO (Å)     r_RI (Å)
        1    Si        8.1344        6.7570
        2    H         9.5011        9.0778
 
 RI-RS initialization: atomic kind                                             1
 RI-RS initialization: Lebedev degree                                         11
 RI-RS initialization: radial shells                                           8
 RI-RS initialization: candidates per atom                                   400
 RI-RS initialization: retained points per atom                              104
 RI-RS initialization: atomic kind                                             2
 RI-RS initialization: Lebedev degree                                          7
 RI-RS initialization: radial shells                                           7
 RI-RS initialization: candidates per atom                                   182
 RI-RS initialization: retained points per atom                               48
 RI-RS initialization: largest cluster candidate count                      2000
 RI-RS initialization: most pivots in one cluster                            611
 RI-RS initialization: most stored AO values in one cluster               128596
 RI-RS initialization: wall time [s]                                       0.136
 Started RI-RS grid optimization
 RI-RS grid initial normalized error                          7.717763798094E-04
 RI-RS grid optimization completed, execution time:                       19.1 s
 Normalized 3C error:                                                    1.4E-07
 Maximum absolute 3C error:                                              4.2E-03
 Optimized points outside molecular Voronoi cells:                          3151 / 7368
 Total grid points used for RI-RS:                                          7368
 
 RI-RS grid row-blocks of Φ_μ(r_l)                                           292
 RI-RS grid points per block (max)                                            32
 
 Percentage of non-zero matrix elements in Φ_μ(r_l)                      85.10 %
 
 RI-RS memory estimate per MPI process:
   Available memory per process (system)                                 7.63 GB
   Required for Z_lP (dense upper bound; actual is sparser)              0.01 GB
   Required for χ, W, Σ panels (peak per panel step)                     0.06 GB
   Required for Z_lP solve peak (D_local+φ, worst-case atom)             0.50 GB
   Worst-case local-grid number of grid points:                             7368
   Worst-case memory D_local:                                            0.43 GB
 
 Started computing Z_lP
 Computed Z_lP (MPI rank 0) for atom          1 /  4,    Execution time    4.9 s
 Computed Z_lP (MPI rank 0) for atom          2 /  4,    Execution time    5.0 s
 Computed Z_lP (MPI rank 0) for atom          3 /  4,    Execution time    2.2 s
 Computed Z_lP (MPI rank 0) for atom          4 /  4,    Execution time    2.9 s
 Computed Z_lP (all MPI ranks) for all atoms,            Execution time   27.3 s

 Number of batches for χ, Σ matrices                                           1
 
 Percentage of non-zero matrix elements in Z_lP                         100.00 %
 Percentage of non-zero matrix elements in G_ll', χ_ll', W_ll'          100.00 %
 Percentage of non-zero matrix elements in χ_PQ for time point 1        100.00 %
 
 Computed χ(iτ,k=0) for time point            1 / 30,    Execution time    0.8 s
 Computed χ(iτ,k=0) for time point            2 / 30,    Execution time    0.8 s
 Computed χ(iτ,k=0) for time point            3 / 30,    Execution time    0.8 s
 Computed χ(iτ,k=0) for time point            4 / 30,    Execution time    0.8 s
 Computed χ(iτ,k=0) for time point            5 / 30,    Execution time    0.8 s
 Computed χ(iτ,k=0) for time point            6 / 30,    Execution time    0.8 s
 Computed χ(iτ,k=0) for time point            7 / 30,    Execution time    0.8 s
 Computed χ(iτ,k=0) for time point            8 / 30,    Execution time    0.8 s
 Computed χ(iτ,k=0) for time point            9 / 30,    Execution time    0.8 s
 Computed χ(iτ,k=0) for time point           10 / 30,    Execution time    0.8 s
 Computed χ(iτ,k=0) for time point           11 / 30,    Execution time    0.8 s
 Computed χ(iτ,k=0) for time point           12 / 30,    Execution time    0.8 s
 Computed χ(iτ,k=0) for time point           13 / 30,    Execution time    0.8 s
 Computed χ(iτ,k=0) for time point           14 / 30,    Execution time    0.8 s
 Computed χ(iτ,k=0) for time point           15 / 30,    Execution time    0.8 s
 Computed χ(iτ,k=0) for time point           16 / 30,    Execution time    0.8 s
 Computed χ(iτ,k=0) for time point           17 / 30,    Execution time    0.8 s
 Computed χ(iτ,k=0) for time point           18 / 30,    Execution time    0.7 s
 Computed χ(iτ,k=0) for time point           19 / 30,    Execution time    0.6 s
 Computed χ(iτ,k=0) for time point           20 / 30,    Execution time    0.5 s
 Computed χ(iτ,k=0) for time point           21 / 30,    Execution time    0.2 s
 Computed χ(iτ,k=0) for time point           22 / 30,    Execution time    0.2 s
 Computed χ(iτ,k=0) for time point           23 / 30,    Execution time    0.2 s
 Computed χ(iτ,k=0) for time point           24 / 30,    Execution time    0.2 s
 Computed χ(iτ,k=0) for time point           25 / 30,    Execution time    0.2 s
 Computed χ(iτ,k=0) for time point           26 / 30,    Execution time    0.2 s
 Computed χ(iτ,k=0) for time point           27 / 30,    Execution time    0.2 s
 Computed χ(iτ,k=0) for time point           28 / 30,    Execution time    0.2 s
 Computed χ(iτ,k=0) for time point           29 / 30,    Execution time    0.2 s
 Computed χ(iτ,k=0) for time point           30 / 30,    Execution time    0.2 s
 
 Computed W(iτ),                                         Execution time   26.5 s
 
 Computed Σ^x(k=0),                                      Execution time    1.0 s
 
 Computed Σ^c(iτ) for time point              1 / 30,    Execution time    1.2 s
 Computed Σ^c(iτ) for time point              2 / 30,    Execution time    1.2 s
 Computed Σ^c(iτ) for time point              3 / 30,    Execution time    1.2 s
 Computed Σ^c(iτ) for time point              4 / 30,    Execution time    1.2 s
 Computed Σ^c(iτ) for time point              5 / 30,    Execution time    1.2 s
 Computed Σ^c(iτ) for time point              6 / 30,    Execution time    1.2 s
 Computed Σ^c(iτ) for time point              7 / 30,    Execution time    1.2 s
 Computed Σ^c(iτ) for time point              8 / 30,    Execution time    1.2 s
 Computed Σ^c(iτ) for time point              9 / 30,    Execution time    1.2 s
 Computed Σ^c(iτ) for time point             10 / 30,    Execution time    1.2 s
 Computed Σ^c(iτ) for time point             11 / 30,    Execution time    1.2 s
 Computed Σ^c(iτ) for time point             12 / 30,    Execution time    1.2 s
 Computed Σ^c(iτ) for time point             13 / 30,    Execution time    1.1 s
 Computed Σ^c(iτ) for time point             14 / 30,    Execution time    1.1 s
 Computed Σ^c(iτ) for time point             15 / 30,    Execution time    1.1 s
 Computed Σ^c(iτ) for time point             16 / 30,    Execution time    1.1 s
 Computed Σ^c(iτ) for time point             17 / 30,    Execution time    1.1 s
 Computed Σ^c(iτ) for time point             18 / 30,    Execution time    1.1 s
 Computed Σ^c(iτ) for time point             19 / 30,    Execution time    1.0 s
 Computed Σ^c(iτ) for time point             20 / 30,    Execution time    1.0 s
 Computed Σ^c(iτ) for time point             21 / 30,    Execution time    0.3 s
 Computed Σ^c(iτ) for time point             22 / 30,    Execution time    0.3 s
 Computed Σ^c(iτ) for time point             23 / 30,    Execution time    0.3 s
 Computed Σ^c(iτ) for time point             24 / 30,    Execution time    0.2 s
 Computed Σ^c(iτ) for time point             25 / 30,    Execution time    0.2 s
 Computed Σ^c(iτ) for time point             26 / 30,    Execution time    0.2 s
 Computed Σ^c(iτ) for time point             27 / 30,    Execution time    0.3 s
 Computed Σ^c(iτ) for time point             28 / 30,    Execution time    0.2 s
 Computed Σ^c(iτ) for time point             29 / 30,    Execution time    0.2 s
 Computed Σ^c(iτ) for time point             30 / 30,    Execution time    0.2 s
 
 SCF valence band maximum (eV):                                           -5.871
 SCF conduction band minimum (eV):                                        -2.711
 SCF indirect band gap (eV):                                               3.161
 SCF direct band gap (eV):                                                 3.161
 
 G0W0 valence band maximum (eV):                                          -6.942
 G0W0 conduction band minimum (eV):                                       -1.111
 G0W0 indirect band gap (eV):                                              5.831
 G0W0 direct band gap (eV):                                                5.831
 
 Hartree-Fock with SCF orbitals valence band maximum (eV):                -8.037
 Hartree-Fock with SCF orbitals conduction band minimum (eV)               1.192
 Hartree-Fock with SCF orbitals indirect band gap (eV):                    9.229
 Hartree-Fock with SCF orbitals direct band gap (eV):                      9.229

 ENERGY| Total FORCE_EVAL ( QS ) energy [hartree]           -209.476638085023779

 -------------------------------------------------------------------------------
 -                                                                             -
 -                                DBCSR STATISTICS                             -
 -                                                                             -
 -------------------------------------------------------------------------------
 COUNTER                                    TOTAL       BLAS       SMM       ACC
 flops     6 x    22 x    22               650496     100.0%      0.0%      0.0%     
 flops    13 x    22 x    22              1132560     100.0%      0.0%      0.0%     
 flops     8 x    39 x    70              1965600     100.0%      0.0%      0.0%     
 flops     8 x    44 x    68              2154240     100.0%      0.0%      0.0%     
 flops     8 x    46 x    70              2318400     100.0%      0.0%      0.0%     
 flops     8 x    24 x    70              3628800     100.0%      0.0%      0.0%     
 flops     8 x    40 x    64              3686400     100.0%      0.0%      0.0%     
 flops     8 x    39 x    68              3818880     100.0%      0.0%      0.0%     
 flops     8 x    41 x    68              4014720     100.0%      0.0%      0.0%     
 flops     6 x    32 x    32              4128768     100.0%      0.0%      0.0%     
 flops     8 x    44 x    70              4435200     100.0%      0.0%      0.0%     
 flops     8 x    46 x    68              4504320     100.0%      0.0%      0.0%     
 flops    16 x    39 x    70              4892160     100.0%      0.0%      0.0%     
 flops    16 x    44 x    68              5361664     100.0%      0.0%      0.0%     
 flops    16 x    46 x    70              5770240     100.0%      0.0%      0.0%     
 flops     8 x    23 x    70              6955200     100.0%      0.0%      0.0%     
 flops    13 x    32 x    32              7188480     100.0%      0.0%      0.0%     
 flops     8 x    41 x    70              8265600     100.0%      0.0%      0.0%     
 flops    16 x    24 x    70              9031680     100.0%      0.0%      0.0%     
 flops     8 x    45 x    70              9072000     100.0%      0.0%      0.0%     
 flops    16 x    40 x    64              9175040     100.0%      0.0%      0.0%     
 flops    16 x    39 x    68              9504768     100.0%      0.0%      0.0%     
 flops    16 x    41 x    68              9992192     100.0%      0.0%      0.0%     
 flops     8 x    40 x    70             10080000     100.0%      0.0%      0.0%     
 flops     8 x    36 x    70             10886400     100.0%      0.0%      0.0%     
 flops    16 x    44 x    70             11038720     100.0%      0.0%      0.0%     
 flops    16 x    46 x    68             11210752     100.0%      0.0%      0.0%     
 flops     8 x    43 x    68             12631680     100.0%      0.0%      0.0%     
 flops     8 x    43 x    70             13003200     100.0%      0.0%      0.0%     
 flops     8 x    45 x    68             13219200     100.0%      0.0%      0.0%     
 flops     8 x    40 x    68             13708800     100.0%      0.0%      0.0%     
 flops     8 x    35 x    68             13708800     100.0%      0.0%      0.0%     
 flops     8 x    41 x    64             15114240     100.0%      0.0%      0.0%     
 flops    16 x    23 x    70             17310720     100.0%      0.0%      0.0%     
 flops     8 x    48 x    64             17694720     100.0%      0.0%      0.0%     
 flops     8 x    44 x    64             20275200     100.0%      0.0%      0.0%     
 flops    16 x    41 x    70             20572160     100.0%      0.0%      0.0%     
 flops     8 x    43 x    64             21795840     100.0%      0.0%      0.0%     
 flops    16 x    45 x    70             22579200     100.0%      0.0%      0.0%     
 flops     8 x    36 x    68             22913280     100.0%      0.0%      0.0%     
 flops    16 x    40 x    70             25088000     100.0%      0.0%      0.0%     
 flops    16 x    36 x    70             27095040     100.0%      0.0%      0.0%     
 flops    16 x    43 x    68             31438848     100.0%      0.0%      0.0%     
 flops    16 x    43 x    70             32363520     100.0%      0.0%      0.0%     
 flops    16 x    45 x    68             32901120     100.0%      0.0%      0.0%     
 flops    32 x    39 x    70             33371520     100.0%      0.0%      0.0%     
 flops    16 x    40 x    68             34119680     100.0%      0.0%      0.0%     
 flops    16 x    35 x    68             34119680     100.0%      0.0%      0.0%     
 flops    32 x    44 x    68             36574208     100.0%      0.0%      0.0%     
 flops    16 x    41 x    64             37617664     100.0%      0.0%      0.0%     
 flops    32 x    46 x    70             39361280     100.0%      0.0%      0.0%     
 flops    16 x    48 x    64             44040192     100.0%      0.0%      0.0%     
 flops    16 x    44 x    64             50462720     100.0%      0.0%      0.0%     
 flops    54 x    22 x    22             50599296     100.0%      0.0%      0.0%     
 flops    16 x    43 x    64             54247424     100.0%      0.0%      0.0%     
 flops    16 x    36 x    68             57028608     100.0%      0.0%      0.0%     
 flops    32 x    22 x    22             59969536     100.0%      0.0%      0.0%     
 flops    27 x    21 x     8             60664464     100.0%      0.0%      0.0%     
 flops    32 x    24 x    70             61608960     100.0%      0.0%      0.0%     
 flops    32 x    40 x    64             62586880     100.0%      0.0%      0.0%     
 flops    32 x    39 x    68             64836096     100.0%      0.0%      0.0%     
 flops    32 x    41 x    68             68161024     100.0%      0.0%      0.0%     
 flops    32 x    44 x    70             75299840     100.0%      0.0%      0.0%     
 flops    32 x    46 x    68             76473344     100.0%      0.0%      0.0%     
 flops     8 x    21 x    27             77157360     100.0%      0.0%      0.0%     
 flops    40 x    21 x     8             79887360     100.0%      0.0%      0.0%     
 flops    27 x    32 x     8             92316672     100.0%      0.0%      0.0%     
 flops     8 x    21 x     8             93300480     100.0%      0.0%      0.0%     
 flops    27 x    33 x     8             95843088     100.0%      0.0%      0.0%     
 flops   183 x    22 x    22             99377784     100.0%      0.0%      0.0%     
 flops     8 x    21 x    40            101606400     100.0%      0.0%      0.0%     
 flops     8 x    32 x    27            117573120     100.0%      0.0%      0.0%     
 flops    32 x    23 x    70            118083840     100.0%      0.0%      0.0%     
 flops     8 x    33 x    27            121247280     100.0%      0.0%      0.0%     
 flops    40 x    32 x     8            121569280     100.0%      0.0%      0.0%     
 flops    40 x    33 x     8            126213120     100.0%      0.0%      0.0%     
 flops    27 x    22 x     8            127106496     100.0%      0.0%      0.0%     
 flops    36 x    21 x     8            134809920     100.0%      0.0%      0.0%     
 flops    27 x    46 x     8            135209088     100.0%      0.0%      0.0%     
 flops    27 x    47 x     8            137965680     100.0%      0.0%      0.0%     
 flops    32 x    41 x    70            140331520     100.0%      0.0%      0.0%     
 flops     8 x    32 x     8            141455360     100.0%      0.0%      0.0%     
 flops     8 x    33 x     8            147679488     100.0%      0.0%      0.0%     
 flops    27 x    21 x    16            149579136     100.0%      0.0%      0.0%     
 flops    27 x    26 x     8            152541792     100.0%      0.0%      0.0%     
 flops    32 x    45 x    70            154022400     100.0%      0.0%      0.0%     
 flops     8 x    32 x    40            154828800     100.0%      0.0%      0.0%     
 flops     8 x    33 x    40            159667200     100.0%      0.0%      0.0%     
 flops     8 x    22 x    27            161663040     100.0%      0.0%      0.0%     
 flops    40 x    22 x     8            167383040     100.0%      0.0%      0.0%     
 flops    32 x    40 x    70            171136000     100.0%      0.0%      0.0%     
 flops     8 x    21 x    36            171460800     100.0%      0.0%      0.0%     
 flops     8 x    47 x    27            172685520     100.0%      0.0%      0.0%     
 flops    40 x    46 x     8            178053120     100.0%      0.0%      0.0%     
 flops    40 x    47 x     8            181683200     100.0%      0.0%      0.0%     
 flops    32 x    36 x    70            184826880     100.0%      0.0%      0.0%     
 flops     8 x    26 x    27            191056320     100.0%      0.0%      0.0%     
 flops    16 x    21 x    27            192036096     100.0%      0.0%      0.0%     
 flops     8 x    22 x     8            195686656     100.0%      0.0%      0.0%     
 flops    40 x    21 x    16            196976640     100.0%      0.0%      0.0%     
 flops    27 x    34 x     8            197494848     100.0%      0.0%      0.0%     
 flops    40 x    26 x     8            200878080     100.0%      0.0%      0.0%     
 flops    36 x    32 x     8            205148160     100.0%      0.0%      0.0%     
 flops    27 x    24 x     8            210325248     100.0%      0.0%      0.0%     
 flops     8 x    47 x     8            212809984     100.0%      0.0%      0.0%     
 flops     8 x    22 x    40            212889600     100.0%      0.0%      0.0%     
 flops    36 x    33 x     8            212984640     100.0%      0.0%      0.0%     
 flops    32 x    43 x    68            214457856     100.0%      0.0%      0.0%     
 flops    27 x    37 x     8            214633152     100.0%      0.0%      0.0%     
 flops    32 x    43 x    70            220765440     100.0%      0.0%      0.0%     
 flops    54 x    32 x    22            220796928     100.0%      0.0%      0.0%     
 flops    32 x    45 x    68            224432640     100.0%      0.0%      0.0%     
 flops    27 x    32 x    16            226437120     100.0%      0.0%      0.0%     
 flops    27 x    39 x     8            227144736     100.0%      0.0%      0.0%     
 flops     8 x    47 x    40            227404800     100.0%      0.0%      0.0%     
 flops    16 x    21 x     8            229754112     100.0%      0.0%      0.0%     
 flops    32 x    40 x    68            232744960     100.0%      0.0%      0.0%     
 flops    32 x    35 x    68            232744960     100.0%      0.0%      0.0%     
 flops     8 x    26 x     8            234817024     100.0%      0.0%      0.0%     
 flops     8 x    21 x    16            234872064     100.0%      0.0%      0.0%     
 flops    27 x    33 x    16            237619008     100.0%      0.0%      0.0%     
 flops    27 x    28 x     8            243202176     100.0%      0.0%      0.0%     
 flops     8 x    34 x    27            249842880     100.0%      0.0%      0.0%     
 flops     8 x    26 x    40            251596800     100.0%      0.0%      0.0%     
 flops    16 x    21 x    40            252887040     100.0%      0.0%      0.0%     
 flops    32 x    41 x    64            256606208     100.0%      0.0%      0.0%     
 flops    40 x    34 x     8            260075520     100.0%      0.0%      0.0%     
 flops     8 x    32 x    36            261273600     100.0%      0.0%      0.0%     
 flops    32 x    32 x    22            261685248     100.0%      0.0%      0.0%     
 flops     8 x    24 x    27            264539520     100.0%      0.0%      0.0%     
 flops     8 x    33 x    36            269438400     100.0%      0.0%      0.0%     
 flops     8 x    37 x    27            271887840     100.0%      0.0%      0.0%     
 flops    40 x    24 x     8            276971520     100.0%      0.0%      0.0%     
 flops    27 x    48 x     8            280495872     100.0%      0.0%      0.0%     
 flops   183 x    22 x    38            281497920     100.0%      0.0%      0.0%     
 flops    36 x    22 x     8            282458880     100.0%      0.0%      0.0%     
 flops    40 x    37 x     8            282644480     100.0%      0.0%      0.0%     
 flops     8 x    39 x    27            286584480     100.0%      0.0%      0.0%     
 flops     6 x     6 x    22            288199296     100.0%      0.0%      0.0%     
 flops    16 x    32 x    27            292626432     100.0%      0.0%      0.0%     
 flops    40 x    32 x    16            298188800     100.0%      0.0%      0.0%     
 flops    40 x    39 x     8            299120640     100.0%      0.0%      0.0%     
 flops    32 x    48 x    64            300417024     100.0%      0.0%      0.0%     
 flops    36 x    46 x     8            300464640     100.0%      0.0%      0.0%     
 flops    16 x    33 x    27            301771008     100.0%      0.0%      0.0%     
 flops     8 x    34 x     8            303895808     100.0%      0.0%      0.0%     
 flops    36 x    47 x     8            306590400     100.0%      0.0%      0.0%     
 flops     8 x    28 x    27            308629440     100.0%      0.0%      0.0%     
 flops    40 x    33 x    16            312913920     100.0%      0.0%      0.0%     
 flops    27 x    22 x    16            314259264     100.0%      0.0%      0.0%     
 flops    40 x    28 x     8            320266240     100.0%      0.0%      0.0%     
 flops     8 x    24 x     8            323036160     100.0%      0.0%      0.0%     
 flops    54 x    22 x    38            325036800     100.0%      0.0%      0.0%     
 flops     8 x    34 x    40            329011200     100.0%      0.0%      0.0%     
 flops     8 x    37 x     8            329213568     100.0%      0.0%      0.0%     
 flops    36 x    21 x    16            332398080     100.0%      0.0%      0.0%     
 flops    27 x    46 x    16            334445760     100.0%      0.0%      0.0%     
 flops     8 x    46 x    27            338022720     100.0%      0.0%      0.0%     
 flops    36 x    26 x     8            338981760     100.0%      0.0%      0.0%     
 flops    27 x    47 x    16            339888960     100.0%      0.0%      0.0%     
 flops    32 x    44 x    64            344227840     100.0%      0.0%      0.0%     
 flops    16 x    32 x     8            347807744     100.0%      0.0%      0.0%     
 flops     8 x    24 x    40            348364800     100.0%      0.0%      0.0%     
 flops     8 x    39 x     8            349165440     100.0%      0.0%      0.0%     
 flops     8 x    32 x    16            358006784     100.0%      0.0%      0.0%     
 flops     8 x    37 x    40            358041600     100.0%      0.0%      0.0%     
 flops     8 x    22 x    36            359251200     100.0%      0.0%      0.0%     
 flops    16 x    33 x     8            363652608     100.0%      0.0%      0.0%     
 flops    40 x    48 x     8            369377280     100.0%      0.0%      0.0%     
 flops    32 x    43 x    64            370044928     100.0%      0.0%      0.0%     
 flops     8 x    33 x    16            371754240     100.0%      0.0%      0.0%     
 flops     8 x    28 x     8            374044160     100.0%      0.0%      0.0%     
 flops    27 x    26 x    16            376653888     100.0%      0.0%      0.0%     
 flops     8 x    39 x    40            377395200     100.0%      0.0%      0.0%     
 flops     8 x    47 x    36            383745600     100.0%      0.0%      0.0%     
 flops    32 x    22 x    38            385228800     100.0%      0.0%      0.0%     
 flops    16 x    32 x    40            385351680     100.0%      0.0%      0.0%     
 flops    32 x    36 x    68            389016576     100.0%      0.0%      0.0%     
 flops   183 x    22 x    25            393541500     100.0%      0.0%      0.0%     
 flops    27 x    45 x     8            396984240     100.0%      0.0%      0.0%     
 flops    16 x    33 x    40            397393920     100.0%      0.0%      0.0%     
 flops   246 x    22 x    22            400769424     100.0%      0.0%      0.0%     
 flops    16 x    22 x    27            402361344     100.0%      0.0%      0.0%     
 flops    27 x    23 x     8            403212816     100.0%      0.0%      0.0%     
 flops     8 x    28 x    40            406425600     100.0%      0.0%      0.0%     
 flops    40 x    22 x    16            413839360     100.0%      0.0%      0.0%     
 flops     8 x    46 x     8            417995008     100.0%      0.0%      0.0%     
 flops     8 x    26 x    36            424569600     100.0%      0.0%      0.0%     
 flops    54 x    22 x    32            426083328     100.0%      0.0%      0.0%     
 flops    16 x    21 x    36            426746880     100.0%      0.0%      0.0%     
 flops    16 x    47 x    27            429795072     100.0%      0.0%      0.0%     
 flops   183 x    32 x    22            433648512     100.0%      0.0%      0.0%     
 flops    36 x    34 x     8            438877440     100.0%      0.0%      0.0%     
 flops    40 x    46 x    16            440422400     100.0%      0.0%      0.0%     
 flops     8 x    46 x    40            445132800     100.0%      0.0%      0.0%     
 flops    40 x    47 x    16            447590400     100.0%      0.0%      0.0%     
 flops    54 x    22 x    25            454410000     100.0%      0.0%      0.0%     
 flops    36 x    24 x     8            467389440     100.0%      0.0%      0.0%     
 flops    16 x    26 x    27            475517952     100.0%      0.0%      0.0%     
 flops    36 x    37 x     8            476962560     100.0%      0.0%      0.0%     
 flops    16 x    22 x     8            481969664     100.0%      0.0%      0.0%     
 flops    27 x    34 x    16            487259712     100.0%      0.0%      0.0%     
 flops     8 x    22 x    16            492000256     100.0%      0.0%      0.0%     
 flops     6 x    13 x    22            492972480     100.0%      0.0%      0.0%     
 flops    13 x     6 x    22            492972480     100.0%      0.0%      0.0%     
 flops    40 x    26 x    16            496005120     100.0%      0.0%      0.0%     
 flops    36 x    32 x    16            503193600     100.0%      0.0%      0.0%     
 flops    36 x    39 x     8            504766080     100.0%      0.0%      0.0%     
 flops     8 x    23 x    27            507034080     100.0%      0.0%      0.0%     
 flops    27 x    44 x     8            516808512     100.0%      0.0%      0.0%     
 flops    27 x    24 x    16            517508352     100.0%      0.0%      0.0%     
 flops    40 x    45 x     8            522777600     100.0%      0.0%      0.0%     
 flops    16 x    47 x     8            524270336     100.0%      0.0%      0.0%     
 flops    36 x    33 x    16            528042240     100.0%      0.0%      0.0%     
 flops    27 x    37 x    16            529102368     100.0%      0.0%      0.0%     
 flops    16 x    22 x    40            529858560     100.0%      0.0%      0.0%     
 flops    40 x    23 x     8            530979840     100.0%      0.0%      0.0%     
 flops     8 x    47 x    16            532548352     100.0%      0.0%      0.0%     
 flops    32 x    22 x    25            538560000     100.0%      0.0%      0.0%     
 flops    36 x    28 x     8            540449280     100.0%      0.0%      0.0%     
 flops     8 x    34 x    36            555206400     100.0%      0.0%      0.0%     
 flops    27 x    39 x    16            561644928     100.0%      0.0%      0.0%     
 flops    16 x    47 x    40            565985280     100.0%      0.0%      0.0%     
 flops    16 x    26 x     8            578532864     100.0%      0.0%      0.0%     
 flops    16 x    21 x    16            578694144     100.0%      0.0%      0.0%     
 flops     8 x    24 x    36            587865600     100.0%      0.0%      0.0%     
 flops     8 x    26 x    16            590274048     100.0%      0.0%      0.0%     
 flops    27 x    28 x    16            599840640     100.0%      0.0%      0.0%     
 flops     8 x    37 x    36            604195200     100.0%      0.0%      0.0%     
 flops   183 x    22 x    32            611436672     100.0%      0.0%      0.0%     
 flops     8 x    23 x     8            619073152     100.0%      0.0%      0.0%     
 flops    27 x    35 x     8            620252640     100.0%      0.0%      0.0%     
 flops    16 x    34 x    27            621831168     100.0%      0.0%      0.0%     
 flops    36 x    48 x     8            623324160     100.0%      0.0%      0.0%     
 flops    16 x    26 x    40            626196480     100.0%      0.0%      0.0%     
 flops     8 x    39 x    36            636854400     100.0%      0.0%      0.0%     
 flops    40 x    34 x    16            641658880     100.0%      0.0%      0.0%     
 flops    16 x    32 x    36            650280960     100.0%      0.0%      0.0%     
 flops    16 x    24 x    27            658409472     100.0%      0.0%      0.0%     
 flops     8 x    23 x    40            667699200     100.0%      0.0%      0.0%     
 flops    16 x    33 x    36            670602240     100.0%      0.0%      0.0%     
 flops    16 x    37 x    27            676698624     100.0%      0.0%      0.0%     
 flops    40 x    44 x     8            680570880     100.0%      0.0%      0.0%     
 flops    40 x    24 x    16            681492480     100.0%      0.0%      0.0%     
 flops     8 x    28 x    36            685843200     100.0%      0.0%      0.0%     
 flops    27 x    48 x    16            691255296     100.0%      0.0%      0.0%     
 flops    40 x    37 x    16            696760320     100.0%      0.0%      0.0%     
 flops    36 x    22 x    16            698353920     100.0%      0.0%      0.0%     
 flops    27 x    27 x     8            705123792     100.0%      0.0%      0.0%     
 flops     8 x    48 x    27            705438720     100.0%      0.0%      0.0%     
 flops    16 x    39 x    27            713276928     100.0%      0.0%      0.0%     
 flops    40 x    39 x    16            739614720     100.0%      0.0%      0.0%     
 flops    36 x    46 x    16            743212800     100.0%      0.0%      0.0%     
 flops    16 x    34 x     8            748013056     100.0%      0.0%      0.0%     
 flops     8 x    46 x    36            751161600     100.0%      0.0%      0.0%     
 flops    36 x    47 x    16            755308800     100.0%      0.0%      0.0%     
 flops     8 x    34 x    16            766474240     100.0%      0.0%      0.0%     
 flops    16 x    28 x    27            768144384     100.0%      0.0%      0.0%     
 flops     8 x    35 x    27            771573600     100.0%      0.0%      0.0%     
 flops    40 x    28 x    16            789913600     100.0%      0.0%      0.0%     
 flops    16 x    24 x     8            795752448     100.0%      0.0%      0.0%     
 flops     8 x    44 x    27            808315200     100.0%      0.0%      0.0%     
 flops    16 x    37 x     8            809533952     100.0%      0.0%      0.0%     
 flops     8 x    24 x    16            813238272     100.0%      0.0%      0.0%     
 flops    40 x    35 x     8            816793600     100.0%      0.0%      0.0%     
 flops    16 x    34 x    40            818872320     100.0%      0.0%      0.0%     
 flops     8 x    37 x    16            831565824     100.0%      0.0%      0.0%     
 flops    36 x    26 x    16            837008640     100.0%      0.0%      0.0%     
 flops    16 x    46 x    27            841300992     100.0%      0.0%      0.0%     
 flops    16 x    39 x     8            859792128     100.0%      0.0%      0.0%     
 flops     8 x    48 x     8            861898752     100.0%      0.0%      0.0%     
 flops    16 x    24 x    40            867041280     100.0%      0.0%      0.0%     
 flops    13 x    13 x    22            877373640     100.0%      0.0%      0.0%     
 flops     8 x    39 x    16            878611968     100.0%      0.0%      0.0%     
 flops    16 x    32 x    16            881999872     100.0%      0.0%      0.0%     
 flops    36 x    45 x     8            882187200     100.0%      0.0%      0.0%     
 flops    27 x    43 x     8            884737728     100.0%      0.0%      0.0%     
 flops    16 x    37 x    40            891125760     100.0%      0.0%      0.0%     
 flops     8 x    27 x    27            892820880     100.0%      0.0%      0.0%     
 flops    16 x    22 x    36            894136320     100.0%      0.0%      0.0%     
 flops    36 x    23 x     8            896028480     100.0%      0.0%      0.0%     
 flops    40 x    48 x    16            910295040     100.0%      0.0%      0.0%     
 flops    16 x    33 x    16            916624896     100.0%      0.0%      0.0%     
 flops    16 x    28 x     8            921023488     100.0%      0.0%      0.0%     
 flops    40 x    27 x     8            928558080     100.0%      0.0%      0.0%     
 flops     8 x    48 x    40            930355200     100.0%      0.0%      0.0%     
 flops    16 x    39 x    40            939294720     100.0%      0.0%      0.0%     
 flops    27 x    40 x     8            939340800     100.0%      0.0%      0.0%     
 flops     8 x    28 x    16            941911040     100.0%      0.0%      0.0%     
 flops    16 x    47 x    36            955100160     100.0%      0.0%      0.0%     
 flops    27 x    41 x     8            956288592     100.0%      0.0%      0.0%     
 flops     8 x    35 x     8            960225280     100.0%      0.0%      0.0%     
 flops    27 x    45 x    16            981175680     100.0%      0.0%      0.0%     
 flops     8 x    44 x     8            991215104     100.0%      0.0%      0.0%     
 flops    27 x    23 x    16            991891008     100.0%      0.0%      0.0%     
 flops     8 x    45 x    27            992023200     100.0%      0.0%      0.0%     
 flops    16 x    28 x    40           1011548160     100.0%      0.0%      0.0%     
 flops     8 x    35 x    40           1016064000     100.0%      0.0%      0.0%     
 flops    16 x    46 x     8           1030140928     100.0%      0.0%      0.0%     
 flops    27 x    21 x    32           1046400768     100.0%      0.0%      0.0%     
 flops     8 x    46 x    16           1046521344     100.0%      0.0%      0.0%     
 flops    16 x    26 x    36           1056706560     100.0%      0.0%      0.0%     
 flops     8 x    44 x    40           1066982400     100.0%      0.0%      0.0%     
 flops    36 x    34 x    16           1082799360     100.0%      0.0%      0.0%     
 flops     8 x    27 x     8           1083697920     100.0%      0.0%      0.0%     
 flops    16 x    46 x    40           1107886080     100.0%      0.0%      0.0%     
 flops     8 x     8 x   103           1119163392     100.0%      0.0%      0.0%     
 flops     8 x    23 x    36           1126742400     100.0%      0.0%      0.0%     
 flops   246 x    22 x    38           1135221120     100.0%      0.0%      0.0%     
 flops    36 x    44 x     8           1148463360     100.0%      0.0%      0.0%     
 flops    36 x    24 x    16           1150018560     100.0%      0.0%      0.0%     
 flops    40 x    43 x     8           1165086720     100.0%      0.0%      0.0%     
 flops     8 x    27 x    40           1175731200     100.0%      0.0%      0.0%     
 flops     8 x    40 x    27           1175731200     100.0%      0.0%      0.0%     
 flops    36 x    37 x    16           1175783040     100.0%      0.0%      0.0%     
 flops     6 x    22 x     6           1187214336     100.0%      0.0%      0.0%     
 flops     8 x    41 x    27           1205124480     100.0%      0.0%      0.0%     
 flops    16 x    22 x    16           1212107776     100.0%      0.0%      0.0%     
 flops     8 x    45 x     8           1221891840     100.0%      0.0%      0.0%     
 flops   183 x    32 x    38           1228354560     100.0%      0.0%      0.0%     
 flops    40 x    40 x     8           1236992000     100.0%      0.0%      0.0%     
 flops    36 x    39 x    16           1248099840     100.0%      0.0%      0.0%     
 flops    40 x    41 x     8           1259310080     100.0%      0.0%      0.0%     
 flops    16 x    23 x    27           1261951488     100.0%      0.0%      0.0%     
 flops     8 x    43 x    27           1263911040     100.0%      0.0%      0.0%     
 flops    27 x    44 x    16           1273117824     100.0%      0.0%      0.0%     
 flops    40 x    45 x    16           1292083200     100.0%      0.0%      0.0%     
 flops    40 x    23 x    16           1306193920     100.0%      0.0%      0.0%     
 flops     8 x    45 x    40           1306368000     100.0%      0.0%      0.0%     
 flops    32 x    21 x    27           1309960512     100.0%      0.0%      0.0%     
 flops    16 x    47 x    16           1313750016     100.0%      0.0%      0.0%     
 flops    36 x    28 x    16           1332979200     100.0%      0.0%      0.0%     
 flops    40 x    21 x    32           1377976320     100.0%      0.0%      0.0%     
 flops    36 x    35 x     8           1378339200     100.0%      0.0%      0.0%     
 flops     6 x     6 x     8           1380197376     100.0%      0.0%      0.0%     
 flops    16 x    34 x    36           1381847040     100.0%      0.0%      0.0%     
 flops    54 x    32 x    38           1418342400     100.0%      0.0%      0.0%     
 flops     8 x    40 x     8           1441899520     100.0%      0.0%      0.0%     
 flops    16 x    26 x    16           1456212992     100.0%      0.0%      0.0%     
 flops    16 x    24 x    36           1463132160     100.0%      0.0%      0.0%     
 flops     8 x    41 x     8           1471864576     100.0%      0.0%      0.0%     
 flops    16 x    37 x    36           1503774720     100.0%      0.0%      0.0%     
 flops    16 x    23 x     8           1524220672     100.0%      0.0%      0.0%     
 flops    27 x    35 x    16           1531444320     100.0%      0.0%      0.0%     
 flops    36 x    48 x    16           1536122880     100.0%      0.0%      0.0%     
 flops     8 x    40 x    40           1548288000     100.0%      0.0%      0.0%     
 flops     8 x    43 x     8           1554302080     100.0%      0.0%      0.0%     
 flops     8 x     6 x     8           1555861248     100.0%      0.0%      0.0%     
 flops     8 x    23 x    16           1557246464     100.0%      0.0%      0.0%     
 flops    36 x    27 x     8           1566941760     100.0%      0.0%      0.0%     
 flops     8 x    48 x    36           1568885760     100.0%      0.0%      0.0%     
 flops    16 x    39 x    36           1585059840     100.0%      0.0%      0.0%     
 flops    27 x    36 x     8           1585277568     100.0%      0.0%      0.0%     
 flops     8 x    41 x    40           1586995200     100.0%      0.0%      0.0%     
 flops   246 x    22 x    25           1587069000     100.0%      0.0%      0.0%     
 flops    27 x    32 x    32           1594515456     100.0%      0.0%      0.0%     
 flops    32 x    21 x     8           1600564224     100.0%      0.0%      0.0%     
 flops     8 x    21 x    32           1633336320     100.0%      0.0%      0.0%     
 flops    27 x    33 x    32           1656661248     100.0%      0.0%      0.0%     
 flops    16 x    23 x    40           1661829120     100.0%      0.0%      0.0%     
 flops     8 x    43 x    40           1664409600     100.0%      0.0%      0.0%     
 flops    40 x    44 x    16           1676533760     100.0%      0.0%      0.0%     
 flops    32 x    32 x    38           1680998400     100.0%      0.0%      0.0%     
 flops    16 x    28 x    36           1706987520     100.0%      0.0%      0.0%     
 flops     8 x    35 x    36           1714608000     100.0%      0.0%      0.0%     
 flops   183 x    32 x    25           1717272000     100.0%      0.0%      0.0%     
 flops    32 x    21 x    40           1725050880     100.0%      0.0%      0.0%     
 flops    27 x    27 x    16           1739452320     100.0%      0.0%      0.0%     
 flops     8 x     8 x   107           1743939072     100.0%      0.0%      0.0%     
 flops   246 x    32 x    22           1748812032     100.0%      0.0%      0.0%     
 flops    16 x    48 x    27           1755758592     100.0%      0.0%      0.0%     
 flops     8 x    44 x    36           1797396480     100.0%      0.0%      0.0%     
 flops     8 x     8 x   112           1825431552     100.0%      0.0%      0.0%     
 flops    54 x    32 x    32           1859272704     100.0%      0.0%      0.0%     
 flops    16 x    46 x    36           1869557760     100.0%      0.0%      0.0%     
 flops    16 x    34 x    16           1889063936     100.0%      0.0%      0.0%     
 flops    16 x    35 x    27           1920360960     100.0%      0.0%      0.0%     
 flops    36 x    43 x     8           1966083840     100.0%      0.0%      0.0%     
 flops    54 x    32 x    25           1982880000     100.0%      0.0%      0.0%     
 flops     8 x    27 x    36           1984046400     100.0%      0.0%      0.0%     
 flops     8 x    36 x    27           1984046400     100.0%      0.0%      0.0%     
 flops    32 x    32 x    27           1996130304     100.0%      0.0%      0.0%     
 flops    16 x    24 x    16           2005659648     100.0%      0.0%      0.0%     
 flops    16 x    44 x    27           2011806720     100.0%      0.0%      0.0%     
 flops    40 x    35 x    16           2016716800     100.0%      0.0%      0.0%     
 flops    16 x    37 x    16           2049627136     100.0%      0.0%      0.0%     
 flops    32 x    33 x    27           2058509376     100.0%      0.0%      0.0%     
 flops    13 x    22 x     6           2067024960     100.0%      0.0%      0.0%     
 flops     6 x    22 x    13           2067024960     100.0%      0.0%      0.0%     
 flops    36 x    40 x     8           2087424000     100.0%      0.0%      0.0%     
 flops    40 x    36 x     8           2087608320     100.0%      0.0%      0.0%     
 flops    40 x    32 x    32           2099773440     100.0%      0.0%      0.0%     
 flops    16 x    48 x     8           2122543104     100.0%      0.0%      0.0%     
 flops    36 x    41 x     8           2125085760     100.0%      0.0%      0.0%     
 flops    16 x    39 x    16           2165908992     100.0%      0.0%      0.0%     
 flops     8 x    48 x    16           2174791680     100.0%      0.0%      0.0%     
 flops    36 x    45 x    16           2180390400     100.0%      0.0%      0.0%     
 flops    40 x    33 x    32           2181611520     100.0%      0.0%      0.0%     
 flops    27 x    43 x    16           2187435456     100.0%      0.0%      0.0%     
 flops    27 x    22 x    32           2198959488     100.0%      0.0%      0.0%     
 flops    36 x    23 x    16           2204202240     100.0%      0.0%      0.0%     
 flops     8 x    45 x    36           2204496000     100.0%      0.0%      0.0%     
 flops    16 x    27 x    27           2222131968     100.0%      0.0%      0.0%     
 flops    40 x    27 x    16           2290636800     100.0%      0.0%      0.0%     
 flops    27 x    40 x    16           2314137600     100.0%      0.0%      0.0%     
 flops    27 x    46 x    32           2314293120     100.0%      0.0%      0.0%     
 flops    16 x    48 x    40           2315550720     100.0%      0.0%      0.0%     
 flops    16 x    28 x    16           2321987584     100.0%      0.0%      0.0%     
 flops    36 x    21 x    32           2325335040     100.0%      0.0%      0.0%     
 flops    32 x    32 x    25           2350080000     100.0%      0.0%      0.0%     
 flops    27 x    41 x    16           2359876032     100.0%      0.0%      0.0%     
 flops    27 x    47 x    32           2363141952     100.0%      0.0%      0.0%     
 flops    16 x    35 x     8           2369355520     100.0%      0.0%      0.0%     
 flops     8 x    35 x    16           2399953920     100.0%      0.0%      0.0%     
 flops    32 x    32 x     8           2425765888     100.0%      0.0%      0.0%     
 flops     8 x    36 x     8           2431319040     100.0%      0.0%      0.0%     
 flops    16 x    44 x     8           2441877504     100.0%      0.0%      0.0%     
 flops   246 x    22 x    32           2465793792     100.0%      0.0%      0.0%     
 flops    16 x    45 x    27           2469035520     100.0%      0.0%      0.0%     
 flops     8 x    32 x    32           2484371456     100.0%      0.0%      0.0%     
 flops     8 x    44 x    16           2496834560     100.0%      0.0%      0.0%     
 flops    16 x    35 x    40           2528870400     100.0%      0.0%      0.0%     
 flops    32 x    33 x     8           2530801152     100.0%      0.0%      0.0%     
 flops     8 x    33 x    32           2576724480     100.0%      0.0%      0.0%     
 flops    16 x    46 x    16           2582264832     100.0%      0.0%      0.0%     
 flops     6 x    13 x     8           2611192896     100.0%      0.0%      0.0%     
 flops     8 x    40 x    36           2612736000     100.0%      0.0%      0.0%     
 flops     8 x    36 x    40           2612736000     100.0%      0.0%      0.0%     
 flops    27 x    26 x    32           2621009664     100.0%      0.0%      0.0%     
 flops    32 x    32 x    40           2636677120     100.0%      0.0%      0.0%     
 flops    16 x    44 x    40           2655600640     100.0%      0.0%      0.0%     
 flops    16 x    27 x     8           2667803904     100.0%      0.0%      0.0%     
 flops   183 x    32 x    32           2668087296     100.0%      0.0%      0.0%     
 flops     8 x    41 x    36           2678054400     100.0%      0.0%      0.0%     
 flops     6 x     6 x    16           2705254272     100.0%      0.0%      0.0%     
 flops    32 x    33 x    40           2710794240     100.0%      0.0%      0.0%     
 flops     8 x    27 x    16           2732673024     100.0%      0.0%      0.0%     
 flops    32 x    22 x    27           2744679168     100.0%      0.0%      0.0%     
 flops     8 x    16 x   103           2779450880     100.0%      0.0%      0.0%     
 flops    16 x     8 x   103           2779714560     100.0%      0.0%      0.0%     
 flops    13 x     6 x     8           2792733216     100.0%      0.0%      0.0%     
 flops    16 x    23 x    36           2804336640     100.0%      0.0%      0.0%     
 flops     8 x    43 x    36           2808691200     100.0%      0.0%      0.0%     
 flops    36 x    44 x    16           2829150720     100.0%      0.0%      0.0%     
 flops    40 x    43 x    16           2880573440     100.0%      0.0%      0.0%     
 flops    40 x    22 x    32           2895749120     100.0%      0.0%      0.0%     
 flops    32 x    21 x    36           2911023360     100.0%      0.0%      0.0%     
 flops    16 x    27 x    40           2926264320     100.0%      0.0%      0.0%     
 flops    16 x    40 x    27           2926264320     100.0%      0.0%      0.0%     
 flops    32 x    47 x    27           2931816384     100.0%      0.0%      0.0%     
 flops    16 x    41 x    27           2999420928     100.0%      0.0%      0.0%     
 flops    16 x    45 x     8           3012053760     100.0%      0.0%      0.0%     
 flops    40 x    40 x    16           3047424000     100.0%      0.0%      0.0%     
 flops    40 x    46 x    32           3047628800     100.0%      0.0%      0.0%     
 flops     8 x     6 x    16           3055134720     100.0%      0.0%      0.0%     
 flops     8 x    45 x    16           3059619840     100.0%      0.0%      0.0%     
 flops    40 x    41 x    16           3107655680     100.0%      0.0%      0.0%     
 flops    40 x    47 x    32           3111956480     100.0%      0.0%      0.0%     
 flops    16 x    43 x    27           3145734144     100.0%      0.0%      0.0%     
 flops     8 x    13 x     8           3157478272     100.0%      0.0%      0.0%     
 flops    32 x    26 x    27           3243711744     100.0%      0.0%      0.0%     
 flops    16 x    45 x    40           3251404800     100.0%      0.0%      0.0%     
 flops    32 x    22 x     8           3353957376     100.0%      0.0%      0.0%     
 flops    36 x    35 x    16           3403209600     100.0%      0.0%      0.0%     
 flops    27 x    34 x    32           3414254976     100.0%      0.0%      0.0%     
 flops     8 x    22 x    32           3419896832     100.0%      0.0%      0.0%     
 flops    40 x    26 x    32           3451535360     100.0%      0.0%      0.0%     
 flops    36 x    36 x     8           3522839040     100.0%      0.0%      0.0%     
 flops    36 x    32 x    32           3543367680     100.0%      0.0%      0.0%     
 flops    16 x    40 x     8           3553198080     100.0%      0.0%      0.0%     
 flops    13 x    22 x    13           3598838100     100.0%      0.0%      0.0%     
 flops    27 x    24 x    32           3613787136     100.0%      0.0%      0.0%     
 flops    32 x    22 x    40           3614392320     100.0%      0.0%      0.0%     
 flops    16 x    41 x     8           3623166720     100.0%      0.0%      0.0%     
 flops     8 x    40 x    16           3627192320     100.0%      0.0%      0.0%     
 flops    32 x    47 x     8           3642663936     100.0%      0.0%      0.0%     
 flops    36 x    33 x    32           3681469440     100.0%      0.0%      0.0%     
 flops    27 x    37 x    32           3698250048     100.0%      0.0%      0.0%     
 flops     8 x    47 x    32           3702992384     100.0%      0.0%      0.0%     
 flops     8 x    41 x    16           3705339904     100.0%      0.0%      0.0%     
 flops    16 x    43 x     8           3829760256     100.0%      0.0%      0.0%     
 flops    16 x    23 x    16           3838504960     100.0%      0.0%      0.0%     
 flops    16 x    40 x    40           3853516800     100.0%      0.0%      0.0%     
 flops    32 x    47 x    40           3860828160     100.0%      0.0%      0.0%     
 flops    36 x    27 x    16           3865449600     100.0%      0.0%      0.0%     
 flops    16 x    48 x    36           3904782336     100.0%      0.0%      0.0%     
 flops     8 x    43 x    16           3905374208     100.0%      0.0%      0.0%     
 flops    27 x    39 x    32           3912105600     100.0%      0.0%      0.0%     
 flops    27 x    36 x    16           3913505280     100.0%      0.0%      0.0%     
 flops    16 x     6 x     8           3917047296     100.0%      0.0%      0.0%     
 flops    16 x    41 x    40           3949854720     100.0%      0.0%      0.0%     
 flops    32 x    26 x     8           4022939648     100.0%      0.0%      0.0%     
 flops    32 x    21 x    16           4027806720     100.0%      0.0%      0.0%     
 flops    16 x    21 x    32           4032838656     100.0%      0.0%      0.0%     
 flops     8 x    26 x    32           4088248320     100.0%      0.0%      0.0%     
 flops    16 x    43 x    40           4142530560     100.0%      0.0%      0.0%     
 flops    27 x    28 x    32           4203021312     100.0%      0.0%      0.0%     
 flops    32 x    34 x    27           4241776896     100.0%      0.0%      0.0%     
 flops    16 x    35 x    36           4267468800     100.0%      0.0%      0.0%     
 flops    32 x    26 x    40           4271554560     100.0%      0.0%      0.0%     
 flops     8 x    16 x   107           4331086080     100.0%      0.0%      0.0%     
 flops    16 x     8 x   107           4331496960     100.0%      0.0%      0.0%     
 flops     8 x    36 x    36           4408992000     100.0%      0.0%      0.0%     
 flops    32 x    32 x    36           4436582400     100.0%      0.0%      0.0%     
 flops    16 x    44 x    36           4473520128     100.0%      0.0%      0.0%     
 flops    32 x    24 x    27           4491293184     100.0%      0.0%      0.0%     
 flops    40 x    34 x    32           4496138240     100.0%      0.0%      0.0%     
 flops     8 x    16 x   112           4533473280     100.0%      0.0%      0.0%     
 flops    16 x     8 x   112           4533903360     100.0%      0.0%      0.0%     
 flops    32 x    33 x    36           4574465280     100.0%      0.0%      0.0%     
 flops    32 x    37 x    27           4616051328     100.0%      0.0%      0.0%     
 flops    40 x    24 x    32           4758896640     100.0%      0.0%      0.0%     
 flops    27 x    48 x    32           4826843136     100.0%      0.0%      0.0%     
 flops     8 x     6 x     6           4838846400     100.0%      0.0%      0.0%     
 flops    36 x    43 x    16           4860967680     100.0%      0.0%      0.0%     
 flops    32 x    39 x    27           4865567616     100.0%      0.0%      0.0%     
 flops    40 x    37 x    32           4870123520     100.0%      0.0%      0.0%     
 flops    36 x    22 x    32           4886576640     100.0%      0.0%      0.0%     
 flops    16 x    27 x    36           4938071040     100.0%      0.0%      0.0%     
 flops    16 x    36 x    27           4938071040     100.0%      0.0%      0.0%     
 flops   246 x    32 x    38           4953692160     100.0%      0.0%      0.0%     
 flops     6 x    13 x    16           5029707072     100.0%      0.0%      0.0%     
 flops    36 x    40 x    16           5142528000     100.0%      0.0%      0.0%     
 flops    36 x    46 x    32           5142873600     100.0%      0.0%      0.0%     
 flops    40 x    39 x    32           5151744000     100.0%      0.0%      0.0%     
 flops    40 x    36 x    16           5153587200     100.0%      0.0%      0.0%     
 flops     6 x    32 x     6           5180571648     100.0%      0.0%      0.0%     
 flops    32 x    34 x     8           5207690240     100.0%      0.0%      0.0%     
 flops    13 x    13 x     8           5230901520     100.0%      0.0%      0.0%     
 flops    32 x    28 x    27           5239842048     100.0%      0.0%      0.0%     
 flops    36 x    41 x    16           5244168960     100.0%      0.0%      0.0%     
 flops    36 x    47 x    32           5251426560     100.0%      0.0%      0.0%     
 flops     8 x     8 x     6           5263795968     100.0%      0.0%      0.0%     
 flops     8 x    34 x    32           5307699200     100.0%      0.0%      0.0%     
 flops    16 x    48 x    16           5364449280     100.0%      0.0%      0.0%     
 flops    16 x    45 x    36           5486745600     100.0%      0.0%      0.0%     
 flops    40 x    28 x    32           5534842880     100.0%      0.0%      0.0%     
 flops    32 x    24 x     8           5535326208     100.0%      0.0%      0.0%     
 flops    13 x     6 x    16           5553560064     100.0%      0.0%      0.0%     
 flops    32 x    34 x    40           5585879040     100.0%      0.0%      0.0%     
 flops     8 x    24 x    32           5638164480     100.0%      0.0%      0.0%     
 flops    32 x    37 x     8           5642868224     100.0%      0.0%      0.0%     
 flops    32 x    46 x    27           5738874624     100.0%      0.0%      0.0%     
 flops     8 x    37 x    32           5758938112     100.0%      0.0%      0.0%     
 flops    36 x    26 x    32           5824465920     100.0%      0.0%      0.0%     
 flops    32 x    24 x    40           5914460160     100.0%      0.0%      0.0%     
 flops    16 x    35 x    16           5921681920     100.0%      0.0%      0.0%     
 flops    32 x    39 x     8           5981574144     100.0%      0.0%      0.0%     
 flops    16 x    36 x     8           5990178816     100.0%      0.0%      0.0%     
 flops    32 x    37 x    40           6078750720     100.0%      0.0%      0.0%     
 flops     8 x    39 x    32           6090898944     100.0%      0.0%      0.0%     
 flops    32 x    22 x    36           6099287040     100.0%      0.0%      0.0%     
 flops     8 x    36 x    16           6108014592     100.0%      0.0%      0.0%     
 flops     8 x    13 x    16           6132565504     100.0%      0.0%      0.0%     
 flops    16 x    32 x    32           6134956032     100.0%      0.0%      0.0%     
 flops    32 x    32 x    16           6140231680     100.0%      0.0%      0.0%     
 flops    16 x    44 x    16           6158411776     100.0%      0.0%      0.0%     
 flops    40 x    48 x    32           6356336640     100.0%      0.0%      0.0%     
 flops    16 x    33 x    32           6368068608     100.0%      0.0%      0.0%     
 flops    32 x    33 x    16           6371920896     100.0%      0.0%      0.0%     
 flops    32 x    39 x    40           6407331840     100.0%      0.0%      0.0%     
 flops    32 x    28 x     8           6408435712     100.0%      0.0%      0.0%     
 flops    16 x    40 x    36           6502809600     100.0%      0.0%      0.0%     
 flops    16 x    36 x    40           6502809600     100.0%      0.0%      0.0%     
 flops    32 x    47 x    36           6515147520     100.0%      0.0%      0.0%     
 flops     8 x    28 x    32           6540369920     100.0%      0.0%      0.0%     
 flops    16 x    41 x    36           6665379840     100.0%      0.0%      0.0%     
 flops    16 x    27 x    16           6739338240     100.0%      0.0%      0.0%     
 flops    27 x    45 x    32           6798245760     100.0%      0.0%      0.0%     
 flops    16 x    16 x   103           6890485760     100.0%      0.0%      0.0%     
 flops    32 x    28 x    40           6900203520     100.0%      0.0%      0.0%     
 flops   246 x    32 x    25           6925392000     100.0%      0.0%      0.0%     
 flops    27 x    23 x    32           6930360000     100.0%      0.0%      0.0%     
 flops    16 x    43 x    36           6990520320     100.0%      0.0%      0.0%     
 flops    32 x    46 x     8           7152930816     100.0%      0.0%      0.0%     
 flops    32 x    26 x    36           7208248320     100.0%      0.0%      0.0%     
 flops     8 x    46 x    32           7260704768     100.0%      0.0%      0.0%     
 flops    16 x    45 x    16           7550668800     100.0%      0.0%      0.0%     
 flops    32 x    46 x    40           7557365760     100.0%      0.0%      0.0%     
 flops    36 x    34 x    32           7587233280     100.0%      0.0%      0.0%     
 flops    16 x     6 x    16           7909585920     100.0%      0.0%      0.0%     
 flops    16 x    13 x     8           7971205632     100.0%      0.0%      0.0%     
 flops    36 x    24 x    32           8030638080     100.0%      0.0%      0.0%     
 flops    36 x    37 x    32           8218333440     100.0%      0.0%      0.0%     
 flops    32 x    22 x    16           8436082688     100.0%      0.0%      0.0%     
 flops    16 x    22 x    32           8446558208     100.0%      0.0%      0.0%     
 flops    32 x    23 x    27           8608311936     100.0%      0.0%      0.0%     
 flops     8 x    13 x     6           8620180608     100.0%      0.0%      0.0%     
 flops    36 x    39 x    32           8693568000     100.0%      0.0%      0.0%     
 flops    36 x    36 x    16           8696678400     100.0%      0.0%      0.0%     
 flops    27 x    44 x    32           8856055296     100.0%      0.0%      0.0%     
 flops    16 x    40 x    16           8944271360     100.0%      0.0%      0.0%     
 flops    40 x    45 x    32           8952422400     100.0%      0.0%      0.0%     
 flops    13 x    32 x     6           9019745280     100.0%      0.0%      0.0%     
 flops     6 x    32 x    13           9019745280     100.0%      0.0%      0.0%     
 flops    32 x    47 x    16           9124972544     100.0%      0.0%      0.0%     
 flops    40 x    23 x    32           9126400000     100.0%      0.0%      0.0%     
 flops    16 x    41 x    16           9135466496     100.0%      0.0%      0.0%     
 flops    16 x    47 x    32           9154619392     100.0%      0.0%      0.0%     
 flops    16 x     6 x     6           9311034240     100.0%      0.0%      0.0%     
 flops    36 x    28 x    32           9340047360     100.0%      0.0%      0.0%     
 flops    32 x    34 x    36           9426170880     100.0%      0.0%      0.0%     
 flops    16 x    43 x    16           9634003456     100.0%      0.0%      0.0%     
 flops     8 x     6 x    13           9978341568     100.0%      0.0%      0.0%     
 flops    32 x    24 x    36           9980651520     100.0%      0.0%      0.0%     
 flops    16 x    26 x    32          10111528960     100.0%      0.0%      0.0%     
 flops    32 x    26 x    16          10115336192     100.0%      0.0%      0.0%     
 flops     8 x    16 x     6          10160125440     100.0%      0.0%      0.0%     
 flops    32 x    37 x    36          10257891840     100.0%      0.0%      0.0%     
 flops    13 x    13 x    16          10322438880     100.0%      0.0%      0.0%     
 flops    27 x    35 x    32          10597366080     100.0%      0.0%      0.0%     
 flops    32 x    23 x     8          10608951296     100.0%      0.0%      0.0%     
 flops    36 x    48 x    32          10726318080     100.0%      0.0%      0.0%     
 flops    16 x    16 x   107          10737116160     100.0%      0.0%      0.0%     
 flops   246 x    32 x    32          10759827456     100.0%      0.0%      0.0%     
 flops     8 x    23 x    32          10801123840     100.0%      0.0%      0.0%     
 flops    32 x    39 x    36          10812372480     100.0%      0.0%      0.0%     
 flops     8 x     8 x    13          10831997696     100.0%      0.0%      0.0%     
 flops    16 x    36 x    36          10973491200     100.0%      0.0%      0.0%     
 flops    16 x    16 x   112          11238850560     100.0%      0.0%      0.0%     
 flops    32 x    23 x    40          11336048640     100.0%      0.0%      0.0%     
 flops    32 x    28 x    36          11644093440     100.0%      0.0%      0.0%     
 flops    40 x    44 x    32          11662295040     100.0%      0.0%      0.0%     
 flops    32 x    48 x    27          11976781824     100.0%      0.0%      0.0%     
 flops    27 x    27 x    32          12166718400     100.0%      0.0%      0.0%     
 flops    32 x    46 x    36          12753054720     100.0%      0.0%      0.0%     
 flops    16 x     8 x     6          13017378816     100.0%      0.0%      0.0%     
 flops    32 x    35 x    27          13099605120     100.0%      0.0%      0.0%     
 flops    16 x    34 x    32          13123090432     100.0%      0.0%      0.0%     
 flops    32 x    34 x    16          13140985856     100.0%      0.0%      0.0%     
 flops    32 x    44 x    27          13723395840     100.0%      0.0%      0.0%     
 flops    16 x    24 x    32          13930364928     100.0%      0.0%      0.0%     
 flops    32 x    24 x    16          13933953024     100.0%      0.0%      0.0%     
 flops    40 x    35 x    32          13955379200     100.0%      0.0%      0.0%     
 flops    16 x    37 x    32          14230960128     100.0%      0.0%      0.0%     
 flops    32 x    37 x    16          14252594176     100.0%      0.0%      0.0%     
 flops    32 x    48 x     8          14761181184     100.0%      0.0%      0.0%     
 flops     8 x    48 x    32          15024095232     100.0%      0.0%      0.0%     
 flops    16 x    39 x    32          15049522176     100.0%      0.0%      0.0%     
 flops    32 x    39 x    16          15056950272     100.0%      0.0%      0.0%     
 flops    16 x    36 x    16          15058022400     100.0%      0.0%      0.0%     
 flops    36 x    45 x    32          15107212800     100.0%      0.0%      0.0%     
 flops    32 x    27 x    27          15158114496     100.0%      0.0%      0.0%     
 flops    27 x    43 x    32          15165595008     100.0%      0.0%      0.0%     
 flops    36 x    23 x    32          15400800000     100.0%      0.0%      0.0%     
 flops    13 x    32 x    13          15704020800     100.0%      0.0%      0.0%     
 flops    32 x    48 x    40          15795363840     100.0%      0.0%      0.0%     
 flops    40 x    27 x    32          16022016000     100.0%      0.0%      0.0%     
 flops    16 x    13 x    16          16084383744     100.0%      0.0%      0.0%     
 flops    27 x    40 x    32          16096320000     100.0%      0.0%      0.0%     
 flops    32 x    28 x    16          16144601088     100.0%      0.0%      0.0%     
 flops    16 x    28 x    32          16157933568     100.0%      0.0%      0.0%     
 flops    32 x    35 x     8          16419970560     100.0%      0.0%      0.0%     
 flops    27 x    41 x    32          16463658240     100.0%      0.0%      0.0%     
 flops    16 x    13 x     6          16591478592     100.0%      0.0%      0.0%     
 flops     8 x    35 x    32          16623792640     100.0%      0.0%      0.0%     
 flops    32 x    45 x    27          16842349440     100.0%      0.0%      0.0%     
 flops    32 x    44 x     8          16971333632     100.0%      0.0%      0.0%     
 flops    32 x    35 x    40          17250508800     100.0%      0.0%      0.0%     
 flops     8 x    44 x    32          17254668288     100.0%      0.0%      0.0%     
 flops     8 x    13 x    13          17911839504     100.0%      0.0%      0.0%     
 flops    32 x    46 x    16          17925568512     100.0%      0.0%      0.0%     
 flops    16 x    46 x    32          17954914304     100.0%      0.0%      0.0%     
 flops    32 x    44 x    40          18114990080     100.0%      0.0%      0.0%     
 flops    32 x    27 x     8          18566392320     100.0%      0.0%      0.0%     
 flops     8 x    27 x    32          18940331520     100.0%      0.0%      0.0%     
 flops     8 x    32 x   103          19033371648     100.0%      0.0%      0.0%     
 flops    32 x     8 x   103          19035059200     100.0%      0.0%      0.0%     
 flops    32 x    23 x    36          19129582080     100.0%      0.0%      0.0%     
 flops    36 x    44 x    32          19680122880     100.0%      0.0%      0.0%     
 flops    32 x    27 x    40          19961303040     100.0%      0.0%      0.0%     
 flops    32 x    40 x    27          19961303040     100.0%      0.0%      0.0%     
 flops    40 x    43 x    32          19971153920     100.0%      0.0%      0.0%     
 flops    32 x    41 x    27          20460335616     100.0%      0.0%      0.0%     
 flops    16 x     6 x    13          20623197504     100.0%      0.0%      0.0%     
 flops    32 x    45 x     8          20918822400     100.0%      0.0%      0.0%     
 flops    40 x    40 x    32          21196800000     100.0%      0.0%      0.0%     
 flops     8 x    45 x    32          21259284480     100.0%      0.0%      0.0%     
 flops    32 x    43 x    27          21458400768     100.0%      0.0%      0.0%     
 flops    40 x    41 x    32          21680537600     100.0%      0.0%      0.0%     
 flops    32 x    45 x    40          22179225600     100.0%      0.0%      0.0%     
 flops     8 x    16 x    13          22689698304     100.0%      0.0%      0.0%     
 flops    36 x    35 x    32          23549702400     100.0%      0.0%      0.0%     
 flops    32 x    40 x     8          24689623040     100.0%      0.0%      0.0%     
 flops    16 x    16 x     6          25104165888     100.0%      0.0%      0.0%     
 flops     8 x    40 x    32          25132113920     100.0%      0.0%      0.0%     
 flops    32 x    41 x     8          25212714496     100.0%      0.0%      0.0%     
 flops     8 x    41 x    32          25667422208     100.0%      0.0%      0.0%     
 flops    32 x    40 x    40          26286489600     100.0%      0.0%      0.0%     
 flops    32 x    43 x     8          26606159872     100.0%      0.0%      0.0%     
 flops    32 x    48 x    36          26636193792     100.0%      0.0%      0.0%     
 flops    32 x    23 x    16          26678316032     100.0%      0.0%      0.0%     
 flops    16 x    23 x    32          26699489280     100.0%      0.0%      0.0%     
 flops    16 x     8 x    13          26820102400     100.0%      0.0%      0.0%     
 flops    32 x    41 x    40          26943651840     100.0%      0.0%      0.0%     
 flops     6 x     6 x    32          27022445568     100.0%      0.0%      0.0%     
 flops    36 x    27 x    32          27037152000     100.0%      0.0%      0.0%     
 flops     8 x    43 x    32          27046259712     100.0%      0.0%      0.0%     
 flops    27 x    36 x    32          27182905344     100.0%      0.0%      0.0%     
 flops    32 x    21 x    32          27941351424     100.0%      0.0%      0.0%     
 flops    32 x     6 x     8          28085059584     100.0%      0.0%      0.0%     
 flops    32 x    43 x    40          28257976320     100.0%      0.0%      0.0%     
 flops    32 x    35 x    36          29110233600     100.0%      0.0%      0.0%     
 flops     8 x     6 x    32          29253080064     100.0%      0.0%      0.0%     
 flops     8 x    32 x   107          29658797568     100.0%      0.0%      0.0%     
 flops    32 x     8 x   107          29661427200     100.0%      0.0%      0.0%     
 flops    32 x    44 x    36          30515798016     100.0%      0.0%      0.0%     
 flops     8 x    32 x   112          31044722688     100.0%      0.0%      0.0%     
 flops    32 x     8 x   112          31047475200     100.0%      0.0%      0.0%     
 flops    32 x    27 x    36          33684698880     100.0%      0.0%      0.0%     
 flops    32 x    36 x    27          33684698880     100.0%      0.0%      0.0%     
 flops    36 x    43 x    32          33701322240     100.0%      0.0%      0.0%     
 flops    36 x    40 x    32          35769600000     100.0%      0.0%      0.0%     
 flops    40 x    36 x    32          35796418560     100.0%      0.0%      0.0%     
 flops    36 x    41 x    32          36585907200     100.0%      0.0%      0.0%     
 flops    16 x    48 x    32          37130452992     100.0%      0.0%      0.0%     
 flops    32 x    48 x    16          37256822784     100.0%      0.0%      0.0%     
 flops    16 x    13 x    13          37411592192     100.0%      0.0%      0.0%     
 flops    32 x    45 x    36          37427443200     100.0%      0.0%      0.0%     
 flops    32 x    35 x    16          41078983680     100.0%      0.0%      0.0%     
 flops    16 x    35 x    32          41134679040     100.0%      0.0%      0.0%     
 flops    32 x    36 x     8          41624100864     100.0%      0.0%      0.0%     
 flops     8 x    36 x    32          42359666688     100.0%      0.0%      0.0%     
 flops    16 x    44 x    32          42647801856     100.0%      0.0%      0.0%     
 flops    32 x    44 x    16          42766118912     100.0%      0.0%      0.0%     
 flops    32 x    33 x    32          44096397312     100.0%      0.0%      0.0%     
 flops    32 x    40 x    36          44358451200     100.0%      0.0%      0.0%     
 flops    32 x    36 x    40          44358451200     100.0%      0.0%      0.0%     
 flops    32 x    32 x    32          44699287552     100.0%      0.0%      0.0%     
 flops    32 x    41 x    36          45467412480     100.0%      0.0%      0.0%     
 flops    16 x    27 x    32          46792747008     100.0%      0.0%      0.0%     
 flops    32 x    27 x    16          46851001344     100.0%      0.0%      0.0%     
 flops    16 x    32 x   103          47359248384     100.0%      0.0%      0.0%     
 flops    32 x    16 x   103          47370217472     100.0%      0.0%      0.0%     
 flops    32 x    43 x    36          47685335040     100.0%      0.0%      0.0%     
 flops     6 x    13 x    32          49790362752     100.0%      0.0%      0.0%     
 flops    32 x    45 x    16          52427566080     100.0%      0.0%      0.0%     
 flops    16 x    45 x    32          52540646400     100.0%      0.0%      0.0%     
 flops    13 x     6 x    32          52865694336     100.0%      0.0%      0.0%     
 flops    32 x     6 x    16          55690450944     100.0%      0.0%      0.0%     
 flops    16 x    16 x    13          55983176704     100.0%      0.0%      0.0%     
 flops    32 x    13 x     8          56935077888     100.0%      0.0%      0.0%     
 flops     8 x    13 x    32          57859669504     100.0%      0.0%      0.0%     
 flops    32 x    22 x    32          59032055808     100.0%      0.0%      0.0%     
 flops    36 x    36 x    32          60406456320     100.0%      0.0%      0.0%     
 flops    16 x    40 x    32          62131937280     100.0%      0.0%      0.0%     
 flops    32 x    40 x    16          62135500800     100.0%      0.0%      0.0%     
 flops    32 x    47 x    32          63338084352     100.0%      0.0%      0.0%     
 flops    16 x    41 x    32          63424808960     100.0%      0.0%      0.0%     
 flops    32 x    41 x    16          63514528768     100.0%      0.0%      0.0%     
 flops    16 x    43 x    32          66856603648     100.0%      0.0%      0.0%     
 flops    32 x    43 x    16          66885708800     100.0%      0.0%      0.0%     
 flops    32 x    26 x    32          69923356672     100.0%      0.0%      0.0%     
 flops    16 x    32 x   107          73797663744     100.0%      0.0%      0.0%     
 flops    32 x    16 x   107          73814756352     100.0%      0.0%      0.0%     
 flops    16 x     6 x    32          74266779648     100.0%      0.0%      0.0%     
 flops    32 x    36 x    36          74854886400     100.0%      0.0%      0.0%     
 flops    16 x    32 x   112          77246152704     100.0%      0.0%      0.0%     
 flops    32 x    16 x   112          77264044032     100.0%      0.0%      0.0%     
 flops    32 x     6 x     6          83558105856     100.0%      0.0%      0.0%     
 flops    32 x     8 x     6          90223064064     100.0%      0.0%      0.0%     
 flops     8 x    32 x     6          90712645632     100.0%      0.0%      0.0%     
 flops    32 x    34 x    32          90816909312     100.0%      0.0%      0.0%     
 flops    32 x    24 x    32          96440205312     100.0%      0.0%      0.0%     
 flops    13 x    13 x    32          97185999872     100.0%      0.0%      0.0%     
 flops    32 x    37 x    32          98539565056     100.0%      0.0%      0.0%     
 flops    32 x    39 x    32         104227928064     100.0%      0.0%      0.0%     
 flops    32 x    36 x    16         104638685184     100.0%      0.0%      0.0%     
 flops    16 x    36 x    32         104682000384     100.0%      0.0%      0.0%     
 flops    32 x    28 x    32         111924707328     100.0%      0.0%      0.0%     
 flops    32 x    13 x    16         113403463680     100.0%      0.0%      0.0%     
 flops    32 x    46 x    32         124163223552     100.0%      0.0%      0.0%     
 flops    16 x    13 x    32         147571307520     100.0%      0.0%      0.0%     
 flops    32 x    13 x     6         148319882880     100.0%      0.0%      0.0%     
 flops    32 x     6 x    13         169489801728     100.0%      0.0%      0.0%     
 flops    32 x    16 x     6         174262013952     100.0%      0.0%      0.0%     
 flops     8 x    32 x    13         184012088832     100.0%      0.0%      0.0%     
 flops    32 x    23 x    32         184742123520     100.0%      0.0%      0.0%     
 flops    32 x     8 x    13         185666204672     100.0%      0.0%      0.0%     
 flops    16 x    32 x     6         224498712576     100.0%      0.0%      0.0%     
 flops    32 x    48 x    32         257000669184     100.0%      0.0%      0.0%     
 flops    32 x    35 x    32         284117012480     100.0%      0.0%      0.0%     
 flops    32 x    44 x    32         295125090304     100.0%      0.0%      0.0%     
 flops    32 x    13 x    13         304399793152     100.0%      0.0%      0.0%     
 flops    32 x    32 x   103         323208818688     100.0%      0.0%      0.0%     
 flops    32 x    27 x    32         324107550720     100.0%      0.0%      0.0%     
 flops    32 x    45 x    32         363732480000     100.0%      0.0%      0.0%     
 flops    32 x    16 x    13         391124065280     100.0%      0.0%      0.0%     
 flops    32 x    40 x    32         429861765120     100.0%      0.0%      0.0%     
 flops    32 x    41 x    32         439036764160     100.0%      0.0%      0.0%     
 flops    16 x    32 x    13         455913263104     100.0%      0.0%      0.0%     
 flops    32 x    43 x    32         462573156352     100.0%      0.0%      0.0%     
 flops    32 x    32 x   107         503640926208     100.0%      0.0%      0.0%     
 flops    32 x     6 x    32         525370294272     100.0%      0.0%      0.0%     
 flops    32 x    32 x   112         527175548928     100.0%      0.0%      0.0%     
 flops    32 x    36 x    32         724654817280     100.0%      0.0%      0.0%     
 flops    32 x    13 x    32        1043881725952     100.0%      0.0%      0.0%     
 flops    32 x    32 x     6        1552867454976     100.0%      0.0%      0.0%     
 flops    32 x    32 x    13        3153989715968     100.0%      0.0%      0.0%     
 flops inhomo. stacks              23960133414912     100.0%      0.0%      0.0%
 flops total                        44.830532E+12     100.0%      0.0%      0.0%
 flops max/rank                      1.720274E+12     100.0%      0.0%      0.0%
 matmuls inhomo. stacks                 126958785     100.0%      0.0%      0.0%
 matmuls total                         1302190842     100.0%      0.0%      0.0%
 number of processed stacks              16450469     100.0%      0.0%      0.0%
 average stack size                                    79.2       0.0       0.0
 marketing flops                    57.496291E+12
 -------------------------------------------------------------------------------
 # multiplications                           2938
 max memory usage/rank              19.534397E+09
 # max total images/rank                       31
 # max 3D layers                                1
 # MPI messages exchanged                 2732340
 MPI messages size (bytes):
  total size                         1.827937E+12
  min size                           0.000000E+00
  max size                          16.032768E+06
  average size                     669.000625E+03
 MPI breakdown and total messages size (bytes):
             size <=      128             1404840                        0
       128 < size <=     8192                 180                  1090560
      8192 < size <=    32768              427200              11107533120
     32768 < size <=   131072              109500               3984460800
    131072 < size <=  4194304              656700             474905892480
   4194304 < size <= 16777216              133920            1337935176960
  16777216 < size                               0                        0
 -------------------------------------------------------------------------------

 *** WARNING in dbcsr_mm.F:301 :: Using a non-square number of MPI ranks ***
 *** might lead to poor performance. Used ranks: 31 Suggested: 36 64     ***

 -------------------------------------------------------------------------------
 -                                                                             -
 -                      DBCSR MESSAGE PASSING PERFORMANCE                      -
 -                                                                             -
 -------------------------------------------------------------------------------
 ROUTINE             CALLS      AVE VOLUME [Bytes]
 MP_Bcast              800                     12.
 MP_Allreduce        15413                     38.
 MP_Alltoall         11300                  94761.
 MP_ISend           253866                 238478.
 MP_IRecv           223550                 266965.
 -------------------------------------------------------------------------------

 -------------------------------------------------------------------------------
 -                                                                             -
 -                                GRID STATISTICS                              -
 -                                                                             -
 -------------------------------------------------------------------------------
 LP    KERNEL             BACKEND                              COUNT     PERCENT
 3     collocate ortho    CPU                                7116336      23.79%
 3     integrate ortho    CPU                                7116336      23.79%
 2     collocate ortho    CPU                                4845570      16.20%
 2     integrate ortho    CPU                                4845570      16.20%
 4     collocate ortho    CPU                                2994666      10.01%
 4     integrate ortho    CPU                                2994666      10.01%
 0     collocate general  CPU                                   3131       0.01%
 -------------------------------------------------------------------------------

 -------------------------------------------------------------------------------
 -                                                                             -
 -                          OFFLOAD MEMPOOL STATISTICS                         -
 -                                                                             -
 -------------------------------------------------------------------------------
 Memory consumption                Number of allocations  Used [MiB]  Size [MiB]
 Host                                                  7         155    22340880
 -------------------------------------------------------------------------------

 MEMORY| Estimated peak process memory [MiB]                                1995

 -------------------------------------------------------------------------------
 -                                                                             -
 -                         MESSAGE PASSING PERFORMANCE                         -
 -                                                                             -
 -------------------------------------------------------------------------------

 ROUTINE             CALLS      AVE VOLUME [Bytes]
 MP_Group                5
 MP_Bcast             7053                   6079.
 MP_Allreduce        20203                   3742.
 MP_Sync               115
 MP_Alltoall          2174              100350865.
 MP_SendRecv          6840                 511920.
 MP_ISendRecv         6840                 511920.
 MP_Wait             25574
 MP_comm_split         113
 MP_ISend            16907                1751807.
 MP_IRecv            16907                1751807.
 -------------------------------------------------------------------------------


 -------------------------------------------------------------------------------
 -                                                                             -
 -                           R E F E R E N C E S                               -
 -                                                                             -
 -------------------------------------------------------------------------------
 
 CP2K version 2026.2 (Development Version), the CP2K developers group (2026).
 CP2K is freely available from https://www.cp2k.org/ .
 
 M. Iannuzzi, J. Wilhelm, F. Stein, A. Bussy, H. Elgabarty, D. Golze, A. Hehn, 
 M. Graml, S. Marek, B. Sertcan Gökmen, C. Schran, H. Forbert, R. Z. 
 Khaliullin, A. Kozhevnikov, M. Taillefumier, R. Meli, V. V. Rybkin, M. Brehm, 
 R. Schade, O. Schütt, J. V. Pototschnig, H. Mirhosseini, A. Knüpfer, D. Marx, 
 M. Krack, J. Hutter, T. D. Kühne.
 J. Phys. Chem. B 130, 1237-1310 (2026).
 The CP2K Program Package Made Simple.
 https://doi.org/10.1021/acs.jpcb.5c05851

 M. Graml, K. Zollner, D. Hernangómez-Pérez, P. E. Faria Junior, J. Wilhelm.
 J. Chem. Theory Comput. 20, 2202-2208 (2024).
 Low-scaling GW algorithm applied to twisted transition-metal dichalcogenide 
 heterobilayers.
 https://doi.org/10.1021/acs.jctc.3c01230

 T. D. Kühne, M. Iannuzzi, M. Del Ben, V. V. Rybkin, P. Seewald, F. Stein, T. 
 Laino, R. Z. Khaliullin, O. Schütt, F. Schiffmann, D. Golze, J. Wilhelm, S. 
 Chulkov, M. H. Bani-Hashemian, V. Weber, U. Borstnik, M. Taillefumier, A. S. 
 Jakobovits, A. Lazzaro, H. Pabst, T. Müller, R. Schade, M. Guidon, S. 
 Andermatt, N. Holmberg, G. K. Schenter, A. Hehn, A. Bussy, F. Belleflamme, G. 
 Tabacchi, A. Glöß, M. Lass, I. Bethune, C. J. Mundy, C. Plessl, M. Watkins, 
 J. VandeVondele, M. Krack, J. Hutter.
 J. Chem. Phys. 152, 194103 (2020).
 CP2K: An electronic structure and molecular dynamics software package - 
 Quickstep: Efficient and accurate electronic structure calculations.
 https://doi.org/10.1063/5.0007045

 O. Schuett, P. Messmer, J. Hutter, J. VandeVondele.
 Electronic Structure Calculations on Graphics Processing Units, 173-190 (2016).
 GPU-Accelerated Sparse Matrix-Matrix Multiplication for Linear Scaling Density 
 Functional Theory.
 https://doi.org/10.1002/9781118670712.ch8

 U. Borstnik, J. VandeVondele, V. Weber, J. Hutter.
 Parallel Comput. 40, 47-58 (2014).
 Sparse matrix multiplication: The distributed block-compressed sparse row 
 library.
 https://doi.org/10.1016/j.parco.2014.03.012

 J. VandeVondele, J. Hutter.
 J. Chem. Phys. 127, 114105 (2007).
 Gaussian basis sets for accurate calculations on molecular systems in gas and 
 condensed phases.
 https://doi.org/10.1063/1.2770708

 J. VandeVondele, M. Krack, F. Mohamed, M. Parrinello, T. Chassaing, J. Hutter.
 Comput. Phys. Commun. 167, 103-128 (2005).
 QUICKSTEP: Fast and accurate density functional calculations using a mixed 
 Gaussian and plane waves approach.
 https://doi.org/10.1016/j.cpc.2004.12.014

 M. Krack.
 Theor. Chem. Acc. 114, 145-152 (2005).
 Pseudopotentials for H to Kr optimized for gradient-corrected 
 exchange-correlation functionals.
 https://doi.org/10.1007/s00214-005-0655-y

 M. Frigo, S. G. Johnson.
 Proc. IEEE 93, 216-231 (2005).
 The design and implementation of FFTW3.
 https://doi.org/10.1109/JPROC.2004.840301

 J. VandeVondele, J. Hutter.
 J. Chem. Phys. 118, 4365-4369 (2003).
 An efficient orbital transformation method for electronic structure 
 calculations.
 https://doi.org/10.1063/1.1543154

 C. Hartwigsen, S. Goedecker, J. Hutter.
 Phys. Rev. B 58, 3641-3662 (1998).
 Relativistic separable dual-space Gaussian pseudopotentials from H to Rn.
 https://doi.org/10.1103/PhysRevB.58.3641

 G. Lippert, J. Hutter, M. Parrinello.
 Mol. Phys. 92, 477-487 (1997).
 A hybrid Gaussian and plane wave density functional scheme.
 https://doi.org/10.1080/002689797170220

 S. Goedecker, M. Teter, J. Hutter.
 Phys. Rev. B 54, 1703-1710 (1996).
 Separable dual-space Gaussian pseudopotentials.
 https://doi.org/10.1103/PhysRevB.54.1703

 J. P. Perdew, K. Burke, M. Ernzerhof.
 Phys. Rev. Lett. 77, 3865-3868 (1996).
 Generalized gradient approximation made simple.
 https://doi.org/10.1103/PhysRevLett.77.3865

 P. E. Blöchl.
 J. Chem. Phys. 103, 7422-7428 (1995).
 Electrostatic decoupling of periodic images of plane‐wave‐expanded 
 densities and derived atomic point charges.
 https://doi.org/10.1063/1.470314

 R. H. Byrd, P. H. Lu, J. Nocedal, C. Y. Zhu.
 SIAM J. Sci. Comput. 16, 1190-1208 (1995).
 A Limited Memory Algorithm for Bound Constrained Optimization.
 https://doi.org/10.1137/0916069


 -------------------------------------------------------------------------------
 -                                                                             -
 -                                T I M I N G                                  -
 -                                                                             -
 -------------------------------------------------------------------------------
 SUBROUTINE                       CALLS  ASD         SELF TIME        TOTAL TIME MAXRANK
                                MAXIMUM       AVERAGE  MAXIMUM  AVERAGE  MAXIMUM
 CP2K                                 1  1.0    0.085    0.087  485.712  485.715      18
 qs_energies                          1  2.0    0.027    0.027  484.885  484.886      19
 scf_env_do_scf                       1  3.0    0.010    0.011  357.059  357.059      26
 scf_env_do_scf_inner_loop          113  4.0    0.015    0.025  352.239  352.247       0
 qs_ks_build_kohn_sham_matrix       114  7.0    0.620    0.682  259.192  259.253       2
 qs_ks_update_qs_env                115  5.0    0.003    0.004  258.420  258.481      16
 rebuild_ks_matrix                  113  6.0    0.002    0.002  258.390  258.451      26
 fft_wrap_pw1pw2                   1932 10.3    0.053    0.058  201.112  216.934      17
 fft_wrap_pw1pw2_250               1248 11.8   10.576   12.769  193.315  206.215      13
 fft3d_ps                          1932 12.3   77.088   82.240  147.202  182.585      28
 qs_vxc_create                      114  8.0    0.006    0.006  167.177  172.128      13
 xc_vxc_pw_create                   113  9.0    2.273    3.074  167.171  172.122      14
 xc_pw_derive                       678 11.0    0.010    0.012  126.544  140.300      10
 qs_energies_properties               1  3.0    0.002    0.003  126.239  126.239      20
 post_scf_bandstructure               1  4.0    0.002    0.003  126.237  126.237      22
 gw                                   1  5.0    0.001    0.002  125.695  125.704      23
 gw_calc_non_periodic_ri_rs           1  6.0    0.006    0.006  118.454  118.464       1
 mp_alltoall_z22v                  1932 14.3   38.321  116.059   38.321  116.059       0
 xc_pw_divergence                   113 10.0    0.005    0.006   86.029   95.975      15
 qs_rho_update_rho_low              114  5.0    0.002    0.002   93.271   93.309      14
 calculate_rho_elec                 114  6.0    1.107    1.116   93.269   93.308       1
 xc_rho_set_and_dset_create         113 10.0    2.659    4.931   76.761   85.451      17
 yz_to_x                            910 12.9   11.065   12.666   32.658   70.646      15
 density_rs2pw                      114  7.0    0.008    0.010   56.213   67.210       2
 x_to_yz                           1022 13.8   20.676   22.860   37.404   58.238      18
 sum_up_and_integrate               114  8.0    0.015    0.015   47.326   47.402      27
 integrate_v_rspace                 114  9.0    0.037    0.039   46.288   46.939       0
 potential_pw2rs                    114 10.0    0.053    0.058   41.429   42.089      16
 grid_collocate_task_list           114  7.0   35.035   37.890   35.035   37.890      18
 mp_waitany                       16907 11.5   15.479   35.590   15.479   35.590       0
 transfer_rs2pw                     457  8.0    0.011    0.014   17.480   32.837       2
 transfer_rs2pw_250                 115  9.0    4.495    6.051   12.913   28.140      30
 compute_Z_lP                         1  7.0    0.001    0.002   27.453   27.453      19
 compute_Z_lP_auto_ri                 1  8.0    0.174    0.175   27.451   27.452      23
 compute_W                            1  7.0    0.003    0.011   26.555   26.571      19
 compute_Sigma_c_and_QP_energie       1  7.0    0.001    0.002   26.330   26.341      27
 compute_Sigma_c                      1  8.0    0.009    0.011   25.561   25.561       0
 qs_ks_ddapc                        114  8.0    0.003    0.004   23.150   25.185       0
 contract_grid_panels_sigma_c        30  9.0   23.549   23.730   24.597   24.630      19
 mp_sum_d                          6069 10.6    9.183   23.291    9.183   23.291       0
 pw_derive                         1020 11.3   19.849   21.863   19.849   21.863      23
 compute_fm_W_freq                   30  8.0    0.001    0.001   19.876   19.991      18
 transfer_pw2rs                     456 11.0    0.007    0.009   19.687   19.716      18
 pw_gather_p                        910 11.9   15.721   19.286   15.721   19.286       4
 ri_rs_grid_assembler                 1  7.0    0.004    0.005   19.272   19.273      16
 optimize_ri_rs_grid                  1  8.0    0.001    0.002   19.130   19.131       0
 rirs_grid_LBFGS                      1  9.0    0.703    0.937   18.503   18.839       6
 compute_auto_ri_d_lp                 1  9.0    0.000    0.000   18.779   18.784      10
 cp_fm_gemm                         445 10.5   18.494   18.743   18.494   18.743      15
 parallel_gemm_fm_gemm              442  9.5    0.002    0.002   18.479   18.728      20
 compute_auto_ri_d_lp_AB_d_lp         1 10.0    0.003    0.008   13.922   18.649       3
 pw_poisson_solve                   114  8.0    0.003    0.004   18.022   18.486       2
 pw_scatter_p                      1022 12.8   16.880   17.880   16.880   17.880      14
 get_mat_chi_Gamma_tau                1  7.0    0.001    0.002   17.839   17.854      19
 contract_grid_panels                31  8.0   16.979   17.160   17.583   17.715       2
 compute_d_lp_auto_ri_atom            4 11.0    8.240   11.415   12.888   17.401       6
 evaluate_rirs_grid_cluster         404 10.0    1.243    1.887   11.450   17.120       0
 xc_functional_eval                 113 11.0    0.002    0.012   10.218   17.020       0
 pbe_lda_eval                       113 12.0   10.215   17.017   10.215   17.017      15
 pw_copy                           1820 10.6   15.656   16.432   15.656   16.432      17
 transfer_pw2rs_250                 114 12.0    5.922    6.697   13.192   13.873      18
 cp_ddapc_apply_CD                  114  9.0    0.004    0.006    6.072   11.909       1
 pw_poisson_set                     115  9.0    0.004    0.005   11.406   11.870       1
 fft_wrap_pw1pw2_90                 228 10.5    0.368    0.513    6.351   11.162      25
 pw_axpy                           1145  9.2    7.851    8.687    7.851    8.687      30
 fit_auto_ri_z_lp                     1  9.0    4.145    4.897    7.080    8.493       4
 get_ddapc                          114 10.0    0.006    0.007    2.336    8.171       0
 compute_auto_ri_d_lp_transform       1 10.0    4.857    7.537    4.857    7.537      19
 create_and_init_bs_env_for_gw        1  6.0    0.040    0.047    7.239    7.240       2
 pw_integral_ab_c1d_c1d_gs          228  9.5    4.754    4.867    5.073    7.203      22
 mp_waitall_1                      8667 12.7    3.444    6.302    3.444    6.302       2
 generate_auto_ri_basis               1  7.0    0.002    0.002    6.047    6.047      23
 pw_copy_to_array                   910 11.9    5.363    6.028    5.363    6.028      13
 qs_scf_new_mos                     113  5.0    0.002    0.002    5.946    5.998      20
 qs_scf_loop_do_ot                  113  6.0    0.002    0.003    5.944    5.996       0
 ot_scf_mini                        113  7.0    0.478    0.536    5.617    5.669       1
 transfer_pw2rs_90                  114 12.0    1.120    1.397    4.210    5.628      14
 pw_copy_from_array                1022 12.8    4.897    5.407    4.897    5.407      18
 compute_M_pq_inv_and_V_pq            1  8.0    0.000    0.000    5.067    5.069      20
 rirs_cluster_gradient_products     404 11.0    3.298    4.983    3.298    4.983       0
 cp_fm_cholesky_invert               32  8.9    4.896    4.927    4.896    4.927      24
 init_scf_loop                        2  4.0    0.011    0.012    4.802    4.802      16
 grid_integrate_task_list           114 10.0    4.499    4.781    4.499    4.781       4
 compute_contracted_RI_matrix         2  9.0    0.003    0.006    3.725    3.727      14
 compute_optimized_RI_matrix_bl     334 10.0    0.217    0.229    3.488    3.699       6
 rirs_cluster_gradient_coordina     404 11.0    2.425    3.683    2.425    3.683       6
 compute_M_PQ_AB                   3960 11.0    0.003    0.004    3.296    3.499      26
 compute_M_PQ                      3960 12.0    0.005    0.005    3.293    3.496      29
 int_operators_r12_ab_os           3960 13.0    0.003    0.003    3.288    3.490       1
 int_operator_ab_os_low            3960 14.0    1.448    1.536    3.285    3.487       6
 ot_mini                            113  8.0    0.010    0.011    3.271    3.326      26
 build_3c_integral_block_auto_r   20648 12.0    2.531    3.256    2.531    3.256       3
 abc_contract_xsmm                33589 12.0    2.290    3.068    2.290    3.068       4
 rs_grid_zero                       229 13.0    2.685    2.878    2.685    2.878      18
 pw_zero                            585 10.2    2.484    2.877    2.484    2.877      30
 transfer_rs2pw_90                  114  9.0    0.998    1.231    2.609    2.853      13
 build_3c_integral_block_auto_r   20648 12.0    0.021    0.029    2.104    2.791       4
 qs_ot_get_derivative               113  9.0    0.658    0.661    2.581    2.634       1
 cp_fm_cholesky_decompose            37  8.9    2.578    2.591    2.578    2.591      27
 build_phi_on_sphere                  8 10.5    0.070    0.110    1.992    2.578       3
 evaluate_ao_on_points              812 11.5    1.932    2.531    1.932    2.531       0
 build_gram_jacobi_blas               4 10.0    0.564    0.776    1.946    2.441       6
 fft_wrap_pw1pw2_30                 228 10.5    0.041    0.050    1.198    2.108       9
 rirs_cluster_D_ll                  404 11.0    1.386    2.087    1.386    2.087       0
 transfer_pw2rs_30                  114 12.0    0.723    0.793    1.736    1.989      30
 cp_fm_uplo_to_full                  65  9.0    1.857    1.956    1.857    1.956      30
 mp_sync                            115 12.5    1.421    1.954    1.421    1.954      14
 rirs_cluster_residual              404 11.0    1.222    1.894    1.222    1.894       7
 build_G_ao                         121  8.5    0.008    0.009    1.695    1.872       6
 G_occ_vir                          121  9.5    0.033    0.040    1.569    1.777       3
 qs_ot_get_derivative_diag           99 10.0    1.717    1.764    1.720    1.765      15
 rirs_cluster_d_lP                  404 11.0    1.049    1.691    1.049    1.691       0
 build_gram_jacobi_blas_dsyrk         4 11.0    1.382    1.679    1.382    1.679       5
 transfer_rs2pw_30                  114  9.0    0.525    0.586    1.515    1.673      27
 pw_scale                           453  9.8    1.096    1.571    1.096    1.571      30
 cp_fm_syevd                        110 10.8    0.002    0.002    1.542    1.552      12
 cp_fm_redistribute_end             110 11.8    0.782    1.506    0.787    1.509      29
 mp_sendrecv_dv                    6840 10.0    1.281    1.497    1.281    1.497       0
 cp_fm_syevd_base                   110 11.8    0.716    1.483    0.716    1.483      13
 copy_dbcsr_to_fm                   221 10.0    0.720    1.429    0.748    1.443      30
 qs_ot_get_p                        115  8.0    0.278    0.332    1.339    1.392      18
 pw_multiply_with                   114  9.0    1.339    1.385    1.339    1.385      10
 compute_M_pq_inv                     1  9.0    0.004    0.004    1.340    1.342      27
 cp_fm_geeig                          2  9.5    0.002    0.003    1.326    1.328       5
 rirs_cluster_AO_products           404 11.0    0.828    1.314    0.828    1.314       7
 modify_hartree_pot                 114 10.0    1.234    1.288    1.234    1.288      14
 compute_fm_chi_Gamma_freq           30  8.0    0.203    0.292    0.613    1.144      26
 operator2                      1471040 15.0    1.044    1.109    1.044    1.109       6
 init_scf_run                         1  3.0    0.000    0.000    0.983    0.983       5
 scf_env_initial_rho_setup            1  4.0    0.001    0.001    0.983    0.983      29
 compute_Sigma_x                      1  7.0    0.001    0.001    0.978    0.981       2
 rirs_grid_build_clusters             1  9.0    0.446    0.699    0.626    0.969       6
 ab_contract                    1471720 15.0    0.793    0.842    0.793    0.842       6
 qs_ot_p2m_diag                     100  9.0    0.284    0.309    0.804    0.833       2
 compute_V_xc                         1  7.0    0.001    0.001    0.806    0.807      28
 compute_QP_energies                  1  8.0    0.008    0.008    0.767    0.770       5
 extract_grid_panel                 122  9.5    0.531    0.741    0.531    0.741       3
 mp_alltoall_d11v                   228  9.5    0.390    0.731    0.390    0.731      12
 Fourier_transform_w_to_t            30  8.0    0.001    0.001    0.606    0.712       2
 cp_fm_scale_and_add                901  9.0    0.605    0.711    0.605    0.711      18
 transfer_pw2rs_10                  114 12.0    0.257    0.275    0.543    0.674       6
 rs_gather_matrices                 114 10.0    0.014    0.016    0.323    0.671      28
 extract_masked_blocks              244  9.6    0.464    0.669    0.464    0.669       6
 to_Gamma_and_mo_real                62  9.0    0.001    0.001    0.640    0.640       4
 ot_diis_step                       113  9.0    0.036    0.092    0.628    0.629       1
 xc_pw_smooth                       113 10.0    0.001    0.001    0.470    0.614      17
 qs_ot_get_orbitals                 113  8.0    0.535    0.572    0.535    0.572       4
 compute_AA_optimized_RI_basis        1  8.0    0.006    0.006    0.570    0.570      29
 qs_init_subsys                       1  2.0    0.019    0.019    0.552    0.553      15
 qs_energies_init_hamiltonians        1  3.0    0.006    0.007    0.543    0.543       0
 cp_dbcsr_syevd                     100 10.0    0.012    0.014    0.520    0.522      24
 hadamard_product                    91  9.7    0.396    0.521    0.396    0.521       3
 qs_env_setup                         1  3.0    0.002    0.002    0.518    0.519      14
 qs_env_rebuild_pw_env                2  3.5    0.001    0.001    0.514    0.514      28
 pw_env_rebuild                       1  5.0    0.004    0.004    0.513    0.514       3
 transfer_rs2pw_10                  114  9.0    0.141    0.176    0.432    0.513       6
 pw_grid_setup                        5  5.2    0.005    0.005    0.510    0.510      21
 pw_grid_setup_internal               5  6.2    0.009    0.009    0.505    0.505       8
 get_ddapc-charges                  114 11.0    0.017    0.019    0.495    0.498      10
 apply_preconditioner_dbcsr         115 10.0    0.001    0.001    0.469    0.497      23
 apply_single                       115 11.0    0.468    0.496    0.468    0.496       0
 -------------------------------------------------------------------------------

 The number of warnings for this run is : 0
 
 -------------------------------------------------------------------------------
  **** **** ******  **  PROGRAM ENDED AT                 2026-09-16 11:12:54.444
 ***** ** ***  *** **   PROGRAM RAN ON                                  n2cn0825
 **    ****   ******    PROGRAM RAN BY                                  eprop2d1
 ***** **    ** ** **   PROGRAM PROCESS ID                                272400
  **** **  *******  **  PROGRAM STOPPED IN /scratch/hpc-prf-metdyn/eprop2d1_Jan/
                                           53_benchmark_RI_opt/108_Si45H56_RIAO_
                                           cluster_radius_sweep/calculations/c3_
                                           a4_r08
