 DBCSR| CPU Multiplication driver                                           XSMM (U)
 DBCSR| Multrec recursion limit                                              512 (U)
 DBCSR| Multiplication stack size                                           1000 (D)
 DBCSR| Maximum elements for images                                    UNLIMITED (U)
 DBCSR| Multiplicative factor virtual images                                   1 (U)
 DBCSR| Use multiplication densification                                       T (D)
 DBCSR| Multiplication size stacks                                             3 (U)
 DBCSR| Use memory pool for CPU allocation                                     F (U)
 DBCSR| Number of 3D layers                                               SINGLE (U)
 DBCSR| Use MPI memory allocation                                              F (U)
 DBCSR| Use RMA algorithm                                                      F (U)
 DBCSR| Use Communication thread                                               T (U)
 DBCSR| Communication thread load                                             60 (D)
 DBCSR| MPI: My process id                                                     0
 DBCSR| MPI: Number of processes                                              16
 DBCSR| OMP: Current number of threads                                         8
 DBCSR| OMP: Max number of threads                                             8
 DBCSR| Split modifier for TAS multiplication algorithm                  1.0E+00 (U)


  **** **** ******  **  PROGRAM STARTED AT               2026-09-17 10:29:45.893
 ***** ** ***  *** **   PROGRAM STARTED ON                              n2cn1083
 **    ****   ******    PROGRAM STARTED BY                              eprop2d1
 ***** **    ** ** **   PROGRAM PROCESS ID                                266060
  **** **  *******  **  PROGRAM STARTED IN /scratch/hpc-prf-metdyn/eprop2d1_Jan/
                                           53_benchmark_RI_opt/109_GW100_GTH_Leb
                                           edev_riao3_rc3/calculations/29_C8H8_r
                                           09

 CP2K| version string:                 CP2K version 2026.2 (Development Version)
 CP2K| source code revision number:                                      unknown
 CP2K| cp2kflags: omp libint fftw3 libxc parallel scalapack openblas            
 CP2K| is freely available from                            https://www.cp2k.org/
 CP2K| Program compiled at                                   2026-09-15 17:57:52
 CP2K| Program compiled on                                              n2login6
 CP2K| Program compiled for                                               x86_64
 CP2K| Data directory path    /scratch/hpc-prf-metdyn/eprop2d1_Jan/53_benchmark_
 CP2K| Input file name        /scratch/hpc-prf-metdyn/eprop2d1_Jan/53_benchmark_
 
 eprop2d1@n2cn1083 has created rank and process                      0    266060
 eprop2d1@n2cn1083 has created rank and process                      1    266061
 eprop2d1@n2cn1083 has created rank and process                      2    266062
 eprop2d1@n2cn1083 has created rank and process                      3    266063
 eprop2d1@n2cn1083 has created rank and process                      4    266064
 eprop2d1@n2cn1083 has created rank and process                      5    266065
 eprop2d1@n2cn1083 has created rank and process                      6    266066
 eprop2d1@n2cn1083 has created rank and process                      7    266067
 eprop2d1@n2cn1083 has created rank and process                      8    266068
 eprop2d1@n2cn1083 has created rank and process                      9    266069
 eprop2d1@n2cn1083 has created rank and process                     10    266070
 eprop2d1@n2cn1083 has created rank and process                     11    266071
 eprop2d1@n2cn1083 has created rank and process                     12    266072
 eprop2d1@n2cn1083 has created rank and process                     13    266073
 eprop2d1@n2cn1083 has created rank and process                     14    266074
 eprop2d1@n2cn1083 has created rank and process                     15    266076
 
 eprop2d1@n2cn1083 is running                                       16 processes

 GLOBAL| Force Environment number                                              1
 GLOBAL| Basis set file name            /scratch/hpc-prf-metdyn/eprop2d1_Jan/53_
 GLOBAL| Potential file name            /scratch/hpc-prf-metdyn/eprop2d1_Jan/53_
 GLOBAL| MM Potential file name                                     MM_POTENTIAL
 GLOBAL| Coordinate file name                                      __STD_INPUT__
 GLOBAL| Method name                                                        CP2K
 GLOBAL| Project name                               gw100_106_29_C8H8_a3_leb_r09
 GLOBAL| Run type                                                         ENERGY
 GLOBAL| FFT library                                                       FFTW3
 GLOBAL| Diagonalization library                                       ScaLAPACK
 GLOBAL| Cholesky decomposition library                                ScaLAPACK
 GLOBAL| DGEMM library                                                      BLAS
 GLOBAL| Direct generalized diagonalization requested                          F
 GLOBAL| Orthonormality check for eigenvectors                          DISABLED
 GLOBAL| Matrix multiplication library                                 ScaLAPACK
 GLOBAL| All-to-all communication in single precision                          F
 GLOBAL| Grid backend                                                       AUTO
 GLOBAL| Global print level                                                  LOW
 GLOBAL| MPI I/O enabled                                                       T
 GLOBAL| Total number of message passing processes                            16
 GLOBAL| Number of distributed systems (nodes)                                 1
 GLOBAL| Number of threads for this process                                    8
 GLOBAL| This output is from process                                           0
 GLOBAL| OpenMP stack size per thread (OMP_STACKSIZE)                       128M
 GLOBAL| CPU model name                          AMD EPYC 7763 64-Core Processor

 MEMORY| system memory details [Kb]
 MEMORY|                        rank 0           min           max       average
 MEMORY| MemTotal            263897516     263897516     263897516     263897516
 MEMORY| MemFree             249620960     249620456     249620960     249620897
 MEMORY| Buffers                189416        189416        189416        189416
 MEMORY| Cached                6984664       6984664       6984664       6984664
 MEMORY| Slab                  1385860       1385860       1385860       1385860
 MEMORY| SReclaimable           337208        337208        337208        337208
 MEMORY| MemLikelyFree       257132248     257131744     257132248     257132185


 GENERATE|  Preliminary Number of Bonds generated:                             0
 GENERATE|  Achieved consistency in connectivity generation.

 *******************************************************************************
 *******************************************************************************
 **                                                                           **
 **     #####                         ##              ##                      **
 **    ##   ##            ##          ##              ##                      **
 **   ##     ##                       ##            ######                    **
 **   ##     ##  ##   ##  ##   #####  ##  ##   ####   ##    #####    #####    **
 **   ##     ##  ##   ##  ##  ##      ## ##   ##      ##   ##   ##  ##   ##   **
 **   ##  ## ##  ##   ##  ##  ##      ####     ###    ##   ######   ######    **
 **    ##  ###   ##   ##  ##  ##      ## ##      ##   ##   ##       ##        **
 **     #######   #####   ##   #####  ##  ##  ####    ##    #####   ##        **
 **           ##                                                    ##        **
 **                                                                           **
 **                                                ... make the atoms dance   **
 **                                                                           **
 **            Copyright (C) by CP2K developers group (2000-2026)             **
 **                      J. Chem. Phys. 152, 194103 (2020)                    **
 **                                                                           **
 *******************************************************************************


 TOTAL NUMBERS AND MAXIMUM NUMBERS

  Total number of            - Atomic kinds:                                   2
                             - Atoms:                                         16
                             - Shell sets:                                    16
                             - Shells:                                        72
                             - Primitive Cartesian functions:                104
                             - Cartesian basis functions:                    160
                             - Spherical basis functions:                    152

  Maximum angular momentum of- Orbital basis functions:                        2
                             - Local part of the GTH pseudopotential:          2
                             - Non-local part of the GTH pseudopotential:      0


 SCF PARAMETERS         Density guess:                                   RESTART
                        --------------------------------------------------------
                        max_scf:                                             500
                        max_scf_history:                                       0
                        max_diis:                                              4
                        --------------------------------------------------------
                        eps_scf:                                        1.00E-08
                        eps_scf_history:                                0.00E+00
                        eps_diis:                                       0.00E+00
                        eps_eigval:                                     1.00E-05
                        --------------------------------------------------------
                        level_shift [a.u.]:                             0.000000
                        --------------------------------------------------------
                        Outer loop SCF in use 
                        No variables optimised in outer loop
                        eps_scf                                         1.00E-08
                        max_scf                                               20
                        No outer loop optimization
                        step_size                                       5.00E-01

 Extrapolation method: initial_guess

 Number of electrons:                                                         40
 Number of occupied orbitals:                                                 20
 Number of molecular orbitals:                                                20

 Number of orbital functions:                                                152
 Number of independent orbital functions:                                    152


 SCF WAVEFUNCTION OPTIMIZATION

  ----------------------------------- OT ---------------------------------------
  Minimizer      : DIIS                : direct inversion
                                         in the iterative subspace
                                         using   7 DIIS vectors
                                         safer DIIS on
  Preconditioner : FULL_KINETIC        : inversion of T + eS
  Lattice FFT   : OFF
  Precond_solver : DEFAULT
  stepsize       :    0.15000000                  energy_gap     :    0.20000000
  eps_taylor     :   0.10000E-15                  max_taylor     :             4
  ----------------------------------- OT ---------------------------------------

  Step     Update method      Time    Convergence         Total energy    Change
  ------------------------------------------------------------------------------
  Decoupling Energy:                                               0.0000000002
     1 OT DIIS     0.15E+00    1.5     0.00000011       -50.1346276609 -5.01E+01
  Decoupling Energy:                                               0.0000000002
     2 OT DIIS     0.15E+00    1.7     0.00000008       -50.1346276609 -5.06E-12
  Decoupling Energy:                                               0.0000000002
     3 OT DIIS     0.15E+00    1.7     0.00000005       -50.1346276609 -5.58E-12
  Decoupling Energy:                                               0.0000000002
     4 OT DIIS     0.15E+00    1.7     0.00000004       -50.1346276609 -3.47E-12
  Decoupling Energy:                                               0.0000000002
     5 OT DIIS     0.15E+00    1.7     0.00000003       -50.1346276609 -1.73E-12
  Decoupling Energy:                                               0.0000000002
     6 OT DIIS     0.15E+00    1.7     0.00000002       -50.1346276609 -9.52E-13
  Decoupling Energy:                                               0.0000000002
     7 OT DIIS     0.15E+00    1.7     0.00000001       -50.1346276609 -4.97E-13
  Decoupling Energy:                                               0.0000000002
     8 OT DIIS     0.15E+00    1.7     9.0475E-09       -50.1346276609 -3.41E-13

  *** SCF run converged in     8 steps ***


  Electronic density on regular grids:        -40.0000000000        0.0000000000
  Core density on regular grids:               40.0000000000       -0.0000000000
  Total charge density on r-space grids:       -0.0000000000
  Total charge density g-space grids:          -0.0000000000

  Overlap energy of the core charge distribution:               0.00000546445659
  Self energy of the core charge distribution:               -117.96385508507682
  Core Hamiltonian energy:                                     37.23068146557559
  Hartree energy:                                              47.26390221831179
  Exchange-correlation energy:                                -16.66536172419798

  Total energy:                                               -50.13462766093083

  outer SCF iter =    1 RMS gradient =   0.90E-08 energy =        -50.1346276609
  outer SCF loop converged in   1 iterations or    8 steps

  
 -------------------------------------------------------------------------------
 -                                                                             -
 -                          BANDSTRUCTURE CALCULATION                          -
 -                                                                             -
 -------------------------------------------------------------------------------
  
 Number of occupied molecular orbitals (MOs) = Number of occupied bands       20
 Number of unoccupied (= virtual) MOs = Number of unoccupied bands           132
 Number of Gaussian basis functions for MOs                                  152
  
 -------------------------------------------------------------------------------
 -                                                                             -
 -                                GW CALCULATION                               -
 -                                                                             -
 -------------------------------------------------------------------------------
  
 Input: Number of time/freq. points                                           30
 Input: ω_max for fitting Σ(iω) (eV)                                        10.0
 Input: Filter threshold for sparse tensor operations                    1.0E-07
 Input: Apply Hedin shift                                                      F
 Input: Available memory per MPI process                                  2.0 GB
 
 Input: RI-RS Tikhonov regularization                                   1.00E-04
 Input: AO grid hard cutoff radius                                        8.00 Å
 Input: MPI ranks per atom in Z_lP solve                                      -1
 Input: Keep sparsity in χ/G/W panels                                          T
 Input: GW flavour                                                          G0W0
 
 Input: RI-RS grid optimization activated                                      T
 Input: Initial RI-RS grid                                              CHOLESKY
 Input: RS points per AO function                                         9.0000
 Input: Initial RS candidates per AO function                            30.0000
 Input: Additional Lebedev degree                                              2
 Input: Cholesky selection matrix                                        D_PRIME
 Input: Cholesky candidate domain                                      FULL_ATOM
 Input: Initial radial quadrature                                       GAPW_LOG
 Input: Cutoff radius for atomic clusters                                  3.0 Å
 Input: Maximum grid optimization iterations                                 300
 Input: L-BFGS history size                                                    7
 Input: L-BFGS relative-function factor                              0.00000E+00
 Input: L-BFGS projected-gradient tolerance                          1.00000E-09
 
 Input: AUTO_RI basis optimization activated:                                  T
 Input: AUTO_RI requested RI/AO ratio:                                       3.0
 Input: AUTO_RI frontier orbital window:                                  5.0 eV
 Input: AUTO_RI neighbor radius:                                           3.0 Å
 
 Cutoff radius for the truncated Coulomb operator in RI metric:            7.0 Å
 Regularization parameter of RI                                          0.0E+00
 Regularization parameter of minimax grids                               1.0E-06
 
 AUTO_RI| Number of automatic RI functions for χ, ε, W:                      456
 AUTO_RI| Total RI basis optimization time:                                1.5 s
  Decoupling Energy:                                               0.0000000002
 
 SCF direct band gap (eV)                                                   3.00
 Max. SCF eigval diff. (eV)                                               231.54
 E-Range for minimax grid                                                  77.17
 Number of Padé parameters for analytic continuation:                         16
 
 RI-RS basis radii (Å):
     Kind  Elem     r_AO (Å)     r_RI (Å)
        1    C         8.0299        5.0785
        2    H         9.5011        6.0090
 
 RI-RS initialization: atomic kind                                             1
 RI-RS initialization: Lebedev degree                                         11
 RI-RS initialization: radial shells                                           8
 RI-RS initialization: candidates per atom                                   400
 RI-RS initialization: retained points per atom                              117
 RI-RS initialization: atomic kind                                             2
 RI-RS initialization: Lebedev degree                                          7
 RI-RS initialization: radial shells                                           7
 RI-RS initialization: candidates per atom                                   182
 RI-RS initialization: retained points per atom                               54
 RI-RS initialization: largest cluster candidate count                      2546
 RI-RS initialization: most pivots in one cluster                           1225
 RI-RS initialization: most stored AO values in one cluster               210463
 RI-RS initialization: wall time [s]                                       0.204
 Started RI-RS grid optimization
 RI-RS grid initial normalized error                          4.115877865342E-04
 RI-RS grid optimization completed, execution time:                       30.6 s
 Normalized 3C error:                                                    4.5E-08
 Maximum absolute 3C error:                                              1.4E-03
 Optimized points outside molecular Voronoi cells:                           583 / 1368
 Total grid points used for RI-RS:                                          1368
 
 RI-RS grid row-blocks of Φ_μ(r_l)                                            48
 RI-RS grid points per block (max)                                            32
 
 Percentage of non-zero matrix elements in Φ_μ(r_l)                     100.00 %
 
 RI-RS memory estimate per MPI process:
   Available memory per process (system)                                15.81 GB
   Required for Z_lP (dense upper bound; actual is sparser)              0.00 GB
   Required for χ, W, Σ panels (peak per panel step)                     0.00 GB
   Required for Z_lP solve peak (D_local+φ, worst-case atom)             0.02 GB
   Worst-case local-grid number of grid points:                             1368
   Worst-case memory D_local:                                            0.01 GB
 
 Started computing Z_lP
 Computed Z_lP (MPI rank 0) for atom          1 /  1,    Execution time    0.2 s
 Computed Z_lP (all MPI ranks) for all atoms,            Execution time    0.2 s

 Number of batches for χ, Σ matrices                                           1
 
 Percentage of non-zero matrix elements in Z_lP                         100.00 %
 Percentage of non-zero matrix elements in G_ll', χ_ll', W_ll'          100.00 %
 Percentage of non-zero matrix elements in χ_PQ for time point 1        100.00 %
 
 Computed χ(iτ,k=0) for time point            1 / 30,    Execution time    0.0 s
 Computed χ(iτ,k=0) for time point            2 / 30,    Execution time    0.0 s
 Computed χ(iτ,k=0) for time point            3 / 30,    Execution time    0.0 s
 Computed χ(iτ,k=0) for time point            4 / 30,    Execution time    0.0 s
 Computed χ(iτ,k=0) for time point            5 / 30,    Execution time    0.0 s
 Computed χ(iτ,k=0) for time point            6 / 30,    Execution time    0.0 s
 Computed χ(iτ,k=0) for time point            7 / 30,    Execution time    0.0 s
 Computed χ(iτ,k=0) for time point            8 / 30,    Execution time    0.0 s
 Computed χ(iτ,k=0) for time point            9 / 30,    Execution time    0.0 s
 Computed χ(iτ,k=0) for time point           10 / 30,    Execution time    0.0 s
 Computed χ(iτ,k=0) for time point           11 / 30,    Execution time    0.0 s
 Computed χ(iτ,k=0) for time point           12 / 30,    Execution time    0.0 s
 Computed χ(iτ,k=0) for time point           13 / 30,    Execution time    0.0 s
 Computed χ(iτ,k=0) for time point           14 / 30,    Execution time    0.0 s
 Computed χ(iτ,k=0) for time point           15 / 30,    Execution time    0.0 s
 Computed χ(iτ,k=0) for time point           16 / 30,    Execution time    0.0 s
 Computed χ(iτ,k=0) for time point           17 / 30,    Execution time    0.0 s
 Computed χ(iτ,k=0) for time point           18 / 30,    Execution time    0.0 s
 Computed χ(iτ,k=0) for time point           19 / 30,    Execution time    0.0 s
 Computed χ(iτ,k=0) for time point           20 / 30,    Execution time    0.0 s
 Computed χ(iτ,k=0) for time point           21 / 30,    Execution time    0.0 s
 Computed χ(iτ,k=0) for time point           22 / 30,    Execution time    0.0 s
 Computed χ(iτ,k=0) for time point           23 / 30,    Execution time    0.0 s
 Computed χ(iτ,k=0) for time point           24 / 30,    Execution time    0.0 s
 Computed χ(iτ,k=0) for time point           25 / 30,    Execution time    0.0 s
 Computed χ(iτ,k=0) for time point           26 / 30,    Execution time    0.0 s
 Computed χ(iτ,k=0) for time point           27 / 30,    Execution time    0.0 s
 Computed χ(iτ,k=0) for time point           28 / 30,    Execution time    0.0 s
 Computed χ(iτ,k=0) for time point           29 / 30,    Execution time    0.0 s
 Computed χ(iτ,k=0) for time point           30 / 30,    Execution time    0.0 s
 
 Computed W(iτ),                                         Execution time    0.3 s
 
 Computed Σ^x(k=0),                                      Execution time    0.0 s
 
 Computed Σ^c(iτ) for time point              1 / 30,    Execution time    0.0 s
 Computed Σ^c(iτ) for time point              2 / 30,    Execution time    0.0 s
 Computed Σ^c(iτ) for time point              3 / 30,    Execution time    0.0 s
 Computed Σ^c(iτ) for time point              4 / 30,    Execution time    0.0 s
 Computed Σ^c(iτ) for time point              5 / 30,    Execution time    0.0 s
 Computed Σ^c(iτ) for time point              6 / 30,    Execution time    0.0 s
 Computed Σ^c(iτ) for time point              7 / 30,    Execution time    0.0 s
 Computed Σ^c(iτ) for time point              8 / 30,    Execution time    0.0 s
 Computed Σ^c(iτ) for time point              9 / 30,    Execution time    0.0 s
 Computed Σ^c(iτ) for time point             10 / 30,    Execution time    0.0 s
 Computed Σ^c(iτ) for time point             11 / 30,    Execution time    0.0 s
 Computed Σ^c(iτ) for time point             12 / 30,    Execution time    0.0 s
 Computed Σ^c(iτ) for time point             13 / 30,    Execution time    0.0 s
 Computed Σ^c(iτ) for time point             14 / 30,    Execution time    0.0 s
 Computed Σ^c(iτ) for time point             15 / 30,    Execution time    0.0 s
 Computed Σ^c(iτ) for time point             16 / 30,    Execution time    0.0 s
 Computed Σ^c(iτ) for time point             17 / 30,    Execution time    0.0 s
 Computed Σ^c(iτ) for time point             18 / 30,    Execution time    0.0 s
 Computed Σ^c(iτ) for time point             19 / 30,    Execution time    0.0 s
 Computed Σ^c(iτ) for time point             20 / 30,    Execution time    0.0 s
 Computed Σ^c(iτ) for time point             21 / 30,    Execution time    0.0 s
 Computed Σ^c(iτ) for time point             22 / 30,    Execution time    0.0 s
 Computed Σ^c(iτ) for time point             23 / 30,    Execution time    0.0 s
 Computed Σ^c(iτ) for time point             24 / 30,    Execution time    0.0 s
 Computed Σ^c(iτ) for time point             25 / 30,    Execution time    0.0 s
 Computed Σ^c(iτ) for time point             26 / 30,    Execution time    0.0 s
 Computed Σ^c(iτ) for time point             27 / 30,    Execution time    0.0 s
 Computed Σ^c(iτ) for time point             28 / 30,    Execution time    0.0 s
 Computed Σ^c(iτ) for time point             29 / 30,    Execution time    0.0 s
 Computed Σ^c(iτ) for time point             30 / 30,    Execution time    0.0 s
 
 SCF valence band maximum (eV):                                           -5.333
 SCF conduction band minimum (eV):                                        -2.332
 SCF indirect band gap (eV):                                               3.001
 SCF direct band gap (eV):                                                 3.001
 
 G0W0 valence band maximum (eV):                                          -7.421
 G0W0 conduction band minimum (eV):                                        0.733
 G0W0 indirect band gap (eV):                                              8.155
 G0W0 direct band gap (eV):                                                8.155
 
 Hartree-Fock with SCF orbitals valence band maximum (eV):                -7.813
 Hartree-Fock with SCF orbitals conduction band minimum (eV)               2.227
 Hartree-Fock with SCF orbitals indirect band gap (eV):                   10.040
 Hartree-Fock with SCF orbitals direct band gap (eV):                     10.040

 ENERGY| Total FORCE_EVAL ( QS ) energy [hartree]            -50.134627660930832

 -------------------------------------------------------------------------------
 -                                                                             -
 -                                DBCSR STATISTICS                             -
 -                                                                             -
 -------------------------------------------------------------------------------
 COUNTER                                    TOTAL       BLAS       SMM       ACC
 flops    20 x    20 x    20               128000       0.0%    100.0%      0.0%     
 flops     6 x     6 x    20               466560       0.0%    100.0%      0.0%     
 flops    13 x     6 x    20               898560       0.0%    100.0%      0.0%     
 flops     6 x    13 x    20               898560       0.0%    100.0%      0.0%     
 flops     6 x    20 x    20               936000       0.0%    100.0%      0.0%     
 flops    19 x    20 x    20              1185600       0.0%    100.0%      0.0%     
 flops     6 x    20 x    38              1641600       0.0%    100.0%      0.0%     
 flops    21 x    21 x    26              1834560       0.0%    100.0%      0.0%     
 flops     6 x    20 x     6              1843200       0.0%    100.0%      0.0%     
 flops    21 x    22 x    26              1921920       0.0%    100.0%      0.0%     
 flops    13 x    20 x    20              2028000       0.0%    100.0%      0.0%     
 flops    19 x    20 x    38              2079360       0.0%    100.0%      0.0%     
 flops    13 x    13 x    20              2190240       0.0%    100.0%      0.0%     
 flops    21 x    21 x    29              2660112       0.0%    100.0%      0.0%     
 flops    21 x    22 x    29              2786784       0.0%    100.0%      0.0%     
 flops    22 x    21 x    26              3075072       0.0%    100.0%      0.0%     
 flops    22 x    22 x    26              3221504       0.0%    100.0%      0.0%     
 flops    22 x    21 x    29              3429888       0.0%    100.0%      0.0%     
 flops    13 x    20 x    38              3556800       0.0%    100.0%      0.0%     
 flops    22 x    22 x    29              3593216       0.0%    100.0%      0.0%     
 flops    20 x    20 x    38              3769600       0.0%    100.0%      0.0%     
 flops    24 x    24 x    22              3852288       0.0%    100.0%      0.0%     
 flops    24 x    24 x    21              3870720       0.0%    100.0%      0.0%     
 flops    13 x    20 x     6              3993600       0.0%    100.0%      0.0%     
 flops     6 x    20 x    13              3993600       0.0%    100.0%      0.0%     
 flops    24 x    31 x    22              4910400       0.0%    100.0%      0.0%     
 flops    31 x    24 x    22              4975872       0.0%    100.0%      0.0%     
 flops    24 x    31 x    21              4999680       0.0%    100.0%      0.0%     
 flops    31 x    24 x    21              4999680       0.0%    100.0%      0.0%     
 flops    31 x    31 x    22              6342600       0.0%    100.0%      0.0%     
 flops    31 x    31 x    21              6457920       0.0%    100.0%      0.0%     
 flops    24 x    26 x    22              8319168       0.0%    100.0%      0.0%     
 flops    26 x    24 x    22              8346624       0.0%    100.0%      0.0%     
 flops    24 x    26 x    21              8386560       0.0%    100.0%      0.0%     
 flops    26 x    24 x    21              8386560       0.0%    100.0%      0.0%     
 flops    13 x    20 x    13              8652800       0.0%    100.0%      0.0%     
 flops    24 x    29 x    22              9248448       0.0%    100.0%      0.0%     
 flops    29 x    24 x    22              9309696       0.0%    100.0%      0.0%     
 flops    24 x    29 x    21              9354240       0.0%    100.0%      0.0%     
 flops    29 x    24 x    21              9354240       0.0%    100.0%      0.0%     
 flops    21 x    24 x    26              9644544       0.0%    100.0%      0.0%     
 flops    21 x    21 x    28             10075968       0.0%    100.0%      0.0%     
 flops    24 x    32 x    22             10103808       0.0%    100.0%      0.0%     
 flops    22 x    24 x    26             10103808       0.0%    100.0%      0.0%     
 flops    24 x    32 x    21             10321920       0.0%    100.0%      0.0%     
 flops    21 x    22 x    28             10555776       0.0%    100.0%      0.0%     
 flops    26 x    31 x    22             10639200       0.0%    100.0%      0.0%     
 flops    31 x    26 x    22             10745592       0.0%    100.0%      0.0%     
 flops    21 x    24 x    29             10757376       0.0%    100.0%      0.0%     
 flops    31 x    26 x    21             10832640       0.0%    100.0%      0.0%     
 flops    26 x    31 x    21             10832640       0.0%    100.0%      0.0%     
 flops    22 x    24 x    29             11269632       0.0%    100.0%      0.0%     
 flops    22 x    21 x    28             11590656       0.0%    100.0%      0.0%     
 flops    29 x    31 x    22             11866800       0.0%    100.0%      0.0%     
 flops    31 x    29 x    22             11945912       0.0%    100.0%      0.0%     
 flops    29 x    31 x    21             12082560       0.0%    100.0%      0.0%     
 flops    31 x    29 x    21             12082560       0.0%    100.0%      0.0%     
 flops    22 x    22 x    28             12142592       0.0%    100.0%      0.0%     
 flops    21 x    31 x    26             12457536       0.0%    100.0%      0.0%     
 flops    22 x    31 x    26             13050752       0.0%    100.0%      0.0%     
 flops    31 x    32 x    22             13050752       0.0%    100.0%      0.0%     
 flops    31 x    32 x    21             13332480       0.0%    100.0%      0.0%     
 flops    21 x    31 x    29             13894944       0.0%    100.0%      0.0%     
 flops    22 x    31 x    29             14556608       0.0%    100.0%      0.0%     
 flops    32 x    21 x    26             17052672       0.0%    100.0%      0.0%     
 flops    32 x    22 x    26             17864704       0.0%    100.0%      0.0%     
 flops    26 x    26 x    22             18024864       0.0%    100.0%      0.0%     
 flops    26 x    26 x    21             18170880       0.0%    100.0%      0.0%     
 flops    32 x    21 x    29             19643904       0.0%    100.0%      0.0%     
 flops    26 x    29 x    22             20038304       0.0%    100.0%      0.0%     
 flops    29 x    26 x    22             20104656       0.0%    100.0%      0.0%     
 flops    29 x    26 x    21             20267520       0.0%    100.0%      0.0%     
 flops    26 x    29 x    21             20267520       0.0%    100.0%      0.0%     
 flops    32 x    22 x    29             20579328       0.0%    100.0%      0.0%     
 flops    21 x    26 x    26             20896512       0.0%    100.0%      0.0%     
 flops    26 x    32 x    22             21891584       0.0%    100.0%      0.0%     
 flops    22 x    26 x    26             21891584       0.0%    100.0%      0.0%     
 flops    29 x    29 x    22             22350416       0.0%    100.0%      0.0%     
 flops    26 x    32 x    21             22364160       0.0%    100.0%      0.0%     
 flops    29 x    29 x    21             22606080       0.0%    100.0%      0.0%     
 flops    24 x    24 x    32             23298048       0.0%    100.0%      0.0%     
 flops    21 x    26 x    29             23307648       0.0%    100.0%      0.0%     
 flops    21 x    29 x    26             23307648       0.0%    100.0%      0.0%     
 flops     6 x     6 x    21             23986368       0.0%    100.0%      0.0%     
 flops    21 x    32 x    26             24041472       0.0%    100.0%      0.0%     
 flops     6 x     6 x    22             24399936       0.0%    100.0%      0.0%     
 flops    22 x    26 x    29             24417536       0.0%    100.0%      0.0%     
 flops    22 x    29 x    26             24417536       0.0%    100.0%      0.0%     
 flops    29 x    32 x    22             24417536       0.0%    100.0%      0.0%     
 flops    29 x    32 x    21             24944640       0.0%    100.0%      0.0%     
 flops    21 x    29 x    29             25996992       0.0%    100.0%      0.0%     
 flops    22 x    29 x    29             27234944       0.0%    100.0%      0.0%     
 flops    21 x    24 x    21             28449792       0.0%    100.0%      0.0%     
 flops    22 x    24 x    21             28518336       0.0%    100.0%      0.0%     
 flops    22 x    24 x    22             29736960       0.0%    100.0%      0.0%     
 flops    21 x    24 x    22             29804544       0.0%    100.0%      0.0%     
 flops    24 x    31 x    32             30093312       0.0%    100.0%      0.0%     
 flops    31 x    24 x    32             30093312       0.0%    100.0%      0.0%     
 flops    21 x    32 x    29             30557184       0.0%    100.0%      0.0%     
 flops    24 x    28 x    22             31135104       0.0%    100.0%      0.0%     
 flops    28 x    24 x    22             31460352       0.0%    100.0%      0.0%     
 flops    24 x    28 x    21             31582656       0.0%    100.0%      0.0%     
 flops    28 x    24 x    21             31610880       0.0%    100.0%      0.0%     
 flops    22 x    32 x    26             32215040       0.0%    100.0%      0.0%     
 flops    22 x    32 x    29             35932160       0.0%    100.0%      0.0%     
 flops    21 x    24 x    28             36352512       0.0%    100.0%      0.0%     
 flops    21 x    31 x    21             36747648       0.0%    100.0%      0.0%     
 flops    22 x    31 x    21             36922116       0.0%    100.0%      0.0%     
 flops    21 x    32 x    21             37933056       0.0%    100.0%      0.0%     
 flops    22 x    24 x    28             38083584       0.0%    100.0%      0.0%     
 flops    22 x    32 x    21             38113152       0.0%    100.0%      0.0%     
 flops    21 x    31 x    22             38497536       0.0%    100.0%      0.0%     
 flops    22 x    31 x    22             38860360       0.0%    100.0%      0.0%     
 flops    31 x    31 x    32             38870528       0.0%    100.0%      0.0%     
 flops    21 x    32 x    22             39739392       0.0%    100.0%      0.0%     
 flops    22 x    32 x    22             39804160       0.0%    100.0%      0.0%     
 flops    28 x    31 x    22             40101600       0.0%    100.0%      0.0%     
 flops    31 x    28 x    22             40216176       0.0%    100.0%      0.0%     
 flops    31 x    28 x    21             40794264       0.0%    100.0%      0.0%     
 flops    28 x    31 x    21             40830720       0.0%    100.0%      0.0%     
 flops    21 x    31 x    28             46955328       0.0%    100.0%      0.0%     
 flops    22 x    31 x    28             49191296       0.0%    100.0%      0.0%     
 flops    24 x    26 x    32             50479104       0.0%    100.0%      0.0%     
 flops    26 x    24 x    32             50479104       0.0%    100.0%      0.0%     
 flops    13 x     6 x    21             51970464       0.0%    100.0%      0.0%     
 flops    13 x     6 x    22             52856232       0.0%    100.0%      0.0%     
 flops     6 x    13 x    21             54302976       0.0%    100.0%      0.0%     
 flops     6 x    13 x    22             54421224       0.0%    100.0%      0.0%     
 flops    24 x    29 x    32             56303616       0.0%    100.0%      0.0%     
 flops    29 x    24 x    32             56303616       0.0%    100.0%      0.0%     
 flops    32 x    24 x    26             58785792       0.0%    100.0%      0.0%     
 flops    21 x    26 x    21             61641216       0.0%    100.0%      0.0%     
 flops    22 x    26 x    21             61909848       0.0%    100.0%      0.0%     
 flops    24 x    32 x    32             62029824       0.0%    100.0%      0.0%     
 flops    22 x    26 x    22             64480416       0.0%    100.0%      0.0%     
 flops    21 x    26 x    22             64552488       0.0%    100.0%      0.0%     
 flops    31 x    26 x    32             65202176       0.0%    100.0%      0.0%     
 flops    26 x    31 x    32             65202176       0.0%    100.0%      0.0%     
 flops    32 x    24 x    29             65568768       0.0%    100.0%      0.0%     
 flops    32 x    21 x    28             67436544       0.0%    100.0%      0.0%     
 flops    26 x    28 x    22             67459392       0.0%    100.0%      0.0%     
 flops    28 x    26 x    22             67939872       0.0%    100.0%      0.0%     
 flops    26 x    28 x    21             68429088       0.0%    100.0%      0.0%     
 flops    28 x    26 x    21             68490240       0.0%    100.0%      0.0%     
 flops    21 x    29 x    21             68753664       0.0%    100.0%      0.0%     
 flops    21 x     6 x     6             68898816       0.0%    100.0%      0.0%     
 flops    22 x    29 x    21             68999700       0.0%    100.0%      0.0%     
 flops    32 x    22 x    28             70647808       0.0%    100.0%      0.0%     
 flops    22 x     6 x     6             71850240       0.0%    100.0%      0.0%     
 flops    21 x    29 x    22             72027648       0.0%    100.0%      0.0%     
 flops    22 x    29 x    22             72060824       0.0%    100.0%      0.0%     
 flops    29 x    31 x    32             72725504       0.0%    100.0%      0.0%     
 flops    31 x    29 x    32             72725504       0.0%    100.0%      0.0%     
 flops    29 x    28 x    22             75243168       0.0%    100.0%      0.0%     
 flops    28 x    29 x    22             75528992       0.0%    100.0%      0.0%     
 flops    32 x    31 x    26             75931648       0.0%    100.0%      0.0%     
 flops    29 x    28 x    21             76324752       0.0%    100.0%      0.0%     
 flops    28 x    29 x    21             76392960       0.0%    100.0%      0.0%     
 flops    21 x    28 x    26             78763776       0.0%    100.0%      0.0%     
 flops    21 x    26 x    28             78763776       0.0%    100.0%      0.0%     
 flops    31 x    32 x    32             80121856       0.0%    100.0%      0.0%     
 flops    28 x    32 x    22             82514432       0.0%    100.0%      0.0%     
 flops    22 x    28 x    26             82514432       0.0%    100.0%      0.0%     
 flops    22 x    26 x    28             82514432       0.0%    100.0%      0.0%     
 flops    28 x    32 x    21             84295680       0.0%    100.0%      0.0%     
 flops    32 x    31 x    29             84692992       0.0%    100.0%      0.0%     
 flops    21 x    28 x    29             87851904       0.0%    100.0%      0.0%     
 flops    21 x    29 x    28             87851904       0.0%    100.0%      0.0%     
 flops    21 x     6 x    22             88193952       0.0%    100.0%      0.0%     
 flops    21 x     6 x    21             89942832       0.0%    100.0%      0.0%     
 flops    22 x     6 x    21             91182168       0.0%    100.0%      0.0%     
 flops    22 x     6 x    22             91214640       0.0%    100.0%      0.0%     
 flops    22 x    28 x    29             92035328       0.0%    100.0%      0.0%     
 flops    22 x    29 x    28             92035328       0.0%    100.0%      0.0%     
 flops    26 x    26 x    32            109371392       0.0%    100.0%      0.0%     
 flops    21 x    32 x    28            109885440       0.0%    100.0%      0.0%     
 flops    13 x    13 x    21            117656448       0.0%    100.0%      0.0%     
 flops    13 x    13 x    22            117972140       0.0%    100.0%      0.0%     
 flops    22 x    32 x    28            121425920       0.0%    100.0%      0.0%     
 flops    29 x    26 x    32            121991168       0.0%    100.0%      0.0%     
 flops    26 x    29 x    32            121991168       0.0%    100.0%      0.0%     
 flops    32 x    26 x    26            127369216       0.0%    100.0%      0.0%     
 flops    26 x    32 x    32            134397952       0.0%    100.0%      0.0%     
 flops    29 x    29 x    32            136067072       0.0%    100.0%      0.0%     
 flops    21 x    21 x   113            140329728       0.0%    100.0%      0.0%     
 flops    32 x    29 x    26            142065664       0.0%    100.0%      0.0%     
 flops    32 x    26 x    29            142065664       0.0%    100.0%      0.0%     
 flops    21 x    21 x   115            142813440       0.0%    100.0%      0.0%     
 flops     6 x     6 x    32            145594368       0.0%    100.0%      0.0%     
 flops    22 x    21 x   113            147012096       0.0%    100.0%      0.0%     
 flops    21 x    22 x   113            147012096       0.0%    100.0%      0.0%     
 flops    22 x    21 x   115            149614080       0.0%    100.0%      0.0%     
 flops    21 x    22 x   115            149614080       0.0%    100.0%      0.0%     
 flops    29 x    32 x    32            149905408       0.0%    100.0%      0.0%     
 flops    22 x    22 x   113            154012672       0.0%    100.0%      0.0%     
 flops    21 x     6 x    13            155990016       0.0%    100.0%      0.0%     
 flops    21 x    13 x     6            155990016       0.0%    100.0%      0.0%     
 flops    22 x    22 x   115            156738560       0.0%    100.0%      0.0%     
 flops    32 x    29 x    29            158457856       0.0%    100.0%      0.0%     
 flops    22 x     6 x    13            160198896       0.0%    100.0%      0.0%     
 flops    22 x    13 x     6            160294992       0.0%    100.0%      0.0%     
 flops    21 x    24 x    32            173408256       0.0%    100.0%      0.0%     
 flops    22 x    24 x    32            176698368       0.0%    100.0%      0.0%     
 flops    32 x    32 x    26            182321152       0.0%    100.0%      0.0%     
 flops    32 x    24 x    21            182407680       0.0%    100.0%      0.0%     
 flops    21 x    21 x     6            186897564       0.0%    100.0%      0.0%     
 flops    21 x    21 x    38            188762112       0.0%    100.0%      0.0%     
 flops    32 x    24 x    22            189944832       0.0%    100.0%      0.0%     
 flops    24 x    28 x    32            190009344       0.0%    100.0%      0.0%     
 flops    22 x    21 x     6            190181376       0.0%    100.0%      0.0%     
 flops    28 x    24 x    32            190267392       0.0%    100.0%      0.0%     
 flops    21 x    13 x    22            191675484       0.0%    100.0%      0.0%     
 flops    21 x    22 x     6            191888928       0.0%    100.0%      0.0%     
 flops    22 x    21 x    38            197750784       0.0%    100.0%      0.0%     
 flops    21 x    22 x    38            197750784       0.0%    100.0%      0.0%     
 flops    22 x    22 x     6            197901792       0.0%    100.0%      0.0%     
 flops    22 x    13 x    22            197921152       0.0%    100.0%      0.0%     
 flops    21 x    13 x    21            200196360       0.0%    100.0%      0.0%     
 flops    22 x    13 x    21            202342140       0.0%    100.0%      0.0%     
 flops    32 x    32 x    29            207159296       0.0%    100.0%      0.0%     
 flops    22 x    22 x    38            207167488       0.0%    100.0%      0.0%     
 flops    32 x    24 x    28            221577216       0.0%    100.0%      0.0%     
 flops    21 x    31 x    32            223985664       0.0%    100.0%      0.0%     
 flops    22 x    31 x    32            228453632       0.0%    100.0%      0.0%     
 flops    21 x    32 x    32            231211008       0.0%    100.0%      0.0%     
 flops    21 x    28 x    21            232339968       0.0%    100.0%      0.0%     
 flops    22 x    28 x    21            233727648       0.0%    100.0%      0.0%     
 flops    32 x    31 x    21            235359936       0.0%    100.0%      0.0%     
 flops    22 x    32 x    32            236093440       0.0%    100.0%      0.0%     
 flops    21 x    28 x    22            243041568       0.0%    100.0%      0.0%     
 flops    22 x    28 x    22            243421024       0.0%    100.0%      0.0%     
 flops    31 x    28 x    32            245428736       0.0%    100.0%      0.0%     
 flops    28 x    31 x    32            245762048       0.0%    100.0%      0.0%     
 flops    32 x    31 x    22            246087424       0.0%    100.0%      0.0%     
 flops    28 x    28 x    22            254270016       0.0%    100.0%      0.0%     
 flops    32 x    32 x    21            256972800       0.0%    100.0%      0.0%     
 flops    28 x    28 x    21            257925024       0.0%    100.0%      0.0%     
 flops    32 x    32 x    22            266686464       0.0%    100.0%      0.0%     
 flops    21 x    21 x   114            283143168       0.0%    100.0%      0.0%     
 flops    32 x    31 x    28            286203904       0.0%    100.0%      0.0%     
 flops    22 x    21 x   114            296626176       0.0%    100.0%      0.0%     
 flops    21 x    22 x   114            296626176       0.0%    100.0%      0.0%     
 flops    21 x    28 x    28            296878848       0.0%    100.0%      0.0%     
 flops    22 x    22 x   114            310751232       0.0%    100.0%      0.0%     
 flops    22 x    28 x    28            311015936       0.0%    100.0%      0.0%     
 flops    13 x     6 x    32            315429504       0.0%    100.0%      0.0%     
 flops     6 x    13 x    32            327769728       0.0%    100.0%      0.0%     
 flops    21 x    13 x    13            337978368       0.0%    100.0%      0.0%     
 flops    22 x    13 x    13            352287936       0.0%    100.0%      0.0%     
 flops    21 x    26 x    32            375717888       0.0%    100.0%      0.0%     
 flops    22 x    26 x    32            383542016       0.0%    100.0%      0.0%     
 flops    32 x    26 x    21            395006976       0.0%    100.0%      0.0%     
 flops    32 x    26 x    22            411510528       0.0%    100.0%      0.0%     
 flops    26 x    28 x    32            411686912       0.0%    100.0%      0.0%     
 flops    28 x    26 x    32            412246016       0.0%    100.0%      0.0%     
 flops    21 x    21 x    13            416812032       0.0%    100.0%      0.0%     
 flops    21 x    29 x    32            419147904       0.0%    100.0%      0.0%     
 flops    32 x     6 x     6            419664384       0.0%    100.0%      0.0%     
 flops    22 x    21 x    13            423951528       0.0%    100.0%      0.0%     
 flops    21 x    22 x    13            425921496       0.0%    100.0%      0.0%     
 flops    22 x    29 x    32            427061888       0.0%    100.0%      0.0%     
 flops    22 x    22 x    13            436287280       0.0%    100.0%      0.0%     
 flops    32 x    29 x    21            440467776       0.0%    100.0%      0.0%     
 flops    29 x    28 x    32            459189248       0.0%    100.0%      0.0%     
 flops    32 x    29 x    22            459319168       0.0%    100.0%      0.0%     
 flops    28 x    29 x    32            459812864       0.0%    100.0%      0.0%     
 flops    32 x    28 x    26            480083968       0.0%    100.0%      0.0%     
 flops    32 x    26 x    28            480083968       0.0%    100.0%      0.0%     
 flops    28 x    32 x    32            506576896       0.0%    100.0%      0.0%     
 flops    32 x    28 x    29            535478272       0.0%    100.0%      0.0%     
 flops    32 x    29 x    28            535478272       0.0%    100.0%      0.0%     
 flops    32 x     6 x    22            538686720       0.0%    100.0%      0.0%     
 flops    21 x     6 x    32            543529728       0.0%    100.0%      0.0%     
 flops    32 x     6 x    21            545303808       0.0%    100.0%      0.0%     
 flops    22 x     6 x    32            553817088       0.0%    100.0%      0.0%     
 flops    32 x    32 x    28            706478080       0.0%    100.0%      0.0%     
 flops    13 x    13 x    32            710211008       0.0%    100.0%      0.0%     
 flops    32 x    21 x   113            855343104       0.0%    100.0%      0.0%     
 flops    21 x    32 x   113            855343104       0.0%    100.0%      0.0%     
 flops    32 x    21 x   115            870481920       0.0%    100.0%      0.0%     
 flops    21 x    32 x   115            870481920       0.0%    100.0%      0.0%     
 flops    32 x    22 x   113            896073728       0.0%    100.0%      0.0%     
 flops    22 x    32 x   113            896073728       0.0%    100.0%      0.0%     
 flops    32 x    22 x   115            911933440       0.0%    100.0%      0.0%     
 flops    22 x    32 x   115            911933440       0.0%    100.0%      0.0%     
 flops    32 x     6 x    13            946353408       0.0%    100.0%      0.0%     
 flops    32 x    13 x     6            946822656       0.0%    100.0%      0.0%     
 flops    32 x    24 x    32           1114816512       0.0%    100.0%      0.0%     
 flops    21 x    32 x     6           1134177408       0.0%    100.0%      0.0%     
 flops    32 x    21 x     6           1138362624       0.0%    100.0%      0.0%     
 flops    32 x    21 x    38           1150550016       0.0%    100.0%      0.0%     
 flops    21 x    32 x    38           1150550016       0.0%    100.0%      0.0%     
 flops    22 x    32 x     6           1157519616       0.0%    100.0%      0.0%     
 flops    32 x    13 x    22           1169680512       0.0%    100.0%      0.0%     
 flops    32 x    22 x     6           1170064896       0.0%    100.0%      0.0%     
 flops    21 x    13 x    32           1195801152       0.0%    100.0%      0.0%     
 flops    32 x    22 x    38           1205338112       0.0%    100.0%      0.0%     
 flops    22 x    32 x    38           1205338112       0.0%    100.0%      0.0%     
 flops    32 x    13 x    21           1209446784       0.0%    100.0%      0.0%     
 flops    22 x    13 x    32           1218808448       0.0%    100.0%      0.0%     
 flops    21 x    28 x    32           1416205056       0.0%    100.0%      0.0%     
 flops    32 x    31 x    32           1439844352       0.0%    100.0%      0.0%     
 flops    22 x    28 x    32           1445480960       0.0%    100.0%      0.0%     
 flops    32 x    28 x    21           1489098240       0.0%    100.0%      0.0%     
 flops    32 x    28 x    22           1550191104       0.0%    100.0%      0.0%     
 flops    28 x    28 x    32           1551742976       0.0%    100.0%      0.0%     
 flops    32 x    32 x    32           1569259520       0.0%    100.0%      0.0%     
 flops    32 x    21 x   114           1725825024       0.0%    100.0%      0.0%     
 flops    21 x    32 x   114           1725825024       0.0%    100.0%      0.0%     
 flops    32 x    22 x   114           1808007168       0.0%    100.0%      0.0%     
 flops    22 x    32 x   114           1808007168       0.0%    100.0%      0.0%     
 flops    32 x    28 x    28           1809547264       0.0%    100.0%      0.0%     
 flops    32 x    13 x    13           2057917056       0.0%    100.0%      0.0%     
 flops    32 x    26 x    32           2416021504       0.0%    100.0%      0.0%     
 flops    21 x    32 x    13           2525420352       0.0%    100.0%      0.0%     
 flops    32 x    21 x    13           2530207680       0.0%    100.0%      0.0%     
 flops    22 x    32 x    13           2575006720       0.0%    100.0%      0.0%     
 flops    32 x    22 x    13           2590199040       0.0%    100.0%      0.0%     
 flops    32 x    29 x    32           2694021120       0.0%    100.0%      0.0%     
 flops    32 x     6 x    32           3297964032       0.0%    100.0%      0.0%     
 flops    32 x    32 x   113           5213519872       0.0%    100.0%      0.0%     
 flops    32 x    32 x   115           5305794560       0.0%    100.0%      0.0%     
 flops    32 x    32 x     6           6912344064       0.0%    100.0%      0.0%     
 flops    32 x    32 x    38           7012876288       0.0%    100.0%      0.0%     
 flops    32 x    13 x    32           7252484096       0.0%    100.0%      0.0%     
 flops    32 x    28 x    32           9104277504       0.0%    100.0%      0.0%     
 flops    32 x    32 x   114          10519314432       0.0%    100.0%      0.0%     
 flops    32 x    32 x    13          15345913856       0.0%    100.0%      0.0%     
 flops inhomo. stacks                 16025813024     100.0%      0.0%      0.0%
 flops total                       181.223712E+09       8.8%     91.2%      0.0%
 flops max/rank                     14.472827E+09      11.3%     88.7%      0.0%
 matmuls inhomo. stacks                    249184     100.0%      0.0%      0.0%
 matmuls total                            7003221       3.6%     96.4%      0.0%
 number of processed stacks                760117       2.2%     97.8%      0.0%
 average stack size                                    14.8       9.1       0.0
 marketing flops                   253.905469E+09
 -------------------------------------------------------------------------------
 # multiplications                            603
 max memory usage/rank              20.625281E+09
 # max total images/rank                        1
 # max 3D layers                                1
 # MPI messages exchanged                   57888
 MPI messages size (bytes):
  total size                         8.180484E+09
  min size                           0.000000E+00
  max size                           1.179648E+06
  average size                     141.315719E+03
 MPI breakdown and total messages size (bytes):
             size <=      128               14187                        0
       128 < size <=     8192                1941                 11326080
      8192 < size <=    32768                5892                 68329008
     32768 < size <=   131072               24588               2547576048
    131072 < size <=  4194304               11280               5553252600
   4194304 < size <= 16777216                   0                        0
  16777216 < size                               0                        0
 -------------------------------------------------------------------------------
 -                                                                             -
 -                      DBCSR MESSAGE PASSING PERFORMANCE                      -
 -                                                                             -
 -------------------------------------------------------------------------------
 ROUTINE             CALLS      AVE VOLUME [Bytes]
 MP_Bcast              329                     12.
 MP_Allreduce         3240                     17.
 MP_Alltoall          3679                  10126.
 MP_ISend            11896                  53098.
 MP_IRecv            11896                  49968.
 -------------------------------------------------------------------------------

 -------------------------------------------------------------------------------
 -                                                                             -
 -                                GRID STATISTICS                              -
 -                                                                             -
 -------------------------------------------------------------------------------
 LP    KERNEL             BACKEND                              COUNT     PERCENT
 3     collocate ortho    CPU                                   1530      21.20%
 3     integrate ortho    CPU                                   1530      21.20%
 2     collocate ortho    CPU                                   1152      15.96%
 2     integrate ortho    CPU                                   1152      15.96%
 4     collocate ortho    CPU                                    918      12.72%
 4     integrate ortho    CPU                                    918      12.72%
 0     collocate general  CPU                                     16       0.22%
 -------------------------------------------------------------------------------

 -------------------------------------------------------------------------------
 -                                                                             -
 -                          OFFLOAD MEMPOOL STATISTICS                         -
 -                                                                             -
 -------------------------------------------------------------------------------
 Memory consumption                Number of allocations  Used [MiB]  Size [MiB]
 Host                                                  6          91    21471416
 -------------------------------------------------------------------------------

 MEMORY| Estimated peak process memory [MiB]                                2157

 -------------------------------------------------------------------------------
 -                                                                             -
 -                         MESSAGE PASSING PERFORMANCE                         -
 -                                                                             -
 -------------------------------------------------------------------------------

 ROUTINE             CALLS      AVE VOLUME [Bytes]
 MP_Group                5
 MP_Bcast              288                 185719.
 MP_Allreduce         1378                  11412.
 MP_Sync                10
 MP_Alltoall           179              101718375.
 MP_SendRecv           270                 526336.
 MP_ISendRecv          270                 526336.
 MP_Wait              1121
 MP_comm_split           7
 MP_ISend              740                2030126.
 MP_IRecv              740                2030827.
 -------------------------------------------------------------------------------


 -------------------------------------------------------------------------------
 -                                                                             -
 -                           R E F E R E N C E S                               -
 -                                                                             -
 -------------------------------------------------------------------------------
 
 CP2K version 2026.2 (Development Version), the CP2K developers group (2026).
 CP2K is freely available from https://www.cp2k.org/ .
 
 M. Iannuzzi, J. Wilhelm, F. Stein, A. Bussy, H. Elgabarty, D. Golze, A. Hehn, 
 M. Graml, S. Marek, B. Sertcan Gökmen, C. Schran, H. Forbert, R. Z. 
 Khaliullin, A. Kozhevnikov, M. Taillefumier, R. Meli, V. V. Rybkin, M. Brehm, 
 R. Schade, O. Schütt, J. V. Pototschnig, H. Mirhosseini, A. Knüpfer, D. Marx, 
 M. Krack, J. Hutter, T. D. Kühne.
 J. Phys. Chem. B 130, 1237-1310 (2026).
 The CP2K Program Package Made Simple.
 https://doi.org/10.1021/acs.jpcb.5c05851

 M. Graml, K. Zollner, D. Hernangómez-Pérez, P. E. Faria Junior, J. Wilhelm.
 J. Chem. Theory Comput. 20, 2202-2208 (2024).
 Low-scaling GW algorithm applied to twisted transition-metal dichalcogenide 
 heterobilayers.
 https://doi.org/10.1021/acs.jctc.3c01230

 T. D. Kühne, M. Iannuzzi, M. Del Ben, V. V. Rybkin, P. Seewald, F. Stein, T. 
 Laino, R. Z. Khaliullin, O. Schütt, F. Schiffmann, D. Golze, J. Wilhelm, S. 
 Chulkov, M. H. Bani-Hashemian, V. Weber, U. Borstnik, M. Taillefumier, A. S. 
 Jakobovits, A. Lazzaro, H. Pabst, T. Müller, R. Schade, M. Guidon, S. 
 Andermatt, N. Holmberg, G. K. Schenter, A. Hehn, A. Bussy, F. Belleflamme, G. 
 Tabacchi, A. Glöß, M. Lass, I. Bethune, C. J. Mundy, C. Plessl, M. Watkins, 
 J. VandeVondele, M. Krack, J. Hutter.
 J. Chem. Phys. 152, 194103 (2020).
 CP2K: An electronic structure and molecular dynamics software package - 
 Quickstep: Efficient and accurate electronic structure calculations.
 https://doi.org/10.1063/5.0007045

 O. Schuett, P. Messmer, J. Hutter, J. VandeVondele.
 Electronic Structure Calculations on Graphics Processing Units, 173-190 (2016).
 GPU-Accelerated Sparse Matrix-Matrix Multiplication for Linear Scaling Density 
 Functional Theory.
 https://doi.org/10.1002/9781118670712.ch8

 U. Borstnik, J. VandeVondele, V. Weber, J. Hutter.
 Parallel Comput. 40, 47-58 (2014).
 Sparse matrix multiplication: The distributed block-compressed sparse row 
 library.
 https://doi.org/10.1016/j.parco.2014.03.012

 J. VandeVondele, J. Hutter.
 J. Chem. Phys. 127, 114105 (2007).
 Gaussian basis sets for accurate calculations on molecular systems in gas and 
 condensed phases.
 https://doi.org/10.1063/1.2770708

 J. VandeVondele, M. Krack, F. Mohamed, M. Parrinello, T. Chassaing, J. Hutter.
 Comput. Phys. Commun. 167, 103-128 (2005).
 QUICKSTEP: Fast and accurate density functional calculations using a mixed 
 Gaussian and plane waves approach.
 https://doi.org/10.1016/j.cpc.2004.12.014

 M. Krack.
 Theor. Chem. Acc. 114, 145-152 (2005).
 Pseudopotentials for H to Kr optimized for gradient-corrected 
 exchange-correlation functionals.
 https://doi.org/10.1007/s00214-005-0655-y

 M. Frigo, S. G. Johnson.
 Proc. IEEE 93, 216-231 (2005).
 The design and implementation of FFTW3.
 https://doi.org/10.1109/JPROC.2004.840301

 J. VandeVondele, J. Hutter.
 J. Chem. Phys. 118, 4365-4369 (2003).
 An efficient orbital transformation method for electronic structure 
 calculations.
 https://doi.org/10.1063/1.1543154

 C. Hartwigsen, S. Goedecker, J. Hutter.
 Phys. Rev. B 58, 3641-3662 (1998).
 Relativistic separable dual-space Gaussian pseudopotentials from H to Rn.
 https://doi.org/10.1103/PhysRevB.58.3641

 G. Lippert, J. Hutter, M. Parrinello.
 Mol. Phys. 92, 477-487 (1997).
 A hybrid Gaussian and plane wave density functional scheme.
 https://doi.org/10.1080/002689797170220

 S. Goedecker, M. Teter, J. Hutter.
 Phys. Rev. B 54, 1703-1710 (1996).
 Separable dual-space Gaussian pseudopotentials.
 https://doi.org/10.1103/PhysRevB.54.1703

 J. P. Perdew, K. Burke, M. Ernzerhof.
 Phys. Rev. Lett. 77, 3865-3868 (1996).
 Generalized gradient approximation made simple.
 https://doi.org/10.1103/PhysRevLett.77.3865

 P. E. Blöchl.
 J. Chem. Phys. 103, 7422-7428 (1995).
 Electrostatic decoupling of periodic images of plane‐wave‐expanded 
 densities and derived atomic point charges.
 https://doi.org/10.1063/1.470314

 R. H. Byrd, P. H. Lu, J. Nocedal, C. Y. Zhu.
 SIAM J. Sci. Comput. 16, 1190-1208 (1995).
 A Limited Memory Algorithm for Bound Constrained Optimization.
 https://doi.org/10.1137/0916069


 -------------------------------------------------------------------------------
 -                                                                             -
 -                                T I M I N G                                  -
 -                                                                             -
 -------------------------------------------------------------------------------
 SUBROUTINE                       CALLS  ASD         SELF TIME        TOTAL TIME MAXRANK
                                MAXIMUM       AVERAGE  MAXIMUM  AVERAGE  MAXIMUM
 CP2K                                 1  1.0    0.415    0.716   50.894   51.193       0
 qs_energies                          1  2.0    0.033    0.033   49.621   49.621       4
 qs_energies_properties               1  3.0    0.001    0.001   34.878   34.878       1
 post_scf_bandstructure               1  4.0    0.001    0.001   34.876   34.877      13
 gw                                   1  5.0    0.001    0.001   34.719   34.739       0
 gw_calc_non_periodic_ri_rs           1  6.0    0.001    0.001   32.503   32.524       8
 ri_rs_grid_assembler                 1  7.0    0.018    0.046   30.847   30.876       0
 optimize_ri_rs_grid                  1  8.0    0.012    0.012   30.624   30.625       0
 rirs_grid_LBFGS                      1  9.0    0.422    0.569   29.846   30.242       5
 evaluate_rirs_grid_cluster         155 10.0    1.783    2.640   18.402   28.815       2
 mp_sum_d                           758  5.0   11.069   21.894   11.069   21.894      12
 scf_env_do_scf                       1  3.0    0.002    0.002   13.746   13.746      10
 scf_env_do_scf_inner_loop            8  4.0    0.009    0.009   12.286   12.295       0
 qs_ks_build_kohn_sham_matrix         9  7.1    0.032    0.037   10.468   10.468       1
 qs_ks_update_qs_env                  9  5.0    0.000    0.000   10.083   10.084       7
 rebuild_ks_matrix                    8  6.0    0.001    0.001   10.082   10.082      15
 fft_wrap_pw1pw2                    147 10.3    0.004    0.005    8.345    8.780       5
 rirs_cluster_gradient_products     155 11.0    5.287    8.564    5.287    8.564       7
 fft_wrap_pw1pw2_300                 93 11.7    0.442    0.453    8.091    8.528       9
 qs_vxc_create                        9  8.1    0.002    0.002    6.832    6.847      10
 xc_vxc_pw_create                     8  9.0    0.151    0.174    6.829    6.844      14
 fft3d_ps                           147 12.3    3.507    3.610    5.963    6.399       6
 rirs_cluster_gradient_coordina     155 11.0    4.206    6.356    4.206    6.356       4
 xc_pw_derive                        48 11.0    0.001    0.001    4.986    5.443      14
 qs_rho_update_rho_low                9  5.0    0.001    0.001    3.878    3.880       0
 calculate_rho_elec                   9  6.0    0.099    0.102    3.878    3.879       8
 xc_pw_divergence                     8 10.0    0.000    0.000    3.374    3.812       5
 rirs_cluster_residual              155 11.0    2.230    3.625    2.230    3.625       5
 xc_rho_set_and_dset_create           8 10.0    0.127    0.154    3.220    3.482      10
 rirs_cluster_D_ll                  155 11.0    1.823    2.965    1.823    2.965       1
 rirs_cluster_d_lP                  155 11.0    1.643    2.617    1.643    2.617       2
 create_and_init_bs_env_for_gw        1  6.0    0.021    0.024    2.216    2.218       3
 density_rs2pw                        9  7.0    0.001    0.001    2.172    2.198       0
 rirs_cluster_AO_products           155 11.0    1.431    2.181    1.431    2.181       2
 mp_alltoall_z22v                   147 14.3    1.431    1.880    1.431    1.880      15
 yz_to_x                             70 12.7    0.444    0.464    1.163    1.606       4
 grid_collocate_task_list             9  7.0    1.584    1.596    1.584    1.596      15
 sum_up_and_integrate                 9  8.1    0.006    0.007    1.570    1.574      15
 generate_auto_ri_basis               1  7.0    0.002    0.002    1.528    1.528       2
 integrate_v_rspace                   9  9.1    0.004    0.004    1.519    1.523       2
 potential_pw2rs                      9 10.1    0.003    0.003    1.466    1.469      14
 init_scf_loop                        1  4.0    0.018    0.018    1.450    1.450      14
 x_to_yz                             77 13.8    0.561    0.579    1.273    1.310       6
 rirs_grid_build_clusters             1  9.0    0.536    0.819    0.767    1.173       3
 qs_ks_ddapc                          9  8.1    0.000    0.000    1.035    1.052      11
 pw_derive                           75 11.3    0.858    0.875    0.858    0.875      11
 pw_poisson_solve                     9  8.1    0.000    0.001    0.865    0.868       6
 compute_M_pq_inv_and_V_pq            1  8.0    0.000    0.000    0.788    0.789       9
 xc_functional_eval                   8 11.0    0.009    0.009    0.505    0.759      15
 pw_scatter_p                        77 12.8    0.734    0.756    0.734    0.756       8
 compute_contracted_RI_matrix         2  9.0    0.001    0.001    0.754    0.755      10
 compute_optimized_RI_matrix_bl      18 10.0    0.031    0.034    0.672    0.751       2
 pbe_lda_eval                         8 12.0    0.496    0.750    0.496    0.750       8
 compute_M_PQ_AB                    500 11.0    0.001    0.001    0.660    0.736       2
 compute_M_PQ                       500 12.0    0.001    0.001    0.659    0.735       2
 int_operators_r12_ab_os            500 13.0    0.001    0.001    0.658    0.735       6
 int_operator_ab_os_low             500 14.0    0.273    0.300    0.658    0.734       2
 pw_copy                            140 10.6    0.706    0.711    0.706    0.711       7
 pw_gather_p                         70 11.7    0.662    0.691    0.662    0.691      14
 dbcsr_multiply_generic             603  9.6    0.013    0.013    0.665    0.672      11
 init_scf_run                         1  3.0    0.002    0.002    0.581    0.586      11
 scf_env_initial_rho_setup            1  4.0    0.001    0.001    0.579    0.579       7
 qs_init_subsys                       1  2.0    0.041    0.041    0.568    0.568       0
 transfer_pw2rs                      36 11.1    0.000    0.000    0.558    0.558       0
 transfer_rs2pw                      37  7.9    0.001    0.001    0.499    0.520       0
 pw_poisson_set                      10  8.8    0.000    0.000    0.514    0.517      13
 qs_env_setup                         1  3.0    0.004    0.005    0.508    0.508       3
 qs_env_rebuild_pw_env                2  3.5    0.000    0.001    0.495    0.495      12
 pw_env_rebuild                       1  5.0    0.007    0.007    0.495    0.495       3
 pw_grid_setup                        5  5.2    0.001    0.001    0.487    0.487       3
 pw_grid_setup_internal               5  6.2    0.012    0.012    0.486    0.486      14
 compute_Sigma_c_and_QP_energie       1  7.0    0.000    0.000    0.463    0.485       6
 compute_Z_lP                         1  7.0    0.000    0.000    0.481    0.481      10
 compute_Z_lP_auto_ri                 1  8.0    0.000    0.001    0.481    0.481       3
 mp_waitany                         740 11.5    0.415    0.448    0.415    0.448       8
 compute_Sigma_c                      1  8.0    0.000    0.001    0.428    0.428       0
 pw_grid_sort                         5  7.2    0.286    0.289    0.409    0.414       4
 abc_contract_xsmm                12788 10.1    0.264    0.409    0.264    0.409       0
 mp_bcast_dm                         74  9.6    0.303    0.400    0.303    0.400      12
 transfer_pw2rs_300                   9 12.1    0.171    0.187    0.379    0.396       0
 transfer_rs2pw_300                  10  8.8    0.172    0.191    0.362    0.395       4
 compute_AA_optimized_RI_basis        1  8.0    0.006    0.006    0.390    0.390      14
 compute_V_xc                         1  7.0    0.000    0.000    0.387    0.387      13
 multiply_cannon                    603 10.6    0.025    0.026    0.360    0.387       3
 contract_grid_panels_sigma_c        30  9.0    0.001    0.001    0.377    0.378       9
 qs_energies_init_hamiltonians        1  3.0    0.006    0.007    0.370    0.370       3
 pw_axpy                             95  8.6    0.352    0.364    0.352    0.364      10
 pw_copy_to_array                    70 11.7    0.339    0.356    0.339    0.356       0
 compute_AB_optimized_RI_basis        1  8.0    0.001    0.001    0.348    0.348      13
 compute_AB_optimized_RI_basis_       1  9.0    0.000    0.000    0.323    0.342       2
 pw_integral_ab_c1d_c1d_gs           18  9.6    0.314    0.315    0.321    0.324       0
 multiply_cannon_loop               603 11.6    0.010    0.010    0.288    0.318       1
 mp_bcast_av                        747  1.0    0.295    0.315    0.295    0.315      14
 compute_B_PQ_AB                      3 10.0    0.050    0.072    0.193    0.290       0
 get_mat_chi_Gamma_tau                1  7.0    0.000    0.001    0.286    0.286       0
 mp_sum_dm                          100 10.9    0.149    0.282    0.149    0.282      12
 compute_W                            1  7.0    0.000    0.000    0.280    0.280       6
 contract_grid_panels                31  8.0    0.001    0.001    0.268    0.272       3
 qs_env_update_s_mstruct              1  4.0    0.002    0.002    0.267    0.267      15
 mp_waitall_1                     29325 13.9    0.199    0.249    0.199    0.249       9
 operator2                       278154 15.0    0.220    0.248    0.220    0.248       2
 cp_ddapc_apply_CD                    9  9.1    0.000    0.001    0.243    0.245       0
 dbcsr_binary_write                   1  9.0    0.236    0.236    0.236    0.236      14
 initialize_auto_ri_integrals         2  9.0    0.015    0.229    0.229    0.230       0
 fft_wrap_pw1pw2_100                 18 10.6    0.012    0.014    0.198    0.229      13
 cp_fm_gemm                         434 10.5    0.220    0.225    0.220    0.225       5
 parallel_gemm_fm_gemm              431  9.6    0.000    0.001    0.220    0.225       9
 compute_d_lp_auto_ri_batch           1  9.0    0.103    0.104    0.177    0.207       6
 calculate_rho_core                   1  5.0    0.023    0.023    0.206    0.207      10
 build_grid_cache                     1  8.0    0.000    0.001    0.204    0.205       2
 initialize_cholesky_rirs_grids       1  9.0    0.114    0.202    0.204    0.205       2
 multiply_cannon_multrec           2412 12.6    0.175    0.197    0.178    0.201       4
 copy_dbcsr_to_fm                   104  9.5    0.001    0.001    0.136    0.192       9
 pw_copy_from_array                  77 12.8    0.186    0.191    0.186    0.191      11
 cp_fm_get_submatrix                 96 10.0    0.000    0.000    0.097    0.190       8
 compute_fm_W_freq                   30  8.0    0.000    0.000    0.188    0.190       2
 setup_time_and_frequency_minim       1  7.0    0.003    0.005    0.184    0.188       0
 ab_contract                     279207 15.0    0.166    0.187    0.166    0.187       2
 make_m2s                          1206 10.6    0.005    0.006    0.177    0.186      15
 mp_alltoall_i22                    383 11.4    0.114    0.170    0.114    0.170      10
 make_images                       1206 11.6    0.024    0.026    0.160    0.168       1
 mp_sum_l                          2168 10.5    0.120    0.163    0.120    0.163      15
 dbcsr_desymmetrize_deep            104 10.5    0.001    0.002    0.106    0.160       4
 contract_B_PQ                       14 11.9    0.094    0.150    0.100    0.159       0
 create_qs_kind_set                   1  2.0    0.001    0.001    0.141    0.142      11
 read_qs_kind                         2  3.0    0.058    0.062    0.140    0.141       0
 pw_zero                             60  8.0    0.121    0.130    0.121    0.130      12
 transfer_pw2rs_100                   9 12.1    0.024    0.028    0.107    0.128       2
 sort_shells                          5  8.2    0.124    0.125    0.124    0.125      12
 eval_bandstructure_properties        1  5.0    0.001    0.001    0.121    0.122      14
 cp_cfm_geeig                         1  6.0    0.074    0.074    0.118    0.120       9
 qs_scf_new_mos                       8  5.0    0.000    0.000    0.106    0.107       9
 qs_scf_loop_do_ot                    8  6.0    0.000    0.000    0.106    0.107      14
 calculate_first_density_matrix       1  5.0    0.009    0.011    0.104    0.104       0
 compute_d_lp_auto_ri_atom            1 10.0    0.033    0.043    0.074    0.104       7
 ot_scf_mini                          8  7.0    0.006    0.007    0.101    0.101       6
 compute_B_PQ_AA                     16  9.0    0.005    0.006    0.092    0.097       0
 transfer_rs2pw_100                   9  9.0    0.024    0.026    0.072    0.091       9
 build_core_hamiltonian_matrix        1  4.0    0.021    0.022    0.091    0.091       3
 mp_sum_root_rm                      16 10.0    0.083    0.091    0.083    0.091      15
 make_images_data                  1206 12.6    0.008    0.008    0.078    0.090       0
 parser_read_line                 21388  4.0    0.004    0.004    0.082    0.084       4
 make_basis_sm                        1  6.0    0.000    0.000    0.083    0.084       8
 compute_B_PQ_transition              7 10.9    0.000    0.001    0.050    0.081       0
 parser_read_line_low                25  5.0    0.004    0.040    0.078    0.080       0
 compute_B_PQ_exchange                7 10.9    0.000    0.000    0.050    0.080       9
 broadcast_input_information         25  6.0    0.011    0.012    0.075    0.079       2
 rs_grid_zero                        19 12.7    0.074    0.078    0.074    0.078       5
 ot_mini                              8  8.0    0.007    0.007    0.077    0.077      14
 check_for_restart_files              1  7.0    0.072    0.077    0.072    0.077      14
 dbcsr_complete_redistribute        265 10.4    0.023    0.029    0.070    0.076       8
 print_ri_rs_memory_estimate          1  7.0    0.000    0.000    0.074    0.076       0
 ri_rs_mem_avail_per_proc_GB          1  8.0    0.073    0.075    0.074    0.076      14
 hybrid_alltoall_any               1310 13.5    0.011    0.022    0.060    0.075       0
 get_ddapc                            9 10.1    0.000    0.001    0.072    0.074       2
 pw_scale                            33  9.8    0.060    0.072    0.060    0.072       6
 get_l_sq_wghts_cos_tf_t_to_w         1  8.0    0.071    0.071    0.071    0.071       4
 copy_fm_to_dbcsr                   161  9.3    0.007    0.007    0.062    0.068       9
 transfer_pw2rs_40                    9 12.1    0.024    0.027    0.060    0.067       6
 eval_pw_TabLR                        1  2.0    0.045    0.046    0.065    0.065       9
 multiply_cannon_metrocomm3        2412 12.6    0.003    0.003    0.038    0.064       2
 pw_multiply_with                     9  9.1    0.060    0.061    0.060    0.061       7
 cp_dbcsr_sm_fm_multiply              2  7.5    0.000    0.000    0.060    0.060       9
 cp_fm_syevd                          5  9.0    0.000    0.000    0.057    0.057       8
 transfer_rs2pw_40                    9  9.0    0.021    0.022    0.053    0.057      13
 compute_int_3c                       2  9.0    0.053    0.053    0.055    0.056      13
 atomic_basis_at_grid_point           1  7.0    0.002    0.025    0.056    0.056       0
 print_matrix_occupation              3  8.0    0.002    0.030    0.054    0.056       0
 get_l_sq_wghts_sin_tf_t_to_w         1  8.0    0.055    0.055    0.055    0.055       4
 build_G_ao                         121  8.5    0.000    0.001    0.051    0.055       2
 dbcsr_finalize                    2252 10.9    0.008    0.008    0.048    0.053       7
 get_l_sq_wghts_cos_tf_w_to_t         1  8.0    0.050    0.050    0.052    0.053       4
 cp_fm_cholesky_invert               31  9.0    0.050    0.053    0.050    0.053       1
 ot_scf_init                          1  5.0    0.007    0.007    0.052    0.052      15
 cp_fm_cholesky_decompose            35  9.0    0.045    0.051    0.045    0.051      15
 -------------------------------------------------------------------------------

 The number of warnings for this run is : 0
 
 -------------------------------------------------------------------------------
  **** **** ******  **  PROGRAM ENDED AT                 2026-09-17 10:30:39.336
 ***** ** ***  *** **   PROGRAM RAN ON                                  n2cn1083
 **    ****   ******    PROGRAM RAN BY                                  eprop2d1
 ***** **    ** ** **   PROGRAM PROCESS ID                                266060
  **** **  *******  **  PROGRAM STOPPED IN /scratch/hpc-prf-metdyn/eprop2d1_Jan/
                                           53_benchmark_RI_opt/109_GW100_GTH_Leb
                                           edev_riao3_rc3/calculations/29_C8H8_r
                                           09
