 DBCSR| CPU Multiplication driver                                           XSMM (U)
 DBCSR| Multrec recursion limit                                              512 (U)
 DBCSR| Multiplication stack size                                           1000 (D)
 DBCSR| Maximum elements for images                                    UNLIMITED (U)
 DBCSR| Multiplicative factor virtual images                                   1 (U)
 DBCSR| Use multiplication densification                                       T (D)
 DBCSR| Multiplication size stacks                                             3 (U)
 DBCSR| Use memory pool for CPU allocation                                     F (U)
 DBCSR| Number of 3D layers                                               SINGLE (U)
 DBCSR| Use MPI memory allocation                                              F (U)
 DBCSR| Use RMA algorithm                                                      F (U)
 DBCSR| Use Communication thread                                               T (U)
 DBCSR| Communication thread load                                             30 (D)
 DBCSR| MPI: My process id                                                     0
 DBCSR| MPI: Number of processes                                               1
 DBCSR| OMP: Current number of threads                                        16
 DBCSR| OMP: Max number of threads                                            16
 DBCSR| Split modifier for TAS multiplication algorithm                  1.0E+00 (U)


  **** **** ******  **  PROGRAM STARTED AT               2026-09-17 03:06:29.814
 ***** ** ***  *** **   PROGRAM STARTED ON                              n2cn0631
 **    ****   ******    PROGRAM STARTED BY                              eprop2d1
 ***** **    ** ** **   PROGRAM PROCESS ID                                213477
  **** **  *******  **  PROGRAM STARTED IN /scratch/hpc-prf-metdyn/eprop2d1_Jan/
                                           53_benchmark_RI_opt/111_GW100_GTH_Leb
                                           edev_riao245_rc3/calculations/85_MgO_
                                           riao5_r03

 CP2K| version string:                 CP2K version 2026.2 (Development Version)
 CP2K| source code revision number:                                      unknown
 CP2K| cp2kflags: omp libint fftw3 libxc parallel scalapack openblas            
 CP2K| is freely available from                            https://www.cp2k.org/
 CP2K| Program compiled at                                   2026-09-15 17:57:52
 CP2K| Program compiled on                                              n2login6
 CP2K| Program compiled for                                               x86_64
 CP2K| Data directory path    /scratch/hpc-prf-metdyn/eprop2d1_Jan/53_benchmark_
 CP2K| Input file name        /scratch/hpc-prf-metdyn/eprop2d1_Jan/53_benchmark_
 
 eprop2d1@n2cn0631 has created rank and process                      0    213477
 
 eprop2d1@n2cn0631 is running                                        1 processes

 GLOBAL| Force Environment number                                              1
 GLOBAL| Basis set file name            /scratch/hpc-prf-metdyn/eprop2d1_Jan/53_
 GLOBAL| Potential file name            /scratch/hpc-prf-metdyn/eprop2d1_Jan/53_
 GLOBAL| MM Potential file name                                     MM_POTENTIAL
 GLOBAL| Coordinate file name                                      __STD_INPUT__
 GLOBAL| Method name                                                        CP2K
 GLOBAL| Project name                                gw100_106_85_MgO_a3_leb_r03
 GLOBAL| Run type                                                         ENERGY
 GLOBAL| FFT library                                                       FFTW3
 GLOBAL| Diagonalization library                                       ScaLAPACK
 GLOBAL| Cholesky decomposition library                                ScaLAPACK
 GLOBAL| DGEMM library                                                      BLAS
 GLOBAL| Direct generalized diagonalization requested                          F
 GLOBAL| Orthonormality check for eigenvectors                          DISABLED
 GLOBAL| Matrix multiplication library                                 ScaLAPACK
 GLOBAL| All-to-all communication in single precision                          F
 GLOBAL| Grid backend                                                       AUTO
 GLOBAL| Global print level                                                  LOW
 GLOBAL| MPI I/O enabled                                                       T
 GLOBAL| Total number of message passing processes                             1
 GLOBAL| Number of distributed systems (nodes)                                 1
 GLOBAL| Number of threads for this process                                   16
 GLOBAL| This output is from process                                           0
 GLOBAL| OpenMP stack size per thread (OMP_STACKSIZE)                       128M
 GLOBAL| CPU model name                          AMD EPYC 7763 64-Core Processor

 MEMORY| system memory details [Kb]
 MEMORY|                        rank 0           min           max       average
 MEMORY| MemTotal            263897576     263897576     263897576     263897576
 MEMORY| MemFree             142121312     142121312     142121312     142121312
 MEMORY| Buffers                383720        383720        383720        383720
 MEMORY| Cached                8109872       8109872       8109872       8109872
 MEMORY| Slab                  1276492       1276492       1276492       1276492
 MEMORY| SReclaimable           259864        259864        259864        259864
 MEMORY| MemLikelyFree       150874768     150874768     150874768     150874768


 GENERATE|  Preliminary Number of Bonds generated:                             0
 GENERATE|  Achieved consistency in connectivity generation.

 *******************************************************************************
 *******************************************************************************
 **                                                                           **
 **     #####                         ##              ##                      **
 **    ##   ##            ##          ##              ##                      **
 **   ##     ##                       ##            ######                    **
 **   ##     ##  ##   ##  ##   #####  ##  ##   ####   ##    #####    #####    **
 **   ##     ##  ##   ##  ##  ##      ## ##   ##      ##   ##   ##  ##   ##   **
 **   ##  ## ##  ##   ##  ##  ##      ####     ###    ##   ######   ######    **
 **    ##  ###   ##   ##  ##  ##      ## ##      ##   ##   ##       ##        **
 **     #######   #####   ##   #####  ##  ##  ####    ##    #####   ##        **
 **           ##                                                    ##        **
 **                                                                           **
 **                                                ... make the atoms dance   **
 **                                                                           **
 **            Copyright (C) by CP2K developers group (2000-2026)             **
 **                      J. Chem. Phys. 152, 194103 (2020)                    **
 **                                                                           **
 *******************************************************************************


 TOTAL NUMBERS AND MAXIMUM NUMBERS

  Total number of            - Atomic kinds:                                   2
                             - Atoms:                                          2
                             - Shell sets:                                     2
                             - Shells:                                        11
                             - Primitive Cartesian functions:                 14
                             - Cartesian basis functions:                     29
                             - Spherical basis functions:                     27

  Maximum angular momentum of- Orbital basis functions:                        2
                             - Local part of the GTH pseudopotential:          2
                             - Non-local part of the GTH pseudopotential:      1


 SCF PARAMETERS         Density guess:                                    ATOMIC
                        --------------------------------------------------------
                        max_scf:                                             500
                        max_scf_history:                                       0
                        max_diis:                                              4
                        --------------------------------------------------------
                        eps_scf:                                        1.00E-08
                        eps_scf_history:                                0.00E+00
                        eps_diis:                                       0.00E+00
                        eps_eigval:                                     1.00E-05
                        --------------------------------------------------------
                        level_shift [a.u.]:                             0.000000
                        --------------------------------------------------------
                        Outer loop SCF in use 
                        No variables optimised in outer loop
                        eps_scf                                         1.00E-08
                        max_scf                                               20
                        No outer loop optimization
                        step_size                                       5.00E-01

 Extrapolation method: initial_guess

 Number of electrons:                                                         16
 Number of occupied orbitals:                                                  8
 Number of molecular orbitals:                                                 8

 Number of orbital functions:                                                 27
 Number of independent orbital functions:                                     27


 SCF WAVEFUNCTION OPTIMIZATION

  ----------------------------------- OT ---------------------------------------
  Minimizer      : DIIS                : direct inversion
                                         in the iterative subspace
                                         using   7 DIIS vectors
                                         safer DIIS on
  Preconditioner : FULL_KINETIC        : inversion of T + eS
  Lattice FFT   : OFF
  Precond_solver : DEFAULT
  stepsize       :    0.15000000                  energy_gap     :    0.20000000
  eps_taylor     :   0.10000E-15                  max_taylor     :             4
  ----------------------------------- OT ---------------------------------------

  Step     Update method      Time    Convergence         Total energy    Change
  ------------------------------------------------------------------------------
  Decoupling Energy:                                               0.0000728363
     1 OT DIIS     0.15E+00    9.3     0.12100840       -78.2806248876 -7.83E+01
  Decoupling Energy:                                               0.0000322631
     2 OT DIIS     0.15E+00   11.3     0.09919810       -78.5699549146 -2.89E-01
  Decoupling Energy:                                               0.0000377517
     3 OT DIIS     0.15E+00   10.9     0.09492885       -78.6611650445 -9.12E-02
  Decoupling Energy:                                               0.0000447263
     4 OT DIIS     0.15E+00    9.8     0.06778093       -78.7657671664 -1.05E-01
  Decoupling Energy:                                               0.0000559387
     5 OT DIIS     0.15E+00    9.9     0.04163729       -78.8476472533 -8.19E-02
  Decoupling Energy:                                               0.0000894762
     6 OT DIIS     0.15E+00   10.6     0.04334793       -78.9334609720 -8.58E-02
  Decoupling Energy:                                               0.0001090204
     7 OT DIIS     0.15E+00   10.6     0.02846852       -78.9682183733 -3.48E-02
  Decoupling Energy:                                               0.0001211146
     8 OT DIIS     0.15E+00   10.1     0.01940218       -78.9865730095 -1.84E-02
  Decoupling Energy:                                               0.0001288898
     9 OT DIIS     0.15E+00   10.4     0.01641659       -78.9977407503 -1.12E-02
  Decoupling Energy:                                               0.0001410892
    10 OT DIIS     0.15E+00    9.8     0.01306692       -79.0085797948 -1.08E-02
  Decoupling Energy:                                               0.0001530785
    11 OT DIIS     0.15E+00   10.1     0.01135267       -79.0159986192 -7.42E-03
  Decoupling Energy:                                               0.0001615460
    12 OT DIIS     0.15E+00    9.9     0.01152451       -79.0197595432 -3.76E-03
  Decoupling Energy:                                               0.0001704687
    13 OT DIIS     0.15E+00    9.6     0.00945485       -79.0233616201 -3.60E-03
  Decoupling Energy:                                               0.0001812595
    14 OT DIIS     0.15E+00   10.1     0.00902819       -79.0270079801 -3.65E-03
  Decoupling Energy:                                               0.0001928219
    15 OT DIIS     0.15E+00    9.9     0.00920501       -79.0305739884 -3.57E-03
  Decoupling Energy:                                               0.0002050913
    16 OT DIIS     0.15E+00    9.6     0.00829199       -79.0341643820 -3.59E-03
  Decoupling Energy:                                               0.0002183784
    17 OT DIIS     0.15E+00    9.4     0.00779202       -79.0377982593 -3.63E-03
  Decoupling Energy:                                               0.0002331200
    18 OT DIIS     0.15E+00   10.0     0.00735316       -79.0416484044 -3.85E-03
  Decoupling Energy:                                               0.0002499492
    19 OT DIIS     0.15E+00    9.5     0.00711723       -79.0459009776 -4.25E-03
  Decoupling Energy:                                               0.0002700724
    20 OT DIIS     0.15E+00    9.3     0.00738057       -79.0508594707 -4.96E-03
  Decoupling Energy:                                               0.0002903929
    21 OT DIIS     0.15E+00    9.8     0.00687069       -79.0556714463 -4.81E-03
  Decoupling Energy:                                               0.0003148261
    22 OT DIIS     0.15E+00   10.0     0.00666205       -79.0612120254 -5.54E-03
  Decoupling Energy:                                               0.0003339781
    23 OT DIIS     0.15E+00    9.9     0.00638400       -79.0655179070 -4.31E-03
  Decoupling Energy:                                               0.0003474081
    24 OT DIIS     0.15E+00    9.8     0.00606210       -79.0685556125 -3.04E-03
  Decoupling Energy:                                               0.0003594593
    25 OT DIIS     0.15E+00    9.7     0.00587634       -79.0713259161 -2.77E-03
  Decoupling Energy:                                               0.0003820995
    26 OT DIIS     0.15E+00   10.1     0.00583382       -79.0768619854 -5.54E-03
  Decoupling Energy:                                               0.0004029873
    27 OT DIIS     0.15E+00   10.1     0.00582429       -79.0828744406 -6.01E-03
  Decoupling Energy:                                               0.0004109729
    28 OT DIIS     0.15E+00   10.7     0.00581770       -79.0853535608 -2.48E-03
  Decoupling Energy:                                               0.0004132321
    29 OT SD       0.15E+00   10.2     0.00574940       -79.0861120605 -7.58E-04
  Decoupling Energy:                                               0.0004193650
    30 OT DIIS     0.15E+00    9.9     0.00560161       -79.0871358235 -1.02E-03
  Decoupling Energy:                                               0.0004183663
    31 OT DIIS     0.15E+00    9.7     0.00560722       -79.0873175306 -1.82E-04
  Decoupling Energy:                                               0.0004223686
    32 OT DIIS     0.15E+00    9.9     0.00549508       -79.0894917187 -2.17E-03
  Decoupling Energy:                                               0.0004212561
    33 OT DIIS     0.15E+00    9.3     0.00544084       -79.0896454874 -1.54E-04
  Decoupling Energy:                                               0.0004241544
    34 OT DIIS     0.15E+00    9.7     0.00533713       -79.0923346072 -2.69E-03
  Decoupling Energy:                                               0.0004250322
    35 OT DIIS     0.15E+00    9.7     0.00534411       -79.0932502553 -9.16E-04
  Decoupling Energy:                                               0.0004251548
    36 OT DIIS     0.15E+00    9.9     0.00533419       -79.0936247221 -3.74E-04
  Decoupling Energy:                                               0.0004247556
    37 OT DIIS     0.15E+00   10.0     0.00533333       -79.0936513944 -2.67E-05
  Decoupling Energy:                                               0.0004243880
    38 OT SD       0.15E+00    9.7     0.00533321       -79.0937805796 -1.29E-04
  Decoupling Energy:                                               0.0004249363
    39 OT SD       0.15E+00    9.4     0.00538365       -79.0946985603 -9.18E-04
  Decoupling Energy:                                               0.0004254020
    40 OT SD       0.15E+00    9.3     0.00574610       -79.0956049410 -9.06E-04
  Decoupling Energy:                                               0.0004260155
    41 OT SD       0.15E+00   10.3     0.00824131       -79.0963884743 -7.84E-04
  Decoupling Energy:                                               0.0004265348
    42 OT SD       0.15E+00   10.0     0.01946765       -79.0960552720  3.33E-04
  Decoupling Energy:                                               0.0004299902
    43 OT DIIS     0.15E+00    9.9     0.05637335       -79.0856591065  1.04E-02
  Decoupling Energy:                                               0.0003657940
    44 OT SD       0.15E+00   10.6     0.00837333       -79.0730842667  1.26E-02
  Decoupling Energy:                                               0.0003908284
    45 OT SD       0.15E+00   10.4     0.00575205       -79.0745835151 -1.50E-03
  Decoupling Energy:                                               0.0003930224
    46 OT SD       0.15E+00    9.9     0.00649104       -79.0754333604 -8.50E-04
  Decoupling Energy:                                               0.0003980518
    47 OT SD       0.15E+00    9.7     0.01122152       -79.0759465609 -5.13E-04
  Decoupling Energy:                                               0.0003997857
    48 OT SD       0.15E+00    9.7     0.02943149       -79.0737970632  2.15E-03
  Decoupling Energy:                                               0.0004112605
    49 OT DIIS     0.15E+00    9.5     0.08697656       -79.0475962481  2.62E-02
  Decoupling Energy:                                               0.0004039656
    50 OT DIIS     0.15E+00    9.5     0.00511384       -79.0785568209 -3.10E-02
  Decoupling Energy:                                               0.0004061824
    51 OT DIIS     0.15E+00    9.9     0.00511391       -79.0794573954 -9.01E-04
  Decoupling Energy:                                               0.0004072720
    52 OT SD       0.15E+00    9.8     0.00511172       -79.0799715954 -5.14E-04
  Decoupling Energy:                                               0.0004089209
    53 OT SD       0.15E+00   10.0     0.00512312       -79.0808185423 -8.47E-04
  Decoupling Energy:                                               0.0004104133
    54 OT SD       0.15E+00    9.7     0.00515112       -79.0816679646 -8.49E-04
  Decoupling Energy:                                               0.0004118830
    55 OT SD       0.15E+00    9.6     0.00529403       -79.0825160488 -8.48E-04
  Decoupling Energy:                                               0.0004132195
    56 OT SD       0.15E+00    9.6     0.00627615       -79.0833272822 -8.11E-04
  Decoupling Energy:                                               0.0004146950
    57 OT SD       0.15E+00    9.4     0.01163511       -79.0837955052 -4.68E-04
  Decoupling Energy:                                               0.0004162096
    58 OT SD       0.15E+00    9.3     0.03125317       -79.0812347202  2.56E-03
  Decoupling Energy:                                               0.0004236154
    59 OT DIIS     0.15E+00    9.6     0.09217801       -79.0516316390  2.96E-02
  Decoupling Energy:                                               0.0002219042
    60 OT DIIS     0.15E+00   10.0     0.02411384       -79.0322308460  1.94E-02
  Decoupling Energy:                                               0.0003016657
    61 OT SD       0.15E+00   10.3     0.01227726       -79.0526571022 -2.04E-02
  Decoupling Energy:                                               0.0003415104
    62 OT DIIS     0.15E+00   10.5     0.00688189       -79.0553628932 -2.71E-03
  Decoupling Energy:                                               0.0003140065
    63 OT DIIS     0.15E+00    9.8     0.01065826       -79.0552493053  1.14E-04
  Decoupling Energy:                                               0.0003157047
    64 OT DIIS     0.15E+00    9.7     0.00998181       -79.0553327846 -8.35E-05
  Decoupling Energy:                                               0.0003278632
    65 OT DIIS     0.15E+00    9.4     0.00939026       -79.0591080501 -3.78E-03
  Decoupling Energy:                                               0.0003666687
    66 OT DIIS     0.15E+00    9.9     0.00642881       -79.0686715411 -9.56E-03
  Decoupling Energy:                                               0.0003670900
    67 OT DIIS     0.15E+00    9.5     0.00641539       -79.0688210817 -1.50E-04
  Decoupling Energy:                                               0.0003938967
    68 OT DIIS     0.15E+00   10.7     0.00745078       -79.0817959854 -1.30E-02
  Decoupling Energy:                                               0.0003982561
    69 OT DIIS     0.15E+00   10.3     0.00669625       -79.0868323267 -5.04E-03
  Decoupling Energy:                                               0.0003972560
    70 OT DIIS     0.15E+00    9.9     0.00770582       -79.0937274963 -6.90E-03
  Decoupling Energy:                                               0.0003926223
    71 OT SD       0.15E+00    9.6     0.00891388       -79.0982119173 -4.48E-03
  Decoupling Energy:                                               0.0004168316
    72 OT SD       0.15E+00    9.4     0.00648481       -79.0998794540 -1.67E-03
  Decoupling Energy:                                               0.0004182555
    73 OT SD       0.15E+00   10.1     0.01011996       -79.1006047088 -7.25E-04
  Decoupling Energy:                                               0.0004217182
    74 OT DIIS     0.15E+00    9.7     0.02522145       -79.0993767521  1.23E-03
  Decoupling Energy:                                               0.0004235756
    75 OT DIIS     0.15E+00    9.5     0.00552697       -79.0972786217  2.10E-03
  Decoupling Energy:                                               0.0004258395
    76 OT DIIS     0.15E+00   10.5     0.00573293       -79.1007674842 -3.49E-03
  Decoupling Energy:                                               0.0003902196
    77 OT SD       0.15E+00    9.6     0.00755084       -79.1183019024 -1.75E-02
  Decoupling Energy:                                               0.0004068977
    78 OT SD       0.15E+00   10.2     0.00709948       -79.1195303555 -1.23E-03
  Decoupling Energy:                                               0.0004080178
    79 OT SD       0.15E+00    9.4     0.01431370       -79.1197925943 -2.62E-04
  Decoupling Energy:                                               0.0004107326
    80 OT DIIS     0.15E+00   10.4     0.04019597       -79.1149731194  4.82E-03
  Decoupling Energy:                                               0.0004150235
    81 OT DIIS     0.15E+00   10.4     0.00525935       -79.1189591038 -3.99E-03
  Decoupling Energy:                                               0.0004117375
    82 OT DIIS     0.15E+00    9.2     0.00516292       -79.1206397945 -1.68E-03
  Decoupling Energy:                                               0.0003949619
    83 OT DIIS     0.15E+00    9.6     0.00534992       -79.1274941380 -6.85E-03
  Decoupling Energy:                                               0.0003529916
    84 OT SD       0.15E+00    9.6     0.00674411       -79.1392853273 -1.18E-02
  Decoupling Energy:                                               0.0003656278
    85 OT SD       0.15E+00   10.1     0.00936956       -79.1398775849 -5.92E-04
  Decoupling Energy:                                               0.0003671907
    86 OT DIIS     0.15E+00    9.3     0.02455493       -79.1383095865  1.57E-03
  Decoupling Energy:                                               0.0003715874
    87 OT DIIS     0.15E+00    9.2     0.00436534       -79.1419377318 -3.63E-03
  Decoupling Energy:                                               0.0003597701
    88 OT DIIS     0.15E+00    9.4     0.00390954       -79.1441565104 -2.22E-03
  Decoupling Energy:                                               0.0003536805
    89 OT DIIS     0.15E+00    9.0     0.00396226       -79.1460942591 -1.94E-03
  Decoupling Energy:                                               0.0003300541
    90 OT DIIS     0.15E+00    9.6     0.00421204       -79.1483012586 -2.21E-03
  Decoupling Energy:                                               0.0003321953
    91 OT SD       0.15E+00    9.2     0.00346889       -79.1495228192 -1.22E-03
  Decoupling Energy:                                               0.0003350363
    92 OT DIIS     0.15E+00    9.5     0.00358677       -79.1498822725 -3.59E-04
  Decoupling Energy:                                               0.0003251377
    93 OT DIIS     0.15E+00    9.8     0.00318835       -79.1522139694 -2.33E-03
  Decoupling Energy:                                               0.0003282939
    94 OT DIIS     0.15E+00    9.8     0.00330411       -79.1531370721 -9.23E-04
  Decoupling Energy:                                               0.0003413533
    95 OT DIIS     0.15E+00    9.7     0.00340626       -79.1554777736 -2.34E-03
  Decoupling Energy:                                               0.0003322021
    96 OT DIIS     0.15E+00   10.8     0.00264562       -79.1572058507 -1.73E-03
  Decoupling Energy:                                               0.0003283826
    97 OT DIIS     0.15E+00   10.6     0.00281326       -79.1573328089 -1.27E-04
  Decoupling Energy:                                               0.0003304523
    98 OT DIIS     0.15E+00   10.7     0.00252259       -79.1582998444 -9.67E-04
  Decoupling Energy:                                               0.0003289268
    99 OT DIIS     0.15E+00   10.2     0.00242568       -79.1589143457 -6.15E-04
  Decoupling Energy:                                               0.0003317099
   100 OT DIIS     0.15E+00   10.4     0.00235696       -79.1599247290 -1.01E-03
  Decoupling Energy:                                               0.0003385958
   101 OT DIIS     0.15E+00   10.7     0.00232001       -79.1614978507 -1.57E-03
  Decoupling Energy:                                               0.0003355554
   102 OT DIIS     0.15E+00   10.2     0.00227529       -79.1626362824 -1.14E-03
  Decoupling Energy:                                               0.0003405100
   103 OT DIIS     0.15E+00   10.8     0.00250152       -79.1626873736 -5.11E-05
  Decoupling Energy:                                               0.0003378155
   104 OT DIIS     0.15E+00   10.4     0.00200337       -79.1638929891 -1.21E-03
  Decoupling Energy:                                               0.0003402266
   105 OT DIIS     0.15E+00   10.6     0.00188598       -79.1640178898 -1.25E-04
  Decoupling Energy:                                               0.0003432939
   106 OT DIIS     0.15E+00   11.2     0.00196846       -79.1652134011 -1.20E-03
  Decoupling Energy:                                               0.0003447841
   107 OT DIIS     0.15E+00   10.7     0.00171303       -79.1661533737 -9.40E-04
  Decoupling Energy:                                               0.0003472951
   108 OT DIIS     0.15E+00   10.4     0.00157949       -79.1667519394 -5.99E-04
  Decoupling Energy:                                               0.0003514526
   109 OT SD       0.15E+00   10.2     0.00139761       -79.1673114377 -5.59E-04
  Decoupling Energy:                                               0.0003526146
   110 OT DIIS     0.15E+00   10.3     0.00205678       -79.1673485122 -3.71E-05
  Decoupling Energy:                                               0.0003559400
   111 OT DIIS     0.15E+00    9.2     0.00117334       -79.1678668483 -5.18E-04
  Decoupling Energy:                                               0.0003560276
   112 OT DIIS     0.15E+00    9.1     0.00108091       -79.1678833776 -1.65E-05
  Decoupling Energy:                                               0.0003586843
   113 OT DIIS     0.15E+00    9.3     0.00106901       -79.1681749803 -2.92E-04
  Decoupling Energy:                                               0.0003602212
   114 OT DIIS     0.15E+00    9.6     0.00084474       -79.1683197706 -1.45E-04
  Decoupling Energy:                                               0.0003606238
   115 OT DIIS     0.15E+00    9.2     0.00084416       -79.1683739077 -5.41E-05
  Decoupling Energy:                                               0.0003611926
   116 OT DIIS     0.15E+00    9.9     0.00083225       -79.1683894577 -1.55E-05
  Decoupling Energy:                                               0.0003613340
   117 OT DIIS     0.15E+00    9.7     0.00077021       -79.1684631377 -7.37E-05
  Decoupling Energy:                                               0.0003620402
   118 OT DIIS     0.15E+00   10.2     0.00073864       -79.1685099674 -4.68E-05
  Decoupling Energy:                                               0.0003623765
   119 OT DIIS     0.15E+00   10.0     0.00073048       -79.1685627560 -5.28E-05
  Decoupling Energy:                                               0.0003625974
   120 OT DIIS     0.15E+00    9.5     0.00070905       -79.1686016854 -3.89E-05
  Decoupling Energy:                                               0.0003628289
   121 OT DIIS     0.15E+00    9.8     0.00069943       -79.1686352967 -3.36E-05
  Decoupling Energy:                                               0.0003630696
   122 OT DIIS     0.15E+00    9.8     0.00067755       -79.1686771316 -4.18E-05
  Decoupling Energy:                                               0.0003635017
   123 OT DIIS     0.15E+00   10.1     0.00065624       -79.1687728325 -9.57E-05
  Decoupling Energy:                                               0.0003638626
   124 OT DIIS     0.15E+00    9.7     0.00065932       -79.1688787699 -1.06E-04
  Decoupling Energy:                                               0.0003640291
   125 OT DIIS     0.15E+00   10.0     0.00067340       -79.1688976712 -1.89E-05
  Decoupling Energy:                                               0.0003643626
   126 OT DIIS     0.15E+00    9.5     0.00058078       -79.1690446515 -1.47E-04
  Decoupling Energy:                                               0.0003644891
   127 OT DIIS     0.15E+00   10.4     0.00056864       -79.1690879367 -4.33E-05
  Decoupling Energy:                                               0.0003646832
   128 OT DIIS     0.15E+00    9.6     0.00054107       -79.1691647033 -7.68E-05
  Decoupling Energy:                                               0.0003647651
   129 OT DIIS     0.15E+00    9.7     0.00054895       -79.1692563982 -9.17E-05
  Decoupling Energy:                                               0.0003646682
   130 OT DIIS     0.15E+00    9.3     0.00054660       -79.1693425491 -8.62E-05
  Decoupling Energy:                                               0.0003638685
   131 OT DIIS     0.15E+00    9.8     0.00050948       -79.1695052565 -1.63E-04
  Decoupling Energy:                                               0.0003633260
   132 OT SD       0.15E+00    9.6     0.00048007       -79.1695639305 -5.87E-05
  Decoupling Energy:                                               0.0003642129
   133 OT DIIS     0.15E+00    9.7     0.00058204       -79.1695686635 -4.73E-06
  Decoupling Energy:                                               0.0003641120
   134 OT DIIS     0.15E+00    9.8     0.00040334       -79.1695924235 -2.38E-05
  Decoupling Energy:                                               0.0003622754
   135 OT DIIS     0.15E+00    9.9     0.00042324       -79.1696773068 -8.49E-05
  Decoupling Energy:                                               0.0003624307
   136 OT DIIS     0.15E+00    9.5     0.00029278       -79.1696999569 -2.27E-05
  Decoupling Energy:                                               0.0003623358
   137 OT DIIS     0.15E+00    9.4     0.00024501       -79.1697138234 -1.39E-05
  Decoupling Energy:                                               0.0003622770
   138 OT DIIS     0.15E+00    9.7     0.00024015       -79.1697152440 -1.42E-06
  Decoupling Energy:                                               0.0003635623
   139 OT DIIS     0.15E+00    9.6     0.00019350       -79.1697150854  1.59E-07
  Decoupling Energy:                                               0.0003630827
   140 OT DIIS     0.15E+00    9.8     0.00015698       -79.1697179469 -2.86E-06
  Decoupling Energy:                                               0.0003635066
   141 OT SD       0.15E+00    9.2     0.00017642       -79.1697178909  5.60E-08
  Decoupling Energy:                                               0.0003636264
   142 OT DIIS     0.15E+00    9.8     0.00035228       -79.1697180650 -1.74E-07
  Decoupling Energy:                                               0.0003642921
   143 OT DIIS     0.15E+00    9.3     0.00011753       -79.1697199170 -1.85E-06
  Decoupling Energy:                                               0.0003645729
   144 OT DIIS     0.15E+00    9.1     0.00010741       -79.1697199860 -6.91E-08
  Decoupling Energy:                                               0.0003648011
   145 OT DIIS     0.15E+00    9.9     0.00011001       -79.1697203222 -3.36E-07
  Decoupling Energy:                                               0.0003649961
   146 OT DIIS     0.15E+00   10.2     0.00010201       -79.1697211784 -8.56E-07
  Decoupling Energy:                                               0.0003652855
   147 OT SD       0.15E+00    9.4     0.00010715       -79.1697229619 -1.78E-06
  Decoupling Energy:                                               0.0003653178
   148 OT DIIS     0.15E+00   10.9     0.00021179       -79.1697230199 -5.80E-08
  Decoupling Energy:                                               0.0003658733
   149 OT DIIS     0.15E+00   10.1     0.00007039       -79.1697255100 -2.49E-06
  Decoupling Energy:                                               0.0003659662
   150 OT DIIS     0.15E+00   11.1     0.00006547       -79.1697261695 -6.59E-07
  Decoupling Energy:                                               0.0003661090
   151 OT DIIS     0.15E+00   10.1     0.00006792       -79.1697269012 -7.32E-07
  Decoupling Energy:                                               0.0003663415
   152 OT DIIS     0.15E+00    9.3     0.00006397       -79.1697276041 -7.03E-07
  Decoupling Energy:                                               0.0003664018
   153 OT DIIS     0.15E+00    9.9     0.00006258       -79.1697278086 -2.04E-07
  Decoupling Energy:                                               0.0003664808
   154 OT DIIS     0.15E+00    9.8     0.00005672       -79.1697282780 -4.69E-07
  Decoupling Energy:                                               0.0003667787
   155 OT DIIS     0.15E+00    9.4     0.00004448       -79.1697291284 -8.50E-07
  Decoupling Energy:                                               0.0003668397
   156 OT DIIS     0.15E+00    9.2     0.00004373       -79.1697293315 -2.03E-07
  Decoupling Energy:                                               0.0003669288
   157 OT DIIS     0.15E+00   10.3     0.00004035       -79.1697296075 -2.76E-07
  Decoupling Energy:                                               0.0003670154
   158 OT DIIS     0.15E+00   10.3     0.00004100       -79.1697298588 -2.51E-07
  Decoupling Energy:                                               0.0003671508
   159 OT DIIS     0.15E+00   10.3     0.00003711       -79.1697302696 -4.11E-07
  Decoupling Energy:                                               0.0003672409
   160 OT DIIS     0.15E+00    9.8     0.00003570       -79.1697305337 -2.64E-07
  Decoupling Energy:                                               0.0003672687
   161 OT DIIS     0.15E+00   10.2     0.00003584       -79.1697306150 -8.13E-08
  Decoupling Energy:                                               0.0003673316
   162 OT DIIS     0.15E+00    9.9     0.00003211       -79.1697307960 -1.81E-07
  Decoupling Energy:                                               0.0003673549
   163 OT DIIS     0.15E+00   10.2     0.00002773       -79.1697308732 -7.72E-08
  Decoupling Energy:                                               0.0003673744
   164 OT DIIS     0.15E+00    9.6     0.00002864       -79.1697309840 -1.11E-07
  Decoupling Energy:                                               0.0003673945
   165 OT DIIS     0.15E+00   10.3     0.00002711       -79.1697310585 -7.44E-08
  Decoupling Energy:                                               0.0003674063
   166 OT DIIS     0.15E+00   10.6     0.00002628       -79.1697311398 -8.13E-08
  Decoupling Energy:                                               0.0003674137
   167 OT DIIS     0.15E+00   10.7     0.00002517       -79.1697312608 -1.21E-07
  Decoupling Energy:                                               0.0003674170
   168 OT DIIS     0.15E+00   10.8     0.00002485       -79.1697313509 -9.00E-08
  Decoupling Energy:                                               0.0003674089
   169 OT DIIS     0.15E+00   12.7     0.00002529       -79.1697313939 -4.31E-08
  Decoupling Energy:                                               0.0003673924
   170 OT DIIS     0.15E+00   11.1     0.00002472       -79.1697315149 -1.21E-07
  Decoupling Energy:                                               0.0003673965
   171 OT DIIS     0.15E+00   11.1     0.00002323       -79.1697315766 -6.16E-08
  Decoupling Energy:                                               0.0003673597
   172 OT DIIS     0.15E+00   10.3     0.00002283       -79.1697317388 -1.62E-07
  Decoupling Energy:                                               0.0003673461
   173 OT DIIS     0.15E+00    9.6     0.00002254       -79.1697318255 -8.67E-08
  Decoupling Energy:                                               0.0003673256
   174 OT DIIS     0.15E+00   10.0     0.00002014       -79.1697319199 -9.44E-08
  Decoupling Energy:                                               0.0003672860
   175 OT DIIS     0.15E+00   10.1     0.00001826       -79.1697320406 -1.21E-07
  Decoupling Energy:                                               0.0003672554
   176 OT DIIS     0.15E+00    9.7     0.00001816       -79.1697321181 -7.74E-08
  Decoupling Energy:                                               0.0003672276
   177 OT DIIS     0.15E+00    9.2     0.00001946       -79.1697321736 -5.55E-08
  Decoupling Energy:                                               0.0003671793
   178 OT DIIS     0.15E+00    9.0     0.00001763       -79.1697322434 -6.98E-08
  Decoupling Energy:                                               0.0003671614
   179 OT DIIS     0.15E+00   10.2     0.00001504       -79.1697322597 -1.62E-08
  Decoupling Energy:                                               0.0003671176
   180 OT DIIS     0.15E+00    9.4     0.00001327       -79.1697322815 -2.18E-08
  Decoupling Energy:                                               0.0003671027
   181 OT SD       0.15E+00   10.6     0.00001263       -79.1697322819 -4.29E-10
  Decoupling Energy:                                               0.0003671042
   182 OT DIIS     0.15E+00   11.7     0.00002479       -79.1697322830 -1.14E-09
  Decoupling Energy:                                               0.0003670708
   183 OT SD       0.15E+00   10.6     0.00000933       -79.1697322718  1.12E-08
  Decoupling Energy:                                               0.0003670737
   184 OT SD       0.15E+00   10.6     0.00001322       -79.1697322735 -1.70E-09
  Decoupling Energy:                                               0.0003670751
   185 OT DIIS     0.15E+00   10.6     0.00003060       -79.1697322721  1.41E-09
  Decoupling Energy:                                               0.0003670688
   186 OT SD       0.15E+00   10.4     0.00000836       -79.1697322682  3.96E-09
  Decoupling Energy:                                               0.0003670703
   187 OT DIIS     0.15E+00   10.9     0.00001844       -79.1697322678  3.68E-10
  Decoupling Energy:                                               0.0003671137
   188 OT SD       0.15E+00   11.0     0.00000461       -79.1697322963 -2.85E-08
  Decoupling Energy:                                               0.0003671125
   189 OT DIIS     0.15E+00   11.5     0.00000910       -79.1697322962  7.37E-11
  Decoupling Energy:                                               0.0003671200
   190 OT DIIS     0.15E+00   11.6     0.00000262       -79.1697322992 -3.01E-09
  Decoupling Energy:                                               0.0003671214
   191 OT DIIS     0.15E+00   10.3     0.00000231       -79.1697322999 -6.61E-10
  Decoupling Energy:                                               0.0003671214
   192 OT DIIS     0.15E+00   10.3     0.00000229       -79.1697323005 -6.85E-10
  Decoupling Energy:                                               0.0003671147
   193 OT DIIS     0.15E+00    9.7     0.00000222       -79.1697323015 -9.77E-10
  Decoupling Energy:                                               0.0003671212
   194 OT SD       0.15E+00   10.1     0.00000224       -79.1697323022 -6.75E-10
  Decoupling Energy:                                               0.0003671198
   195 OT DIIS     0.15E+00   11.0     0.00000451       -79.1697323022 -2.64E-11
  Decoupling Energy:                                               0.0003671157
   196 OT SD       0.15E+00    9.7     0.00000160       -79.1697323025 -3.18E-10
  Decoupling Energy:                                               0.0003671147
   197 OT DIIS     0.15E+00   10.0     0.00000200       -79.1697323026 -6.47E-11
  Decoupling Energy:                                               0.0003671100
   198 OT DIIS     0.15E+00    9.6     0.00000151       -79.1697323026 -2.39E-11
  Decoupling Energy:                                               0.0003671091
   199 OT DIIS     0.15E+00    9.3     0.00000146       -79.1697323029 -2.93E-10
  Decoupling Energy:                                               0.0003671067
   200 OT DIIS     0.15E+00    9.4     0.00000151       -79.1697323035 -5.38E-10
  Decoupling Energy:                                               0.0003670997
   201 OT DIIS     0.15E+00   10.1     0.00000142       -79.1697323038 -3.10E-10
  Decoupling Energy:                                               0.0003670971
   202 OT DIIS     0.15E+00    9.1     0.00000119       -79.1697323038 -4.26E-11
  Decoupling Energy:                                               0.0003670913
   203 OT DIIS     0.15E+00   10.1     0.00000096       -79.1697323044 -6.08E-10
  Decoupling Energy:                                               0.0003670883
   204 OT DIIS     0.15E+00    9.8     0.00000090       -79.1697323045 -1.02E-10
  Decoupling Energy:                                               0.0003670850
   205 OT DIIS     0.15E+00    9.4     0.00000093       -79.1697323048 -3.12E-10
  Decoupling Energy:                                               0.0003670829
   206 OT DIIS     0.15E+00    9.2     0.00000084       -79.1697323049 -1.17E-10
  Decoupling Energy:                                               0.0003670819
   207 OT DIIS     0.15E+00    9.0     0.00000082       -79.1697323050 -5.47E-11
  Decoupling Energy:                                               0.0003670795
   208 OT DIIS     0.15E+00    8.8     0.00000072       -79.1697323051 -1.14E-10
  Decoupling Energy:                                               0.0003670782
   209 OT SD       0.15E+00   10.1     0.00000052       -79.1697323052 -7.58E-11
  Decoupling Energy:                                               0.0003670782
   210 OT DIIS     0.15E+00    9.8     0.00000072       -79.1697323052 -5.74E-12
  Decoupling Energy:                                               0.0003670769
   211 OT DIIS     0.15E+00   10.5     0.00000045       -79.1697323053 -5.56E-11
  Decoupling Energy:                                               0.0003670765
   212 OT DIIS     0.15E+00   10.0     0.00000044       -79.1697323053 -1.90E-11
  Decoupling Energy:                                               0.0003670757
   213 OT DIIS     0.15E+00   10.0     0.00000042       -79.1697323053 -4.25E-11
  Decoupling Energy:                                               0.0003670754
   214 OT DIIS     0.15E+00    9.6     0.00000044       -79.1697323053 -1.32E-11
  Decoupling Energy:                                               0.0003670754
   215 OT DIIS     0.15E+00   10.5     0.00000042       -79.1697323053 -7.57E-12
  Decoupling Energy:                                               0.0003670755
   216 OT DIIS     0.15E+00    9.1     0.00000040       -79.1697323053 -1.07E-11
  Decoupling Energy:                                               0.0003670750
   217 OT DIIS     0.15E+00    9.1     0.00000036       -79.1697323054 -2.42E-11
  Decoupling Energy:                                               0.0003670754
   218 OT DIIS     0.15E+00    9.5     0.00000037       -79.1697323054 -2.25E-11
  Decoupling Energy:                                               0.0003670751
   219 OT DIIS     0.15E+00    9.9     0.00000036       -79.1697323054 -1.16E-11
  Decoupling Energy:                                               0.0003670753
   220 OT DIIS     0.15E+00   10.0     0.00000035       -79.1697323054 -1.51E-11
  Decoupling Energy:                                               0.0003670758
   221 OT DIIS     0.15E+00    9.6     0.00000032       -79.1697323055 -3.99E-11
  Decoupling Energy:                                               0.0003670761
   222 OT DIIS     0.15E+00    9.8     0.00000032       -79.1697323055 -1.45E-11
  Decoupling Energy:                                               0.0003670763
   223 OT DIIS     0.15E+00   10.0     0.00000033       -79.1697323055 -1.29E-11
  Decoupling Energy:                                               0.0003670770
   224 OT DIIS     0.15E+00    9.8     0.00000032       -79.1697323055 -3.81E-11
  Decoupling Energy:                                               0.0003670769
   225 OT DIIS     0.15E+00    9.7     0.00000029       -79.1697323055 -4.26E-14
  Decoupling Energy:                                               0.0003670782
   226 OT SD       0.15E+00    8.8     0.00000027       -79.1697323056 -5.96E-11
  Decoupling Energy:                                               0.0003670781
   227 OT DIIS     0.15E+00    9.3     0.00000045       -79.1697323056 -9.24E-13
  Decoupling Energy:                                               0.0003670789
   228 OT DIIS     0.15E+00    9.3     0.00000023       -79.1697323056 -3.17E-11
  Decoupling Energy:                                               0.0003670792
   229 OT DIIS     0.15E+00    9.6     0.00000021       -79.1697323056 -5.56E-12
  Decoupling Energy:                                               0.0003670793
   230 OT DIIS     0.15E+00    9.8     0.00000019       -79.1697323056 -6.47E-12
  Decoupling Energy:                                               0.0003670793
   231 OT DIIS     0.15E+00    9.6     0.00000020       -79.1697323056 -4.56E-12
  Decoupling Energy:                                               0.0003670794
   232 OT SD       0.15E+00    9.2     0.00000017       -79.1697323056 -4.72E-12
  Decoupling Energy:                                               0.0003670793
   233 OT DIIS     0.15E+00    9.5     0.00000029       -79.1697323056 -4.26E-13
  Decoupling Energy:                                               0.0003670794
   234 OT DIIS     0.15E+00    9.4     0.00000014       -79.1697323056 -5.43E-12
  Decoupling Energy:                                               0.0003670793
   235 OT DIIS     0.15E+00    9.6     0.00000014       -79.1697323056 -1.56E-12
  Decoupling Energy:                                               0.0003670793
   236 OT DIIS     0.15E+00    9.3     0.00000014       -79.1697323056 -3.55E-12
  Decoupling Energy:                                               0.0003670793
   237 OT DIIS     0.15E+00    9.2     0.00000015       -79.1697323056 -1.02E-12
  Decoupling Energy:                                               0.0003670792
   238 OT DIIS     0.15E+00    9.5     0.00000014       -79.1697323057 -1.28E-12
  Decoupling Energy:                                               0.0003670789
   239 OT DIIS     0.15E+00    9.9     0.00000013       -79.1697323057 -4.38E-12
  Decoupling Energy:                                               0.0003670790
   240 OT DIIS     0.15E+00    9.9     0.00000012       -79.1697323057 -2.19E-12
  Decoupling Energy:                                               0.0003670788
   241 OT DIIS     0.15E+00    9.6     0.00000012       -79.1697323057 -2.13E-12
  Decoupling Energy:                                               0.0003670788
   242 OT DIIS     0.15E+00    9.8     0.00000011       -79.1697323057 -1.25E-12
  Decoupling Energy:                                               0.0003670786
   243 OT DIIS     0.15E+00    9.7     0.00000012       -79.1697323057 -2.44E-12
  Decoupling Energy:                                               0.0003670785
   244 OT DIIS     0.15E+00    9.4     0.00000011       -79.1697323057 -1.98E-12
  Decoupling Energy:                                               0.0003670784
   245 OT DIIS     0.15E+00    9.8     0.00000011       -79.1697323057 -1.26E-12
  Decoupling Energy:                                               0.0003670783
   246 OT DIIS     0.15E+00    9.9     0.00000011       -79.1697323057 -1.39E-12
  Decoupling Energy:                                               0.0003670781
   247 OT SD       0.15E+00    9.6     0.00000010       -79.1697323057 -3.62E-12
  Decoupling Energy:                                               0.0003670781
   248 OT DIIS     0.15E+00    9.4     0.00000013       -79.1697323057 -2.42E-13
  Decoupling Energy:                                               0.0003670778
   249 OT DIIS     0.15E+00    9.6     0.00000010       -79.1697323057 -3.47E-12
  Decoupling Energy:                                               0.0003670777
   250 OT DIIS     0.15E+00    9.6     0.00000009       -79.1697323057 -2.84E-13
  Decoupling Energy:                                               0.0003670776
   251 OT DIIS     0.15E+00    9.8     0.00000009       -79.1697323057 -1.99E-12
  Decoupling Energy:                                               0.0003670774
   252 OT DIIS     0.15E+00    9.5     0.00000009       -79.1697323057 -1.63E-12
  Decoupling Energy:                                               0.0003670773
   253 OT DIIS     0.15E+00    9.1     0.00000009       -79.1697323057 -5.12E-13
  Decoupling Energy:                                               0.0003670773
   254 OT DIIS     0.15E+00    9.4     0.00000009       -79.1697323057 -2.84E-13
  Decoupling Energy:                                               0.0003670771
   255 OT DIIS     0.15E+00    9.6     0.00000008       -79.1697323057 -1.72E-12
  Decoupling Energy:                                               0.0003670771
   256 OT DIIS     0.15E+00    9.2     0.00000008       -79.1697323057 -5.54E-13
  Decoupling Energy:                                               0.0003670770
   257 OT DIIS     0.15E+00    8.8     0.00000007       -79.1697323057 -6.39E-13
  Decoupling Energy:                                               0.0003670770
   258 OT DIIS     0.15E+00    9.4     0.00000007       -79.1697323057 -8.53E-14
  Decoupling Energy:                                               0.0003670770
   259 OT DIIS     0.15E+00    9.3     0.00000007       -79.1697323057 -9.95E-13
  Decoupling Energy:                                               0.0003670770
   260 OT DIIS     0.15E+00    9.8     0.00000007       -79.1697323057 -6.11E-13
  Decoupling Energy:                                               0.0003670770
   261 OT DIIS     0.15E+00    9.6     0.00000007       -79.1697323057 -1.71E-13
  Decoupling Energy:                                               0.0003670770
   262 OT DIIS     0.15E+00    9.6     0.00000007       -79.1697323057 -5.12E-13
  Decoupling Energy:                                               0.0003670770
   263 OT DIIS     0.15E+00    9.7     0.00000006       -79.1697323057 -2.98E-13
  Decoupling Energy:                                               0.0003670772
   264 OT DIIS     0.15E+00    9.2     0.00000006       -79.1697323057 -7.39E-13
  Decoupling Energy:                                               0.0003670772
   265 OT DIIS     0.15E+00    9.1     0.00000006       -79.1697323057 -2.84E-13
  Decoupling Energy:                                               0.0003670772
   266 OT DIIS     0.15E+00    9.5     0.00000006       -79.1697323057 -1.56E-13
  Decoupling Energy:                                               0.0003670774
   267 OT DIIS     0.15E+00    9.6     0.00000006       -79.1697323057 -7.96E-13
  Decoupling Energy:                                               0.0003670775
   268 OT DIIS     0.15E+00    9.7     0.00000006       -79.1697323057 -4.12E-13
  Decoupling Energy:                                               0.0003670775
   269 OT DIIS     0.15E+00    9.7     0.00000006       -79.1697323057 -1.71E-13
  Decoupling Energy:                                               0.0003670777
   270 OT DIIS     0.15E+00   10.3     0.00000006       -79.1697323057 -4.69E-13
  Decoupling Energy:                                               0.0003670777
   271 OT DIIS     0.15E+00   10.4     0.00000005       -79.1697323057 -4.26E-14
  Decoupling Energy:                                               0.0003670779
   272 OT DIIS     0.15E+00   10.3     0.00000005       -79.1697323057 -5.54E-13
  Decoupling Energy:                                               0.0003670780
   273 OT DIIS     0.15E+00   10.7     0.00000005       -79.1697323057 -2.84E-14
  Decoupling Energy:                                               0.0003670780
   274 OT DIIS     0.15E+00   11.0     0.00000005       -79.1697323057 -8.53E-14
  Decoupling Energy:                                               0.0003670782
   275 OT DIIS     0.15E+00    9.9     0.00000004       -79.1697323057 -9.95E-14
  Decoupling Energy:                                               0.0003670782
   276 OT DIIS     0.15E+00   10.5     0.00000004       -79.1697323057 -2.84E-14
  Decoupling Energy:                                               0.0003670782
   277 OT DIIS     0.15E+00   11.7     0.00000004       -79.1697323057 -5.68E-14
  Decoupling Energy:                                               0.0003670783
   278 OT SD       0.15E+00   10.0     0.00000004       -79.1697323057  0.00E+00
  Decoupling Energy:                                               0.0003670783
   279 OT DIIS     0.15E+00   10.2     0.00000006       -79.1697323057 -4.26E-14
  Decoupling Energy:                                               0.0003670783
   280 OT SD       0.15E+00    9.8     0.00000004       -79.1697323057 -9.95E-14
  Decoupling Energy:                                               0.0003670783
   281 OT DIIS     0.15E+00    9.8     0.00000005       -79.1697323057  0.00E+00
  Decoupling Energy:                                               0.0003670783
   282 OT DIIS     0.15E+00   10.2     0.00000004       -79.1697323057 -8.53E-14
  Decoupling Energy:                                               0.0003670783
   283 OT DIIS     0.15E+00   10.5     0.00000004       -79.1697323057 -4.26E-14
  Decoupling Energy:                                               0.0003670783
   284 OT DIIS     0.15E+00   10.4     0.00000004       -79.1697323057  1.42E-14
  Decoupling Energy:                                               0.0003670782
   285 OT DIIS     0.15E+00   10.0     0.00000004       -79.1697323057 -1.99E-13
  Decoupling Energy:                                               0.0003670782
   286 OT DIIS     0.15E+00    9.5     0.00000003       -79.1697323057 -8.53E-14
  Decoupling Energy:                                               0.0003670781
   287 OT DIIS     0.15E+00   10.0     0.00000004       -79.1697323057 -4.83E-13
  Decoupling Energy:                                               0.0003670781
   288 OT DIIS     0.15E+00   10.2     0.00000003       -79.1697323057  7.11E-14
  Decoupling Energy:                                               0.0003670780
   289 OT DIIS     0.15E+00    9.5     0.00000003       -79.1697323057 -4.26E-13
  Decoupling Energy:                                               0.0003670779
   290 OT DIIS     0.15E+00    9.8     0.00000003       -79.1697323057 -2.84E-13
  Decoupling Energy:                                               0.0003670779
   291 OT DIIS     0.15E+00    9.6     0.00000003       -79.1697323057 -5.68E-14
  Decoupling Energy:                                               0.0003670778
   292 OT DIIS     0.15E+00   10.5     0.00000003       -79.1697323057 -4.26E-14
  Decoupling Energy:                                               0.0003670778
   293 OT DIIS     0.15E+00   10.9     0.00000003       -79.1697323057 -1.71E-13
  Decoupling Energy:                                               0.0003670778
   294 OT DIIS     0.15E+00   10.2     0.00000002       -79.1697323057  2.84E-14
  Decoupling Energy:                                               0.0003670778
   295 OT SD       0.15E+00    9.9     0.00000002       -79.1697323057 -2.70E-13
  Decoupling Energy:                                               0.0003670778
   296 OT DIIS     0.15E+00   11.6     0.00000003       -79.1697323057  5.68E-14
  Decoupling Energy:                                               0.0003670778
   297 OT DIIS     0.15E+00   10.7     0.00000002       -79.1697323057 -4.26E-14
  Decoupling Energy:                                               0.0003670778
   298 OT DIIS     0.15E+00   10.8     0.00000002       -79.1697323057 -2.84E-14
  Decoupling Energy:                                               0.0003670779
   299 OT DIIS     0.15E+00   10.9     0.00000002       -79.1697323057 -2.84E-14
  Decoupling Energy:                                               0.0003670779
   300 OT SD       0.15E+00    9.8     0.00000002       -79.1697323057 -1.42E-14
  Decoupling Energy:                                               0.0003670779
   301 OT DIIS     0.15E+00    9.1     0.00000003       -79.1697323057  1.42E-14
  Decoupling Energy:                                               0.0003670780
   302 OT DIIS     0.15E+00    9.1     0.00000002       -79.1697323057  1.42E-14
  Decoupling Energy:                                               0.0003670780
   303 OT DIIS     0.15E+00    9.6     0.00000002       -79.1697323057  0.00E+00
  Decoupling Energy:                                               0.0003670780
   304 OT DIIS     0.15E+00    8.6     0.00000002       -79.1697323057  0.00E+00
  Decoupling Energy:                                               0.0003670781
   305 OT DIIS     0.15E+00    9.2     0.00000002       -79.1697323057 -1.42E-14
  Decoupling Energy:                                               0.0003670781
   306 OT DIIS     0.15E+00    9.6     0.00000002       -79.1697323057 -4.26E-14
  Decoupling Energy:                                               0.0003670781
   307 OT DIIS     0.15E+00   11.9     0.00000002       -79.1697323057  0.00E+00
  Decoupling Energy:                                               0.0003670782
   308 OT DIIS     0.15E+00    8.7     0.00000002       -79.1697323057  4.26E-14
  Decoupling Energy:                                               0.0003670782
   309 OT DIIS     0.15E+00    8.6     0.00000002       -79.1697323057 -4.26E-14
  Decoupling Energy:                                               0.0003670782
   310 OT DIIS     0.15E+00    8.7     0.00000002       -79.1697323057 -1.42E-14
  Decoupling Energy:                                               0.0003670782
   311 OT DIIS     0.15E+00    8.5     0.00000002       -79.1697323057  5.68E-14
  Decoupling Energy:                                               0.0003670782
   312 OT DIIS     0.15E+00    9.5     0.00000002       -79.1697323057 -5.68E-14
  Decoupling Energy:                                               0.0003670782
   313 OT DIIS     0.15E+00    8.4     0.00000001       -79.1697323057  1.42E-14
  Decoupling Energy:                                               0.0003670782
   314 OT DIIS     0.15E+00    8.0     0.00000002       -79.1697323057 -5.68E-14
  Decoupling Energy:                                               0.0003670782
   315 OT DIIS     0.15E+00    8.0     0.00000001       -79.1697323057  2.84E-14
  Decoupling Energy:                                               0.0003670782
   316 OT DIIS     0.15E+00    8.1     0.00000001       -79.1697323057  1.42E-14
  Decoupling Energy:                                               0.0003670783
   317 OT DIIS     0.15E+00    9.0     0.00000001       -79.1697323057  4.26E-14
  Decoupling Energy:                                               0.0003670783
   318 OT DIIS     0.15E+00    8.8     0.00000001       -79.1697323057 -1.42E-14
  Decoupling Energy:                                               0.0003670783
   319 OT DIIS     0.15E+00    8.4     0.00000001       -79.1697323057  5.68E-14
  Decoupling Energy:                                               0.0003670783
   320 OT DIIS     0.15E+00    8.9     0.00000001       -79.1697323057  1.42E-14
  Decoupling Energy:                                               0.0003670783
   321 OT DIIS     0.15E+00    8.6     0.00000001       -79.1697323057  8.53E-14
  Decoupling Energy:                                               0.0003670783
   322 OT DIIS     0.15E+00    7.9     0.00000001       -79.1697323057  7.11E-14
  Decoupling Energy:                                               0.0003670783
   323 OT DIIS     0.15E+00    8.8     0.00000001       -79.1697323057  7.11E-14
  Decoupling Energy:                                               0.0003670783
   324 OT DIIS     0.15E+00    8.3     0.00000001       -79.1697323057  4.26E-14
  Decoupling Energy:                                               0.0003670783
   325 OT DIIS     0.15E+00    8.2     9.9335E-09       -79.1697323057  8.53E-14

  *** SCF run converged in   325 steps ***


  Electronic density on regular grids:        -15.9999875994        0.0000124006
  Core density on regular grids:               16.0000000000       -0.0000000000
  Total charge density on r-space grids:        0.0000124006
  Total charge density g-space grids:           0.0000124006

  Overlap energy of the core charge distribution:               0.00000000000000
  Self energy of the core charge distribution:               -187.87291228687351
  Core Hamiltonian energy:                                     54.74928158292441
  Hartree energy:                                              65.93366879980655
  Exchange-correlation energy:                                -11.97977040154907

  Total energy:                                               -79.16973230569164

  outer SCF iter =    1 RMS gradient =   0.99E-08 energy =        -79.1697323057
  outer SCF loop converged in   1 iterations or  325 steps

  
 -------------------------------------------------------------------------------
 -                                                                             -
 -                          BANDSTRUCTURE CALCULATION                          -
 -                                                                             -
 -------------------------------------------------------------------------------
  
 Number of occupied molecular orbitals (MOs) = Number of occupied bands        8
 Number of unoccupied (= virtual) MOs = Number of unoccupied bands            19
 Number of Gaussian basis functions for MOs                                   27
  
 -------------------------------------------------------------------------------
 -                                                                             -
 -                                GW CALCULATION                               -
 -                                                                             -
 -------------------------------------------------------------------------------
  
 Input: Number of time/freq. points                                           30
 Input: ω_max for fitting Σ(iω) (eV)                                        10.0
 Input: Filter threshold for sparse tensor operations                    1.0E-07
 Input: Apply Hedin shift                                                      F
 Input: Available memory per MPI process                                  8.0 GB
 
 Input: RI-RS Tikhonov regularization                                   1.00E-04
 Input: AO grid hard cutoff radius                                        8.00 Å
 Input: MPI ranks per atom in Z_lP solve                                      -1
 Input: Keep sparsity in χ/G/W panels                                          T
 Input: GW flavour                                                          G0W0
 
 Input: RI-RS grid optimization activated                                      T
 Input: Initial RI-RS grid                                              CHOLESKY
 Input: RS points per AO function                                         3.0000
 Input: Initial RS candidates per AO function                            30.0000
 Input: Additional Lebedev degree                                              2
 Input: Cholesky selection matrix                                        D_PRIME
 Input: Cholesky candidate domain                                      FULL_ATOM
 Input: Initial radial quadrature                                       GAPW_LOG
 Input: Cutoff radius for atomic clusters                                  3.0 Å
 Input: Maximum grid optimization iterations                                 300
 Input: L-BFGS history size                                                    7
 Input: L-BFGS relative-function factor                              0.00000E+00
 Input: L-BFGS projected-gradient tolerance                          1.00000E-09
 
 Input: AUTO_RI basis optimization activated:                                  T
 Input: AUTO_RI requested RI/AO ratio:                                       5.0
 Input: AUTO_RI frontier orbital window:                                  5.0 eV
 Input: AUTO_RI neighbor radius:                                           3.0 Å
 
 Cutoff radius for the truncated Coulomb operator in RI metric:            7.0 Å
 Regularization parameter of RI                                          0.0E+00
 Regularization parameter of minimax grids                               1.0E-06
 
 AUTO_RI| Number of automatic RI functions for χ, ε, W:                      127
 AUTO_RI| Total RI basis optimization time:                                1.5 s
  Decoupling Energy:                                               0.0003670783
 
 SCF direct band gap (eV)                                                   0.67
 Max. SCF eigval diff. (eV)                                               135.95
 E-Range for minimax grid                                                 202.17
 Number of Padé parameters for analytic continuation:                         16
 
 RI-RS basis radii (Å):
     Kind  Elem     r_AO (Å)     r_RI (Å)
        1    Mg        8.7149        6.4785
        2    O         7.0817        4.4789
 
 RI-RS initialization: atomic kind                                             1
 RI-RS initialization: Lebedev degree                                          9
 RI-RS initialization: radial shells                                          12
 RI-RS initialization: candidates per atom                                   456
 RI-RS initialization: retained points per atom                               42
 RI-RS initialization: atomic kind                                             2
 RI-RS initialization: Lebedev degree                                          9
 RI-RS initialization: radial shells                                          11
 RI-RS initialization: candidates per atom                                   418
 RI-RS initialization: retained points per atom                               39
 RI-RS initialization: largest cluster candidate count                       874
 RI-RS initialization: most pivots in one cluster                             84
 RI-RS initialization: most stored AO values in one cluster                23533
 RI-RS initialization: wall time [s]                                       0.050
 Started RI-RS grid optimization
 RI-RS grid initial normalized error                          3.390950439549E-02
 RI-RS grid optimization completed, execution time:                        0.9 s
 Normalized 3C error:                                                    1.6E-04
 Maximum absolute 3C error:                                              5.6E-02
 Optimized points outside molecular Voronoi cells:                             4 / 81
 Total grid points used for RI-RS:                                            81
 
 RI-RS grid row-blocks of Φ_μ(r_l)                                             4
 RI-RS grid points per block (max)                                            32
 
 Percentage of non-zero matrix elements in Φ_μ(r_l)                     100.00 %
 
 RI-RS memory estimate per MPI process:
   Available memory per process (system)                               152.35 GB
   Required for Z_lP (dense upper bound; actual is sparser)              0.00 GB
   Required for χ, W, Σ panels (peak per panel step)                     0.00 GB
   Required for Z_lP solve peak (D_local+φ, worst-case atom)             0.00 GB
   Worst-case local-grid number of grid points:                               81
   Worst-case memory D_local:                                            0.00 GB
 
 Started computing Z_lP
 Computed Z_lP (MPI rank 0) for atom          1 /  2,    Execution time    0.1 s
 Computed Z_lP (MPI rank 0) for atom          2 /  2,    Execution time    0.0 s
 Computed Z_lP (all MPI ranks) for all atoms,            Execution time    0.1 s

 Number of batches for χ, Σ matrices                                           1
 
 Percentage of non-zero matrix elements in Z_lP                         100.00 %
 Percentage of non-zero matrix elements in G_ll', χ_ll', W_ll'          100.00 %
 Percentage of non-zero matrix elements in χ_PQ for time point 1        100.00 %
 
 Computed χ(iτ,k=0) for time point            1 / 30,    Execution time    0.1 s
 Computed χ(iτ,k=0) for time point            2 / 30,    Execution time    0.0 s
 Computed χ(iτ,k=0) for time point            3 / 30,    Execution time    0.0 s
 Computed χ(iτ,k=0) for time point            4 / 30,    Execution time    0.0 s
 Computed χ(iτ,k=0) for time point            5 / 30,    Execution time    0.0 s
 Computed χ(iτ,k=0) for time point            6 / 30,    Execution time    0.0 s
 Computed χ(iτ,k=0) for time point            7 / 30,    Execution time    0.0 s
 Computed χ(iτ,k=0) for time point            8 / 30,    Execution time    0.0 s
 Computed χ(iτ,k=0) for time point            9 / 30,    Execution time    0.0 s
 Computed χ(iτ,k=0) for time point           10 / 30,    Execution time    0.0 s
 Computed χ(iτ,k=0) for time point           11 / 30,    Execution time    0.0 s
 Computed χ(iτ,k=0) for time point           12 / 30,    Execution time    0.0 s
 Computed χ(iτ,k=0) for time point           13 / 30,    Execution time    0.0 s
 Computed χ(iτ,k=0) for time point           14 / 30,    Execution time    0.0 s
 Computed χ(iτ,k=0) for time point           15 / 30,    Execution time    0.0 s
 Computed χ(iτ,k=0) for time point           16 / 30,    Execution time    0.0 s
 Computed χ(iτ,k=0) for time point           17 / 30,    Execution time    0.0 s
 Computed χ(iτ,k=0) for time point           18 / 30,    Execution time    0.0 s
 Computed χ(iτ,k=0) for time point           19 / 30,    Execution time    0.0 s
 Computed χ(iτ,k=0) for time point           20 / 30,    Execution time    0.0 s
 Computed χ(iτ,k=0) for time point           21 / 30,    Execution time    0.0 s
 Computed χ(iτ,k=0) for time point           22 / 30,    Execution time    0.0 s
 Computed χ(iτ,k=0) for time point           23 / 30,    Execution time    0.0 s
 Computed χ(iτ,k=0) for time point           24 / 30,    Execution time    0.0 s
 Computed χ(iτ,k=0) for time point           25 / 30,    Execution time    0.0 s
 Computed χ(iτ,k=0) for time point           26 / 30,    Execution time    0.0 s
 Computed χ(iτ,k=0) for time point           27 / 30,    Execution time    0.0 s
 Computed χ(iτ,k=0) for time point           28 / 30,    Execution time    0.0 s
 Computed χ(iτ,k=0) for time point           29 / 30,    Execution time    0.0 s
 Computed χ(iτ,k=0) for time point           30 / 30,    Execution time    0.0 s
 
 Computed W(iτ),                                         Execution time    0.1 s
 
 Computed Σ^x(k=0),                                      Execution time    0.0 s
 
 Computed Σ^c(iτ) for time point              1 / 30,    Execution time    0.0 s
 Computed Σ^c(iτ) for time point              2 / 30,    Execution time    0.0 s
 Computed Σ^c(iτ) for time point              3 / 30,    Execution time    0.0 s
 Computed Σ^c(iτ) for time point              4 / 30,    Execution time    0.0 s
 Computed Σ^c(iτ) for time point              5 / 30,    Execution time    0.0 s
 Computed Σ^c(iτ) for time point              6 / 30,    Execution time    0.0 s
 Computed Σ^c(iτ) for time point              7 / 30,    Execution time    0.0 s
 Computed Σ^c(iτ) for time point              8 / 30,    Execution time    0.0 s
 Computed Σ^c(iτ) for time point              9 / 30,    Execution time    0.0 s
 Computed Σ^c(iτ) for time point             10 / 30,    Execution time    0.0 s
 Computed Σ^c(iτ) for time point             11 / 30,    Execution time    0.0 s
 Computed Σ^c(iτ) for time point             12 / 30,    Execution time    0.0 s
 Computed Σ^c(iτ) for time point             13 / 30,    Execution time    0.0 s
 Computed Σ^c(iτ) for time point             14 / 30,    Execution time    0.0 s
 Computed Σ^c(iτ) for time point             15 / 30,    Execution time    0.0 s
 Computed Σ^c(iτ) for time point             16 / 30,    Execution time    0.0 s
 Computed Σ^c(iτ) for time point             17 / 30,    Execution time    0.0 s
 Computed Σ^c(iτ) for time point             18 / 30,    Execution time    0.0 s
 Computed Σ^c(iτ) for time point             19 / 30,    Execution time    0.0 s
 Computed Σ^c(iτ) for time point             20 / 30,    Execution time    0.0 s
 Computed Σ^c(iτ) for time point             21 / 30,    Execution time    0.0 s
 Computed Σ^c(iτ) for time point             22 / 30,    Execution time    0.0 s
 Computed Σ^c(iτ) for time point             23 / 30,    Execution time    0.0 s
 Computed Σ^c(iτ) for time point             24 / 30,    Execution time    0.0 s
 Computed Σ^c(iτ) for time point             25 / 30,    Execution time    0.0 s
 Computed Σ^c(iτ) for time point             26 / 30,    Execution time    0.0 s
 Computed Σ^c(iτ) for time point             27 / 30,    Execution time    0.0 s
 Computed Σ^c(iτ) for time point             28 / 30,    Execution time    0.0 s
 Computed Σ^c(iτ) for time point             29 / 30,    Execution time    0.0 s
 Computed Σ^c(iτ) for time point             30 / 30,    Execution time    0.0 s
 
 SCF valence band maximum (eV):                                           -5.014
 SCF conduction band minimum (eV):                                        -4.342
 SCF indirect band gap (eV):                                               0.672
 SCF direct band gap (eV):                                                 0.672
 
 G0W0 valence band maximum (eV):                                          -6.303
 G0W0 conduction band minimum (eV):                                       -1.077
 G0W0 indirect band gap (eV):                                              5.226
 G0W0 direct band gap (eV):                                                5.226
 
 Hartree-Fock with SCF orbitals valence band maximum (eV):                -9.061
 Hartree-Fock with SCF orbitals conduction band minimum (eV)              -0.807
 Hartree-Fock with SCF orbitals indirect band gap (eV):                    8.254
 Hartree-Fock with SCF orbitals direct band gap (eV):                      8.254

 ENERGY| Total FORCE_EVAL ( QS ) energy [hartree]            -79.169732305691639

 -------------------------------------------------------------------------------
 -                                                                             -
 -                                DBCSR STATISTICS                             -
 -                                                                             -
 -------------------------------------------------------------------------------
 COUNTER                                    TOTAL       BLAS       SMM       ACC
 flops     7 x    13 x     7                54782       0.0%    100.0%      0.0%     
 flops     7 x    14 x     7                58996       0.0%    100.0%      0.0%     
 flops     7 x     7 x    27                68796       0.0%    100.0%      0.0%     
 flops    10 x    13 x     7                78260       0.0%    100.0%      0.0%     
 flops     7 x    13 x    10                78260       0.0%    100.0%      0.0%     
 flops    10 x    14 x     7                84280       0.0%    100.0%      0.0%     
 flops     7 x    14 x    10                84280       0.0%    100.0%      0.0%     
 flops    13 x    13 x     7                97006       0.0%    100.0%      0.0%     
 flops    10 x     7 x    27                98280       0.0%    100.0%      0.0%     
 flops     7 x    10 x    27                98280       0.0%    100.0%      0.0%     
 flops    13 x    14 x     7               101920       0.0%    100.0%      0.0%     
 flops     7 x     7 x    13               103194       0.0%    100.0%      0.0%     
 flops    14 x    13 x     7               104468       0.0%    100.0%      0.0%     
 flops     7 x     7 x    14               108388       0.0%    100.0%      0.0%     
 flops    14 x    14 x     7               109760       0.0%    100.0%      0.0%     
 flops    10 x    13 x    10               111800       0.0%    100.0%      0.0%     
 flops    10 x    14 x    10               120400       0.0%    100.0%      0.0%     
 flops    10 x    10 x    27               140400       0.0%    100.0%      0.0%     
 flops    10 x     7 x    13               143780       0.0%    100.0%      0.0%     
 flops     7 x    10 x    13               143780       0.0%    100.0%      0.0%     
 flops    13 x    13 x    10               145340       0.0%    100.0%      0.0%     
 flops    10 x     7 x    14               154840       0.0%    100.0%      0.0%     
 flops     7 x    10 x    14               154840       0.0%    100.0%      0.0%     
 flops    14 x    13 x    10               156520       0.0%    100.0%      0.0%     
 flops    13 x    14 x    10               156520       0.0%    100.0%      0.0%     
 flops     7 x    63 x     7               160524       0.0%    100.0%      0.0%     
 flops     7 x    64 x     7               163072       0.0%    100.0%      0.0%     
 flops    14 x    14 x    10               168560       0.0%    100.0%      0.0%     
 flops    10 x    10 x    13               205400       0.0%    100.0%      0.0%     
 flops    10 x    10 x    14               221200       0.0%    100.0%      0.0%     
 flops    10 x    63 x     7               229320       0.0%    100.0%      0.0%     
 flops     7 x    63 x    10               229320       0.0%    100.0%      0.0%     
 flops    10 x    64 x     7               232960       0.0%    100.0%      0.0%     
 flops     7 x    64 x    10               232960       0.0%    100.0%      0.0%     
 flops     7 x    13 x    13               257894       0.0%    100.0%      0.0%     
 flops     7 x    13 x    14               267540       0.0%    100.0%      0.0%     
 flops     7 x     7 x   127               273812       0.0%    100.0%      0.0%     
 flops     7 x    14 x    13               277732       0.0%    100.0%      0.0%     
 flops     7 x    14 x    14               293608       0.0%    100.0%      0.0%     
 flops    10 x    63 x    10               327600       0.0%    100.0%      0.0%     
 flops    10 x    64 x    10               332800       0.0%    100.0%      0.0%     
 flops    10 x    13 x    13               361660       0.0%    100.0%      0.0%     
 flops    10 x    14 x    13               382200       0.0%    100.0%      0.0%     
 flops    10 x     7 x   127               391160       0.0%    100.0%      0.0%     
 flops     7 x    10 x   127               391160       0.0%    100.0%      0.0%     
 flops    10 x    13 x    14               396760       0.0%    100.0%      0.0%     
 flops    10 x    14 x    14               419440       0.0%    100.0%      0.0%     
 flops    32 x    13 x     7               500864       0.0%    100.0%      0.0%     
 flops     7 x    13 x    32               500864       0.0%    100.0%      0.0%     
 flops    32 x    14 x     7               539392       0.0%    100.0%      0.0%     
 flops     7 x    14 x    32               539392       0.0%    100.0%      0.0%     
 flops    10 x    10 x   127               558800       0.0%    100.0%      0.0%     
 flops    32 x     7 x    27               628992       0.0%    100.0%      0.0%     
 flops     7 x    32 x    27               628992       0.0%    100.0%      0.0%     
 flops    32 x    13 x    10               715520       0.0%    100.0%      0.0%     
 flops    10 x    13 x    32               715520       0.0%    100.0%      0.0%     
 flops    32 x    14 x    10               770560       0.0%    100.0%      0.0%     
 flops    10 x    14 x    32               770560       0.0%    100.0%      0.0%     
 flops    13 x    13 x     8               881504       0.0%    100.0%      0.0%     
 flops    32 x    10 x    27               898560       0.0%    100.0%      0.0%     
 flops    10 x    32 x    27               898560       0.0%    100.0%      0.0%     
 flops    13 x    13 x    32               930176       0.0%    100.0%      0.0%     
 flops    32 x     7 x    13               943488       0.0%    100.0%      0.0%     
 flops     7 x    32 x    13               943488       0.0%    100.0%      0.0%     
 flops    13 x    14 x     8               949312       0.0%    100.0%      0.0%     
 flops    13 x    14 x    32               978432       0.0%    100.0%      0.0%     
 flops     7 x    32 x    14               990976       0.0%    100.0%      0.0%     
 flops    32 x     7 x    14               997248       0.0%    100.0%      0.0%     
 flops    14 x    13 x    32              1001728       0.0%    100.0%      0.0%     
 flops    14 x    14 x     8              1022336       0.0%    100.0%      0.0%     
 flops    14 x    14 x    32              1053696       0.0%    100.0%      0.0%     
 flops     7 x    64 x    64              1204224       0.0%    100.0%      0.0%     
 flops     7 x    63 x    63              1222452       0.0%    100.0%      0.0%     
 flops     7 x    63 x    64              1241856       0.0%    100.0%      0.0%     
 flops     7 x    64 x    63              1241856       0.0%    100.0%      0.0%     
 flops    63 x    63 x     7              1278018       0.0%    100.0%      0.0%     
 flops    64 x    63 x     7              1298304       0.0%    100.0%      0.0%     
 flops    63 x    64 x     7              1298304       0.0%    100.0%      0.0%     
 flops    10 x    32 x    13              1314560       0.0%    100.0%      0.0%     
 flops    64 x    64 x     7              1318912       0.0%    100.0%      0.0%     
 flops    32 x    10 x    13              1331200       0.0%    100.0%      0.0%     
 flops    10 x    32 x    14              1415680       0.0%    100.0%      0.0%     
 flops    32 x    10 x    14              1442560       0.0%    100.0%      0.0%     
 flops     7 x    63 x    32              1467648       0.0%    100.0%      0.0%     
 flops     7 x    64 x    32              1490944       0.0%    100.0%      0.0%     
 flops    32 x    63 x     7              1495872       0.0%    100.0%      0.0%     
 flops    32 x    64 x     7              1519616       0.0%    100.0%      0.0%     
 flops    10 x    64 x    64              1720320       0.0%    100.0%      0.0%     
 flops    10 x    63 x    63              1746360       0.0%    100.0%      0.0%     
 flops    10 x    63 x    64              1774080       0.0%    100.0%      0.0%     
 flops    10 x    64 x    63              1774080       0.0%    100.0%      0.0%     
 flops    13 x     8 x    13              1817088       0.0%    100.0%      0.0%     
 flops    63 x    63 x    10              1825740       0.0%    100.0%      0.0%     
 flops    13 x     8 x    27              1830816       0.0%    100.0%      0.0%     
 flops    64 x    63 x    10              1854720       0.0%    100.0%      0.0%     
 flops    63 x    64 x    10              1854720       0.0%    100.0%      0.0%     
 flops    64 x    64 x    10              1884160       0.0%    100.0%      0.0%     
 flops    14 x     8 x    13              1956864       0.0%    100.0%      0.0%     
 flops    13 x     8 x    14              1956864       0.0%    100.0%      0.0%     
 flops    14 x     8 x    27              1971648       0.0%    100.0%      0.0%     
 flops    32 x    63 x    10              2096640       0.0%    100.0%      0.0%     
 flops    10 x    63 x    32              2096640       0.0%    100.0%      0.0%     
 flops    14 x     8 x    14              2107392       0.0%    100.0%      0.0%     
 flops    32 x    64 x    10              2129920       0.0%    100.0%      0.0%     
 flops    10 x    64 x    32              2129920       0.0%    100.0%      0.0%     
 flops    32 x    13 x    13              2357888       0.0%    100.0%      0.0%     
 flops    32 x     7 x   127              2503424       0.0%    100.0%      0.0%     
 flops     7 x    32 x   127              2503424       0.0%    100.0%      0.0%     
 flops    32 x    13 x    14              2539264       0.0%    100.0%      0.0%     
 flops    32 x    14 x    13              2539264       0.0%    100.0%      0.0%     
 flops    32 x    14 x    14              2684416       0.0%    100.0%      0.0%     
 flops    13 x     8 x     8              2702336       0.0%    100.0%      0.0%     
 flops    14 x     8 x     8              2910208       0.0%    100.0%      0.0%     
 flops     8 x     8 x     8              2989056       0.0%    100.0%      0.0%     
 flops    32 x    10 x   127              3576320       0.0%    100.0%      0.0%     
 flops    10 x    32 x   127              3576320       0.0%    100.0%      0.0%     
 flops     8 x     8 x    27              4489344       0.0%    100.0%      0.0%     
 flops    32 x    13 x    32              4579328       0.0%    100.0%      0.0%     
 flops    32 x    14 x    32              4931584       0.0%    100.0%      0.0%     
 flops    32 x    32 x    27              5750784       0.0%    100.0%      0.0%     
 flops    32 x    32 x    13              8599552       0.0%    100.0%      0.0%     
 flops    32 x    32 x    14              9261056       0.0%    100.0%      0.0%     
 flops    32 x    64 x    64             11010048       0.0%    100.0%      0.0%     
 flops    32 x    63 x    63             11176704       0.0%    100.0%      0.0%     
 flops    32 x    63 x    64             11354112       0.0%    100.0%      0.0%     
 flops    32 x    64 x    63             11354112       0.0%    100.0%      0.0%     
 flops    63 x    63 x    32             11938752       0.0%    100.0%      0.0%     
 flops    64 x    63 x    32             12128256       0.0%    100.0%      0.0%     
 flops    63 x    64 x    32             12128256       0.0%    100.0%      0.0%     
 flops    64 x    64 x    32             12320768       0.0%    100.0%      0.0%     
 flops    32 x    63 x    32             13547520       0.0%    100.0%      0.0%     
 flops    32 x    64 x    32             13762560       0.0%    100.0%      0.0%     
 flops    32 x    32 x   127             22888448       0.0%    100.0%      0.0%     
 flops inhomo. stacks                           0       0.0%      0.0%      0.0%
 flops total                       296.545894E+06       0.0%    100.0%      0.0%
 flops max/rank                    296.545894E+06       0.0%    100.0%      0.0%
 matmuls inhomo. stacks                         0       0.0%      0.0%      0.0%
 matmuls total                              20442       0.0%    100.0%      0.0%
 number of processed stacks                 18798       0.0%    100.0%      0.0%
 average stack size                                     0.0       1.1       0.0
 marketing flops                   375.556896E+06
 -------------------------------------------------------------------------------
 # multiplications                           7653
 max memory usage/rank              19.831316E+09
 # max total images/rank                        1
 # max 3D layers                                1
 # MPI messages exchanged                       0
 -------------------------------------------------------------------------------
 -                                                                             -
 -                      DBCSR MESSAGE PASSING PERFORMANCE                      -
 -                                                                             -
 -------------------------------------------------------------------------------
 ROUTINE             CALLS      AVE VOLUME [Bytes]
 MP_Bcast              134                     12.
 MP_Allreduce        36800                      8.
 MP_Alltoall         26658                   2166.
 MP_ISend            30458                     40.
 MP_IRecv            30458                     40.
 -------------------------------------------------------------------------------

 -------------------------------------------------------------------------------
 -                                                                             -
 -                                GRID STATISTICS                              -
 -                                                                             -
 -------------------------------------------------------------------------------
 LP    KERNEL             BACKEND                              COUNT     PERCENT
 4     collocate ortho    CPU                                  46618      50.00%
 4     integrate ortho    CPU                                  46618      50.00%
 0     collocate general  CPU                                      2       0.00%
 -------------------------------------------------------------------------------

 -------------------------------------------------------------------------------
 -                                                                             -
 -                          OFFLOAD MEMPOOL STATISTICS                         -
 -                                                                             -
 -------------------------------------------------------------------------------
 Memory consumption                Number of allocations  Used [MiB]  Size [MiB]
 Host                                                  6         260    22008974
 -------------------------------------------------------------------------------

 MEMORY| Estimated peak process memory [MiB]                               11931

 -------------------------------------------------------------------------------
 -                                                                             -
 -                         MESSAGE PASSING PERFORMANCE                         -
 -                                                                             -
 -------------------------------------------------------------------------------

 ROUTINE             CALLS      AVE VOLUME [Bytes]
 MP_Group                5
 MP_Bcast             4268                   1028.
 MP_Allreduce        16817                     81.
 MP_Sync               351
 MP_comm_split         348
 -------------------------------------------------------------------------------


 -------------------------------------------------------------------------------
 -                                                                             -
 -                           R E F E R E N C E S                               -
 -                                                                             -
 -------------------------------------------------------------------------------
 
 CP2K version 2026.2 (Development Version), the CP2K developers group (2026).
 CP2K is freely available from https://www.cp2k.org/ .
 
 M. Iannuzzi, J. Wilhelm, F. Stein, A. Bussy, H. Elgabarty, D. Golze, A. Hehn, 
 M. Graml, S. Marek, B. Sertcan Gökmen, C. Schran, H. Forbert, R. Z. 
 Khaliullin, A. Kozhevnikov, M. Taillefumier, R. Meli, V. V. Rybkin, M. Brehm, 
 R. Schade, O. Schütt, J. V. Pototschnig, H. Mirhosseini, A. Knüpfer, D. Marx, 
 M. Krack, J. Hutter, T. D. Kühne.
 J. Phys. Chem. B 130, 1237-1310 (2026).
 The CP2K Program Package Made Simple.
 https://doi.org/10.1021/acs.jpcb.5c05851

 M. Graml, K. Zollner, D. Hernangómez-Pérez, P. E. Faria Junior, J. Wilhelm.
 J. Chem. Theory Comput. 20, 2202-2208 (2024).
 Low-scaling GW algorithm applied to twisted transition-metal dichalcogenide 
 heterobilayers.
 https://doi.org/10.1021/acs.jctc.3c01230

 T. D. Kühne, M. Iannuzzi, M. Del Ben, V. V. Rybkin, P. Seewald, F. Stein, T. 
 Laino, R. Z. Khaliullin, O. Schütt, F. Schiffmann, D. Golze, J. Wilhelm, S. 
 Chulkov, M. H. Bani-Hashemian, V. Weber, U. Borstnik, M. Taillefumier, A. S. 
 Jakobovits, A. Lazzaro, H. Pabst, T. Müller, R. Schade, M. Guidon, S. 
 Andermatt, N. Holmberg, G. K. Schenter, A. Hehn, A. Bussy, F. Belleflamme, G. 
 Tabacchi, A. Glöß, M. Lass, I. Bethune, C. J. Mundy, C. Plessl, M. Watkins, 
 J. VandeVondele, M. Krack, J. Hutter.
 J. Chem. Phys. 152, 194103 (2020).
 CP2K: An electronic structure and molecular dynamics software package - 
 Quickstep: Efficient and accurate electronic structure calculations.
 https://doi.org/10.1063/5.0007045

 O. Schuett, P. Messmer, J. Hutter, J. VandeVondele.
 Electronic Structure Calculations on Graphics Processing Units, 173-190 (2016).
 GPU-Accelerated Sparse Matrix-Matrix Multiplication for Linear Scaling Density 
 Functional Theory.
 https://doi.org/10.1002/9781118670712.ch8

 U. Borstnik, J. VandeVondele, V. Weber, J. Hutter.
 Parallel Comput. 40, 47-58 (2014).
 Sparse matrix multiplication: The distributed block-compressed sparse row 
 library.
 https://doi.org/10.1016/j.parco.2014.03.012

 J. VandeVondele, J. Hutter.
 J. Chem. Phys. 127, 114105 (2007).
 Gaussian basis sets for accurate calculations on molecular systems in gas and 
 condensed phases.
 https://doi.org/10.1063/1.2770708

 J. VandeVondele, M. Krack, F. Mohamed, M. Parrinello, T. Chassaing, J. Hutter.
 Comput. Phys. Commun. 167, 103-128 (2005).
 QUICKSTEP: Fast and accurate density functional calculations using a mixed 
 Gaussian and plane waves approach.
 https://doi.org/10.1016/j.cpc.2004.12.014

 M. Krack.
 Theor. Chem. Acc. 114, 145-152 (2005).
 Pseudopotentials for H to Kr optimized for gradient-corrected 
 exchange-correlation functionals.
 https://doi.org/10.1007/s00214-005-0655-y

 M. Frigo, S. G. Johnson.
 Proc. IEEE 93, 216-231 (2005).
 The design and implementation of FFTW3.
 https://doi.org/10.1109/JPROC.2004.840301

 J. VandeVondele, J. Hutter.
 J. Chem. Phys. 118, 4365-4369 (2003).
 An efficient orbital transformation method for electronic structure 
 calculations.
 https://doi.org/10.1063/1.1543154

 C. Hartwigsen, S. Goedecker, J. Hutter.
 Phys. Rev. B 58, 3641-3662 (1998).
 Relativistic separable dual-space Gaussian pseudopotentials from H to Rn.
 https://doi.org/10.1103/PhysRevB.58.3641

 G. Lippert, J. Hutter, M. Parrinello.
 Mol. Phys. 92, 477-487 (1997).
 A hybrid Gaussian and plane wave density functional scheme.
 https://doi.org/10.1080/002689797170220

 S. Goedecker, M. Teter, J. Hutter.
 Phys. Rev. B 54, 1703-1710 (1996).
 Separable dual-space Gaussian pseudopotentials.
 https://doi.org/10.1103/PhysRevB.54.1703

 J. P. Perdew, K. Burke, M. Ernzerhof.
 Phys. Rev. Lett. 77, 3865-3868 (1996).
 Generalized gradient approximation made simple.
 https://doi.org/10.1103/PhysRevLett.77.3865

 P. E. Blöchl.
 J. Chem. Phys. 103, 7422-7428 (1995).
 Electrostatic decoupling of periodic images of plane‐wave‐expanded 
 densities and derived atomic point charges.
 https://doi.org/10.1063/1.470314

 R. H. Byrd, P. H. Lu, J. Nocedal, C. Y. Zhu.
 SIAM J. Sci. Comput. 16, 1190-1208 (1995).
 A Limited Memory Algorithm for Bound Constrained Optimization.
 https://doi.org/10.1137/0916069


 -------------------------------------------------------------------------------
 -                                                                             -
 -                                T I M I N G                                  -
 -                                                                             -
 -------------------------------------------------------------------------------
 SUBROUTINE                       CALLS  ASD         SELF TIME        TOTAL TIME MAXRANK
                                MAXIMUM       AVERAGE  MAXIMUM  AVERAGE  MAXIMUM
 CP2K                                 1  1.0    0.671    0.671 3230.140 3230.140       0
 qs_energies                          1  2.0    0.140    0.140 3220.328 3220.328       0
 scf_env_do_scf                       1  3.0    0.111    0.111 3205.001 3205.001       0
 scf_env_do_scf_inner_loop          325  4.0    0.463    0.463 3195.644 3195.644       0
 qs_ks_build_kohn_sham_matrix       326  7.0    0.429    0.429 2486.808 2486.808       0
 qs_ks_update_qs_env                326  5.0    0.016    0.016 2484.675 2484.675       0
 rebuild_ks_matrix                  325  6.0    0.009    0.009 2484.587 2484.587       0
 fft_wrap_pw1pw2                   5536 10.4    0.358    0.358 2000.952 2000.952       0
 fft_wrap_pw1pw2_300               3580 11.8  268.642  268.642 1923.373 1923.373       0
 qs_vxc_create                      326  8.0    0.062    0.062 1714.609 1714.609       0
 xc_vxc_pw_create                   325  9.0   54.605   54.605 1714.547 1714.547       0
 xc_pw_derive                      1950 11.0    0.277    0.277 1246.154 1246.154       0
 fft3d_s                           5537 12.3 1004.807 1004.807 1004.867 1004.867       0
 xc_pw_divergence                   325 10.0    0.021    0.021  852.589  852.589       0
 xc_rho_set_and_dset_create         325 10.0   56.214   56.214  788.084  788.084       0
 qs_rho_update_rho_low              326  5.0    0.073    0.073  709.994  709.994       0
 calculate_rho_elec                 326  6.0   32.893   32.893  709.921  709.921       0
 pw_scatter_s                      2930 12.8  428.387  428.387  428.387  428.387       0
 density_rs2pw                      326  7.0    0.162    0.162  423.126  423.126       0
 qs_ks_ddapc                        326  8.0    0.029    0.029  259.330  259.330       0
 sum_up_and_integrate               326  8.0    0.128    0.128  256.327  256.327       0
 grid_collocate_task_list           326  7.0  253.902  253.902  253.902  253.902       0
 integrate_v_rspace                 326  9.0    0.260    0.260  245.840  245.840       0
 potential_pw2rs                    326 10.0    2.294    2.294  243.825  243.825       0
 pw_poisson_solve                   326  8.0    0.045    0.045  230.707  230.707       0
 pw_derive                         2928 11.3  200.352  200.352  200.352  200.352       0
 pw_gather_s                       2606 11.9  183.811  183.811  183.811  183.811       0
 pw_copy                           5212 10.6  163.047  163.047  163.047  163.047       0
 pw_integral_ab_c1d_c1d_gs          652  9.5  154.295  154.295  154.295  154.295       0
 pw_poisson_set                     327  9.0    0.012    0.012  110.902  110.902       0
 xc_functional_eval                 325 11.0    0.505    0.505   93.654   93.654       0
 cp_ddapc_apply_CD                  326  9.0    0.061    0.061   93.345   93.345       0
 pbe_lda_eval                       325 12.0   93.149   93.149   93.149   93.149       0
 pw_axpy                           3265  9.3   93.099   93.099   93.099   93.099       0
 fft_wrap_pw1pw2_100                652 10.5   11.164   11.164   69.577   69.577       0
 pw_copy_from_array                2930 12.8   52.797   52.797   52.797   52.797       0
 pw_copy_to_array                  2606 11.9   50.406   50.406   50.406   50.406       0
 pw_zero                           1645 10.3   28.794   28.794   28.794   28.794       0
 pw_scale                          1301  9.8   17.094   17.094   17.094   17.094       0
 get_ddapc                          326 10.0    0.036    0.036   14.923   14.923       0
 pw_multiply_with                   326  9.0   14.346   14.346   14.346   14.346       0
 transfer_pw2rs                    1304 11.0    0.012    0.012   13.661   13.661       0
 transfer_rs2pw                    1305  8.0    0.045    0.045   13.652   13.652       0
 transfer_pw2rs_300                 326 12.0   10.783   10.783   10.783   10.783       0
 transfer_rs2pw_300                 327  9.0   10.544   10.544   10.544   10.544       0
 init_scf_loop                        1  4.0    0.120    0.120    9.245    9.245       0
 qs_energies_properties               1  3.0    0.006    0.006    8.962    8.962       0
 post_scf_bandstructure               1  4.0    0.009    0.009    8.956    8.956       0
 gw                                   1  5.0    0.007    0.007    8.777    8.777       0
 qs_init_subsys                       1  2.0    0.213    0.213    8.548    8.548       0
 pw_grid_setup                        5  5.2    0.041    0.041    8.232    8.232       0
 pw_grid_setup_internal               5  6.2    0.083    0.083    8.190    8.190       0
 qs_env_setup                         1  3.0    0.011    0.011    8.184    8.184       0
 qs_env_rebuild_pw_env                2  3.5    0.010    0.010    8.173    8.173       0
 pw_env_rebuild                       1  5.0    0.023    0.023    8.163    8.163       0
 pw_grid_sort                         5  7.2    5.890    5.890    7.469    7.469       0
 create_and_init_bs_env_for_gw        1  6.0    0.597    0.597    6.834    6.834       0
 fft_wrap_pw1pw2_40                 652 10.5    0.440    0.440    6.309    6.309       0
 xc_pw_smooth                       325 10.0    0.001    0.001    6.164    6.164       0
 qs_scf_new_mos                     325  5.0    0.010    0.010    5.656    5.656       0
 qs_scf_loop_do_ot                  325  6.0    0.014    0.014    5.646    5.646       0
 ot_scf_mini                        325  7.0    0.067    0.067    5.405    5.405       0
 external_control                   325  5.0    5.044    5.044    5.045    5.045       0
 dbcsr_multiply_generic            7653 10.1    0.361    0.361    4.461    4.461       0
 init_scf_run                         1  3.0    0.000    0.000    4.022    4.022       0
 scf_env_initial_rho_setup            1  4.0    0.023    0.023    4.022    4.022       0
 ot_mini                            325  8.0    0.065    0.065    3.237    3.237       0
 -------------------------------------------------------------------------------

 The number of warnings for this run is : 0
 
 -------------------------------------------------------------------------------
  **** **** ******  **  PROGRAM ENDED AT                 2026-09-17 04:00:27.714
 ***** ** ***  *** **   PROGRAM RAN ON                                  n2cn0631
 **    ****   ******    PROGRAM RAN BY                                  eprop2d1
 ***** **    ** ** **   PROGRAM PROCESS ID                                213477
  **** **  *******  **  PROGRAM STOPPED IN /scratch/hpc-prf-metdyn/eprop2d1_Jan/
                                           53_benchmark_RI_opt/111_GW100_GTH_Leb
                                           edev_riao245_rc3/calculations/85_MgO_
                                           riao5_r03
