 DBCSR| CPU Multiplication driver                                           XSMM (U)
 DBCSR| Multrec recursion limit                                              512 (U)
 DBCSR| Multiplication stack size                                           1000 (D)
 DBCSR| Maximum elements for images                                    UNLIMITED (U)
 DBCSR| Multiplicative factor virtual images                                   1 (U)
 DBCSR| Use multiplication densification                                       T (D)
 DBCSR| Multiplication size stacks                                             3 (U)
 DBCSR| Use memory pool for CPU allocation                                     F (U)
 DBCSR| Number of 3D layers                                               SINGLE (U)
 DBCSR| Use MPI memory allocation                                              F (U)
 DBCSR| Use RMA algorithm                                                      F (U)
 DBCSR| Use Communication thread                                               T (U)
 DBCSR| Communication thread load                                             60 (D)
 DBCSR| MPI: My process id                                                     0
 DBCSR| MPI: Number of processes                                              64
 DBCSR| OMP: Current number of threads                                         8
 DBCSR| OMP: Max number of threads                                             8
 DBCSR| Split modifier for TAS multiplication algorithm                  1.0E+00 (U)


  **** **** ******  **  PROGRAM STARTED AT               2026-09-18 15:26:16.241
 ***** ** ***  *** **   PROGRAM STARTED ON                              n2cn0855
 **    ****   ******    PROGRAM STARTED BY                              eprop2d1
 ***** **    ** ** **   PROGRAM PROCESS ID                                414778
  **** **  *******  **  PROGRAM STARTED IN /scratch/hpc-prf-metdyn/eprop2d1_Jan/
                                           53_benchmark_RI_opt

 CP2K| version string:                 CP2K version 2026.2 (Development Version)
 CP2K| source code revision number:                                      1b0ef11
 CP2K| cp2kflags: omp libint fftw3 libxc parallel scalapack openblas            
 CP2K| is freely available from                            https://www.cp2k.org/
 CP2K| Program compiled at                                   2026-09-18 15:20:55
 CP2K| Program compiled on                                              n2login6
 CP2K| Program compiled for                                               x86_64
 CP2K| Data directory path    /opt/software/pc2/EB-SW/software/CP2K/2024.1-foss-
 CP2K| Input file name        /scratch/hpc-prf-metdyn/eprop2d1_Jan/53_benchmark_

 GLOBAL| Force Environment number                                              1
 GLOBAL| Basis set file name            /scratch/hpc-prf-metdyn/eprop2d1_Jan/53_
 GLOBAL| Potential file name            /scratch/hpc-prf-metdyn/eprop2d1_Jan/53_
 GLOBAL| MM Potential file name                                     MM_POTENTIAL
 GLOBAL| Coordinate file name           /scratch/hpc-prf-metdyn/eprop2d1_Jan/53_
 GLOBAL| Method name                                                        CP2K
 GLOBAL| Project name                                                     f1r_d2
 GLOBAL| Run type                                                         ENERGY
 GLOBAL| FFT library                                                       FFTW3
 GLOBAL| Diagonalization library                                       ScaLAPACK
 GLOBAL| Cholesky decomposition library                                ScaLAPACK
 GLOBAL| DGEMM library                                                      BLAS
 GLOBAL| Direct generalized diagonalization requested                          F
 GLOBAL| Orthonormality check for eigenvectors                          DISABLED
 GLOBAL| Matrix multiplication library                                 ScaLAPACK
 GLOBAL| All-to-all communication in single precision                          F
 GLOBAL| Grid backend                                                       AUTO
 GLOBAL| Global print level                                               MEDIUM
 GLOBAL| MPI I/O enabled                                                       T
 GLOBAL| Total number of message passing processes                            64
 GLOBAL| Number of distributed systems (nodes)                                 4
 GLOBAL| Number of threads for this process                                    8
 GLOBAL| This output is from process                                           0
 GLOBAL| OpenMP stack size per thread (OMP_STACKSIZE)                        64M
 GLOBAL| CPU model name                          AMD EPYC 7763 64-Core Processor

 MEMORY| system memory details [Kb]
 MEMORY|                        rank 0           min           max       average
 MEMORY| MemTotal            263897604     263897564     263897640     263897598
 MEMORY| MemFree             248508924     248508924     249727104     249054486
 MEMORY| Buffers                410148        177884        410148        293668
 MEMORY| Cached                7160352       6659120       7565780       7101521
 MEMORY| Slab                  1818012       1311904       1818012       1476008
 MEMORY| SReclaimable           482264        244572        482264        318706
 MEMORY| MemLikelyFree       256561688     256561688     256877552     256768381


 *** Fundamental physical constants (SI units) ***

 *** Literature: B. J. Mohr and B. N. Taylor,
 ***             CODATA recommended values of the fundamental physical
 ***             constants: 2006, Web Version 5.1
 ***             http://physics.nist.gov/constants

 Speed of light in vacuum [m/s]                             2.99792458000000E+08
 Magnetic constant or permeability of vacuum [N/A**2]       1.25663706143592E-06
 Electric constant or permittivity of vacuum [F/m]          8.85418781762039E-12
 Planck constant (h) [J*s]                                  6.62606896000000E-34
 Planck constant (h-bar) [J*s]                              1.05457162825177E-34
 Elementary charge [C]                                      1.60217648700000E-19
 Electron mass [kg]                                         9.10938215000000E-31
 Electron g factor [ ]                                     -2.00231930436220E+00
 Proton mass [kg]                                           1.67262163700000E-27
 Fine-structure constant                                    7.29735253760000E-03
 Rydberg constant [1/m]                                     1.09737315685270E+07
 Avogadro constant [1/mol]                                  6.02214179000000E+23
 Boltzmann constant [J/K]                                   1.38065040000000E-23
 Atomic mass unit [kg]                                      1.66053878200000E-27
 Bohr radius [m]                                            5.29177208590000E-11

 *** Conversion factors ***

 [u] -> [a.u.]                                              1.82288848426455E+03
 [Angstrom] -> [Bohr] = [a.u.]                              1.88972613288564E+00
 [a.u.] = [Bohr] -> [Angstrom]                              5.29177208590000E-01
 [a.u.] -> [s]                                              2.41888432650478E-17
 [a.u.] -> [fs]                                             2.41888432650478E-02
 [a.u.] -> [J]                                              4.35974393937059E-18
 [a.u.] -> [N]                                              8.23872205491840E-08
 [a.u.] -> [K]                                              3.15774647902944E+05
 [a.u.] -> [kJ/mol]                                         2.62549961709828E+03
 [a.u.] -> [kcal/mol]                                       6.27509468713739E+02
 [a.u.] -> [Pa]                                             2.94210107994716E+13
 [a.u.] -> [bar]                                            2.94210107994716E+08
 [a.u.] -> [atm]                                            2.90362800883016E+08
 [a.u.] -> [eV]                                             2.72113838565563E+01
 [a.u.] -> [Hz]                                             6.57968392072181E+15
 [a.u.] -> [1/cm] (wave numbers)                            2.19474631370540E+05
 [a.u./Bohr**2] -> [1/cm]                                   5.14048714338585E+03
 

 CELL| Volume [angstrom^3]:                                         91125.000000
 CELL| Vector a [angstrom]:      45.000     0.000     0.000   |a| =    45.000000
 CELL| Vector b [angstrom]:       0.000    45.000     0.000   |b| =    45.000000
 CELL| Vector c [angstrom]:       0.000     0.000    45.000   |c| =    45.000000
 CELL| Angle (b,c), alpha [degree]:                                    90.000000
 CELL| Angle (a,c), beta  [degree]:                                    90.000000
 CELL| Angle (a,b), gamma [degree]:                                    90.000000
 CELL| Numerically orthorhombic:                                             YES
 CELL| Periodicity                                                          NONE

 CELL_REF| Volume [angstrom^3]:                                     91125.000000
 CELL_REF| Vector a [angstrom    45.000     0.000     0.000   |a| =    45.000000
 CELL_REF| Vector b [angstrom     0.000    45.000     0.000   |b| =    45.000000
 CELL_REF| Vector c [angstrom     0.000     0.000    45.000   |c| =    45.000000
 CELL_REF| Angle (b,c), alpha [degree]:                                90.000000
 CELL_REF| Angle (a,c), beta  [degree]:                                90.000000
 CELL_REF| Angle (a,b), gamma [degree]:                                90.000000
 CELL_REF| Numerically orthorhombic:                                         YES
 CELL_REF| Periodicity                                                      NONE

 GENERATE|  Preliminary Number of Bonds generated:                             0
 GENERATE|  Achieved consistency in connectivity generation.

 PW_GRID| Information for grid number                                          1
 PW_GRID| Cutoff [a.u.]                                                      1.6
 PW_GRID| spherical cutoff:                                                   NO
 PW_GRID|   Bounds   1              0      49                Points:          50
 PW_GRID|   Bounds   2              0      49                Points:          50
 PW_GRID|   Bounds   3              0      49                Points:          50
 PW_GRID| Volume element (a.u.^3)   4.920         Volume (a.u.^3)    614941.9889
 PW_GRID| Grid span                                                    HALFSPACE

 *******************************************************************************
 *******************************************************************************
 **                                                                           **
 **     #####                         ##              ##                      **
 **    ##   ##            ##          ##              ##                      **
 **   ##     ##                       ##            ######                    **
 **   ##     ##  ##   ##  ##   #####  ##  ##   ####   ##    #####    #####    **
 **   ##     ##  ##   ##  ##  ##      ## ##   ##      ##   ##   ##  ##   ##   **
 **   ##  ## ##  ##   ##  ##  ##      ####     ###    ##   ######   ######    **
 **    ##  ###   ##   ##  ##  ##      ## ##      ##   ##   ##       ##        **
 **     #######   #####   ##   #####  ##  ##  ####    ##    #####   ##        **
 **           ##                                                    ##        **
 **                                                                           **
 **                                                ... make the atoms dance   **
 **                                                                           **
 **            Copyright (C) by CP2K developers group (2000-2026)             **
 **                      J. Chem. Phys. 152, 194103 (2020)                    **
 **                                                                           **
 *******************************************************************************

 DFT| Spin restricted Kohn-Sham (RKS) calculation                            RKS
 DFT| Multiplicity                                                             1
 DFT| Number of spin states                                                    1
 DFT| Charge                                                                   0
 DFT| Self-interaction correction (SIC)                                       NO
 DFT| Cutoffs: density                                              1.000000E-10
 DFT|          gradient                                             1.000000E-10
 DFT|          tau                                                  1.000000E-10
 DFT|          cutoff_smoothing_range                               0.000000E+00
 DFT| XC density smoothing                                                  NONE
 DFT| XC derivatives                                                          PW

 FUNCTIONAL| PBE:
 FUNCTIONAL| J.P.Perdew, K.Burke, M.Ernzerhof, Phys. Rev. Letter, vol. 77, n 18,
 FUNCTIONAL|  pp. 3865-3868, (1996) {spin unpolarized}                          


 QS| Method:                                                                 GPW
 QS| Density plane wave grid type                        NON-SPHERICAL FULLSPACE
 QS| Number of grid levels:                                                    5
 QS| Density cutoff [a.u.]:                                                250.0
 QS| Multi grid cutoff [a.u.]: 1) grid level                               250.0
 QS|                           2) grid level                                83.3
 QS|                           3) grid level                                27.8
 QS|                           4) grid level                                 9.3
 QS|                           5) grid level                                 3.1
 QS| Grid level progression factor:                                          3.0
 QS| Relative density cutoff [a.u.]:                                        25.0
 QS| Interaction thresholds: eps_pgf_orb:                                1.0E-12
 QS|                         eps_filter_matrix:                          0.0E+00
 QS|                         eps_core_charge:                            1.0E-14
 QS|                         eps_rho_gspace:                             1.0E-12
 QS|                         eps_rho_rspace:                             1.0E-12
 QS|                         eps_gvg_rspace:                             1.0E-06
 QS|                         eps_ppl:                                    1.0E-02
 QS|                         eps_ppnl:                                   1.0E-08


 ATOMIC KIND INFORMATION

  1. Atomic kind: Si                                    Number of atoms:     293

     Orbital Basis Set                              AUG-DZVP-MOLOPT-GTH-TIER-2_1

       Number of orbital shell sets:                                           1
       Number of orbital shells:                                               9
       Number of primitive Cartesian functions:                                6
       Number of Cartesian basis functions:                                   34
       Number of spherical basis functions:                                   29
       Norm type:                                                              2

       Normalised Cartesian orbitals:

                        Set   Shell   Orbital            Exponent    Coefficient

                          1       1    2s                0.068212       0.012566
                                                         0.139987       0.078788
                                                         0.326563       0.242920
                                                         0.513245      -0.107109
                                                         1.359614      -0.275696
                                                         2.693604       0.024874

                          1       2    3s                0.068212       0.093182
                                                         0.139987       0.034942
                                                         0.326563      -0.044272
                                                         0.513245      -0.354312
                                                         1.359614       0.933899
                                                         2.693604      -0.259934

                          1       3    4s                0.068212      -0.167875
                                                         0.139987       0.208784
                                                         0.326563      -0.103645
                                                         0.513245      -0.255793
                                                         1.359614       0.769989
                                                         2.693604      -0.240125

                          1       4    3px               0.068212       0.011141
                                                         0.139987       0.051922
                                                         0.326563       0.133541
                                                         0.513245       0.067431
                                                         1.359614      -0.110996
                                                         2.693604      -0.025572
                          1       4    3py               0.068212       0.011141
                                                         0.139987       0.051922
                                                         0.326563       0.133541
                                                         0.513245       0.067431
                                                         1.359614      -0.110996
                                                         2.693604      -0.025572
                          1       4    3pz               0.068212       0.011141
                                                         0.139987       0.051922
                                                         0.326563       0.133541
                                                         0.513245       0.067431
                                                         1.359614      -0.110996
                                                         2.693604      -0.025572

                          1       5    4px               0.068212       0.042841
                                                         0.139987       0.028163
                                                         0.326563      -0.216418
                                                         0.513245      -0.294175
                                                         1.359614       0.241347
                                                         2.693604       0.195327
                          1       5    4py               0.068212       0.042841
                                                         0.139987       0.028163
                                                         0.326563      -0.216418
                                                         0.513245      -0.294175
                                                         1.359614       0.241347
                                                         2.693604       0.195327
                          1       5    4pz               0.068212       0.042841
                                                         0.139987       0.028163
                                                         0.326563      -0.216418
                                                         0.513245      -0.294175
                                                         1.359614       0.241347
                                                         2.693604       0.195327

                          1       6    5px               0.068212       0.081653
                                                         0.139987      -0.250357
                                                         0.326563       0.424167
                                                         0.513245       0.252477
                                                         1.359614      -0.066739
                                                         2.693604      -0.583771
                          1       6    5py               0.068212       0.081653
                                                         0.139987      -0.250357
                                                         0.326563       0.424167
                                                         0.513245       0.252477
                                                         1.359614      -0.066739
                                                         2.693604      -0.583771
                          1       6    5pz               0.068212       0.081653
                                                         0.139987      -0.250357
                                                         0.326563       0.424167
                                                         0.513245       0.252477
                                                         1.359614      -0.066739
                                                         2.693604      -0.583771

                          1       7    4dx2              0.068212       0.001834
                                                         0.139987       0.013056
                                                         0.326563       0.057688
                                                         0.513245       0.233394
                                                         1.359614       0.333861
                                                         2.693604       0.360299
                          1       7    4dxy              0.068212       0.003177
                                                         0.139987       0.022614
                                                         0.326563       0.099919
                                                         0.513245       0.404251
                                                         1.359614       0.578263
                                                         2.693604       0.624056
                          1       7    4dxz              0.068212       0.003177
                                                         0.139987       0.022614
                                                         0.326563       0.099919
                                                         0.513245       0.404251
                                                         1.359614       0.578263
                                                         2.693604       0.624056
                          1       7    4dy2              0.068212       0.001834
                                                         0.139987       0.013056
                                                         0.326563       0.057688
                                                         0.513245       0.233394
                                                         1.359614       0.333861
                                                         2.693604       0.360299
                          1       7    4dyz              0.068212       0.003177
                                                         0.139987       0.022614
                                                         0.326563       0.099919
                                                         0.513245       0.404251
                                                         1.359614       0.578263
                                                         2.693604       0.624056
                          1       7    4dz2              0.068212       0.001834
                                                         0.139987       0.013056
                                                         0.326563       0.057688
                                                         0.513245       0.233394
                                                         1.359614       0.333861
                                                         2.693604       0.360299

                          1       8    5dx2              0.068212       0.011661
                                                         0.139987       0.014794
                                                         0.326563       0.018036
                                                         0.513245      -0.199275
                                                         1.359614      -0.130243
                                                         2.693604      -0.307114
                          1       8    5dxy              0.068212       0.020198
                                                         0.139987       0.025624
                                                         0.326563       0.031239
                                                         0.513245      -0.345154
                                                         1.359614      -0.225588
                                                         2.693604      -0.531937
                          1       8    5dxz              0.068212       0.020198
                                                         0.139987       0.025624
                                                         0.326563       0.031239
                                                         0.513245      -0.345154
                                                         1.359614      -0.225588
                                                         2.693604      -0.531937
                          1       8    5dy2              0.068212       0.011661
                                                         0.139987       0.014794
                                                         0.326563       0.018036
                                                         0.513245      -0.199275
                                                         1.359614      -0.130243
                                                         2.693604      -0.307114
                          1       8    5dyz              0.068212       0.020198
                                                         0.139987       0.025624
                                                         0.326563       0.031239
                                                         0.513245      -0.345154
                                                         1.359614      -0.225588
                                                         2.693604      -0.531937
                          1       8    5dz2              0.068212       0.011661
                                                         0.139987       0.014794
                                                         0.326563       0.018036
                                                         0.513245      -0.199275
                                                         1.359614      -0.130243
                                                         2.693604      -0.307114

                          1       9    5fx3              0.068212       0.001792
                                                         0.139987       0.009558
                                                         0.326563      -0.003859
                                                         0.513245       0.031995
                                                         1.359614      -0.032067
                                                         2.693604       0.197957
                          1       9    5fx2y             0.068212       0.004006
                                                         0.139987       0.021372
                                                         0.326563      -0.008628
                                                         0.513245       0.071542
                                                         1.359614      -0.071703
                                                         2.693604       0.442645
                          1       9    5fx2z             0.068212       0.004006
                                                         0.139987       0.021372
                                                         0.326563      -0.008628
                                                         0.513245       0.071542
                                                         1.359614      -0.071703
                                                         2.693604       0.442645
                          1       9    5fxy2             0.068212       0.004006
                                                         0.139987       0.021372
                                                         0.326563      -0.008628
                                                         0.513245       0.071542
                                                         1.359614      -0.071703
                                                         2.693604       0.442645
                          1       9    5fxyz             0.068212       0.006939
                                                         0.139987       0.037017
                                                         0.326563      -0.014944
                                                         0.513245       0.123915
                                                         1.359614      -0.124193
                                                         2.693604       0.766683
                          1       9    5fxz2             0.068212       0.004006
                                                         0.139987       0.021372
                                                         0.326563      -0.008628
                                                         0.513245       0.071542
                                                         1.359614      -0.071703
                                                         2.693604       0.442645
                          1       9    5fy3              0.068212       0.001792
                                                         0.139987       0.009558
                                                         0.326563      -0.003859
                                                         0.513245       0.031995
                                                         1.359614      -0.032067
                                                         2.693604       0.197957
                          1       9    5fy2z             0.068212       0.004006
                                                         0.139987       0.021372
                                                         0.326563      -0.008628
                                                         0.513245       0.071542
                                                         1.359614      -0.071703
                                                         2.693604       0.442645
                          1       9    5fyz2             0.068212       0.004006
                                                         0.139987       0.021372
                                                         0.326563      -0.008628
                                                         0.513245       0.071542
                                                         1.359614      -0.071703
                                                         2.693604       0.442645
                          1       9    5fz3              0.068212       0.001792
                                                         0.139987       0.009558
                                                         0.326563      -0.003859
                                                         0.513245       0.031995
                                                         1.359614      -0.032067
                                                         2.693604       0.197957

     RI Auxiliary Basis Set             RI_aug-DZVP-MOLOPT-GTH-tier-2_N_RI_085_s

       Number of orbital shell sets:                                          23
       Number of orbital shells:                                              23
       Number of primitive Cartesian functions:                               23
       Number of Cartesian basis functions:                                  106
       Number of spherical basis functions:                                   85
       Norm type:                                                              2

       Normalised Cartesian orbitals:

                        Set   Shell   Orbital            Exponent    Coefficient

                          1       1    1s                0.136184       0.159773

                          2       1    2s                0.237013       0.242097

                          3       1    3s                0.436888       0.382990

                          4       1    4s                0.810516       0.608809

                          5       1    5s                1.449877       0.941691

                          6       1    6s                2.541669       1.434661

                          7       1    7s                4.424209       2.174136

                          8       1    8px               0.166131       0.151183
                          8       1    8py               0.166131       0.151183
                          8       1    8pz               0.166131       0.151183

                          9       1    9px               0.321921       0.345643
                          9       1    9py               0.321921       0.345643
                          9       1    9pz               0.321921       0.345643

                         10       1   10px               0.593470       0.742486
                         10       1   10py               0.593470       0.742486
                         10       1   10pz               0.593470       0.742486

                         11       1   11px               1.191346       1.774139
                         11       1   11py               1.191346       1.774139
                         11       1   11pz               1.191346       1.774139

                         12       1   12px               2.324852       4.091986
                         12       1   12py               2.324852       4.091986
                         12       1   12pz               2.324852       4.091986

                         13       1   13px               4.479692       9.289670
                         13       1   13py               4.479692       9.289670
                         13       1   13pz               4.479692       9.289670

                         14       1   14dx2              0.187842       0.088215
                         14       1   14dxy              0.187842       0.152794
                         14       1   14dxz              0.187842       0.152794
                         14       1   14dy2              0.187842       0.088215
                         14       1   14dyz              0.187842       0.152794
                         14       1   14dz2              0.187842       0.088215

                         15       1   15dx2              0.311336       0.213580
                         15       1   15dxy              0.311336       0.369931
                         15       1   15dxz              0.311336       0.369931
                         15       1   15dy2              0.311336       0.213580
                         15       1   15dyz              0.311336       0.369931
                         15       1   15dz2              0.311336       0.213580

                         16       1   16dx2              0.598550       0.670402
                         16       1   16dxy              0.598550       1.161170
                         16       1   16dxz              0.598550       1.161170
                         16       1   16dy2              0.598550       0.670402
                         16       1   16dyz              0.598550       1.161170
                         16       1   16dz2              0.598550       0.670402

                         17       1   17dx2              1.191775       2.237431
                         17       1   17dxy              1.191775       3.875344
                         17       1   17dxz              1.191775       3.875344
                         17       1   17dy2              1.191775       2.237431
                         17       1   17dyz              1.191775       3.875344
                         17       1   17dz2              1.191775       2.237431

                         18       1   18dx2              2.313978       7.145590
                         18       1   18dxy              2.313978      12.376524
                         18       1   18dxz              2.313978      12.376524
                         18       1   18dy2              2.313978       7.145590
                         18       1   18dyz              2.313978      12.376524
                         18       1   18dz2              2.313978       7.145590

                         19       1   19dx2              4.468183      22.601573
                         19       1   19dxy              4.468183      39.147072
                         19       1   19dxz              4.468183      39.147072
                         19       1   19dy2              4.468183      22.601573
                         19       1   19dyz              4.468183      39.147072
                         19       1   19dz2              4.468183      22.601573

                         20       1   20fx3              0.212351       0.045064
                         20       1   20fx2y             0.212351       0.100766
                         20       1   20fx2z             0.212351       0.100766
                         20       1   20fxy2             0.212351       0.100766
                         20       1   20fxyz             0.212351       0.174532
                         20       1   20fxz2             0.212351       0.100766
                         20       1   20fy3              0.212351       0.045064
                         20       1   20fy2z             0.212351       0.100766
                         20       1   20fyz2             0.212351       0.100766
                         20       1   20fz3              0.212351       0.045064

                         21       1   21fx3              0.648198       0.555005
                         21       1   21fx2y             0.648198       1.241028
                         21       1   21fx2z             0.648198       1.241028
                         21       1   21fxy2             0.648198       1.241028
                         21       1   21fxyz             0.648198       2.149523
                         21       1   21fxz2             0.648198       1.241028
                         21       1   21fy3              0.648198       0.555005
                         21       1   21fy2z             0.648198       1.241028
                         21       1   21fyz2             0.648198       1.241028
                         21       1   21fz3              0.648198       0.555005

                         22       1   22fx3              2.693032      13.677220
                         22       1   22fx2y             2.693032      30.583193
                         22       1   22fx2z             2.693032      30.583193
                         22       1   22fxy2             2.693032      30.583193
                         22       1   22fxyz             2.693032      52.971645
                         22       1   22fxz2             2.693032      30.583193
                         22       1   22fy3              2.693032      13.677220
                         22       1   22fy2z             2.693032      30.583193
                         22       1   22fyz2             2.693032      30.583193
                         22       1   22fz3              2.693032      13.677220

                         23       1   23gx4              0.266342       0.029268
                         23       1   23gx3y             0.266342       0.077436
                         23       1   23gx3z             0.266342       0.077436
                         23       1   23gx2y2            0.266342       0.099970
                         23       1   23gx2yz            0.266342       0.173153
                         23       1   23gx2z2            0.266342       0.099970
                         23       1   23gxy3             0.266342       0.077436
                         23       1   23gxy2z            0.266342       0.173153
                         23       1   23gxyz2            0.266342       0.173153
                         23       1   23gxz3             0.266342       0.077436
                         23       1   23gy4              0.266342       0.029268
                         23       1   23gy3z             0.266342       0.077436
                         23       1   23gy2z2            0.266342       0.099970
                         23       1   23gyz3             0.266342       0.077436
                         23       1   23gz4              0.266342       0.029268

       Atomic covalent radius [Angstrom]:                                  1.110

       Atomic van der Waals radius [Angstrom]:                             2.100

     GTH Potential information for                                    GTH-PBE-q4

       Description:                       Goedecker-Teter-Hutter pseudopotential
                                           Goedecker et al., PRB 54, 1703 (1996)
                                          Hartwigsen et al., PRB 58, 3641 (1998)
                                                      Krack, TCA 114, 145 (2005)

       Gaussian exponent of the core charge distribution:               2.582645
       Electronic configuration (s p d ...):                               2   2

       Parameters of the local part of the GTH pseudopotential:

                          rloc        C1          C2          C3          C4
                        0.440000   -6.269288

       Parameters of the non-local part of the GTH pseudopotential:

                   l      r(l)      h(i,j,l)

                   0    0.435634    8.951742   -2.706271
                                   -2.706271    3.493781
                   1    0.497942    2.431277

  2. Atomic kind: H                                     Number of atoms:     172

     Orbital Basis Set                              AUG-DZVP-MOLOPT-GTH-TIER-2_1

       Number of orbital shell sets:                                           1
       Number of orbital shells:                                               5
       Number of primitive Cartesian functions:                                6
       Number of Cartesian basis functions:                                    9
       Number of spherical basis functions:                                    9
       Norm type:                                                              2

       Normalised Cartesian orbitals:

                        Set   Shell   Orbital            Exponent    Coefficient

                          1       1    2s                0.040000       0.000000
                                                         0.082193      -0.014019
                                                         0.239116      -0.107525
                                                         0.791502      -0.258419
                                                         2.680223      -0.177618
                                                        10.068468      -0.133023

                          1       2    3s                0.040000       0.000000
                                                         0.082193       0.070122
                                                         0.239116       0.095686
                                                         0.791502      -0.516519
                                                         2.680223       1.442428
                                                        10.068468       0.350082

                          1       3    4s                0.040000      -0.075541
                                                         0.082193       0.030546
                                                         0.239116      -0.032721
                                                         0.791502       0.043409
                                                         2.680223      -0.097751
                                                        10.068468      -0.013283

                          1       4    3px               0.040000       0.000000
                                                         0.082193       0.033440
                                                         0.239116       0.080105
                                                         0.791502       0.311480
                                                         2.680223       0.367157
                                                        10.068468       0.155326
                          1       4    3py               0.040000       0.000000
                                                         0.082193       0.033440
                                                         0.239116       0.080105
                                                         0.791502       0.311480
                                                         2.680223       0.367157
                                                        10.068468       0.155326
                          1       4    3pz               0.040000       0.000000
                                                         0.082193       0.033440
                                                         0.239116       0.080105
                                                         0.791502       0.311480
                                                         2.680223       0.367157
                                                        10.068468       0.155326

                          1       5    4px               0.040000       0.026144
                                                         0.082193      -0.005940
                                                         0.239116       0.024694
                                                         0.791502       0.052979
                                                         2.680223       0.071353
                                                        10.068468      -0.075915
                          1       5    4py               0.040000       0.026144
                                                         0.082193      -0.005940
                                                         0.239116       0.024694
                                                         0.791502       0.052979
                                                         2.680223       0.071353
                                                        10.068468      -0.075915
                          1       5    4pz               0.040000       0.026144
                                                         0.082193      -0.005940
                                                         0.239116       0.024694
                                                         0.791502       0.052979
                                                         2.680223       0.071353
                                                        10.068468      -0.075915

     RI Auxiliary Basis Set             RI_aug-DZVP-MOLOPT-GTH-tier-2_N_RI_055_s

       Number of orbital shell sets:                                          19
       Number of orbital shells:                                              19
       Number of primitive Cartesian functions:                               19
       Number of Cartesian basis functions:                                   61
       Number of spherical basis functions:                                   55
       Norm type:                                                              2

       Normalised Cartesian orbitals:

                        Set   Shell   Orbital            Exponent    Coefficient

                          1       1    1s                0.100000       0.126739

                          2       1    2s                0.234856       0.240443

                          3       1    3s                0.551574       0.456156

                          4       1    4s                1.295407       0.865396

                          5       1    5s                3.042342       1.641785

                          6       1    6s                7.145130       3.114711

                          7       1    7s               16.780780       5.909071

                          8       1    8px               0.100000       0.080157
                          8       1    8py               0.100000       0.080157
                          8       1    8pz               0.100000       0.080157

                          9       1    9px               0.278588       0.288498
                          9       1    9py               0.278588       0.288498
                          9       1    9pz               0.278588       0.288498

                         10       1   10px               0.776113       1.038356
                         10       1   10py               0.776113       1.038356
                         10       1   10pz               0.776113       1.038356

                         11       1   11px               2.162157       3.737225
                         11       1   11py               2.162157       3.737225
                         11       1   11pz               2.162157       3.737225

                         12       1   12px               6.023511      13.450928
                         12       1   12py               6.023511      13.450928
                         12       1   12pz               6.023511      13.450928

                         13       1   13px              16.780780      48.412251
                         13       1   13py              16.780780      48.412251
                         13       1   13pz              16.780780      48.412251

                         14       1   14dx2              0.100000       0.029269
                         14       1   14dxy              0.100000       0.050696
                         14       1   14dxz              0.100000       0.050696
                         14       1   14dy2              0.100000       0.029269
                         14       1   14dyz              0.100000       0.050696
                         14       1   14dz2              0.100000       0.029269

                         15       1   15dx2              0.278588       0.175830
                         15       1   15dxy              0.278588       0.304547
                         15       1   15dxz              0.278588       0.304547
                         15       1   15dy2              0.278588       0.175830
                         15       1   15dyz              0.278588       0.304547
                         15       1   15dz2              0.278588       0.175830

                         16       1   16dx2              0.776113       1.056277
                         16       1   16dxy              0.776113       1.829526
                         16       1   16dxz              0.776113       1.829526
                         16       1   16dy2              0.776113       1.056277
                         16       1   16dyz              0.776113       1.829526
                         16       1   16dz2              0.776113       1.056277

                         17       1   17dx2              2.162157       6.345447
                         17       1   17dxy              2.162157      10.990637
                         17       1   17dxz              2.162157      10.990637
                         17       1   17dy2              2.162157       6.345447
                         17       1   17dyz              2.162157      10.990637
                         17       1   17dz2              2.162157       6.345447

                         18       1   18dx2              6.023511      38.119436
                         18       1   18dxy              6.023511      66.024801
                         18       1   18dxz              6.023511      66.024801
                         18       1   18dy2              6.023511      38.119436
                         18       1   18dyz              6.023511      66.024801
                         18       1   18dz2              6.023511      38.119436

                         19       1   19dx2             16.780780     228.997491
                         19       1   19dxy             16.780780     396.635290
                         19       1   19dxz             16.780780     396.635290
                         19       1   19dy2             16.780780     228.997491
                         19       1   19dyz             16.780780     396.635290
                         19       1   19dz2             16.780780     228.997491

       Atomic covalent radius [Angstrom]:                                  0.320

       Atomic van der Waals radius [Angstrom]:                             1.090

     GTH Potential information for                                    GTH-PBE-q1

       Description:                       Goedecker-Teter-Hutter pseudopotential
                                           Goedecker et al., PRB 54, 1703 (1996)
                                          Hartwigsen et al., PRB 58, 3641 (1998)
                                                      Krack, TCA 114, 145 (2005)

       Gaussian exponent of the core charge distribution:              12.500000
       Electronic configuration (s p d ...):                                   1

       Parameters of the local part of the GTH pseudopotential:

                          rloc        C1          C2          C3          C4
                        0.200000   -4.178900    0.724463


 MOLECULE KIND INFORMATION


 All atoms are their own molecule, skipping detailed information


 TOTAL NUMBERS AND MAXIMUM NUMBERS

  Total number of            - Atomic kinds:                                   2
                             - Atoms:                                        465
                             - Shell sets:                                   465
                             - Shells:                                      3497
                             - Primitive Cartesian functions:               2790
                             - Cartesian basis functions:                  11510
                             - Spherical basis functions:                  10045

  Maximum angular momentum of- Orbital basis functions:                        3
                             - Local part of the GTH pseudopotential:          2
                             - Non-local part of the GTH pseudopotential:      2


 MODULE QUICKSTEP: ATOMIC COORDINATES IN ANGSTROM

   Atom Kind Element         X             Y             Z       Z(eff)     Mass
      1    1 Si   14     15.729540     15.729540     18.443200   4.0000  28.0855
      2    1 Si   14     15.729620     15.729620     23.884830   4.0000  28.0855
      3    1 Si   14     15.699830     21.139890     18.422270   4.0000  28.0855
      4    1 Si   14     15.699340     21.138840     23.861160   4.0000  28.0855
      5    1 Si   14     15.729620     21.115170     29.270380   4.0000  28.0855
      6    1 Si   14     15.701850     26.576400     18.423590   4.0000  28.0855
      7    1 Si   14     15.699830     26.577730     23.860100   4.0000  28.0855
      8    1 Si   14     15.729540     26.556800     29.270460   4.0000  28.0855
      9    1 Si   14     21.139890     15.699830     18.422270   4.0000  28.0855
     10    1 Si   14     21.138840     15.699340     23.861160   4.0000  28.0855
     11    1 Si   14     21.115170     15.729620     29.270380   4.0000  28.0855
     12    1 Si   14     21.270250     21.270250     13.127230   4.0000  28.0855
     13    1 Si   14     21.139290     21.139290     18.417820   4.0000  28.0855
     14    1 Si   14     21.139180     21.139180     23.860810   4.0000  28.0855
     15    1 Si   14     21.138840     21.138840     29.300660   4.0000  28.0855
     16    1 Si   14     21.243840     26.679180     13.158310   4.0000  28.0855
     17    1 Si   14     21.139600     26.581570     18.418420   4.0000  28.0855
     18    1 Si   14     21.139290     26.582180     23.860700   4.0000  28.0855
     19    1 Si   14     21.139890     26.577730     29.300170   4.0000  28.0855
     20    1 Si   14     21.243840     31.841690     18.320820   4.0000  28.0855
     21    1 Si   14     21.270240     31.872770     23.729750   4.0000  28.0855
     22    1 Si   14     26.576400     15.701850     18.423590   4.0000  28.0855
     23    1 Si   14     26.577730     15.699830     23.860100   4.0000  28.0855
     24    1 Si   14     26.556800     15.729540     29.270460   4.0000  28.0855
     25    1 Si   14     26.679180     21.243840     13.158320   4.0000  28.0855
     26    1 Si   14     26.581570     21.139600     18.418420   4.0000  28.0855
     27    1 Si   14     26.582180     21.139290     23.860700   4.0000  28.0855
     28    1 Si   14     26.577730     21.139890     29.300170   4.0000  28.0855
     29    1 Si   14     26.683290     26.683290     13.159430   4.0000  28.0855
     30    1 Si   14     26.581300     26.581300     18.418700   4.0000  28.0855
     31    1 Si   14     26.581570     26.581570     23.860390   4.0000  28.0855
     32    1 Si   14     26.576400     26.576400     29.298150   4.0000  28.0855
     33    1 Si   14     26.683280     31.840580     18.316710   4.0000  28.0855
     34    1 Si   14     26.679180     31.841680     23.756160   4.0000  28.0855
     35    1 Si   14     31.841690     21.243840     18.320820   4.0000  28.0855
     36    1 Si   14     31.872780     21.270240     23.729760   4.0000  28.0855
     37    1 Si   14     31.840570     26.683290     18.316710   4.0000  28.0855
     38    1 Si   14     31.841680     26.679180     23.756160   4.0000  28.0855
     39    1 Si   14     17.082830     14.374740     19.760930   4.0000  28.0855
     40    1 Si   14     17.083170     14.374840     25.202140   4.0000  28.0855
     41    1 Si   14     17.082830     19.760930     14.374740   4.0000  28.0855
     42    1 Si   14     17.058490     19.779250     19.779250   4.0000  28.0855
     43    1 Si   14     17.058430     19.779290     25.220710   4.0000  28.0855
     44    1 Si   14     17.083170     19.797860     30.625160   4.0000  28.0855
     45    1 Si   14     17.083170     25.202140     14.374840   4.0000  28.0855
     46    1 Si   14     17.058430     25.220710     19.779290   4.0000  28.0855
     47    1 Si   14     17.058490     25.220750     25.220750   4.0000  28.0855
     48    1 Si   14     17.082830     25.239060     30.625260   4.0000  28.0855
     49    1 Si   14     17.083170     30.625160     19.797860   4.0000  28.0855
     50    1 Si   14     17.082830     30.625260     25.239060   4.0000  28.0855
     51    1 Si   14     22.499900     14.354560     19.782530   4.0000  28.0855
     52    1 Si   14     22.500100     14.354560     25.217470   4.0000  28.0855
     53    1 Si   14     22.499900     19.782530     14.354560   4.0000  28.0855
     54    1 Si   14     22.499950     19.778480     19.778480   4.0000  28.0855
     55    1 Si   14     22.500040     19.778480     25.221510   4.0000  28.0855
     56    1 Si   14     22.500100     19.782530     30.645440   4.0000  28.0855
     57    1 Si   14     22.500100     25.217470     14.354560   4.0000  28.0855
     58    1 Si   14     22.500040     25.221510     19.778480   4.0000  28.0855
     59    1 Si   14     22.499950     25.221510     25.221510   4.0000  28.0855
     60    1 Si   14     22.499900     25.217470     30.645440   4.0000  28.0855
     61    1 Si   14     22.500100     30.645440     19.782530   4.0000  28.0855
     62    1 Si   14     22.499900     30.645440     25.217470   4.0000  28.0855
     63    1 Si   14     27.916830     14.374840     19.797860   4.0000  28.0855
     64    1 Si   14     27.917170     14.374740     25.239060   4.0000  28.0855
     65    1 Si   14     27.916830     19.797860     14.374840   4.0000  28.0855
     66    1 Si   14     27.941570     19.779290     19.779290   4.0000  28.0855
     67    1 Si   14     27.941510     19.779250     25.220750   4.0000  28.0855
     68    1 Si   14     27.917170     19.760930     30.625260   4.0000  28.0855
     69    1 Si   14     27.917170     25.239060     14.374740   4.0000  28.0855
     70    1 Si   14     27.941510     25.220750     19.779250   4.0000  28.0855
     71    1 Si   14     27.941570     25.220710     25.220710   4.0000  28.0855
     72    1 Si   14     27.916830     25.202140     30.625160   4.0000  28.0855
     73    1 Si   14     27.917170     30.625260     19.760930   4.0000  28.0855
     74    1 Si   14     27.916830     30.625160     25.202140   4.0000  28.0855
     75    1 Si   14     15.729540     18.443200     15.729540   4.0000  28.0855
     76    1 Si   14     15.699830     18.422270     21.139890   4.0000  28.0855
     77    1 Si   14     15.701850     18.423590     26.576400   4.0000  28.0855
     78    1 Si   14     15.729620     23.884830     15.729620   4.0000  28.0855
     79    1 Si   14     15.699340     23.861160     21.138840   4.0000  28.0855
     80    1 Si   14     15.699830     23.860100     26.577730   4.0000  28.0855
     81    1 Si   14     15.729620     29.270380     21.115170   4.0000  28.0855
     82    1 Si   14     15.729540     29.270460     26.556800   4.0000  28.0855
     83    1 Si   14     21.270250     13.127230     21.270250   4.0000  28.0855
     84    1 Si   14     21.243840     13.158310     26.679180   4.0000  28.0855
     85    1 Si   14     21.139890     18.422270     15.699830   4.0000  28.0855
     86    1 Si   14     21.139290     18.417820     21.139290   4.0000  28.0855
     87    1 Si   14     21.139600     18.418420     26.581570   4.0000  28.0855
     88    1 Si   14     21.243840     18.320820     31.841690   4.0000  28.0855
     89    1 Si   14     21.138840     23.861160     15.699340   4.0000  28.0855
     90    1 Si   14     21.139180     23.860810     21.139180   4.0000  28.0855
     91    1 Si   14     21.139290     23.860700     26.582180   4.0000  28.0855
     92    1 Si   14     21.270240     23.729750     31.872770   4.0000  28.0855
     93    1 Si   14     21.115170     29.270380     15.729620   4.0000  28.0855
     94    1 Si   14     21.138840     29.300660     21.138840   4.0000  28.0855
     95    1 Si   14     21.139890     29.300170     26.577730   4.0000  28.0855
     96    1 Si   14     26.679180     13.158320     21.243840   4.0000  28.0855
     97    1 Si   14     26.683290     13.159430     26.683290   4.0000  28.0855
     98    1 Si   14     26.576400     18.423590     15.701850   4.0000  28.0855
     99    1 Si   14     26.581570     18.418420     21.139600   4.0000  28.0855
    100    1 Si   14     26.581300     18.418700     26.581300   4.0000  28.0855
    101    1 Si   14     26.683280     18.316710     31.840580   4.0000  28.0855
    102    1 Si   14     26.577730     23.860100     15.699830   4.0000  28.0855
    103    1 Si   14     26.582180     23.860700     21.139290   4.0000  28.0855
    104    1 Si   14     26.581570     23.860390     26.581570   4.0000  28.0855
    105    1 Si   14     26.679180     23.756160     31.841680   4.0000  28.0855
    106    1 Si   14     26.556800     29.270460     15.729540   4.0000  28.0855
    107    1 Si   14     26.577730     29.300170     21.139890   4.0000  28.0855
    108    1 Si   14     26.576400     29.298150     26.576400   4.0000  28.0855
    109    1 Si   14     31.841690     18.320820     21.243840   4.0000  28.0855
    110    1 Si   14     31.840580     18.316710     26.683280   4.0000  28.0855
    111    1 Si   14     31.872770     23.729750     21.270240   4.0000  28.0855
    112    1 Si   14     31.841680     23.756160     26.679180   4.0000  28.0855
    113    1 Si   14     11.692650     22.500000     22.500000   4.0000  28.0855
    114    1 Si   14     17.063420     17.063420     17.063420   4.0000  28.0855
    115    1 Si   14     17.060550     17.060550     22.499510   4.0000  28.0855
    116    1 Si   14     17.085520     17.085520     27.914480   4.0000  28.0855
    117    1 Si   14     17.060550     22.499510     17.060550   4.0000  28.0855
    118    1 Si   14     17.057290     22.500000     22.500000   4.0000  28.0855
    119    1 Si   14     17.060550     22.500490     27.939450   4.0000  28.0855
    120    1 Si   14     17.085520     27.914480     17.085520   4.0000  28.0855
    121    1 Si   14     17.060550     27.939450     22.500490   4.0000  28.0855
    122    1 Si   14     17.063420     27.936580     27.936580   4.0000  28.0855
    123    1 Si   14     22.500000     11.692650     22.500000   4.0000  28.0855
    124    1 Si   14     22.499510     17.060550     17.060550   4.0000  28.0855
    125    1 Si   14     22.500000     17.057290     22.500000   4.0000  28.0855
    126    1 Si   14     22.500490     17.060550     27.939450   4.0000  28.0855
    127    1 Si   14     22.500000     22.500000     11.692650   4.0000  28.0855
    128    1 Si   14     22.500000     22.500000     17.057290   4.0000  28.0855
    129    1 Si   14     22.500000     22.500000     22.500000   4.0000  28.0855
    130    1 Si   14     22.500000     22.500000     27.942710   4.0000  28.0855
    131    1 Si   14     22.500000     22.500000     33.307350   4.0000  28.0855
    132    1 Si   14     22.500490     27.939450     17.060550   4.0000  28.0855
    133    1 Si   14     22.500000     27.942710     22.500000   4.0000  28.0855
    134    1 Si   14     22.499510     27.939450     27.939450   4.0000  28.0855
    135    1 Si   14     22.500000     33.307350     22.500000   4.0000  28.0855
    136    1 Si   14     27.914480     17.085520     17.085520   4.0000  28.0855
    137    1 Si   14     27.939450     17.060550     22.500490   4.0000  28.0855
    138    1 Si   14     27.936580     17.063420     27.936580   4.0000  28.0855
    139    1 Si   14     27.939450     22.500490     17.060550   4.0000  28.0855
    140    1 Si   14     27.942710     22.500000     22.500000   4.0000  28.0855
    141    1 Si   14     27.939450     22.499510     27.939450   4.0000  28.0855
    142    1 Si   14     27.936580     27.936580     17.063420   4.0000  28.0855
    143    1 Si   14     27.939450     27.939450     22.499510   4.0000  28.0855
    144    1 Si   14     27.914480     27.914480     27.914480   4.0000  28.0855
    145    1 Si   14     33.307350     22.500000     22.500000   4.0000  28.0855
    146    1 Si   14     13.127230     21.270250     21.270250   4.0000  28.0855
    147    1 Si   14     13.158320     21.243840     26.679180   4.0000  28.0855
    148    1 Si   14     13.158310     26.679180     21.243840   4.0000  28.0855
    149    1 Si   14     13.159430     26.683290     26.683290   4.0000  28.0855
    150    1 Si   14     18.443200     15.729540     15.729540   4.0000  28.0855
    151    1 Si   14     18.422270     15.699830     21.139890   4.0000  28.0855
    152    1 Si   14     18.423590     15.701850     26.576400   4.0000  28.0855
    153    1 Si   14     18.422270     21.139890     15.699830   4.0000  28.0855
    154    1 Si   14     18.417820     21.139290     21.139290   4.0000  28.0855
    155    1 Si   14     18.418420     21.139600     26.581570   4.0000  28.0855
    156    1 Si   14     18.320820     21.243840     31.841690   4.0000  28.0855
    157    1 Si   14     18.423590     26.576400     15.701850   4.0000  28.0855
    158    1 Si   14     18.418420     26.581570     21.139600   4.0000  28.0855
    159    1 Si   14     18.418700     26.581300     26.581300   4.0000  28.0855
    160    1 Si   14     18.316710     26.683290     31.840570   4.0000  28.0855
    161    1 Si   14     18.320820     31.841690     21.243840   4.0000  28.0855
    162    1 Si   14     18.316710     31.840570     26.683290   4.0000  28.0855
    163    1 Si   14     23.884830     15.729620     15.729620   4.0000  28.0855
    164    1 Si   14     23.861160     15.699340     21.138840   4.0000  28.0855
    165    1 Si   14     23.860100     15.699830     26.577730   4.0000  28.0855
    166    1 Si   14     23.861160     21.138840     15.699340   4.0000  28.0855
    167    1 Si   14     23.860810     21.139180     21.139180   4.0000  28.0855
    168    1 Si   14     23.860700     21.139290     26.582180   4.0000  28.0855
    169    1 Si   14     23.729760     21.270240     31.872780   4.0000  28.0855
    170    1 Si   14     23.860100     26.577730     15.699830   4.0000  28.0855
    171    1 Si   14     23.860700     26.582180     21.139290   4.0000  28.0855
    172    1 Si   14     23.860390     26.581570     26.581570   4.0000  28.0855
    173    1 Si   14     23.756160     26.679180     31.841680   4.0000  28.0855
    174    1 Si   14     23.729760     31.872780     21.270240   4.0000  28.0855
    175    1 Si   14     23.756160     31.841680     26.679180   4.0000  28.0855
    176    1 Si   14     29.270380     15.729620     21.115170   4.0000  28.0855
    177    1 Si   14     29.270460     15.729540     26.556800   4.0000  28.0855
    178    1 Si   14     29.270380     21.115170     15.729620   4.0000  28.0855
    179    1 Si   14     29.300660     21.138840     21.138840   4.0000  28.0855
    180    1 Si   14     29.300170     21.139890     26.577730   4.0000  28.0855
    181    1 Si   14     29.270460     26.556800     15.729540   4.0000  28.0855
    182    1 Si   14     29.300170     26.577730     21.139890   4.0000  28.0855
    183    1 Si   14     29.298150     26.576400     26.576400   4.0000  28.0855
    184    1 Si   14     14.374740     19.760930     17.082820   4.0000  28.0855
    185    1 Si   14     14.354560     19.782530     22.499900   4.0000  28.0855
    186    1 Si   14     14.374840     19.797860     27.916830   4.0000  28.0855
    187    1 Si   14     14.374840     25.202140     17.083170   4.0000  28.0855
    188    1 Si   14     14.354560     25.217470     22.500100   4.0000  28.0855
    189    1 Si   14     14.374740     25.239060     27.917170   4.0000  28.0855
    190    1 Si   14     19.760930     14.374740     17.082820   4.0000  28.0855
    191    1 Si   14     19.782530     14.354560     22.499900   4.0000  28.0855
    192    1 Si   14     19.797860     14.374840     27.916830   4.0000  28.0855
    193    1 Si   14     19.779250     19.779250     17.058490   4.0000  28.0855
    194    1 Si   14     19.778480     19.778480     22.499950   4.0000  28.0855
    195    1 Si   14     19.779290     19.779290     27.941570   4.0000  28.0855
    196    1 Si   14     19.779290     25.220710     17.058430   4.0000  28.0855
    197    1 Si   14     19.778480     25.221510     22.500040   4.0000  28.0855
    198    1 Si   14     19.779250     25.220750     27.941510   4.0000  28.0855
    199    1 Si   14     19.797860     30.625160     17.083170   4.0000  28.0855
    200    1 Si   14     19.782530     30.645440     22.500100   4.0000  28.0855
    201    1 Si   14     19.760930     30.625260     27.917170   4.0000  28.0855
    202    1 Si   14     25.202140     14.374840     17.083170   4.0000  28.0855
    203    1 Si   14     25.217470     14.354560     22.500100   4.0000  28.0855
    204    1 Si   14     25.239060     14.374740     27.917170   4.0000  28.0855
    205    1 Si   14     25.220710     19.779290     17.058430   4.0000  28.0855
    206    1 Si   14     25.221510     19.778480     22.500040   4.0000  28.0855
    207    1 Si   14     25.220750     19.779250     27.941510   4.0000  28.0855
    208    1 Si   14     25.220750     25.220750     17.058490   4.0000  28.0855
    209    1 Si   14     25.221510     25.221510     22.499950   4.0000  28.0855
    210    1 Si   14     25.220710     25.220710     27.941570   4.0000  28.0855
    211    1 Si   14     25.239060     30.625260     17.082830   4.0000  28.0855
    212    1 Si   14     25.217470     30.645440     22.499900   4.0000  28.0855
    213    1 Si   14     25.202140     30.625160     27.916830   4.0000  28.0855
    214    1 Si   14     30.625160     19.797860     17.083170   4.0000  28.0855
    215    1 Si   14     30.645440     19.782530     22.500100   4.0000  28.0855
    216    1 Si   14     30.625260     19.760930     27.917170   4.0000  28.0855
    217    1 Si   14     30.625260     25.239060     17.082830   4.0000  28.0855
    218    1 Si   14     30.645440     25.217470     22.499900   4.0000  28.0855
    219    1 Si   14     30.625160     25.202140     27.916830   4.0000  28.0855
    220    1 Si   14     13.159420     18.316710     18.316710   4.0000  28.0855
    221    1 Si   14     13.158320     18.320820     23.756160   4.0000  28.0855
    222    1 Si   14     13.158310     23.756160     18.320820   4.0000  28.0855
    223    1 Si   14     13.127230     23.729750     23.729750   4.0000  28.0855
    224    1 Si   14     18.316710     13.159420     18.316710   4.0000  28.0855
    225    1 Si   14     18.320820     13.158310     23.756160   4.0000  28.0855
    226    1 Si   14     18.316710     18.316710     13.159420   4.0000  28.0855
    227    1 Si   14     18.418700     18.418700     18.418700   4.0000  28.0855
    228    1 Si   14     18.418420     18.418420     23.860390   4.0000  28.0855
    229    1 Si   14     18.423590     18.423590     29.298150   4.0000  28.0855
    230    1 Si   14     18.320820     23.756160     13.158310   4.0000  28.0855
    231    1 Si   14     18.418420     23.860390     18.418420   4.0000  28.0855
    232    1 Si   14     18.417820     23.860700     23.860700   4.0000  28.0855
    233    1 Si   14     18.422270     23.860100     29.300170   4.0000  28.0855
    234    1 Si   14     18.423590     29.298150     18.423590   4.0000  28.0855
    235    1 Si   14     18.422270     29.300170     23.860100   4.0000  28.0855
    236    1 Si   14     18.443200     29.270460     29.270460   4.0000  28.0855
    237    1 Si   14     23.756160     13.158320     18.320820   4.0000  28.0855
    238    1 Si   14     23.729750     13.127230     23.729750   4.0000  28.0855
    239    1 Si   14     23.756160     18.320820     13.158320   4.0000  28.0855
    240    1 Si   14     23.860390     18.418420     18.418420   4.0000  28.0855
    241    1 Si   14     23.860700     18.417820     23.860700   4.0000  28.0855
    242    1 Si   14     23.860100     18.422270     29.300170   4.0000  28.0855
    243    1 Si   14     23.729750     23.729750     13.127230   4.0000  28.0855
    244    1 Si   14     23.860700     23.860700     18.417820   4.0000  28.0855
    245    1 Si   14     23.860810     23.860810     23.860810   4.0000  28.0855
    246    1 Si   14     23.861160     23.861160     29.300660   4.0000  28.0855
    247    1 Si   14     23.860100     29.300170     18.422270   4.0000  28.0855
    248    1 Si   14     23.861160     29.300660     23.861160   4.0000  28.0855
    249    1 Si   14     23.884830     29.270380     29.270380   4.0000  28.0855
    250    1 Si   14     29.298150     18.423590     18.423590   4.0000  28.0855
    251    1 Si   14     29.300170     18.422270     23.860100   4.0000  28.0855
    252    1 Si   14     29.270460     18.443200     29.270460   4.0000  28.0855
    253    1 Si   14     29.300170     23.860100     18.422270   4.0000  28.0855
    254    1 Si   14     29.300660     23.861160     23.861160   4.0000  28.0855
    255    1 Si   14     29.270380     23.884830     29.270380   4.0000  28.0855
    256    1 Si   14     29.270460     29.270460     18.443200   4.0000  28.0855
    257    1 Si   14     29.270380     29.270380     23.884830   4.0000  28.0855
    258    1 Si   14     14.374740     17.082830     19.760930   4.0000  28.0855
    259    1 Si   14     14.374840     17.083170     25.202140   4.0000  28.0855
    260    1 Si   14     14.354560     22.499900     19.782530   4.0000  28.0855
    261    1 Si   14     14.354560     22.500100     25.217470   4.0000  28.0855
    262    1 Si   14     14.374840     27.916830     19.797860   4.0000  28.0855
    263    1 Si   14     14.374740     27.917170     25.239060   4.0000  28.0855
    264    1 Si   14     19.760930     17.082820     14.374740   4.0000  28.0855
    265    1 Si   14     19.779250     17.058490     19.779250   4.0000  28.0855
    266    1 Si   14     19.779290     17.058430     25.220710   4.0000  28.0855
    267    1 Si   14     19.797860     17.083170     30.625160   4.0000  28.0855
    268    1 Si   14     19.782530     22.499900     14.354560   4.0000  28.0855
    269    1 Si   14     19.778480     22.499950     19.778480   4.0000  28.0855
    270    1 Si   14     19.778480     22.500040     25.221510   4.0000  28.0855
    271    1 Si   14     19.782530     22.500100     30.645440   4.0000  28.0855
    272    1 Si   14     19.797860     27.916830     14.374840   4.0000  28.0855
    273    1 Si   14     19.779290     27.941570     19.779290   4.0000  28.0855
    274    1 Si   14     19.779250     27.941510     25.220750   4.0000  28.0855
    275    1 Si   14     19.760930     27.917170     30.625260   4.0000  28.0855
    276    1 Si   14     25.202140     17.083170     14.374840   4.0000  28.0855
    277    1 Si   14     25.220710     17.058430     19.779290   4.0000  28.0855
    278    1 Si   14     25.220750     17.058490     25.220750   4.0000  28.0855
    279    1 Si   14     25.239060     17.082830     30.625260   4.0000  28.0855
    280    1 Si   14     25.217470     22.500100     14.354560   4.0000  28.0855
    281    1 Si   14     25.221510     22.500040     19.778480   4.0000  28.0855
    282    1 Si   14     25.221510     22.499950     25.221510   4.0000  28.0855
    283    1 Si   14     25.217470     22.499900     30.645440   4.0000  28.0855
    284    1 Si   14     25.239060     27.917170     14.374740   4.0000  28.0855
    285    1 Si   14     25.220750     27.941510     19.779250   4.0000  28.0855
    286    1 Si   14     25.220710     27.941570     25.220710   4.0000  28.0855
    287    1 Si   14     25.202140     27.916830     30.625160   4.0000  28.0855
    288    1 Si   14     30.625160     17.083170     19.797860   4.0000  28.0855
    289    1 Si   14     30.625260     17.082830     25.239060   4.0000  28.0855
    290    1 Si   14     30.645440     22.500100     19.782530   4.0000  28.0855
    291    1 Si   14     30.645440     22.499900     25.217470   4.0000  28.0855
    292    1 Si   14     30.625260     27.917170     19.760930   4.0000  28.0855
    293    1 Si   14     30.625160     27.916830     25.202140   4.0000  28.0855
    294    2 H     1     14.848760     14.848760     17.570220   1.0000   1.0079
    295    2 H     1     14.848770     14.848770     23.013280   1.0000   1.0079
    296    2 H     1     14.848770     21.986720     30.151230   1.0000   1.0079
    297    2 H     1     14.848760     27.429780     30.151240   1.0000   1.0079
    298    2 H     1     21.986720     14.848770     30.151230   1.0000   1.0079
    299    2 H     1     20.635780     20.635780     11.987590   1.0000   1.0079
    300    2 H     1     21.999160     27.442240     12.137140   1.0000   1.0079
    301    2 H     1     20.641180     26.084640     11.981270   1.0000   1.0079
    302    2 H     1     21.999160     32.862860     17.557760   1.0000   1.0079
    303    2 H     1     20.641180     33.018730     18.915340   1.0000   1.0079
    304    2 H     1     20.635780     33.012410     24.364220   1.0000   1.0079
    305    2 H     1     27.429780     14.848760     30.151240   1.0000   1.0079
    306    2 H     1     27.442240     21.999160     12.137140   1.0000   1.0079
    307    2 H     1     26.084670     20.641210     11.981260   1.0000   1.0079
    308    2 H     1     27.442460     27.442460     12.137250   1.0000   1.0079
    309    2 H     1     26.084700     26.084700     11.981290   1.0000   1.0079
    310    2 H     1     27.442460     32.862750     17.557540   1.0000   1.0079
    311    2 H     1     26.084670     33.018700     18.915310   1.0000   1.0079
    312    2 H     1     27.442240     32.862860     23.000840   1.0000   1.0079
    313    2 H     1     26.084670     33.018740     24.358800   1.0000   1.0079
    314    2 H     1     32.862860     21.999160     17.557760   1.0000   1.0079
    315    2 H     1     33.018730     20.641180     18.915360   1.0000   1.0079
    316    2 H     1     33.012400     20.635760     24.364240   1.0000   1.0079
    317    2 H     1     32.862750     27.442460     17.557530   1.0000   1.0079
    318    2 H     1     33.018710     26.084700     18.915300   1.0000   1.0079
    319    2 H     1     32.862860     27.442240     23.000840   1.0000   1.0079
    320    2 H     1     33.018740     26.084670     24.358800   1.0000   1.0079
    321    2 H     1     16.208330     13.487230     20.624700   1.0000   1.0079
    322    2 H     1     16.208380     13.487260     26.067720   1.0000   1.0079
    323    2 H     1     16.208330     20.624700     13.487230   1.0000   1.0079
    324    2 H     1     16.208380     18.932280     31.512740   1.0000   1.0079
    325    2 H     1     16.208380     26.067720     13.487260   1.0000   1.0079
    326    2 H     1     16.208330     24.375300     31.512770   1.0000   1.0079
    327    2 H     1     16.208380     31.512740     18.932280   1.0000   1.0079
    328    2 H     1     16.208330     31.512770     24.375300   1.0000   1.0079
    329    2 H     1     28.791620     13.487260     18.932280   1.0000   1.0079
    330    2 H     1     28.791670     13.487230     24.375300   1.0000   1.0079
    331    2 H     1     28.791620     18.932280     13.487260   1.0000   1.0079
    332    2 H     1     28.791670     20.624700     31.512770   1.0000   1.0079
    333    2 H     1     28.791670     24.375300     13.487230   1.0000   1.0079
    334    2 H     1     28.791620     26.067720     31.512740   1.0000   1.0079
    335    2 H     1     28.791670     31.512770     20.624700   1.0000   1.0079
    336    2 H     1     28.791620     31.512740     26.067720   1.0000   1.0079
    337    2 H     1     14.848760     17.570220     14.848760   1.0000   1.0079
    338    2 H     1     14.848770     23.013280     14.848770   1.0000   1.0079
    339    2 H     1     14.848770     30.151230     21.986720   1.0000   1.0079
    340    2 H     1     14.848760     30.151240     27.429780   1.0000   1.0079
    341    2 H     1     20.635780     11.987590     20.635780   1.0000   1.0079
    342    2 H     1     21.999160     12.137140     27.442240   1.0000   1.0079
    343    2 H     1     20.641180     11.981270     26.084640   1.0000   1.0079
    344    2 H     1     21.999160     17.557760     32.862860   1.0000   1.0079
    345    2 H     1     20.641180     18.915340     33.018730   1.0000   1.0079
    346    2 H     1     20.635780     24.364220     33.012410   1.0000   1.0079
    347    2 H     1     21.986720     30.151230     14.848770   1.0000   1.0079
    348    2 H     1     27.442240     12.137140     21.999160   1.0000   1.0079
    349    2 H     1     26.084670     11.981260     20.641210   1.0000   1.0079
    350    2 H     1     27.442460     12.137250     27.442460   1.0000   1.0079
    351    2 H     1     26.084700     11.981290     26.084700   1.0000   1.0079
    352    2 H     1     27.442460     17.557540     32.862750   1.0000   1.0079
    353    2 H     1     26.084670     18.915310     33.018700   1.0000   1.0079
    354    2 H     1     27.442240     23.000840     32.862860   1.0000   1.0079
    355    2 H     1     26.084670     24.358800     33.018740   1.0000   1.0079
    356    2 H     1     27.429780     30.151240     14.848760   1.0000   1.0079
    357    2 H     1     32.862860     17.557760     21.999160   1.0000   1.0079
    358    2 H     1     33.018730     18.915340     20.641180   1.0000   1.0079
    359    2 H     1     32.862750     17.557540     27.442460   1.0000   1.0079
    360    2 H     1     33.018700     18.915310     26.084670   1.0000   1.0079
    361    2 H     1     33.012410     24.364220     20.635780   1.0000   1.0079
    362    2 H     1     32.862860     23.000840     27.442240   1.0000   1.0079
    363    2 H     1     33.018740     24.358800     26.084670   1.0000   1.0079
    364    2 H     1     10.766910     21.650330     23.349660   1.0000   1.0079
    365    2 H     1     10.766910     23.349660     21.650330   1.0000   1.0079
    366    2 H     1     16.209430     16.209430     28.790570   1.0000   1.0079
    367    2 H     1     16.209430     28.790570     16.209430   1.0000   1.0079
    368    2 H     1     23.349660     10.766910     21.650330   1.0000   1.0079
    369    2 H     1     21.650330     10.766910     23.349660   1.0000   1.0079
    370    2 H     1     23.349660     21.650330     10.766910   1.0000   1.0079
    371    2 H     1     21.650330     23.349660     10.766910   1.0000   1.0079
    372    2 H     1     21.650330     21.650330     34.233090   1.0000   1.0079
    373    2 H     1     23.349660     23.349660     34.233090   1.0000   1.0079
    374    2 H     1     23.349660     34.233090     23.349660   1.0000   1.0079
    375    2 H     1     21.650330     34.233090     21.650330   1.0000   1.0079
    376    2 H     1     28.790570     16.209430     16.209430   1.0000   1.0079
    377    2 H     1     28.790570     28.790570     28.790570   1.0000   1.0079
    378    2 H     1     34.233090     21.650330     21.650330   1.0000   1.0079
    379    2 H     1     34.233090     23.349660     23.349660   1.0000   1.0079
    380    2 H     1     11.987590     20.635780     20.635780   1.0000   1.0079
    381    2 H     1     12.137140     21.999160     27.442240   1.0000   1.0079
    382    2 H     1     11.981260     20.641210     26.084670   1.0000   1.0079
    383    2 H     1     12.137140     27.442240     21.999160   1.0000   1.0079
    384    2 H     1     11.981270     26.084640     20.641180   1.0000   1.0079
    385    2 H     1     12.137250     27.442460     27.442460   1.0000   1.0079
    386    2 H     1     11.981290     26.084700     26.084700   1.0000   1.0079
    387    2 H     1     17.570220     14.848760     14.848760   1.0000   1.0079
    388    2 H     1     17.557760     21.999160     32.862860   1.0000   1.0079
    389    2 H     1     18.915360     20.641180     33.018730   1.0000   1.0079
    390    2 H     1     17.557530     27.442460     32.862750   1.0000   1.0079
    391    2 H     1     18.915300     26.084700     33.018710   1.0000   1.0079
    392    2 H     1     17.557760     32.862860     21.999160   1.0000   1.0079
    393    2 H     1     18.915360     33.018730     20.641180   1.0000   1.0079
    394    2 H     1     17.557530     32.862750     27.442460   1.0000   1.0079
    395    2 H     1     18.915300     33.018710     26.084700   1.0000   1.0079
    396    2 H     1     23.013280     14.848770     14.848770   1.0000   1.0079
    397    2 H     1     24.364240     20.635760     33.012400   1.0000   1.0079
    398    2 H     1     23.000840     27.442240     32.862860   1.0000   1.0079
    399    2 H     1     24.358800     26.084670     33.018740   1.0000   1.0079
    400    2 H     1     24.364240     33.012400     20.635760   1.0000   1.0079
    401    2 H     1     23.000840     32.862860     27.442240   1.0000   1.0079
    402    2 H     1     24.358800     33.018740     26.084670   1.0000   1.0079
    403    2 H     1     30.151230     14.848770     21.986720   1.0000   1.0079
    404    2 H     1     30.151240     14.848760     27.429780   1.0000   1.0079
    405    2 H     1     30.151230     21.986720     14.848770   1.0000   1.0079
    406    2 H     1     30.151240     27.429780     14.848760   1.0000   1.0079
    407    2 H     1     13.487230     20.624700     16.208320   1.0000   1.0079
    408    2 H     1     13.487260     18.932280     28.791620   1.0000   1.0079
    409    2 H     1     13.487260     26.067720     16.208370   1.0000   1.0079
    410    2 H     1     13.487230     24.375300     28.791670   1.0000   1.0079
    411    2 H     1     20.624700     13.487230     16.208320   1.0000   1.0079
    412    2 H     1     18.932280     13.487260     28.791620   1.0000   1.0079
    413    2 H     1     18.932280     31.512740     16.208380   1.0000   1.0079
    414    2 H     1     20.624700     31.512770     28.791670   1.0000   1.0079
    415    2 H     1     26.067720     13.487260     16.208370   1.0000   1.0079
    416    2 H     1     24.375300     13.487230     28.791670   1.0000   1.0079
    417    2 H     1     24.375300     31.512770     16.208330   1.0000   1.0079
    418    2 H     1     26.067720     31.512740     28.791620   1.0000   1.0079
    419    2 H     1     31.512740     18.932280     16.208380   1.0000   1.0079
    420    2 H     1     31.512770     20.624700     28.791670   1.0000   1.0079
    421    2 H     1     31.512770     24.375300     16.208330   1.0000   1.0079
    422    2 H     1     31.512740     26.067720     28.791620   1.0000   1.0079
    423    2 H     1     12.137250     17.557530     17.557530   1.0000   1.0079
    424    2 H     1     11.981290     18.915300     18.915300   1.0000   1.0079
    425    2 H     1     12.137140     17.557760     23.000840   1.0000   1.0079
    426    2 H     1     11.981260     18.915330     24.358800   1.0000   1.0079
    427    2 H     1     12.137140     23.000840     17.557760   1.0000   1.0079
    428    2 H     1     11.981270     24.358830     18.915340   1.0000   1.0079
    429    2 H     1     11.987590     24.364220     24.364220   1.0000   1.0079
    430    2 H     1     17.557530     12.137250     17.557530   1.0000   1.0079
    431    2 H     1     18.915300     11.981290     18.915300   1.0000   1.0079
    432    2 H     1     17.557760     12.137140     23.000840   1.0000   1.0079
    433    2 H     1     18.915340     11.981270     24.358830   1.0000   1.0079
    434    2 H     1     17.557530     17.557530     12.137250   1.0000   1.0079
    435    2 H     1     18.915300     18.915300     11.981290   1.0000   1.0079
    436    2 H     1     17.557760     23.000840     12.137140   1.0000   1.0079
    437    2 H     1     18.915340     24.358830     11.981270   1.0000   1.0079
    438    2 H     1     17.570220     30.151240     30.151240   1.0000   1.0079
    439    2 H     1     23.000840     12.137140     17.557760   1.0000   1.0079
    440    2 H     1     24.358790     11.981260     18.915330   1.0000   1.0079
    441    2 H     1     24.364220     11.987590     24.364220   1.0000   1.0079
    442    2 H     1     23.000840     17.557760     12.137140   1.0000   1.0079
    443    2 H     1     24.358790     18.915330     11.981260   1.0000   1.0079
    444    2 H     1     24.364220     24.364220     11.987590   1.0000   1.0079
    445    2 H     1     23.013280     30.151230     30.151230   1.0000   1.0079
    446    2 H     1     30.151240     17.570220     30.151240   1.0000   1.0079
    447    2 H     1     30.151230     23.013280     30.151230   1.0000   1.0079
    448    2 H     1     30.151240     30.151240     17.570220   1.0000   1.0079
    449    2 H     1     30.151230     30.151230     23.013280   1.0000   1.0079
    450    2 H     1     13.487230     16.208330     20.624700   1.0000   1.0079
    451    2 H     1     13.487260     16.208380     26.067720   1.0000   1.0079
    452    2 H     1     13.487260     28.791620     18.932280   1.0000   1.0079
    453    2 H     1     13.487230     28.791670     24.375300   1.0000   1.0079
    454    2 H     1     20.624700     16.208320     13.487230   1.0000   1.0079
    455    2 H     1     18.932280     16.208380     31.512740   1.0000   1.0079
    456    2 H     1     18.932280     28.791620     13.487260   1.0000   1.0079
    457    2 H     1     20.624700     28.791670     31.512770   1.0000   1.0079
    458    2 H     1     26.067720     16.208370     13.487260   1.0000   1.0079
    459    2 H     1     24.375300     16.208330     31.512770   1.0000   1.0079
    460    2 H     1     24.375300     28.791670     13.487230   1.0000   1.0079
    461    2 H     1     26.067720     28.791620     31.512740   1.0000   1.0079
    462    2 H     1     31.512740     16.208380     18.932280   1.0000   1.0079
    463    2 H     1     31.512770     16.208330     24.375300   1.0000   1.0079
    464    2 H     1     31.512770     28.791670     20.624700   1.0000   1.0079
    465    2 H     1     31.512740     28.791620     26.067720   1.0000   1.0079



 SCF PARAMETERS         Density guess:                                   RESTART
                        --------------------------------------------------------
                        max_scf:                                             200
                        max_scf_history:                                       0
                        max_diis:                                              4
                        --------------------------------------------------------
                        eps_scf:                                        1.00E-07
                        eps_scf_history:                                0.00E+00
                        eps_diis:                                       1.00E-01
                        eps_eigval:                                     1.00E-05
                        --------------------------------------------------------
                        level_shift [a.u.]:                             0.000000
                        SCF update method:                                MIXING
                        added MOs                                      9373    0
                        --------------------------------------------------------
                        Mixing method:                            BROYDEN_MIXING
                                                charge density mixing in g-space
                        --------------------------------------------------------
                        Outer loop SCF in use 
                        No variables optimised in outer loop
                        eps_scf                                         1.00E-07
                        max_scf                                               20
                        No outer loop optimization
                        step_size                                       5.00E-01

 PW_GRID| Information for grid number                                          2
 PW_GRID| Grid distributed over                                    64 processors
 PW_GRID| Real space group dimensions                                    64    1
 PW_GRID| the grid is blocked:                                                NO
 PW_GRID| Cutoff [a.u.]                                                    250.0
 PW_GRID| spherical cutoff:                                                   NO
 PW_GRID|   Bounds   1           -312     312                Points:         625
 PW_GRID|   Bounds   2           -312     312                Points:         625
 PW_GRID|   Bounds   3           -312     312                Points:         625
 PW_GRID| Volume element (a.u.^3)  0.2519E-02     Volume (a.u.^3)    614941.9889
 PW_GRID| Grid span                                                    FULLSPACE
 PW_GRID|   Distribution                         Average         Max         Min
 PW_GRID|   G-Vectors                          3814697.3     3815000     3814375
 PW_GRID|   G-Rays                                6103.5        6104        6103
 PW_GRID|   Real Space Points                  3814697.3     3906250     3515625

 PW_GRID| Information for grid number                                          3
 PW_GRID| Number of the reference grid                                         2
 PW_GRID| Grid distributed over                                    64 processors
 PW_GRID| Real space group dimensions                                    64    1
 PW_GRID| the grid is blocked:                                                NO
 PW_GRID| Cutoff [a.u.]                                                     83.3
 PW_GRID| spherical cutoff:                                                   NO
 PW_GRID|   Bounds   1           -180     179                Points:         360
 PW_GRID|   Bounds   2           -180     179                Points:         360
 PW_GRID|   Bounds   3           -180     179                Points:         360
 PW_GRID| Volume element (a.u.^3)  0.1318E-01     Volume (a.u.^3)    614941.9889
 PW_GRID| Grid span                                                    FULLSPACE
 PW_GRID|   Distribution                         Average         Max         Min
 PW_GRID|   G-Vectors                           729000.0      729360      728640
 PW_GRID|   G-Rays                                2025.0        2026        2024
 PW_GRID|   Real Space Points                   729000.0      777600      648000

 PW_GRID| Information for grid number                                          4
 PW_GRID| Number of the reference grid                                         2
 PW_GRID| Grid distributed over                                    64 processors
 PW_GRID| Real space group dimensions                                    64    1
 PW_GRID| the grid is blocked:                                                NO
 PW_GRID| Cutoff [a.u.]                                                     27.8
 PW_GRID| spherical cutoff:                                                   NO
 PW_GRID|   Bounds   1           -108     107                Points:         216
 PW_GRID|   Bounds   2           -108     107                Points:         216
 PW_GRID|   Bounds   3           -108     107                Points:         216
 PW_GRID| Volume element (a.u.^3)  0.6102E-01     Volume (a.u.^3)    614941.9889
 PW_GRID| Grid span                                                    FULLSPACE
 PW_GRID|   Distribution                         Average         Max         Min
 PW_GRID|   G-Vectors                           157464.0      157680      157248
 PW_GRID|   G-Rays                                 729.0         730         728
 PW_GRID|   Real Space Points                   157464.0      186624      139968

 PW_GRID| Information for grid number                                          5
 PW_GRID| Number of the reference grid                                         2
 PW_GRID| Grid distributed over                                    64 processors
 PW_GRID| Real space group dimensions                                    64    1
 PW_GRID| the grid is blocked:                                                NO
 PW_GRID| Cutoff [a.u.]                                                      9.3
 PW_GRID| spherical cutoff:                                                   NO
 PW_GRID|   Bounds   1            -60      59                Points:         120
 PW_GRID|   Bounds   2            -60      59                Points:         120
 PW_GRID|   Bounds   3            -60      59                Points:         120
 PW_GRID| Volume element (a.u.^3)  0.3559         Volume (a.u.^3)    614941.9889
 PW_GRID| Grid span                                                    FULLSPACE
 PW_GRID|   Distribution                         Average         Max         Min
 PW_GRID|   G-Vectors                            27000.0       27120       26880
 PW_GRID|   G-Rays                                 225.0         226         224
 PW_GRID|   Real Space Points                    27000.0       28800       14400

 PW_GRID| Information for grid number                                          6
 PW_GRID| Number of the reference grid                                         2
 PW_GRID| Grid distributed over                                    64 processors
 PW_GRID| Real space group dimensions                                    64    1
 PW_GRID| the grid is blocked:                                                NO
 PW_GRID| Cutoff [a.u.]                                                      3.1
 PW_GRID| spherical cutoff:                                                   NO
 PW_GRID|   Bounds   1            -36      35                Points:          72
 PW_GRID|   Bounds   2            -36      35                Points:          72
 PW_GRID|   Bounds   3            -36      35                Points:          72
 PW_GRID| Volume element (a.u.^3)   1.648         Volume (a.u.^3)    614941.9889
 PW_GRID| Grid span                                                    FULLSPACE
 PW_GRID|   Distribution                         Average         Max         Min
 PW_GRID|   G-Vectors                             5832.0        5904        5760
 PW_GRID|   G-Rays                                  81.0          82          80
 PW_GRID|   Real Space Points                     5832.0       10368        5184

 POISSON| Solver                                             MULTIPOLE (Bloechl)
 POISSON| Periodicity                                                       NONE

 RS_GRID| Information for grid number                                          2
 RS_GRID|   Bounds   1           -312     312                Points:         625
 RS_GRID|   Bounds   2           -312     312                Points:         625
 RS_GRID|   Bounds   3           -312     312                Points:         625
 RS_GRID| Real space distribution over                                  4 groups
 RS_GRID| Real space distribution along direction                              1
 RS_GRID| Border size                                                         27
 RS_GRID| Real space distribution over                                  4 groups
 RS_GRID| Real space distribution along direction                              2
 RS_GRID| Border size                                                         27
 RS_GRID| Real space distribution over                                  4 groups
 RS_GRID| Real space distribution along direction                              3
 RS_GRID| Border size                                                         27
 RS_GRID|   Distribution                         Average         Max         Min
 RS_GRID|   Planes                                 210.2         211         210
 RS_GRID|   Distribution                         Average         Max         Min
 RS_GRID|   Planes                                 210.2         211         210
 RS_GRID|   Distribution                         Average         Max         Min
 RS_GRID|   Planes                                 210.2         211         210

 RS_GRID| Information for grid number                                          3
 RS_GRID|   Bounds   1           -180     179                Points:         360
 RS_GRID|   Bounds   2           -180     179                Points:         360
 RS_GRID|   Bounds   3           -180     179                Points:         360
 RS_GRID| Real space distribution over                                  4 groups
 RS_GRID| Real space distribution along direction                              1
 RS_GRID| Border size                                                         26
 RS_GRID| Real space distribution over                                  4 groups
 RS_GRID| Real space distribution along direction                              2
 RS_GRID| Border size                                                         26
 RS_GRID| Real space distribution over                                  4 groups
 RS_GRID| Real space distribution along direction                              3
 RS_GRID| Border size                                                         26
 RS_GRID|   Distribution                         Average         Max         Min
 RS_GRID|   Planes                                 142.0         142         142
 RS_GRID|   Distribution                         Average         Max         Min
 RS_GRID|   Planes                                 142.0         142         142
 RS_GRID|   Distribution                         Average         Max         Min
 RS_GRID|   Planes                                 142.0         142         142

 RS_GRID| Information for grid number                                          4
 RS_GRID|   Bounds   1           -108     107                Points:         216
 RS_GRID|   Bounds   2           -108     107                Points:         216
 RS_GRID|   Bounds   3           -108     107                Points:         216
 RS_GRID| Real space fully replicated
 RS_GRID| Group size                                                           1

 RS_GRID| Information for grid number                                          5
 RS_GRID|   Bounds   1            -60      59                Points:         120
 RS_GRID|   Bounds   2            -60      59                Points:         120
 RS_GRID|   Bounds   3            -60      59                Points:         120
 RS_GRID| Real space fully replicated
 RS_GRID| Group size                                                           1

 RS_GRID| Information for grid number                                          6
 RS_GRID|   Bounds   1            -36      35                Points:          72
 RS_GRID|   Bounds   2            -36      35                Points:          72
 RS_GRID|   Bounds   3            -36      35                Points:          72
 RS_GRID| Real space fully replicated
 RS_GRID| Group size                                                           1

 Extrapolation method: initial_guess

 Number of electrons:                                                       1344
 Number of occupied orbitals:                                                672
 Number of molecular orbitals:                                             10045

 Number of orbital functions:                                              10045
 Number of independent orbital functions:                                  10045


 SCF WAVEFUNCTION OPTIMIZATION

  Step     Update method      Time    Convergence         Total energy    Change
  ------------------------------------------------------------------------------
     1 NoMix/Diag. 0.20E+00   10.0     0.00000031     -1252.6839993812 -1.25E+03
     2 Broy./Diag. 0.20E+00   10.9     2.9692E-09     -1252.6839974886  1.89E-06

  *** SCF run converged in     2 steps ***


  Electronic density on regular grids:      -1344.0000000000        0.0000000000
  Core density on regular grids:             1343.9999999976       -0.0000000024
  Total charge density on r-space grids:       -0.0000000024
  Total charge density g-space grids:          -0.0000000024

  Overlap energy of the core charge distribution:               0.00000171784318
  Self energy of the core charge distribution:              -3248.19330237085524
  Core Hamiltonian energy:                                    722.72798287298610
  Hartree energy:                                            1686.33623456931673
  Exchange-correlation energy:                               -413.55491427793334

  Total energy:                                             -1252.68399748864249

  outer SCF iter =    1 RMS gradient =   0.30E-08 energy =      -1252.6839974886
  outer SCF loop converged in   1 iterations or    2 steps


 !-----------------------------------------------------------------------------!
                     Mulliken Population Analysis

 #  Atom  Element  Kind  Atomic population                           Net charge
       1     Si       1          4.043301                             -0.043301
       2     Si       1          3.999906                              0.000094
       3     Si       1          3.905662                              0.094338
       4     Si       1          3.928384                              0.071616
       5     Si       1          3.999907                              0.000093
       6     Si       1          3.881528                              0.118472
       7     Si       1          3.905671                              0.094329
       8     Si       1          4.043296                             -0.043296
       9     Si       1          3.905661                              0.094339
      10     Si       1          3.928385                              0.071615
      11     Si       1          3.999908                              0.000092
      12     Si       1          4.130106                             -0.130106
      13     Si       1          4.000902                             -0.000902
      14     Si       1          4.004546                             -0.004546
      15     Si       1          3.928386                              0.071614
      16     Si       1          4.029792                             -0.029792
      17     Si       1          3.995793                              0.004207
      18     Si       1          4.000902                             -0.000902
      19     Si       1          3.905666                              0.094334
      20     Si       1          4.029792                             -0.029792
      21     Si       1          4.130105                             -0.130105
      22     Si       1          3.881527                              0.118473
      23     Si       1          3.905670                              0.094330
      24     Si       1          4.043296                             -0.043296
      25     Si       1          4.029792                             -0.029792
      26     Si       1          3.995794                              0.004206
      27     Si       1          4.000903                             -0.000903
      28     Si       1          3.905668                              0.094332
      29     Si       1          4.002285                             -0.002285
      30     Si       1          3.976557                              0.023443
      31     Si       1          3.995791                              0.004209
      32     Si       1          3.881526                              0.118474
      33     Si       1          4.002286                             -0.002286
      34     Si       1          4.029795                             -0.029795
      35     Si       1          4.029792                             -0.029792
      36     Si       1          4.130107                             -0.130107
      37     Si       1          4.002286                             -0.002286
      38     Si       1          4.029794                             -0.029794
      39     Si       1          4.094438                             -0.094438
      40     Si       1          4.109725                             -0.109725
      41     Si       1          4.094436                             -0.094436
      42     Si       1          3.992767                              0.007233
      43     Si       1          3.980188                              0.019812
      44     Si       1          4.109724                             -0.109724
      45     Si       1          4.109725                             -0.109725
      46     Si       1          3.980188                              0.019812
      47     Si       1          3.992758                              0.007242
      48     Si       1          4.094436                             -0.094436
      49     Si       1          4.109723                             -0.109723
      50     Si       1          4.094436                             -0.094436
      51     Si       1          4.045088                             -0.045088
      52     Si       1          4.045083                             -0.045083
      53     Si       1          4.045089                             -0.045089
      54     Si       1          4.001649                             -0.001649
      55     Si       1          4.001647                             -0.001647
      56     Si       1          4.045077                             -0.045077
      57     Si       1          4.045083                             -0.045083
      58     Si       1          4.001646                             -0.001646
      59     Si       1          4.001647                             -0.001647
      60     Si       1          4.045083                             -0.045083
      61     Si       1          4.045077                             -0.045077
      62     Si       1          4.045083                             -0.045083
      63     Si       1          4.109727                             -0.109727
      64     Si       1          4.094437                             -0.094437
      65     Si       1          4.109728                             -0.109728
      66     Si       1          3.980181                              0.019819
      67     Si       1          3.992761                              0.007239
      68     Si       1          4.094433                             -0.094433
      69     Si       1          4.094437                             -0.094437
      70     Si       1          3.992763                              0.007237
      71     Si       1          3.980187                              0.019813
      72     Si       1          4.109729                             -0.109729
      73     Si       1          4.094434                             -0.094434
      74     Si       1          4.109728                             -0.109728
      75     Si       1          4.043303                             -0.043303
      76     Si       1          3.905668                              0.094332
      77     Si       1          3.881526                              0.118474
      78     Si       1          3.999906                              0.000094
      79     Si       1          3.928386                              0.071614
      80     Si       1          3.905669                              0.094331
      81     Si       1          3.999907                              0.000093
      82     Si       1          4.043295                             -0.043295
      83     Si       1          4.130109                             -0.130109
      84     Si       1          4.029793                             -0.029793
      85     Si       1          3.905662                              0.094338
      86     Si       1          4.000903                             -0.000903
      87     Si       1          3.995793                              0.004207
      88     Si       1          4.029792                             -0.029792
      89     Si       1          3.928384                              0.071616
      90     Si       1          4.004547                             -0.004547
      91     Si       1          4.000902                             -0.000902
      92     Si       1          4.130103                             -0.130103
      93     Si       1          3.999907                              0.000093
      94     Si       1          3.928390                              0.071610
      95     Si       1          3.905667                              0.094333
      96     Si       1          4.029793                             -0.029793
      97     Si       1          4.002285                             -0.002285
      98     Si       1          3.881527                              0.118473
      99     Si       1          3.995791                              0.004209
     100     Si       1          3.976558                              0.023442
     101     Si       1          4.002286                             -0.002286
     102     Si       1          3.905668                              0.094332
     103     Si       1          4.000902                             -0.000902
     104     Si       1          3.995791                              0.004209
     105     Si       1          4.029793                             -0.029793
     106     Si       1          4.043297                             -0.043297
     107     Si       1          3.905669                              0.094331
     108     Si       1          3.881526                              0.118474
     109     Si       1          4.029793                             -0.029793
     110     Si       1          4.002286                             -0.002286
     111     Si       1          4.130106                             -0.130106
     112     Si       1          4.029794                             -0.029794
     113     Si       1          3.949444                              0.050556
     114     Si       1          3.892659                              0.107341
     115     Si       1          3.947051                              0.052949
     116     Si       1          4.098992                             -0.098992
     117     Si       1          3.947054                              0.052946
     118     Si       1          3.991370                              0.008630
     119     Si       1          3.947053                              0.052947
     120     Si       1          4.098992                             -0.098992
     121     Si       1          3.947056                              0.052944
     122     Si       1          3.892665                              0.107335
     123     Si       1          3.949444                              0.050556
     124     Si       1          3.947052                              0.052948
     125     Si       1          3.991370                              0.008630
     126     Si       1          3.947054                              0.052946
     127     Si       1          3.949443                              0.050557
     128     Si       1          3.991370                              0.008630
     129     Si       1          4.001030                             -0.001030
     130     Si       1          3.991373                              0.008627
     131     Si       1          3.949448                              0.050552
     132     Si       1          3.947053                              0.052947
     133     Si       1          3.991372                              0.008628
     134     Si       1          3.947049                              0.052951
     135     Si       1          3.949448                              0.050552
     136     Si       1          4.098992                             -0.098992
     137     Si       1          3.947055                              0.052945
     138     Si       1          3.892665                              0.107335
     139     Si       1          3.947053                              0.052947
     140     Si       1          3.991373                              0.008627
     141     Si       1          3.947048                              0.052952
     142     Si       1          3.892665                              0.107335
     143     Si       1          3.947048                              0.052952
     144     Si       1          4.098991                             -0.098991
     145     Si       1          3.949448                              0.050552
     146     Si       1          4.130108                             -0.130108
     147     Si       1          4.029793                             -0.029793
     148     Si       1          4.029794                             -0.029794
     149     Si       1          4.002285                             -0.002285
     150     Si       1          4.043305                             -0.043305
     151     Si       1          3.905668                              0.094332
     152     Si       1          3.881527                              0.118473
     153     Si       1          3.905665                              0.094335
     154     Si       1          4.000905                             -0.000905
     155     Si       1          3.995794                              0.004206
     156     Si       1          4.029792                             -0.029792
     157     Si       1          3.881527                              0.118473
     158     Si       1          3.995793                              0.004207
     159     Si       1          3.976558                              0.023442
     160     Si       1          4.002287                             -0.002287
     161     Si       1          4.029794                             -0.029794
     162     Si       1          4.002288                             -0.002288
     163     Si       1          3.999906                              0.000094
     164     Si       1          3.928383                              0.071617
     165     Si       1          3.905669                              0.094331
     166     Si       1          3.928382                              0.071618
     167     Si       1          4.004545                             -0.004545
     168     Si       1          4.000901                             -0.000901
     169     Si       1          4.130104                             -0.130104
     170     Si       1          3.905670                              0.094330
     171     Si       1          4.000904                             -0.000904
     172     Si       1          3.995791                              0.004209
     173     Si       1          4.029793                             -0.029793
     174     Si       1          4.130106                             -0.130106
     175     Si       1          4.029794                             -0.029794
     176     Si       1          3.999906                              0.000094
     177     Si       1          4.043295                             -0.043295
     178     Si       1          3.999906                              0.000094
     179     Si       1          3.928387                              0.071613
     180     Si       1          3.905668                              0.094332
     181     Si       1          4.043296                             -0.043296
     182     Si       1          3.905668                              0.094332
     183     Si       1          3.881526                              0.118474
     184     Si       1          4.094435                             -0.094435
     185     Si       1          4.045088                             -0.045088
     186     Si       1          4.109727                             -0.109727
     187     Si       1          4.109726                             -0.109726
     188     Si       1          4.045084                             -0.045084
     189     Si       1          4.094436                             -0.094436
     190     Si       1          4.094434                             -0.094434
     191     Si       1          4.045080                             -0.045080
     192     Si       1          4.109724                             -0.109724
     193     Si       1          3.992767                              0.007233
     194     Si       1          4.001646                             -0.001646
     195     Si       1          3.980181                              0.019819
     196     Si       1          3.980188                              0.019812
     197     Si       1          4.001646                             -0.001646
     198     Si       1          3.992763                              0.007237
     199     Si       1          4.109724                             -0.109724
     200     Si       1          4.045085                             -0.045085
     201     Si       1          4.094442                             -0.094442
     202     Si       1          4.109730                             -0.109730
     203     Si       1          4.045091                             -0.045091
     204     Si       1          4.094437                             -0.094437
     205     Si       1          3.980188                              0.019812
     206     Si       1          4.001646                             -0.001646
     207     Si       1          3.992763                              0.007237
     208     Si       1          3.992756                              0.007244
     209     Si       1          4.001644                             -0.001644
     210     Si       1          3.980188                              0.019812
     211     Si       1          4.094435                             -0.094435
     212     Si       1          4.045083                             -0.045083
     213     Si       1          4.109729                             -0.109729
     214     Si       1          4.109724                             -0.109724
     215     Si       1          4.045079                             -0.045079
     216     Si       1          4.094433                             -0.094433
     217     Si       1          4.094437                             -0.094437
     218     Si       1          4.045084                             -0.045084
     219     Si       1          4.109729                             -0.109729
     220     Si       1          4.002285                             -0.002285
     221     Si       1          4.029793                             -0.029793
     222     Si       1          4.029794                             -0.029794
     223     Si       1          4.130108                             -0.130108
     224     Si       1          4.002283                             -0.002283
     225     Si       1          4.029793                             -0.029793
     226     Si       1          4.002286                             -0.002286
     227     Si       1          3.976556                              0.023444
     228     Si       1          3.995792                              0.004208
     229     Si       1          3.881531                              0.118469
     230     Si       1          4.029793                             -0.029793
     231     Si       1          3.995792                              0.004208
     232     Si       1          4.000905                             -0.000905
     233     Si       1          3.905668                              0.094332
     234     Si       1          3.881530                              0.118470
     235     Si       1          3.905670                              0.094330
     236     Si       1          4.043299                             -0.043299
     237     Si       1          4.029793                             -0.029793
     238     Si       1          4.130108                             -0.130108
     239     Si       1          4.029792                             -0.029792
     240     Si       1          3.995792                              0.004208
     241     Si       1          4.000906                             -0.000906
     242     Si       1          3.905669                              0.094331
     243     Si       1          4.130107                             -0.130107
     244     Si       1          4.000907                             -0.000907
     245     Si       1          4.004553                             -0.004553
     246     Si       1          3.928388                              0.071612
     247     Si       1          3.905667                              0.094333
     248     Si       1          3.928387                              0.071613
     249     Si       1          3.999907                              0.000093
     250     Si       1          3.881532                              0.118468
     251     Si       1          3.905671                              0.094329
     252     Si       1          4.043303                             -0.043303
     253     Si       1          3.905668                              0.094332
     254     Si       1          3.928389                              0.071611
     255     Si       1          3.999907                              0.000093
     256     Si       1          4.043300                             -0.043300
     257     Si       1          3.999906                              0.000094
     258     Si       1          4.094437                             -0.094437
     259     Si       1          4.109729                             -0.109729
     260     Si       1          4.045080                             -0.045080
     261     Si       1          4.045090                             -0.045090
     262     Si       1          4.109723                             -0.109723
     263     Si       1          4.094437                             -0.094437
     264     Si       1          4.094435                             -0.094435
     265     Si       1          3.992768                              0.007232
     266     Si       1          3.980190                              0.019810
     267     Si       1          4.109724                             -0.109724
     268     Si       1          4.045080                             -0.045080
     269     Si       1          4.001647                             -0.001647
     270     Si       1          4.001647                             -0.001647
     271     Si       1          4.045087                             -0.045087
     272     Si       1          4.109725                             -0.109725
     273     Si       1          3.980184                              0.019816
     274     Si       1          3.992764                              0.007236
     275     Si       1          4.094441                             -0.094441
     276     Si       1          4.109731                             -0.109731
     277     Si       1          3.980187                              0.019813
     278     Si       1          3.992758                              0.007242
     279     Si       1          4.094434                             -0.094434
     280     Si       1          4.045091                             -0.045091
     281     Si       1          4.001646                             -0.001646
     282     Si       1          4.001645                             -0.001645
     283     Si       1          4.045082                             -0.045082
     284     Si       1          4.094437                             -0.094437
     285     Si       1          3.992762                              0.007238
     286     Si       1          3.980187                              0.019813
     287     Si       1          4.109729                             -0.109729
     288     Si       1          4.109723                             -0.109723
     289     Si       1          4.094435                             -0.094435
     290     Si       1          4.045086                             -0.045086
     291     Si       1          4.045084                             -0.045084
     292     Si       1          4.094442                             -0.094442
     293     Si       1          4.109727                             -0.109727
     294     H        2          0.981006                              0.018994
     295     H        2          1.005063                             -0.005063
     296     H        2          1.005062                             -0.005062
     297     H        2          0.981007                              0.018993
     298     H        2          1.005063                             -0.005063
     299     H        2          0.883913                              0.116087
     300     H        2          0.999517                              0.000483
     301     H        2          0.943331                              0.056669
     302     H        2          0.999522                              0.000478
     303     H        2          0.943325                              0.056675
     304     H        2          0.883909                              0.116091
     305     H        2          0.981007                              0.018993
     306     H        2          0.999521                              0.000479
     307     H        2          0.943323                              0.056677
     308     H        2          0.997361                              0.002639
     309     H        2          0.969070                              0.030930
     310     H        2          0.997365                              0.002635
     311     H        2          0.969071                              0.030929
     312     H        2          0.999518                              0.000482
     313     H        2          0.943326                              0.056674
     314     H        2          0.999516                              0.000484
     315     H        2          0.943332                              0.056668
     316     H        2          0.883907                              0.116093
     317     H        2          0.997362                              0.002638
     318     H        2          0.969068                              0.030932
     319     H        2          0.999520                              0.000480
     320     H        2          0.943325                              0.056675
     321     H        2          1.010155                             -0.010155
     322     H        2          0.989691                              0.010309
     323     H        2          1.010154                             -0.010154
     324     H        2          0.989690                              0.010310
     325     H        2          0.989691                              0.010309
     326     H        2          1.010154                             -0.010154
     327     H        2          0.989690                              0.010310
     328     H        2          1.010153                             -0.010153
     329     H        2          0.989692                              0.010308
     330     H        2          1.010153                             -0.010153
     331     H        2          0.989691                              0.010309
     332     H        2          1.010153                             -0.010153
     333     H        2          1.010154                             -0.010154
     334     H        2          0.989691                              0.010309
     335     H        2          1.010155                             -0.010155
     336     H        2          0.989690                              0.010310
     337     H        2          0.981006                              0.018994
     338     H        2          1.005062                             -0.005062
     339     H        2          1.005062                             -0.005062
     340     H        2          0.981006                              0.018994
     341     H        2          0.883912                              0.116088
     342     H        2          0.999517                              0.000483
     343     H        2          0.943330                              0.056670
     344     H        2          0.999521                              0.000479
     345     H        2          0.943324                              0.056676
     346     H        2          0.883911                              0.116089
     347     H        2          1.005063                             -0.005063
     348     H        2          0.999522                              0.000478
     349     H        2          0.943322                              0.056678
     350     H        2          0.997361                              0.002639
     351     H        2          0.969071                              0.030929
     352     H        2          0.997364                              0.002636
     353     H        2          0.969072                              0.030928
     354     H        2          0.999518                              0.000482
     355     H        2          0.943324                              0.056676
     356     H        2          0.981007                              0.018993
     357     H        2          0.999522                              0.000478
     358     H        2          0.943324                              0.056676
     359     H        2          0.997364                              0.002636
     360     H        2          0.969072                              0.030928
     361     H        2          0.883910                              0.116090
     362     H        2          0.999519                              0.000481
     363     H        2          0.943323                              0.056677
     364     H        2          1.054144                             -0.054144
     365     H        2          1.054147                             -0.054147
     366     H        2          0.968144                              0.031856
     367     H        2          0.968143                              0.031857
     368     H        2          1.054145                             -0.054145
     369     H        2          1.054145                             -0.054145
     370     H        2          1.054144                             -0.054144
     371     H        2          1.054145                             -0.054145
     372     H        2          1.054152                             -0.054152
     373     H        2          1.054143                             -0.054143
     374     H        2          1.054141                             -0.054141
     375     H        2          1.054151                             -0.054151
     376     H        2          0.968142                              0.031858
     377     H        2          0.968144                              0.031856
     378     H        2          1.054151                             -0.054151
     379     H        2          1.054140                             -0.054140
     380     H        2          0.883911                              0.116089
     381     H        2          0.999522                              0.000478
     382     H        2          0.943322                              0.056678
     383     H        2          0.999518                              0.000482
     384     H        2          0.943331                              0.056669
     385     H        2          0.997361                              0.002639
     386     H        2          0.969070                              0.030930
     387     H        2          0.981005                              0.018995
     388     H        2          0.999516                              0.000484
     389     H        2          0.943331                              0.056669
     390     H        2          0.997362                              0.002638
     391     H        2          0.969068                              0.030932
     392     H        2          0.999517                              0.000483
     393     H        2          0.943331                              0.056669
     394     H        2          0.997362                              0.002638
     395     H        2          0.969069                              0.030931
     396     H        2          1.005060                             -0.005060
     397     H        2          0.883908                              0.116092
     398     H        2          0.999517                              0.000483
     399     H        2          0.943325                              0.056675
     400     H        2          0.883907                              0.116093
     401     H        2          0.999520                              0.000480
     402     H        2          0.943323                              0.056677
     403     H        2          1.005064                             -0.005064
     404     H        2          0.981008                              0.018992
     405     H        2          1.005062                             -0.005062
     406     H        2          0.981006                              0.018994
     407     H        2          1.010156                             -0.010156
     408     H        2          0.989692                              0.010308
     409     H        2          0.989690                              0.010310
     410     H        2          1.010153                             -0.010153
     411     H        2          1.010157                             -0.010157
     412     H        2          0.989691                              0.010309
     413     H        2          0.989692                              0.010308
     414     H        2          1.010153                             -0.010153
     415     H        2          0.989688                              0.010312
     416     H        2          1.010154                             -0.010154
     417     H        2          1.010154                             -0.010154
     418     H        2          0.989691                              0.010309
     419     H        2          0.989690                              0.010310
     420     H        2          1.010155                             -0.010155
     421     H        2          1.010153                             -0.010153
     422     H        2          0.989691                              0.010309
     423     H        2          0.997366                              0.002634
     424     H        2          0.969064                              0.030936
     425     H        2          0.999519                              0.000481
     426     H        2          0.943324                              0.056676
     427     H        2          0.999520                              0.000480
     428     H        2          0.943326                              0.056674
     429     H        2          0.883911                              0.116089
     430     H        2          0.997366                              0.002634
     431     H        2          0.969063                              0.030937
     432     H        2          0.999519                              0.000481
     433     H        2          0.943326                              0.056674
     434     H        2          0.997366                              0.002634
     435     H        2          0.969063                              0.030937
     436     H        2          0.999517                              0.000483
     437     H        2          0.943329                              0.056671
     438     H        2          0.981006                              0.018994
     439     H        2          0.999521                              0.000479
     440     H        2          0.943322                              0.056678
     441     H        2          0.883911                              0.116089
     442     H        2          0.999520                              0.000480
     443     H        2          0.943323                              0.056677
     444     H        2          0.883913                              0.116087
     445     H        2          1.005061                             -0.005061
     446     H        2          0.981007                              0.018993
     447     H        2          1.005062                             -0.005062
     448     H        2          0.981005                              0.018995
     449     H        2          1.005062                             -0.005062
     450     H        2          1.010154                             -0.010154
     451     H        2          0.989690                              0.010310
     452     H        2          0.989691                              0.010309
     453     H        2          1.010154                             -0.010154
     454     H        2          1.010155                             -0.010155
     455     H        2          0.989691                              0.010309
     456     H        2          0.989692                              0.010308
     457     H        2          1.010154                             -0.010154
     458     H        2          0.989690                              0.010310
     459     H        2          1.010154                             -0.010154
     460     H        2          1.010153                             -0.010153
     461     H        2          0.989691                              0.010309
     462     H        2          0.989691                              0.010309
     463     H        2          1.010153                             -0.010153
     464     H        2          1.010155                             -0.010155
     465     H        2          0.989690                              0.010310
 # Total charge                           1344.000000                  0.000000

 !-----------------------------------------------------------------------------!

 !-----------------------------------------------------------------------------!
                           Hirshfeld Charges

  #Atom  Element  Kind  Ref Charge     Population                    Net charge
      1       Si     1       4.000          4.466                        -0.466
      2       Si     1       4.000          4.470                        -0.470
      3       Si     1       4.000          3.995                         0.005
      4       Si     1       4.000          4.002                        -0.002
      5       Si     1       4.000          4.470                        -0.470
      6       Si     1       4.000          3.991                         0.009
      7       Si     1       4.000          3.995                         0.005
      8       Si     1       4.000          4.466                        -0.466
      9       Si     1       4.000          3.995                         0.005
     10       Si     1       4.000          4.002                        -0.002
     11       Si     1       4.000          4.470                        -0.470
     12       Si     1       4.000          4.461                        -0.461
     13       Si     1       4.000          3.999                         0.001
     14       Si     1       4.000          4.000                        -0.000
     15       Si     1       4.000          4.002                        -0.002
     16       Si     1       4.000          4.968                        -0.968
     17       Si     1       4.000          4.001                        -0.001
     18       Si     1       4.000          3.999                         0.001
     19       Si     1       4.000          3.995                         0.005
     20       Si     1       4.000          4.968                        -0.968
     21       Si     1       4.000          4.461                        -0.461
     22       Si     1       4.000          3.991                         0.009
     23       Si     1       4.000          3.995                         0.005
     24       Si     1       4.000          4.466                        -0.466
     25       Si     1       4.000          4.968                        -0.968
     26       Si     1       4.000          4.001                        -0.001
     27       Si     1       4.000          3.999                         0.001
     28       Si     1       4.000          3.995                         0.005
     29       Si     1       4.000          4.971                        -0.971
     30       Si     1       4.000          4.005                        -0.005
     31       Si     1       4.000          4.001                        -0.001
     32       Si     1       4.000          3.991                         0.009
     33       Si     1       4.000          4.971                        -0.971
     34       Si     1       4.000          4.968                        -0.968
     35       Si     1       4.000          4.968                        -0.968
     36       Si     1       4.000          4.461                        -0.461
     37       Si     1       4.000          4.971                        -0.971
     38       Si     1       4.000          4.968                        -0.968
     39       Si     1       4.000          4.452                        -0.452
     40       Si     1       4.000          4.450                        -0.450
     41       Si     1       4.000          4.452                        -0.452
     42       Si     1       4.000          4.003                        -0.003
     43       Si     1       4.000          4.004                        -0.004
     44       Si     1       4.000          4.450                        -0.450
     45       Si     1       4.000          4.450                        -0.450
     46       Si     1       4.000          4.004                        -0.004
     47       Si     1       4.000          4.003                        -0.003
     48       Si     1       4.000          4.452                        -0.452
     49       Si     1       4.000          4.450                        -0.450
     50       Si     1       4.000          4.452                        -0.452
     51       Si     1       4.000          3.977                         0.023
     52       Si     1       4.000          3.977                         0.023
     53       Si     1       4.000          3.977                         0.023
     54       Si     1       4.000          4.000                         0.000
     55       Si     1       4.000          4.000                         0.000
     56       Si     1       4.000          3.977                         0.023
     57       Si     1       4.000          3.977                         0.023
     58       Si     1       4.000          4.000                         0.000
     59       Si     1       4.000          4.000                         0.000
     60       Si     1       4.000          3.977                         0.023
     61       Si     1       4.000          3.977                         0.023
     62       Si     1       4.000          3.977                         0.023
     63       Si     1       4.000          4.450                        -0.450
     64       Si     1       4.000          4.452                        -0.452
     65       Si     1       4.000          4.450                        -0.450
     66       Si     1       4.000          4.004                        -0.004
     67       Si     1       4.000          4.003                        -0.003
     68       Si     1       4.000          4.452                        -0.452
     69       Si     1       4.000          4.452                        -0.452
     70       Si     1       4.000          4.003                        -0.003
     71       Si     1       4.000          4.004                        -0.004
     72       Si     1       4.000          4.450                        -0.450
     73       Si     1       4.000          4.452                        -0.452
     74       Si     1       4.000          4.450                        -0.450
     75       Si     1       4.000          4.466                        -0.466
     76       Si     1       4.000          3.995                         0.005
     77       Si     1       4.000          3.991                         0.009
     78       Si     1       4.000          4.470                        -0.470
     79       Si     1       4.000          4.002                        -0.002
     80       Si     1       4.000          3.995                         0.005
     81       Si     1       4.000          4.470                        -0.470
     82       Si     1       4.000          4.466                        -0.466
     83       Si     1       4.000          4.461                        -0.461
     84       Si     1       4.000          4.968                        -0.968
     85       Si     1       4.000          3.995                         0.005
     86       Si     1       4.000          3.999                         0.001
     87       Si     1       4.000          4.001                        -0.001
     88       Si     1       4.000          4.968                        -0.968
     89       Si     1       4.000          4.002                        -0.002
     90       Si     1       4.000          4.000                        -0.000
     91       Si     1       4.000          3.999                         0.001
     92       Si     1       4.000          4.461                        -0.461
     93       Si     1       4.000          4.470                        -0.470
     94       Si     1       4.000          4.002                        -0.002
     95       Si     1       4.000          3.995                         0.005
     96       Si     1       4.000          4.968                        -0.968
     97       Si     1       4.000          4.971                        -0.971
     98       Si     1       4.000          3.991                         0.009
     99       Si     1       4.000          4.001                        -0.001
    100       Si     1       4.000          4.005                        -0.005
    101       Si     1       4.000          4.971                        -0.971
    102       Si     1       4.000          3.995                         0.005
    103       Si     1       4.000          3.999                         0.001
    104       Si     1       4.000          4.001                        -0.001
    105       Si     1       4.000          4.968                        -0.968
    106       Si     1       4.000          4.466                        -0.466
    107       Si     1       4.000          3.995                         0.005
    108       Si     1       4.000          3.991                         0.009
    109       Si     1       4.000          4.968                        -0.968
    110       Si     1       4.000          4.971                        -0.971
    111       Si     1       4.000          4.461                        -0.461
    112       Si     1       4.000          4.968                        -0.968
    113       Si     1       4.000          4.952                        -0.952
    114       Si     1       4.000          4.000                         0.000
    115       Si     1       4.000          3.999                         0.001
    116       Si     1       4.000          4.469                        -0.469
    117       Si     1       4.000          3.999                         0.001
    118       Si     1       4.000          4.000                         0.000
    119       Si     1       4.000          3.999                         0.001
    120       Si     1       4.000          4.469                        -0.469
    121       Si     1       4.000          3.999                         0.001
    122       Si     1       4.000          4.000                         0.000
    123       Si     1       4.000          4.952                        -0.952
    124       Si     1       4.000          3.999                         0.001
    125       Si     1       4.000          4.000                         0.000
    126       Si     1       4.000          3.999                         0.001
    127       Si     1       4.000          4.952                        -0.952
    128       Si     1       4.000          4.000                         0.000
    129       Si     1       4.000          4.000                         0.000
    130       Si     1       4.000          4.000                         0.000
    131       Si     1       4.000          4.952                        -0.952
    132       Si     1       4.000          3.999                         0.001
    133       Si     1       4.000          4.000                         0.000
    134       Si     1       4.000          3.999                         0.001
    135       Si     1       4.000          4.952                        -0.952
    136       Si     1       4.000          4.469                        -0.469
    137       Si     1       4.000          3.999                         0.001
    138       Si     1       4.000          4.000                         0.000
    139       Si     1       4.000          3.999                         0.001
    140       Si     1       4.000          4.000                         0.000
    141       Si     1       4.000          3.999                         0.001
    142       Si     1       4.000          4.000                         0.000
    143       Si     1       4.000          3.999                         0.001
    144       Si     1       4.000          4.469                        -0.469
    145       Si     1       4.000          4.952                        -0.952
    146       Si     1       4.000          4.461                        -0.461
    147       Si     1       4.000          4.968                        -0.968
    148       Si     1       4.000          4.968                        -0.968
    149       Si     1       4.000          4.971                        -0.971
    150       Si     1       4.000          4.466                        -0.466
    151       Si     1       4.000          3.995                         0.005
    152       Si     1       4.000          3.991                         0.009
    153       Si     1       4.000          3.995                         0.005
    154       Si     1       4.000          3.999                         0.001
    155       Si     1       4.000          4.001                        -0.001
    156       Si     1       4.000          4.968                        -0.968
    157       Si     1       4.000          3.991                         0.009
    158       Si     1       4.000          4.001                        -0.001
    159       Si     1       4.000          4.005                        -0.005
    160       Si     1       4.000          4.971                        -0.971
    161       Si     1       4.000          4.968                        -0.968
    162       Si     1       4.000          4.971                        -0.971
    163       Si     1       4.000          4.470                        -0.470
    164       Si     1       4.000          4.002                        -0.002
    165       Si     1       4.000          3.995                         0.005
    166       Si     1       4.000          4.002                        -0.002
    167       Si     1       4.000          4.000                        -0.000
    168       Si     1       4.000          3.999                         0.001
    169       Si     1       4.000          4.461                        -0.461
    170       Si     1       4.000          3.995                         0.005
    171       Si     1       4.000          3.999                         0.001
    172       Si     1       4.000          4.001                        -0.001
    173       Si     1       4.000          4.968                        -0.968
    174       Si     1       4.000          4.461                        -0.461
    175       Si     1       4.000          4.968                        -0.968
    176       Si     1       4.000          4.470                        -0.470
    177       Si     1       4.000          4.466                        -0.466
    178       Si     1       4.000          4.470                        -0.470
    179       Si     1       4.000          4.002                        -0.002
    180       Si     1       4.000          3.995                         0.005
    181       Si     1       4.000          4.466                        -0.466
    182       Si     1       4.000          3.995                         0.005
    183       Si     1       4.000          3.991                         0.009
    184       Si     1       4.000          4.452                        -0.452
    185       Si     1       4.000          3.977                         0.023
    186       Si     1       4.000          4.450                        -0.450
    187       Si     1       4.000          4.450                        -0.450
    188       Si     1       4.000          3.977                         0.023
    189       Si     1       4.000          4.452                        -0.452
    190       Si     1       4.000          4.452                        -0.452
    191       Si     1       4.000          3.977                         0.023
    192       Si     1       4.000          4.450                        -0.450
    193       Si     1       4.000          4.003                        -0.003
    194       Si     1       4.000          4.000                         0.000
    195       Si     1       4.000          4.004                        -0.004
    196       Si     1       4.000          4.004                        -0.004
    197       Si     1       4.000          4.000                         0.000
    198       Si     1       4.000          4.003                        -0.003
    199       Si     1       4.000          4.450                        -0.450
    200       Si     1       4.000          3.977                         0.023
    201       Si     1       4.000          4.452                        -0.452
    202       Si     1       4.000          4.450                        -0.450
    203       Si     1       4.000          3.977                         0.023
    204       Si     1       4.000          4.452                        -0.452
    205       Si     1       4.000          4.004                        -0.004
    206       Si     1       4.000          4.000                         0.000
    207       Si     1       4.000          4.003                        -0.003
    208       Si     1       4.000          4.003                        -0.003
    209       Si     1       4.000          4.000                         0.000
    210       Si     1       4.000          4.004                        -0.004
    211       Si     1       4.000          4.452                        -0.452
    212       Si     1       4.000          3.977                         0.023
    213       Si     1       4.000          4.450                        -0.450
    214       Si     1       4.000          4.450                        -0.450
    215       Si     1       4.000          3.977                         0.023
    216       Si     1       4.000          4.452                        -0.452
    217       Si     1       4.000          4.452                        -0.452
    218       Si     1       4.000          3.977                         0.023
    219       Si     1       4.000          4.450                        -0.450
    220       Si     1       4.000          4.971                        -0.971
    221       Si     1       4.000          4.968                        -0.968
    222       Si     1       4.000          4.968                        -0.968
    223       Si     1       4.000          4.461                        -0.461
    224       Si     1       4.000          4.971                        -0.971
    225       Si     1       4.000          4.968                        -0.968
    226       Si     1       4.000          4.971                        -0.971
    227       Si     1       4.000          4.005                        -0.005
    228       Si     1       4.000          4.001                        -0.001
    229       Si     1       4.000          3.991                         0.009
    230       Si     1       4.000          4.968                        -0.968
    231       Si     1       4.000          4.001                        -0.001
    232       Si     1       4.000          3.999                         0.001
    233       Si     1       4.000          3.995                         0.005
    234       Si     1       4.000          3.991                         0.009
    235       Si     1       4.000          3.995                         0.005
    236       Si     1       4.000          4.466                        -0.466
    237       Si     1       4.000          4.968                        -0.968
    238       Si     1       4.000          4.461                        -0.461
    239       Si     1       4.000          4.968                        -0.968
    240       Si     1       4.000          4.001                        -0.001
    241       Si     1       4.000          3.999                         0.001
    242       Si     1       4.000          3.995                         0.005
    243       Si     1       4.000          4.461                        -0.461
    244       Si     1       4.000          3.999                         0.001
    245       Si     1       4.000          4.000                        -0.000
    246       Si     1       4.000          4.002                        -0.002
    247       Si     1       4.000          3.995                         0.005
    248       Si     1       4.000          4.002                        -0.002
    249       Si     1       4.000          4.470                        -0.470
    250       Si     1       4.000          3.991                         0.009
    251       Si     1       4.000          3.995                         0.005
    252       Si     1       4.000          4.466                        -0.466
    253       Si     1       4.000          3.995                         0.005
    254       Si     1       4.000          4.002                        -0.002
    255       Si     1       4.000          4.470                        -0.470
    256       Si     1       4.000          4.466                        -0.466
    257       Si     1       4.000          4.470                        -0.470
    258       Si     1       4.000          4.452                        -0.452
    259       Si     1       4.000          4.450                        -0.450
    260       Si     1       4.000          3.977                         0.023
    261       Si     1       4.000          3.977                         0.023
    262       Si     1       4.000          4.450                        -0.450
    263       Si     1       4.000          4.452                        -0.452
    264       Si     1       4.000          4.452                        -0.452
    265       Si     1       4.000          4.003                        -0.003
    266       Si     1       4.000          4.004                        -0.004
    267       Si     1       4.000          4.450                        -0.450
    268       Si     1       4.000          3.977                         0.023
    269       Si     1       4.000          4.000                         0.000
    270       Si     1       4.000          4.000                         0.000
    271       Si     1       4.000          3.977                         0.023
    272       Si     1       4.000          4.450                        -0.450
    273       Si     1       4.000          4.004                        -0.004
    274       Si     1       4.000          4.003                        -0.003
    275       Si     1       4.000          4.452                        -0.452
    276       Si     1       4.000          4.450                        -0.450
    277       Si     1       4.000          4.004                        -0.004
    278       Si     1       4.000          4.003                        -0.003
    279       Si     1       4.000          4.452                        -0.452
    280       Si     1       4.000          3.977                         0.023
    281       Si     1       4.000          4.000                         0.000
    282       Si     1       4.000          4.000                         0.000
    283       Si     1       4.000          3.977                         0.023
    284       Si     1       4.000          4.452                        -0.452
    285       Si     1       4.000          4.003                        -0.003
    286       Si     1       4.000          4.004                        -0.004
    287       Si     1       4.000          4.450                        -0.450
    288       Si     1       4.000          4.450                        -0.450
    289       Si     1       4.000          4.452                        -0.452
    290       Si     1       4.000          3.977                         0.023
    291       Si     1       4.000          3.977                         0.023
    292       Si     1       4.000          4.452                        -0.452
    293       Si     1       4.000          4.450                        -0.450
    294       H      2       1.000          0.530                         0.470
    295       H      2       1.000          0.531                         0.469
    296       H      2       1.000          0.531                         0.469
    297       H      2       1.000          0.530                         0.470
    298       H      2       1.000          0.531                         0.469
    299       H      2       1.000          0.537                         0.463
    300       H      2       1.000          0.534                         0.466
    301       H      2       1.000          0.539                         0.461
    302       H      2       1.000          0.534                         0.466
    303       H      2       1.000          0.539                         0.461
    304       H      2       1.000          0.537                         0.463
    305       H      2       1.000          0.530                         0.470
    306       H      2       1.000          0.534                         0.466
    307       H      2       1.000          0.539                         0.461
    308       H      2       1.000          0.534                         0.466
    309       H      2       1.000          0.539                         0.461
    310       H      2       1.000          0.534                         0.466
    311       H      2       1.000          0.539                         0.461
    312       H      2       1.000          0.534                         0.466
    313       H      2       1.000          0.539                         0.461
    314       H      2       1.000          0.534                         0.466
    315       H      2       1.000          0.539                         0.461
    316       H      2       1.000          0.537                         0.463
    317       H      2       1.000          0.534                         0.466
    318       H      2       1.000          0.539                         0.461
    319       H      2       1.000          0.534                         0.466
    320       H      2       1.000          0.539                         0.461
    321       H      2       1.000          0.529                         0.471
    322       H      2       1.000          0.530                         0.470
    323       H      2       1.000          0.529                         0.471
    324       H      2       1.000          0.530                         0.470
    325       H      2       1.000          0.530                         0.470
    326       H      2       1.000          0.529                         0.471
    327       H      2       1.000          0.530                         0.470
    328       H      2       1.000          0.529                         0.471
    329       H      2       1.000          0.530                         0.470
    330       H      2       1.000          0.529                         0.471
    331       H      2       1.000          0.530                         0.470
    332       H      2       1.000          0.529                         0.471
    333       H      2       1.000          0.529                         0.471
    334       H      2       1.000          0.530                         0.470
    335       H      2       1.000          0.529                         0.471
    336       H      2       1.000          0.530                         0.470
    337       H      2       1.000          0.530                         0.470
    338       H      2       1.000          0.531                         0.469
    339       H      2       1.000          0.531                         0.469
    340       H      2       1.000          0.530                         0.470
    341       H      2       1.000          0.537                         0.463
    342       H      2       1.000          0.534                         0.466
    343       H      2       1.000          0.539                         0.461
    344       H      2       1.000          0.534                         0.466
    345       H      2       1.000          0.539                         0.461
    346       H      2       1.000          0.537                         0.463
    347       H      2       1.000          0.531                         0.469
    348       H      2       1.000          0.534                         0.466
    349       H      2       1.000          0.539                         0.461
    350       H      2       1.000          0.534                         0.466
    351       H      2       1.000          0.539                         0.461
    352       H      2       1.000          0.534                         0.466
    353       H      2       1.000          0.539                         0.461
    354       H      2       1.000          0.534                         0.466
    355       H      2       1.000          0.539                         0.461
    356       H      2       1.000          0.530                         0.470
    357       H      2       1.000          0.534                         0.466
    358       H      2       1.000          0.539                         0.461
    359       H      2       1.000          0.534                         0.466
    360       H      2       1.000          0.539                         0.461
    361       H      2       1.000          0.537                         0.463
    362       H      2       1.000          0.534                         0.466
    363       H      2       1.000          0.539                         0.461
    364       H      2       1.000          0.531                         0.469
    365       H      2       1.000          0.531                         0.469
    366       H      2       1.000          0.532                         0.468
    367       H      2       1.000          0.532                         0.468
    368       H      2       1.000          0.531                         0.469
    369       H      2       1.000          0.531                         0.469
    370       H      2       1.000          0.531                         0.469
    371       H      2       1.000          0.531                         0.469
    372       H      2       1.000          0.531                         0.469
    373       H      2       1.000          0.531                         0.469
    374       H      2       1.000          0.531                         0.469
    375       H      2       1.000          0.531                         0.469
    376       H      2       1.000          0.532                         0.468
    377       H      2       1.000          0.532                         0.468
    378       H      2       1.000          0.531                         0.469
    379       H      2       1.000          0.531                         0.469
    380       H      2       1.000          0.537                         0.463
    381       H      2       1.000          0.534                         0.466
    382       H      2       1.000          0.539                         0.461
    383       H      2       1.000          0.534                         0.466
    384       H      2       1.000          0.539                         0.461
    385       H      2       1.000          0.534                         0.466
    386       H      2       1.000          0.539                         0.461
    387       H      2       1.000          0.530                         0.470
    388       H      2       1.000          0.534                         0.466
    389       H      2       1.000          0.539                         0.461
    390       H      2       1.000          0.534                         0.466
    391       H      2       1.000          0.539                         0.461
    392       H      2       1.000          0.534                         0.466
    393       H      2       1.000          0.539                         0.461
    394       H      2       1.000          0.534                         0.466
    395       H      2       1.000          0.539                         0.461
    396       H      2       1.000          0.531                         0.469
    397       H      2       1.000          0.537                         0.463
    398       H      2       1.000          0.534                         0.466
    399       H      2       1.000          0.539                         0.461
    400       H      2       1.000          0.537                         0.463
    401       H      2       1.000          0.534                         0.466
    402       H      2       1.000          0.539                         0.461
    403       H      2       1.000          0.531                         0.469
    404       H      2       1.000          0.530                         0.470
    405       H      2       1.000          0.531                         0.469
    406       H      2       1.000          0.530                         0.470
    407       H      2       1.000          0.529                         0.471
    408       H      2       1.000          0.530                         0.470
    409       H      2       1.000          0.530                         0.470
    410       H      2       1.000          0.529                         0.471
    411       H      2       1.000          0.529                         0.471
    412       H      2       1.000          0.530                         0.470
    413       H      2       1.000          0.530                         0.470
    414       H      2       1.000          0.529                         0.471
    415       H      2       1.000          0.530                         0.470
    416       H      2       1.000          0.529                         0.471
    417       H      2       1.000          0.529                         0.471
    418       H      2       1.000          0.530                         0.470
    419       H      2       1.000          0.530                         0.470
    420       H      2       1.000          0.529                         0.471
    421       H      2       1.000          0.529                         0.471
    422       H      2       1.000          0.530                         0.470
    423       H      2       1.000          0.534                         0.466
    424       H      2       1.000          0.539                         0.461
    425       H      2       1.000          0.534                         0.466
    426       H      2       1.000          0.539                         0.461
    427       H      2       1.000          0.534                         0.466
    428       H      2       1.000          0.539                         0.461
    429       H      2       1.000          0.537                         0.463
    430       H      2       1.000          0.534                         0.466
    431       H      2       1.000          0.539                         0.461
    432       H      2       1.000          0.534                         0.466
    433       H      2       1.000          0.539                         0.461
    434       H      2       1.000          0.534                         0.466
    435       H      2       1.000          0.539                         0.461
    436       H      2       1.000          0.534                         0.466
    437       H      2       1.000          0.539                         0.461
    438       H      2       1.000          0.530                         0.470
    439       H      2       1.000          0.534                         0.466
    440       H      2       1.000          0.539                         0.461
    441       H      2       1.000          0.537                         0.463
    442       H      2       1.000          0.534                         0.466
    443       H      2       1.000          0.539                         0.461
    444       H      2       1.000          0.537                         0.463
    445       H      2       1.000          0.531                         0.469
    446       H      2       1.000          0.530                         0.470
    447       H      2       1.000          0.531                         0.469
    448       H      2       1.000          0.530                         0.470
    449       H      2       1.000          0.531                         0.469
    450       H      2       1.000          0.529                         0.471
    451       H      2       1.000          0.530                         0.470
    452       H      2       1.000          0.530                         0.470
    453       H      2       1.000          0.529                         0.471
    454       H      2       1.000          0.529                         0.471
    455       H      2       1.000          0.530                         0.470
    456       H      2       1.000          0.530                         0.470
    457       H      2       1.000          0.529                         0.471
    458       H      2       1.000          0.530                         0.470
    459       H      2       1.000          0.529                         0.471
    460       H      2       1.000          0.529                         0.471
    461       H      2       1.000          0.530                         0.470
    462       H      2       1.000          0.530                         0.470
    463       H      2       1.000          0.529                         0.471
    464       H      2       1.000          0.529                         0.471
    465       H      2       1.000          0.530                         0.470

  Total Charge                                                            0.036
 !-----------------------------------------------------------------------------!
  
 -------------------------------------------------------------------------------
 -                                                                             -
 -                          BANDSTRUCTURE CALCULATION                          -
 -                                                                             -
 -------------------------------------------------------------------------------
  
 Number of occupied molecular orbitals (MOs) = Number of occupied bands      672
 Number of unoccupied (= virtual) MOs = Number of unoccupied bands          9373
 Number of Gaussian basis functions for MOs                                10045
  
 -------------------------------------------------------------------------------
 -                                                                             -
 -                                GW CALCULATION                               -
 -                                                                             -
 -------------------------------------------------------------------------------
  
 Input: Number of time/freq. points                                           30
 Input: ω_max for fitting Σ(iω) (eV)                                        10.0
 Input: Filter threshold for sparse tensor operations                    1.0E-07
 Input: Apply Hedin shift                                                      F
 Detected: Available memory per MPI process                              14.3 GB
 
 Input: RI-RS Tikhonov regularization                                   1.00E-08
 Input: AO grid hard cutoff radius                                        8.00 Å
 Input: MPI ranks per atom in Z_lP solve                                      -1
 Input: Keep sparsity in χ/G/W panels                                          T
 Input: GW flavour                                                          G0W0
 
 Input: RI-RS grid optimization activated                                      T
 Input: RS points per AO function                                            7.0
 Input: Cutoff radius for atomic clusters                                  3.0 Å
 Input: Maximum grid optimization iterations                                 300
 
 Input: AUTO_RI basis optimization activated:                                  T
 Input: AUTO_RI number of RI functions per AO function:                      4.0
 Input: AUTO_RI frontier orbital window:                                  5.0 eV
 Input: AUTO_RI neighbor radius:                                           3.0 Å
 
 Cutoff radius for the truncated Coulomb operator in RI metric:            6.0 Å
 Regularization parameter of RI                                          0.0E+00
 Regularization parameter of minimax grids                               1.0E-06
 
 AUTO_RI| Number of automatic RI functions for χ, ε, W:                    34365
 AUTO_RI| Total RI basis optimization time:                              289.0 s
 
 SCF direct band gap (eV)                                                   1.66
 Max. SCF eigval diff. (eV)                                               233.81
 E-Range for minimax grid                                                 141.20
 Number of Padé parameters for analytic continuation:                         16
 
 RI-RS basis radii (Å):
     Kind  Elem     r_AO (Å)     r_RI (Å)
        1    Si        8.1344        5.7570
        2    H        10.6225        6.7183
 
 Started RI-RS grid optimization
 RI-RS grid initial normalized error                          9.681964718641E-03
 RI-RS grid optimization completed, execution time:                      921.6 s
 Normalized 3C error:                                                    3.6E-07
 Maximum absolute 3C error:                                              8.3E-03
 Optimized points outside molecular Voronoi cells:                         35248 / 70315
 Total grid points used for RI-RS:                                         70315
 
 RI-RS grid row-blocks of ϕ_μ(r_l)                                          2395
 RI-RS grid points per block (max)                                            32
 
 Percentage of non-zero matrix elements in ϕ_μ(r_l)                      37.49 %
 
 RI-RS memory estimate per MPI process:
   Available memory per process (system)                                14.29 GB
   Required for Z_lP (dense upper bound; actual is sparser)              0.30 GB
   Required for χ, W, Σ panels (peak per panel step)                     2.61 GB
   Required for Z_lP solve peak (D_local+ϕ, worst-case atom)            35.75 GB
   Worst-case local-grid number of grid points:                            61498
   Worst-case memory D_local:                                           30.26 GB

 *** WARNING in gw_ri_rs_non_periodic.F:1309 :: The estimated peak memory ***
 *** of the Z_lP solve, 35.75 GB per process, exceeds the available 14.29 ***
 *** GB. The per-atom matrix D'_ll' dominates and scales as               ***
 *** n_local_grid^2, and it is not balanced across ranks: the rank owning ***
 *** the atom with the largest integration sphere peaks well above the    ***
 *** average. Either raise N_PROCS_PER_ATOM_Z_LP to distribute D_local    ***
 *** block-cyclic via ScaLAPACK, which reduces that term roughly by the   ***
 *** number of ranks per atom at no loss of accuracy, or lower            ***
 *** CUTOFF_RADIUS_RL_RI, which shrinks D_local as n_local_grid^2 but     ***
 *** trades accuracy, or use fewer MPI ranks per node so that each rank   ***
 *** has more memory for the peak atom.                                   ***

 
 Started computing Z_lP
 Computed Z_lP (MPI rank 0) for atom          1 /  8,    Execution time  433.6 s
 Computed Z_lP (MPI rank 0) for atom          2 /  8,    Execution time  428.8 s
 Computed Z_lP (MPI rank 0) for atom          3 /  8,    Execution time  555.6 s
 Computed Z_lP (MPI rank 0) for atom          4 /  8,    Execution time  538.5 s
 Computed Z_lP (MPI rank 0) for atom          5 /  8,    Execution time  453.8 s
 Computed Z_lP (MPI rank 0) for atom          6 /  8,    Execution time  171.8 s
 Computed Z_lP (MPI rank 0) for atom          7 /  8,    Execution time  219.6 s
 Computed Z_lP (MPI rank 0) for atom          8 /  8,    Execution time  186.1 s
 Computed Z_lP (all MPI ranks) for all atoms,            Execution time 9400.9 s

 Memory per MPI process after computing Z_lP:
 Available memory per MPI process                               13.9 GB
 Used memory per MPI process                                     4.7 GB
 Number of batches for χ, Σ matrices                                           1
 
 Percentage of non-zero matrix elements in Z_lP                          83.21 %
 Percentage of non-zero matrix elements in G_ll', χ_ll', W_ll'          100.00 %
 Percentage of non-zero matrix elements in χ_PQ for time point 1        100.00 %
 
 Computed χ(iτ,k=0) for time point            1 / 30,    Execution time   64.1 s
 Computed χ(iτ,k=0) for time point            2 / 30,    Execution time   63.4 s
 Computed χ(iτ,k=0) for time point            3 / 30,    Execution time   63.6 s
 Computed χ(iτ,k=0) for time point            4 / 30,    Execution time   63.6 s
 Computed χ(iτ,k=0) for time point            5 / 30,    Execution time   63.5 s
 Computed χ(iτ,k=0) for time point            6 / 30,    Execution time   63.6 s
 Computed χ(iτ,k=0) for time point            7 / 30,    Execution time   63.6 s
 Computed χ(iτ,k=0) for time point            8 / 30,    Execution time   63.6 s
 Computed χ(iτ,k=0) for time point            9 / 30,    Execution time   63.5 s
 Computed χ(iτ,k=0) for time point           10 / 30,    Execution time   63.6 s
 Computed χ(iτ,k=0) for time point           11 / 30,    Execution time   63.5 s
 Computed χ(iτ,k=0) for time point           12 / 30,    Execution time   63.3 s
 Computed χ(iτ,k=0) for time point           13 / 30,    Execution time   63.3 s
 Computed χ(iτ,k=0) for time point           14 / 30,    Execution time   63.0 s
 Computed χ(iτ,k=0) for time point           15 / 30,    Execution time   62.9 s
 Computed χ(iτ,k=0) for time point           16 / 30,    Execution time   62.7 s
 Computed χ(iτ,k=0) for time point           17 / 30,    Execution time   61.8 s
 Computed χ(iτ,k=0) for time point           18 / 30,    Execution time   60.1 s
 Computed χ(iτ,k=0) for time point           19 / 30,    Execution time   54.3 s
 Computed χ(iτ,k=0) for time point           20 / 30,    Execution time   38.4 s
 Computed χ(iτ,k=0) for time point           21 / 30,    Execution time   28.1 s
 Computed χ(iτ,k=0) for time point           22 / 30,    Execution time   19.7 s
 Computed χ(iτ,k=0) for time point           23 / 30,    Execution time   15.5 s
 Computed χ(iτ,k=0) for time point           24 / 30,    Execution time   12.5 s
 Computed χ(iτ,k=0) for time point           25 / 30,    Execution time    6.6 s
 Computed χ(iτ,k=0) for time point           26 / 30,    Execution time    6.7 s
 Computed χ(iτ,k=0) for time point           27 / 30,    Execution time    6.6 s
 Computed χ(iτ,k=0) for time point           28 / 30,    Execution time    6.7 s
 Computed χ(iτ,k=0) for time point           29 / 30,    Execution time    6.6 s
 Computed χ(iτ,k=0) for time point           30 / 30,    Execution time    6.6 s
 
 Cholesky decomposition failed, using diagonalization.
 Discarded eigenmodes:                                                      1034
 Computed W(iτ),                                         Execution time 3717.4 s
 
 Computed Σ^x(k=0),                                      Execution time   93.4 s
 
 Computed Σ^c(iτ) for time point              1 / 30,    Execution time   69.4 s
 Computed Σ^c(iτ) for time point              2 / 30,    Execution time   69.4 s
 Computed Σ^c(iτ) for time point              3 / 30,    Execution time   69.3 s
 Computed Σ^c(iτ) for time point              4 / 30,    Execution time   69.2 s
 Computed Σ^c(iτ) for time point              5 / 30,    Execution time   69.4 s
 Computed Σ^c(iτ) for time point              6 / 30,    Execution time   69.3 s
 Computed Σ^c(iτ) for time point              7 / 30,    Execution time   69.3 s
 Computed Σ^c(iτ) for time point              8 / 30,    Execution time   69.2 s
 Computed Σ^c(iτ) for time point              9 / 30,    Execution time   69.1 s
 Computed Σ^c(iτ) for time point             10 / 30,    Execution time   69.0 s
 Computed Σ^c(iτ) for time point             11 / 30,    Execution time   69.0 s
 Computed Σ^c(iτ) for time point             12 / 30,    Execution time   68.6 s
 Computed Σ^c(iτ) for time point             13 / 30,    Execution time   68.1 s
 Computed Σ^c(iτ) for time point             14 / 30,    Execution time   67.4 s
 Computed Σ^c(iτ) for time point             15 / 30,    Execution time   66.9 s
 Computed Σ^c(iτ) for time point             16 / 30,    Execution time   66.0 s
 Computed Σ^c(iτ) for time point             17 / 30,    Execution time   65.4 s
 Computed Σ^c(iτ) for time point             18 / 30,    Execution time   65.4 s
 Computed Σ^c(iτ) for time point             19 / 30,    Execution time   65.7 s
 Computed Σ^c(iτ) for time point             20 / 30,    Execution time   64.5 s
 Computed Σ^c(iτ) for time point             21 / 30,    Execution time   63.0 s
 Computed Σ^c(iτ) for time point             22 / 30,    Execution time   62.4 s
 Computed Σ^c(iτ) for time point             23 / 30,    Execution time   62.2 s
 Computed Σ^c(iτ) for time point             24 / 30,    Execution time   52.1 s
 Computed Σ^c(iτ) for time point             25 / 30,    Execution time   24.3 s
 Computed Σ^c(iτ) for time point             26 / 30,    Execution time    9.5 s
 Computed Σ^c(iτ) for time point             27 / 30,    Execution time    9.3 s
 Computed Σ^c(iτ) for time point             28 / 30,    Execution time    9.2 s
 Computed Σ^c(iτ) for time point             29 / 30,    Execution time    9.3 s
 Computed Σ^c(iτ) for time point             30 / 30,    Execution time    9.3 s
 
 SCF valence band maximum (eV):                                           -5.421
 SCF conduction band minimum (eV):                                        -3.765
 SCF indirect band gap (eV):                                               1.656
 SCF direct band gap (eV):                                                 1.656
 
 G0W0 valence band maximum (eV):                                          -6.322
 G0W0 conduction band minimum (eV):                                       -3.042
 G0W0 indirect band gap (eV):                                              3.280
 G0W0 direct band gap (eV):                                                3.280
 
 Hartree-Fock with SCF orbitals valence band maximum (eV):                -7.138
 Hartree-Fock with SCF orbitals conduction band minimum (eV)              -0.104
 Hartree-Fock with SCF orbitals indirect band gap (eV):                    7.034
 Hartree-Fock with SCF orbitals direct band gap (eV):                      7.034

 ENERGY| Total FORCE_EVAL ( QS ) energy [hartree]          -1252.683997488642490

 -------------------------------------------------------------------------------
 -                                                                             -
 -                                DBCSR STATISTICS                             -
 -                                                                             -
 -------------------------------------------------------------------------------
 COUNTER                                    TOTAL       BLAS       SMM       ACC
 flops    11 x    69 x   151            192084684       0.0%    100.0%      0.0%     
 flops    11 x    89 x   154            260222116       0.0%    100.0%      0.0%     
 flops    31 x    69 x   151            269372826       0.0%    100.0%      0.0%     
 flops    31 x    89 x   154            396843524       0.0%    100.0%      0.0%     
 flops    11 x    75 x   151            690394650       0.0%    100.0%      0.0%     
 flops    31 x    75 x   151            947902500       0.0%    100.0%      0.0%     
 flops    43 x    43 x    11           1398387606       0.0%    100.0%      0.0%     
 flops    35 x    43 x    11           1672187440       0.0%    100.0%      0.0%     
 flops    43 x    43 x    31           1931994214       0.0%    100.0%      0.0%     
 flops    43 x    35 x    11           1940841980       0.0%    100.0%      0.0%     
 flops    35 x    43 x    31           2120003200       0.0%    100.0%      0.0%     
 flops    53 x    43 x    11           2171326366       0.0%    100.0%      0.0%     
 flops    43 x    53 x    11           2311060972       0.0%    100.0%      0.0%     
 flops    35 x    35 x    11           2331714000       0.0%    100.0%      0.0%     
 flops    43 x    35 x    31           2677437140       0.0%    100.0%      0.0%     
 flops    35 x    53 x    11           2767122050       0.0%    100.0%      0.0%     
 flops    53 x    43 x    31           2914695144       0.0%    100.0%      0.0%     
 flops    35 x    35 x    31           2971164000       0.0%    100.0%      0.0%     
 flops    53 x    35 x    11           3009982360       0.0%    100.0%      0.0%     
 flops    43 x    69 x    11           3038635248       0.0%    100.0%      0.0%     
 flops    69 x    43 x    11           3077081634       0.0%    100.0%      0.0%     
 flops    43 x    53 x    31           3182172258       0.0%    100.0%      0.0%     
 flops     9 x    32 x     9           3220632576       0.0%    100.0%      0.0%     
 flops    35 x    53 x    31           3507344960       0.0%    100.0%      0.0%     
 flops    53 x    53 x    11           3592750326       0.0%    100.0%      0.0%     
 flops    35 x    69 x    11           3644983650       0.0%    100.0%      0.0%     
 flops    45 x    43 x    11           3690776430       0.0%    100.0%      0.0%     
 flops    11 x    75 x   154           3710114100       0.0%    100.0%      0.0%     
 flops    32 x    69 x   151           3767510400       0.0%    100.0%      0.0%     
 flops    69 x    43 x    31           3812998512       0.0%    100.0%      0.0%     
 flops    43 x    45 x    11           3923549190       0.0%    100.0%      0.0%     
 flops    53 x    35 x    31           4035125850       0.0%    100.0%      0.0%     
 flops    43 x    69 x    31           4198934004       0.0%    100.0%      0.0%     
 flops    69 x    35 x    11           4282703040       0.0%    100.0%      0.0%     
 flops    35 x    69 x    31           4634742420       0.0%    100.0%      0.0%     
 flops    35 x    45 x    11           4718498400       0.0%    100.0%      0.0%     
 flops    53 x    69 x    11           4725707052       0.0%    100.0%      0.0%     
 flops    45 x    43 x    31           4728377610       0.0%    100.0%      0.0%     
 flops    53 x    53 x    31           4809547328       0.0%    100.0%      0.0%     
 flops    32 x    89 x   154           5023632768       0.0%    100.0%      0.0%     
 flops    69 x    53 x    11           5091611844       0.0%    100.0%      0.0%     
 flops    45 x    35 x    11           5148990000       0.0%    100.0%      0.0%     
 flops    69 x    35 x    31           5301190650       0.0%    100.0%      0.0%     
 flops    43 x    45 x    31           5402728980       0.0%    100.0%      0.0%     
 flops    43 x    96 x    11           5406276480       0.0%    100.0%      0.0%     
 flops    43 x    75 x    11           5923757400       0.0%    100.0%      0.0%     
 flops    31 x    75 x   154           5947926600       0.0%    100.0%      0.0%     
 flops    35 x    45 x    31           5996198250       0.0%    100.0%      0.0%     
 flops    53 x    45 x    11           6102051120       0.0%    100.0%      0.0%     
 flops    45 x    53 x    11           6118998930       0.0%    100.0%      0.0%     
 flops    69 x    53 x    31           6292548702       0.0%    100.0%      0.0%     
 flops    53 x    69 x    31           6336535098       0.0%    100.0%      0.0%     
 flops    35 x    96 x    11           6491950080       0.0%    100.0%      0.0%     
 flops    45 x    35 x    31           6603581250       0.0%    100.0%      0.0%     
 flops    96 x    43 x    11           6628296576       0.0%    100.0%      0.0%     
 flops    69 x    69 x    11           6713333748       0.0%    100.0%      0.0%     
 flops    35 x    75 x    11           7102326000       0.0%    100.0%      0.0%     
 flops    37 x    43 x    11           7280205988       0.0%    100.0%      0.0%     
 flops    75 x    43 x    11           7295788500       0.0%    100.0%      0.0%     
 flops    43 x    96 x    31           7433661120       0.0%    100.0%      0.0%     
 flops    43 x    50 x    11           7642166400       0.0%    100.0%      0.0%     
 flops    50 x    43 x    11           7677404900       0.0%    100.0%      0.0%     
 flops    45 x    53 x    31           7827202710       0.0%    100.0%      0.0%     
 flops    45 x    69 x    11           8063858880       0.0%    100.0%      0.0%     
 flops    43 x    75 x    31           8153361150       0.0%    100.0%      0.0%     
 flops    53 x    45 x    31           8164050570       0.0%    100.0%      0.0%     
 flops    35 x    96 x    31           8239889280       0.0%    100.0%      0.0%     
 flops    69 x    69 x    31           8308487754       0.0%    100.0%      0.0%     
 flops    53 x    96 x    11           8384118336       0.0%    100.0%      0.0%     
 flops    43 x    37 x    11           8588790760       0.0%    100.0%      0.0%     
 flops    69 x    45 x    11           8670588300       0.0%    100.0%      0.0%     
 flops    96 x    43 x    31           8914250880       0.0%    100.0%      0.0%     
 flops    37 x    43 x    31           8988653608       0.0%    100.0%      0.0%     
 flops    35 x    75 x    31           9014722500       0.0%    100.0%      0.0%     
 flops    53 x    75 x    11           9190295400       0.0%    100.0%      0.0%     
 flops    35 x    50 x    11           9194647000       0.0%    100.0%      0.0%     
 flops     9 x     9 x  1277           9233614116       0.0%    100.0%      0.0%     
 flops    96 x    35 x    11           9236451840       0.0%    100.0%      0.0%     
 flops     9 x     9 x  1280           9255306240       0.0%    100.0%      0.0%     
 flops    11 x    35 x    37           9752639820       0.0%    100.0%      0.0%     
 flops    50 x    43 x    31           9840605900       0.0%    100.0%      0.0%     
 flops    37 x    35 x    11          10135687870       0.0%    100.0%      0.0%     
 flops    75 x    35 x    11          10152681000       0.0%    100.0%      0.0%     
 flops    75 x    43 x    31          10155260550       0.0%    100.0%      0.0%     
 flops    35 x    37 x    11          10310417040       0.0%    100.0%      0.0%     
 flops    45 x    69 x    31          10344909870       0.0%    100.0%      0.0%     
 flops    45 x    45 x    11          10438332300       0.0%    100.0%      0.0%     
 flops    43 x    50 x    31          10548162300       0.0%    100.0%      0.0%     
 flops    50 x    35 x    11          10715012000       0.0%    100.0%      0.0%     
 flops    69 x    45 x    31          10735512660       0.0%    100.0%      0.0%     
 flops    96 x    53 x    11          10979354496       0.0%    100.0%      0.0%     
 flops    53 x    96 x    31          11201842560       0.0%    100.0%      0.0%     
 flops    35 x    50 x    31          11689573000       0.0%    100.0%      0.0%     
 flops    43 x    37 x    31          11849962102       0.0%    100.0%      0.0%     
 flops    53 x    50 x    11          11870054900       0.0%    100.0%      0.0%     
 flops    69 x    96 x    11          11930897088       0.0%    100.0%      0.0%     
 flops    37 x    53 x    11          12045764104       0.0%    100.0%      0.0%     
 flops    75 x    53 x    11          12077282250       0.0%    100.0%      0.0%     
 flops    31 x    35 x    37          12092958640       0.0%    100.0%      0.0%     
 flops    36 x    43 x    11          12134867976       0.0%    100.0%      0.0%     
 flops    53 x    75 x    31          12288736350       0.0%    100.0%      0.0%     
 flops    96 x    35 x    31          12464618880       0.0%    100.0%      0.0%     
 flops    37 x    35 x    31          12541619160       0.0%    100.0%      0.0%     
 flops    50 x    53 x    11          12723566900       0.0%    100.0%      0.0%     
 flops    69 x    75 x    11          13067247600       0.0%    100.0%      0.0%     
 flops    35 x    37 x    31          13122677890       0.0%    100.0%      0.0%     
 flops    53 x    37 x    11          13332603680       0.0%    100.0%      0.0%     
 flops    45 x    45 x    31          13375845900       0.0%    100.0%      0.0%     
 flops    32 x    75 x   151          13563182400       0.0%    100.0%      0.0%     
 flops    50 x    35 x    31          13782972000       0.0%    100.0%      0.0%     
 flops    75 x    35 x    31          14172432750       0.0%    100.0%      0.0%     
 flops    45 x    96 x    11          14349899520       0.0%    100.0%      0.0%     
 flops    96 x    69 x    11          14439313152       0.0%    100.0%      0.0%     
 flops    69 x    96 x    31          14717825856       0.0%    100.0%      0.0%     
 flops    96 x    53 x    31          14724224256       0.0%    100.0%      0.0%     
 flops    37 x    53 x    31          14848080168       0.0%    100.0%      0.0%     
 flops    11 x    35 x    36          14949506880       0.0%    100.0%      0.0%     
 flops    43 x    36 x    11          15066749016       0.0%    100.0%      0.0%     
 flops    45 x    75 x    11          15693628500       0.0%    100.0%      0.0%     
 flops    36 x    43 x    31          15839495136       0.0%    100.0%      0.0%     
 flops    37 x    69 x    11          15875095236       0.0%    100.0%      0.0%     
 flops    53 x    50 x    31          15892903300       0.0%    100.0%      0.0%     
 flops    75 x    69 x    11          15897672450       0.0%    100.0%      0.0%     
 flops    69 x    75 x    31          16117899750       0.0%    100.0%      0.0%     
 flops    50 x    53 x    31          16270300400       0.0%    100.0%      0.0%     
 flops    50 x    69 x    11          16760162100       0.0%    100.0%      0.0%     
 flops    75 x    53 x    31          16769443800       0.0%    100.0%      0.0%     
 flops    69 x    50 x    11          16858756200       0.0%    100.0%      0.0%     
 flops    36 x    35 x    11          16901521560       0.0%    100.0%      0.0%     
 flops    29 x    32 x     9          17678110464       0.0%    100.0%      0.0%     
 flops     9 x    32 x    29          17678110464       0.0%    100.0%      0.0%     
 flops    53 x    37 x    31          17867569138       0.0%    100.0%      0.0%     
 flops    35 x    36 x    11          18083446920       0.0%    100.0%      0.0%     
 flops    45 x    96 x    31          18340344000       0.0%    100.0%      0.0%     
 flops    96 x    45 x    11          18679256640       0.0%    100.0%      0.0%     
 flops    69 x    37 x    11          18955070178       0.0%    100.0%      0.0%     
 flops    96 x    69 x    31          19455522624       0.0%    100.0%      0.0%     
 flops    31 x    35 x    36          19522500480       0.0%    100.0%      0.0%     
 flops    37 x    69 x    31          19627622286       0.0%    100.0%      0.0%     
 flops    11 x    53 x    37          19691907048       0.0%    100.0%      0.0%     
 flops    45 x    75 x    31          20055566250       0.0%    100.0%      0.0%     
 flops    36 x    53 x    11          20112506568       0.0%    100.0%      0.0%     
 flops    45 x    50 x    11          20271141000       0.0%    100.0%      0.0%     
 flops    37 x    45 x    11          20530821960       0.0%    100.0%      0.0%     
 flops    75 x    45 x    11          20547722250       0.0%    100.0%      0.0%     
 flops    43 x    36 x    31          20738014200       0.0%    100.0%      0.0%     
 flops    69 x    50 x    31          20869153500       0.0%    100.0%      0.0%     
 flops    50 x    69 x    31          21526896000       0.0%    100.0%      0.0%     
 flops    50 x    45 x    11          21674317500       0.0%    100.0%      0.0%     
 flops    36 x    35 x    31          22086008280       0.0%    100.0%      0.0%     
 flops    75 x    69 x    31          22166563950       0.0%    100.0%      0.0%     
 flops    45 x    37 x    11          22779684180       0.0%    100.0%      0.0%     
 flops    35 x    36 x    31          22962592800       0.0%    100.0%      0.0%     
 flops    53 x    36 x    11          23388061752       0.0%    100.0%      0.0%     
 flops    69 x    37 x    31          23451178902       0.0%    100.0%      0.0%     
 flops    11 x    35 x    11          24347286040       0.0%    100.0%      0.0%     
 flops    31 x    53 x    37          24416340404       0.0%    100.0%      0.0%     
 flops    96 x    45 x    31          25169728320       0.0%    100.0%      0.0%     
 flops    37 x    45 x    31          25345958670       0.0%    100.0%      0.0%     
 flops    96 x    96 x    11          25741799424       0.0%    100.0%      0.0%     
 flops    45 x    50 x    31          25977411000       0.0%    100.0%      0.0%     
 flops    36 x    53 x    31          26172753408       0.0%    100.0%      0.0%     
 flops    36 x    69 x    11          26454604968       0.0%    100.0%      0.0%     
 flops    50 x    45 x    31          27774450000       0.0%    100.0%      0.0%     
 flops    96 x    75 x    11          28158292800       0.0%    100.0%      0.0%     
 flops    37 x    96 x    11          28227957120       0.0%    100.0%      0.0%     
 flops    75 x    96 x    11          28275825600       0.0%    100.0%      0.0%     
 flops    75 x    45 x    31          28592338500       0.0%    100.0%      0.0%     
 flops    45 x    37 x    31          29199224880       0.0%    100.0%      0.0%     
 flops    11 x    45 x    37          29259348030       0.0%    100.0%      0.0%     
 flops    43 x    43 x    32          29453002048       0.0%    100.0%      0.0%     
 flops    50 x    96 x    11          29851324800       0.0%    100.0%      0.0%     
 flops    11 x    53 x    36          30186494712       0.0%    100.0%      0.0%     
 flops    37 x    75 x    11          30913400100       0.0%    100.0%      0.0%     
 flops    11 x    35 x    75          30945279750       0.0%    100.0%      0.0%     
 flops    75 x    75 x    11          30979822500       0.0%    100.0%      0.0%     
 flops    53 x    36 x    31          31308219360       0.0%    100.0%      0.0%     
 flops    50 x    75 x    11          32695987500       0.0%    100.0%      0.0%     
 flops    69 x    36 x    11          33239154168       0.0%    100.0%      0.0%     
 flops    11 x    35 x    31          33570982830       0.0%    100.0%      0.0%     
 flops    36 x    45 x    11          34229475720       0.0%    100.0%      0.0%     
 flops    36 x    69 x    31          34553696904       0.0%    100.0%      0.0%     
 flops    96 x    96 x    31          34617212928       0.0%    100.0%      0.0%     
 flops    37 x    96 x    31          34801778496       0.0%    100.0%      0.0%     
 flops    35 x    43 x    32          36139841920       0.0%    100.0%      0.0%     
 flops    31 x    45 x    37          36279254430       0.0%    100.0%      0.0%     
 flops    96 x    50 x    11          36382684800       0.0%    100.0%      0.0%     
 flops    96 x    75 x    31          37867665600       0.0%    100.0%      0.0%     
 flops    37 x    75 x    31          38143657050       0.0%    100.0%      0.0%     
 flops    50 x    96 x    31          38277609600       0.0%    100.0%      0.0%     
 flops    31 x    35 x    11          39169667460       0.0%    100.0%      0.0%     
 flops    75 x    96 x    31          39357748800       0.0%    100.0%      0.0%     
 flops    31 x    53 x    36          39418119936       0.0%    100.0%      0.0%     
 flops    45 x    36 x    11          39952867680       0.0%    100.0%      0.0%     
 flops    37 x    50 x    11          39982174100       0.0%    100.0%      0.0%     
 flops    75 x    50 x    11          40040467500       0.0%    100.0%      0.0%     
 flops    43 x    35 x    32          40562085760       0.0%    100.0%      0.0%     
 flops    96 x    37 x    11          40854620928       0.0%    100.0%      0.0%     
 flops    69 x    36 x    31          41064231096       0.0%    100.0%      0.0%     
 flops    11 x    37 x    37          41240035276       0.0%    100.0%      0.0%     
 flops    11 x    89 x    37          41335441774       0.0%    100.0%      0.0%     
 flops    50 x    75 x    31          41940907500       0.0%    100.0%      0.0%     
 flops    50 x    50 x    11          42242200000       0.0%    100.0%      0.0%     
 flops    75 x    75 x    31          43157812500       0.0%    100.0%      0.0%     
 flops    31 x    35 x    75          43793095500       0.0%    100.0%      0.0%     
 flops    36 x    45 x    31          44620269120       0.0%    100.0%      0.0%     
 flops    37 x    37 x    11          44849557104       0.0%    100.0%      0.0%     
 flops    11 x    45 x    36          44851443120       0.0%    100.0%      0.0%     
 flops    75 x    37 x    11          44947513050       0.0%    100.0%      0.0%     
 flops    53 x    43 x    32          46365434560       0.0%    100.0%      0.0%     
 flops    36 x    96 x    11          47077265664       0.0%    100.0%      0.0%     
 flops    50 x    37 x    11          47425675000       0.0%    100.0%      0.0%     
 flops    43 x    53 x    32          48433380928       0.0%    100.0%      0.0%     
 flops    96 x    50 x    31          49090905600       0.0%    100.0%      0.0%     
 flops    11 x    53 x    11          49400454862       0.0%    100.0%      0.0%     
 flops    37 x    50 x    31          49422050700       0.0%    100.0%      0.0%     
 flops    35 x    35 x    32          49965888000       0.0%    100.0%      0.0%     
 flops    29 x     9 x  1277          50390506836       0.0%    100.0%      0.0%     
 flops     9 x    29 x  1277          50390506836       0.0%    100.0%      0.0%     
 flops    29 x     9 x  1280          50508887040       0.0%    100.0%      0.0%     
 flops     9 x    29 x  1280          50508887040       0.0%    100.0%      0.0%     
 flops    11 x    50 x    37          51087983100       0.0%    100.0%      0.0%     
 flops    45 x    36 x    31          51110701920       0.0%    100.0%      0.0%     
 flops    31 x    37 x    37          51136024270       0.0%    100.0%      0.0%     
 flops    31 x    89 x    37          51251790980       0.0%    100.0%      0.0%     
 flops    36 x    75 x    11          51547498200       0.0%    100.0%      0.0%     
 flops     9 x     9 x  1248          54143541504       0.0%    100.0%      0.0%     
 flops    50 x    50 x    31          54301150000       0.0%    100.0%      0.0%     
 flops    31 x    35 x    31          55028205400       0.0%    100.0%      0.0%     
 flops    96 x    37 x    31          55065689856       0.0%    100.0%      0.0%     
 flops    37 x    37 x    31          55452494960       0.0%    100.0%      0.0%     
 flops    75 x    50 x    31          55889745000       0.0%    100.0%      0.0%     
 flops    31 x    45 x    36          58568974560       0.0%    100.0%      0.0%     
 flops    35 x    53 x    32          59519440960       0.0%    100.0%      0.0%     
 flops    50 x    37 x    31          60943436300       0.0%    100.0%      0.0%     
 flops    36 x    96 x    31          61314147072       0.0%    100.0%      0.0%     
 flops    11 x    53 x    75          62480926200       0.0%    100.0%      0.0%     
 flops     9 x     9 x    11          62673749028       0.0%    100.0%      0.0%     
 flops    75 x    37 x    31          62689342350       0.0%    100.0%      0.0%     
 flops    11 x    37 x    36          63216669384       0.0%    100.0%      0.0%     
 flops    31 x    50 x    37          63344680800       0.0%    100.0%      0.0%     
 flops    11 x    89 x    36          63364905648       0.0%    100.0%      0.0%     
 flops    43 x    69 x    32          63682548672       0.0%    100.0%      0.0%     
 flops    53 x    35 x    32          63857707200       0.0%    100.0%      0.0%     
 flops    11 x    69 x    37          64092932244       0.0%    100.0%      0.0%     
 flops    69 x    43 x    32          64422352320       0.0%    100.0%      0.0%     
 flops    36 x    50 x    11          66656937600       0.0%    100.0%      0.0%     
 flops    36 x    75 x    31          67163391000       0.0%    100.0%      0.0%     
 flops    32 x    75 x   154          71114736000       0.0%    100.0%      0.0%     
 flops    96 x    36 x    11          71624424960       0.0%    100.0%      0.0%     
 flops    11 x    45 x    11          73033447410       0.0%    100.0%      0.0%     
 flops    11 x    53 x    31          73817722660       0.0%    100.0%      0.0%     
 flops    36 x    37 x    11          74826914184       0.0%    100.0%      0.0%     
 flops    53 x    53 x    32          76361114432       0.0%    100.0%      0.0%     
 flops    11 x    50 x    36          78313712400       0.0%    100.0%      0.0%     
 flops    35 x    69 x    32          78328844160       0.0%    100.0%      0.0%     
 flops    45 x    43 x    32          78392082240       0.0%    100.0%      0.0%     
 flops    31 x    53 x    11          78540920480       0.0%    100.0%      0.0%     
 flops    37 x    36 x    11          78696185040       0.0%    100.0%      0.0%     
 flops    75 x    36 x    11          78784358400       0.0%    100.0%      0.0%     
 flops    31 x    69 x    37          79469069160       0.0%    100.0%      0.0%     
 flops    43 x    45 x    32          82303197120       0.0%    100.0%      0.0%     
 flops    31 x    37 x    36          82554104592       0.0%    100.0%      0.0%     
 flops    31 x    89 x    36          82740864960       0.0%    100.0%      0.0%     
 flops    50 x    36 x    11          83133349200       0.0%    100.0%      0.0%     
 flops    36 x    50 x    31          87016528800       0.0%    100.0%      0.0%     
 flops    31 x    53 x    75          88424781300       0.0%    100.0%      0.0%     
 flops    69 x    35 x    32          88895184000       0.0%    100.0%      0.0%     
 flops    11 x    45 x    75          92836557000       0.0%    100.0%      0.0%     
 flops    96 x    36 x    31          96416828928       0.0%    100.0%      0.0%     
 flops    29 x    32 x    29          97035468096       0.0%    100.0%      0.0%     
 flops    37 x    36 x    31          97092191952       0.0%    100.0%      0.0%     
 flops    11 x    75 x    37          97532625300       0.0%    100.0%      0.0%     
 flops    36 x    37 x    31          97691338872       0.0%    100.0%      0.0%     
 flops    11 x    69 x    36          98250600888       0.0%    100.0%      0.0%     
 flops    53 x    69 x    32         100346909760       0.0%    100.0%      0.0%     
 flops    11 x    37 x    11         100475851498       0.0%    100.0%      0.0%     
 flops    35 x    45 x    32         101411856000       0.0%    100.0%      0.0%     
 flops    31 x    50 x    36         102263544000       0.0%    100.0%      0.0%     
 flops    69 x    53 x    32         106101681984       0.0%    100.0%      0.0%     
 flops    11 x    45 x    31         106355274300       0.0%    100.0%      0.0%     
 flops    50 x    36 x    31         106622528400       0.0%    100.0%      0.0%     
 flops    45 x    35 x    32         108305568000       0.0%    100.0%      0.0%     
 flops    75 x    36 x    31         109682321400       0.0%    100.0%      0.0%     
 flops    43 x    96 x    32         112627163136       0.0%    100.0%      0.0%     
 flops    31 x    45 x    11         116469593460       0.0%    100.0%      0.0%     
 flops    11 x    89 x    11         119149077520       0.0%    100.0%      0.0%     
 flops     9 x     9 x    31         120019000212       0.0%    100.0%      0.0%     
 flops    31 x    53 x    31         120518886992       0.0%    100.0%      0.0%     
 flops    31 x    75 x    37         120931192200       0.0%    100.0%      0.0%     
 flops    43 x    75 x    32         123496963200       0.0%    100.0%      0.0%     
 flops    11 x    36 x    37         123716271888       0.0%    100.0%      0.0%     
 flops    31 x    69 x    36         128294670312       0.0%    100.0%      0.0%     
 flops    45 x    53 x    32         129156488640       0.0%    100.0%      0.0%     
 flops    53 x    45 x    32         129697139520       0.0%    100.0%      0.0%     
 flops    11 x    37 x    75         130854386850       0.0%    100.0%      0.0%     
 flops    36 x    36 x    11         131144764608       0.0%    100.0%      0.0%     
 flops    11 x    89 x    75         131151735000       0.0%    100.0%      0.0%     
 flops    31 x    45 x    75         131385145500       0.0%    100.0%      0.0%     
 flops    96 x    43 x    32         133247612928       0.0%    100.0%      0.0%     
 flops    11 x    50 x    11         135753663100       0.0%    100.0%      0.0%     
 flops    35 x    96 x    32         138742517760       0.0%    100.0%      0.0%     
 flops    69 x    69 x    32         139628170368       0.0%    100.0%      0.0%     
 flops    11 x    37 x    31         140237475554       0.0%    100.0%      0.0%     
 flops    75 x    43 x    32         148487049600       0.0%    100.0%      0.0%     
 flops    11 x    75 x    36         149512651200       0.0%    100.0%      0.0%     
 flops    35 x    75 x    32         151952472000       0.0%    100.0%      0.0%     
 flops    31 x    36 x    37         153406386720       0.0%    100.0%      0.0%     
 flops    37 x    43 x    32         154292379840       0.0%    100.0%      0.0%     
 flops    11 x    89 x    31         157207698604       0.0%    100.0%      0.0%     
 flops    43 x    50 x    32         160158419200       0.0%    100.0%      0.0%     
 flops    31 x    37 x    11         161254747984       0.0%    100.0%      0.0%     
 flops    50 x    43 x    32         162065968000       0.0%    100.0%      0.0%     
 flops    11 x    50 x    75         162096412500       0.0%    100.0%      0.0%     
 flops    45 x    69 x    32         170020062720       0.0%    100.0%      0.0%     
 flops    36 x    36 x    31         170931684672       0.0%    100.0%      0.0%     
 flops    31 x    45 x    31         173992278960       0.0%    100.0%      0.0%     
 flops    11 x    69 x    11         176097057906       0.0%    100.0%      0.0%     
 flops    11 x     9 x    11         176223328182       0.0%    100.0%      0.0%     
 flops    53 x    96 x    32         177319323648       0.0%    100.0%      0.0%     
 flops    43 x    37 x    32         179701031680       0.0%    100.0%      0.0%     
 flops    69 x    45 x    32         180611640000       0.0%    100.0%      0.0%     
 flops    96 x    35 x    32         183951452160       0.0%    100.0%      0.0%     
 flops    31 x    37 x    75         185184985200       0.0%    100.0%      0.0%     
 flops    31 x    89 x    75         185611725000       0.0%    100.0%      0.0%     
 flops    11 x    36 x    36         189824998176       0.0%    100.0%      0.0%     
 flops    31 x    89 x    11         190706560616       0.0%    100.0%      0.0%     
 flops    53 x    75 x    32         194460052800       0.0%    100.0%      0.0%     
 flops    31 x    75 x    36         195231254400       0.0%    100.0%      0.0%     
 flops    11 x    50 x    31         196909086000       0.0%    100.0%      0.0%     
 flops    35 x    50 x    32         197303120000       0.0%    100.0%      0.0%     
 flops    32 x    35 x    37         200281509120       0.0%    100.0%      0.0%     
 flops    11 x    69 x    75         203358414600       0.0%    100.0%      0.0%     
 flops    75 x    35 x    32         204853992000       0.0%    100.0%      0.0%     
 flops    37 x    35 x    32         213019253440       0.0%    100.0%      0.0%     
 flops    31 x    50 x    11         216521257700       0.0%    100.0%      0.0%     
 flops    96 x    53 x    32         219349948416       0.0%    100.0%      0.0%     
 flops    45 x    45 x    32         220025937600       0.0%    100.0%      0.0%     
 flops    35 x    37 x    32         221216665600       0.0%    100.0%      0.0%     
 flops    50 x    35 x    32         223836144000       0.0%    100.0%      0.0%     
 flops    31 x    50 x    75         229404495000       0.0%    100.0%      0.0%     
 flops    31 x    37 x    31         229964968614       0.0%    100.0%      0.0%     
 flops    11 x    69 x    31         240178243866       0.0%    100.0%      0.0%     
 flops    75 x    53 x    32         244426756800       0.0%    100.0%      0.0%     
 flops    69 x    96 x    32         246842247168       0.0%    100.0%      0.0%     
 flops    31 x    36 x    36         247899097728       0.0%    100.0%      0.0%     
 flops    53 x    50 x    32         252111587200       0.0%    100.0%      0.0%     
 flops    37 x    53 x    32         254003780480       0.0%    100.0%      0.0%     
 flops    31 x    89 x    31         255745223582       0.0%    100.0%      0.0%     
 flops    36 x    43 x    32         263863312128       0.0%    100.0%      0.0%     
 flops    50 x    53 x    32         266791993600       0.0%    100.0%      0.0%     
 flops    69 x    75 x    32         270562910400       0.0%    100.0%      0.0%     
 flops    29 x    29 x  1277         277538411682       0.0%    100.0%      0.0%     
 flops    29 x    29 x  1280         278190420480       0.0%    100.0%      0.0%     
 flops    11 x    11 x    37         278952235496       0.0%    100.0%      0.0%     
 flops    31 x    69 x    11         281169102984       0.0%    100.0%      0.0%     
 flops    53 x    37 x    32         283012775040       0.0%    100.0%      0.0%     
 flops    11 x    36 x    11         284617860120       0.0%    100.0%      0.0%     
 flops    31 x    69 x    75         287800524900       0.0%    100.0%      0.0%     
 flops    96 x    69 x    32         288573235200       0.0%    100.0%      0.0%     
 flops    29 x     9 x  1248         295476989184       0.0%    100.0%      0.0%     
 flops     9 x    29 x  1248         295476989184       0.0%    100.0%      0.0%     
 flops    45 x    96 x    32         300790886400       0.0%    100.0%      0.0%     
 flops    11 x     9 x     9         302930687268       0.0%    100.0%      0.0%     
 flops    31 x     9 x    11         303102756990       0.0%    100.0%      0.0%     
 flops    11 x    75 x    75         309458778750       0.0%    100.0%      0.0%     
 flops    32 x    35 x    36         314524465920       0.0%    100.0%      0.0%     
 flops    43 x    36 x    32         315496171008       0.0%    100.0%      0.0%     
 flops    75 x    69 x    32         321530947200       0.0%    100.0%      0.0%     
 flops    31 x    50 x    31         322279999000       0.0%    100.0%      0.0%     
 flops    11 x     9 x    31         325088158428       0.0%    100.0%      0.0%     
 flops    45 x    75 x    32         329426568000       0.0%    100.0%      0.0%     
 flops    37 x    69 x    32         334400681472       0.0%    100.0%      0.0%     
 flops    11 x    31 x    37         345412379048       0.0%    100.0%      0.0%     
 flops    69 x    50 x    32         350972860800       0.0%    100.0%      0.0%     
 flops    50 x    69 x    32         351137798400       0.0%    100.0%      0.0%     
 flops    36 x    35 x    32         364153144320       0.0%    100.0%      0.0%     
 flops    11 x    75 x    11         365695692450       0.0%    100.0%      0.0%     
 flops    96 x    45 x    32         373471948800       0.0%    100.0%      0.0%     
 flops    35 x    36 x    32         388502231040       0.0%    100.0%      0.0%     
 flops    31 x    69 x    31         392159648316       0.0%    100.0%      0.0%     
 flops    11 x    36 x    75         392560997400       0.0%    100.0%      0.0%     
 flops    69 x    37 x    32         393877983744       0.0%    100.0%      0.0%     
 flops    32 x    53 x    37         404395349184       0.0%    100.0%      0.0%     
 flops    11 x    36 x    31         414090250992       0.0%    100.0%      0.0%     
 flops    75 x    45 x    32         415851840000       0.0%    100.0%      0.0%     
 flops    45 x    50 x    32         427466016000       0.0%    100.0%      0.0%     
 flops    11 x    11 x    36         427581658152       0.0%    100.0%      0.0%     
 flops     9 x    29 x    11         431743581126       0.0%    100.0%      0.0%     
 flops    37 x    45 x    32         432494006400       0.0%    100.0%      0.0%     
 flops    36 x    53 x    32         434461185792       0.0%    100.0%      0.0%     
 flops    31 x    75 x    75         437957808750       0.0%    100.0%      0.0%     
 flops    50 x    45 x    32         454146768000       0.0%    100.0%      0.0%     
 flops    31 x    36 x    11         457119865224       0.0%    100.0%      0.0%     
 flops    31 x    11 x    37         463013164988       0.0%    100.0%      0.0%     
 flops    45 x    37 x    32         479613879360       0.0%    100.0%      0.0%     
 flops    11 x    75 x    31         489673374300       0.0%    100.0%      0.0%     
 flops    32 x    35 x    11         491049919360       0.0%    100.0%      0.0%     
 flops    53 x    36 x    32         496939302144       0.0%    100.0%      0.0%     
 flops    31 x     9 x     9         499840764840       0.0%    100.0%      0.0%     
 flops    29 x     9 x    11         502862419818       0.0%    100.0%      0.0%     
 flops    96 x    96 x    32         510744526848       0.0%    100.0%      0.0%     
 flops    11 x    35 x    32         544325591040       0.0%    100.0%      0.0%     
 flops    31 x    36 x    75         555548538600       0.0%    100.0%      0.0%     
 flops    11 x    31 x    36         557797968288       0.0%    100.0%      0.0%     
 flops    96 x    75 x    32         559453593600       0.0%    100.0%      0.0%     
 flops    31 x     9 x    31         566598463614       0.0%    100.0%      0.0%     
 flops    75 x    96 x    32         568664064000       0.0%    100.0%      0.0%     
 flops    36 x    69 x    32         571521581568       0.0%    100.0%      0.0%     
 flops    31 x    31 x    37         571609496248       0.0%    100.0%      0.0%     
 flops    37 x    96 x    32         591482677248       0.0%    100.0%      0.0%     
 flops    31 x    75 x    11         591752406300       0.0%    100.0%      0.0%     
 flops    29 x     9 x    31         595235063232       0.0%    100.0%      0.0%     
 flops    32 x    45 x    37         600869249280       0.0%    100.0%      0.0%     
 flops    32 x    35 x    75         606810960000       0.0%    100.0%      0.0%     
 flops    50 x    96 x    32         621506457600       0.0%    100.0%      0.0%     
 flops    75 x    75 x    32         623395440000       0.0%    100.0%      0.0%     
 flops    32 x    53 x    36         635064825600       0.0%    100.0%      0.0%     
 flops    11 x    11 x     9         643724041158       0.0%    100.0%      0.0%     
 flops    37 x    75 x    32         648314592000       0.0%    100.0%      0.0%     
 flops    32 x    35 x    31         664883347520       0.0%    100.0%      0.0%     
 flops    31 x    36 x    31         678103118712       0.0%    100.0%      0.0%     
 flops    50 x    75 x    32         681288480000       0.0%    100.0%      0.0%     
 flops    69 x    36 x    32         691495840512       0.0%    100.0%      0.0%     
 flops    31 x    11 x    36         709722552528       0.0%    100.0%      0.0%     
 flops    96 x    50 x    32         726488064000       0.0%    100.0%      0.0%     
 flops    36 x    45 x    32         739298223360       0.0%    100.0%      0.0%     
 flops     9 x    29 x    31         747613367874       0.0%    100.0%      0.0%     
 flops    31 x    75 x    31         793043531400       0.0%    100.0%      0.0%     
 flops    75 x    50 x    32         809324640000       0.0%    100.0%      0.0%     
 flops    96 x    37 x    32         814722865152       0.0%    100.0%      0.0%     
 flops    37 x    50 x    32         841434937600       0.0%    100.0%      0.0%     
 flops    45 x    36 x    32         842226854400       0.0%    100.0%      0.0%     
 flops    32 x    37 x    37         846921577024       0.0%    100.0%      0.0%     
 flops    32 x    89 x    37         848863744320       0.0%    100.0%      0.0%     
 flops    50 x    50 x    32         884144320000       0.0%    100.0%      0.0%     
 flops    11 x    11 x    75         884203549350       0.0%    100.0%      0.0%     
 flops    31 x    35 x    32         885689076160       0.0%    100.0%      0.0%     
 flops    75 x    37 x    32         907652860800       0.0%    100.0%      0.0%     
 flops    31 x    31 x    36         923049025992       0.0%    100.0%      0.0%     
 flops    37 x    37 x    32         943513310528       0.0%    100.0%      0.0%     
 flops    32 x    45 x    36         943604847360       0.0%    100.0%      0.0%     
 flops    50 x    37 x    32         991480179200       0.0%    100.0%      0.0%     
 flops    32 x    53 x    11        1007228037376       0.0%    100.0%      0.0%     
 flops    36 x    96 x    32        1011154821120       0.0%    100.0%      0.0%     
 flops    32 x    50 x    37        1049143820800       0.0%    100.0%      0.0%     
 flops    11 x    31 x     9        1062346877658       0.0%    100.0%      0.0%     
 flops    31 x    11 x     9        1065163268268       0.0%    100.0%      0.0%     
 flops    11 x    53 x    32        1108048941824       0.0%    100.0%      0.0%     
 flops    36 x    75 x    32        1108147564800       0.0%    100.0%      0.0%     
 flops    32 x    53 x    75        1225196251200       0.0%    100.0%      0.0%     
 flops    11 x    31 x    75        1251168385500       0.0%    100.0%      0.0%     
 flops    32 x    69 x    37        1316210301504       0.0%    100.0%      0.0%     
 flops    32 x    37 x    36        1330007924736       0.0%    100.0%      0.0%     
 flops    32 x    89 x    36        1333049575680       0.0%    100.0%      0.0%     
 flops    11 x    29 x    11        1429262699546       0.0%    100.0%      0.0%     
 flops    96 x    36 x    32        1430547333120       0.0%    100.0%      0.0%     
 flops    36 x    50 x    32        1438285132800       0.0%    100.0%      0.0%     
 flops    31 x    11 x    75        1467281278650       0.0%    100.0%      0.0%     
 flops    32 x    53 x    31        1473083936832       0.0%    100.0%      0.0%     
 flops    32 x    45 x    11        1486783742400       0.0%    100.0%      0.0%     
 flops    11 x    29 x    31        1563645416630       0.0%    100.0%      0.0%     
 flops    75 x    36 x    32        1593494726400       0.0%    100.0%      0.0%     
 flops    36 x    37 x    32        1613193767424       0.0%    100.0%      0.0%     
 flops    29 x    29 x  1248        1627413959808       0.0%    100.0%      0.0%     
 flops    11 x    45 x    32        1634925821760       0.0%    100.0%      0.0%     
 flops    32 x    50 x    36        1647568166400       0.0%    100.0%      0.0%     
 flops    37 x    36 x    32        1657229559552       0.0%    100.0%      0.0%     
 flops     9 x     9 x    32        1696353471936       0.0%    100.0%      0.0%     
 flops    11 x    29 x     9        1707395224194       0.0%    100.0%      0.0%     
 flops    50 x    36 x    32        1740698265600       0.0%    100.0%      0.0%     
 flops    31 x    31 x     9        1757486763648       0.0%    100.0%      0.0%     
 flops    31 x    53 x    32        1790270107840       0.0%    100.0%      0.0%     
 flops    32 x    45 x    75        1820454264000       0.0%    100.0%      0.0%     
 flops    32 x    75 x    37        2002935148800       0.0%    100.0%      0.0%     
 flops    32 x    37 x    11        2027211491712       0.0%    100.0%      0.0%     
 flops    32 x    69 x    36        2066970182400       0.0%    100.0%      0.0%     
 flops    31 x    31 x    75        2070479353050       0.0%    100.0%      0.0%     
 flops    32 x    45 x    31        2113921486080       0.0%    100.0%      0.0%     
 flops    11 x    37 x    32        2221635951744       0.0%    100.0%      0.0%     
 flops    32 x    89 x    11        2414582229312       0.0%    100.0%      0.0%     
 flops    31 x    29 x    11        2452704569502       0.0%    100.0%      0.0%     
 flops    32 x    36 x    37        2540712466944       0.0%    100.0%      0.0%     
 flops    32 x    37 x    75        2565954854400       0.0%    100.0%      0.0%     
 flops    32 x    89 x    75        2571760233600       0.0%    100.0%      0.0%     
 flops    11 x    89 x    32        2633760749312       0.0%    100.0%      0.0%     
 flops    31 x    45 x    32        2645668791360       0.0%    100.0%      0.0%     
 flops    11 x     9 x    29        2685391693182       0.0%    100.0%      0.0%     
 flops    32 x    37 x    31        2767094299392       0.0%    100.0%      0.0%     
 flops    32 x    50 x    11        2767513971200       0.0%    100.0%      0.0%     
 flops    31 x    29 x     9        2818474881174       0.0%    100.0%      0.0%     
 flops    36 x    36 x    32        2832436491264       0.0%    100.0%      0.0%     
 flops    31 x     9 x    29        2837956002606       0.0%    100.0%      0.0%     
 flops    31 x    29 x    31        2841631706148       0.0%    100.0%      0.0%     
 flops    11 x    50 x    32        3061440096000       0.0%    100.0%      0.0%     
 flops    32 x    75 x    36        3145395110400       0.0%    100.0%      0.0%     
 flops    32 x    89 x    31        3150396595840       0.0%    100.0%      0.0%     
 flops    32 x    50 x    75        3178575840000       0.0%    100.0%      0.0%     
 flops    29 x    29 x    11        3516742931328       0.0%    100.0%      0.0%     
 flops    32 x    69 x    11        3579316536576       0.0%    100.0%      0.0%     
 flops    31 x    37 x    32        3616453341696       0.0%    100.0%      0.0%     
 flops    32 x     9 x    11        3645413982144       0.0%    100.0%      0.0%     
 flops    29 x    29 x    31        3738743457336       0.0%    100.0%      0.0%     
 flops    11 x    69 x    32        3915663706944       0.0%    100.0%      0.0%     
 flops    32 x    50 x    31        3928492211200       0.0%    100.0%      0.0%     
 flops    32 x    69 x    75        3987669528000       0.0%    100.0%      0.0%     
 flops    32 x    36 x    36        3993787524096       0.0%    100.0%      0.0%     
 flops    31 x    89 x    32        4269846234176       0.0%    100.0%      0.0%     
 flops    11 x     9 x    32        4502945563776       0.0%    100.0%      0.0%     
 flops    32 x    69 x    31        4791776574528       0.0%    100.0%      0.0%     
 flops    31 x    50 x    32        4954856380800       0.0%    100.0%      0.0%     
 flops    32 x    11 x    37        5414184951296       0.0%    100.0%      0.0%     
 flops    32 x    36 x    11        5746465891584       0.0%    100.0%      0.0%     
 flops    11 x    11 x    29        5783146890642       0.0%    100.0%      0.0%     
 flops    11 x    32 x    37        5792294749824       0.0%    100.0%      0.0%     
 flops    32 x    75 x    75        6068194200000       0.0%    100.0%      0.0%     
 flops    11 x    31 x    29        6206669323074       0.0%    100.0%      0.0%     
 flops    31 x    69 x    32        6341698986240       0.0%    100.0%      0.0%     
 flops    11 x    36 x    32        6452803678464       0.0%    100.0%      0.0%     
 flops    32 x     9 x    31        6653655442368       0.0%    100.0%      0.0%     
 flops    32 x    31 x    37        6702813054016       0.0%    100.0%      0.0%     
 flops    32 x     9 x     9        7022828049984       0.0%    100.0%      0.0%     
 flops    32 x    75 x    11        7359110404800       0.0%    100.0%      0.0%     
 flops    32 x    36 x    75        7697825452800       0.0%    100.0%      0.0%     
 flops    31 x     9 x    32        7709743009152       0.0%    100.0%      0.0%     
 flops    11 x    75 x    32        7778348160000       0.0%    100.0%      0.0%     
 flops    32 x    36 x    31        8193375733248       0.0%    100.0%      0.0%     
 flops    32 x    11 x    36        8298960823296       0.0%    100.0%      0.0%     
 flops    11 x    32 x    36        9097349488128       0.0%    100.0%      0.0%     
 flops    31 x    11 x    29        9571940899356       0.0%    100.0%      0.0%     
 flops    31 x    32 x    37        9623090029248       0.0%    100.0%      0.0%     
 flops    32 x    75 x    31       10009873910400       0.0%    100.0%      0.0%     
 flops    31 x    31 x    29       10272119109388       0.0%    100.0%      0.0%     
 flops    31 x    36 x    32       10488421269504       0.0%    100.0%      0.0%     
 flops    32 x    35 x    32       10821570887680       0.0%    100.0%      0.0%     
 flops    32 x    31 x    36       10824562183680       0.0%    100.0%      0.0%     
 flops     9 x    29 x    32       10882480006656       0.0%    100.0%      0.0%     
 flops    32 x    11 x     9       12478823647488       0.0%    100.0%      0.0%     
 flops    31 x    75 x    32       12730101739200       0.0%    100.0%      0.0%     
 flops    29 x     9 x    32       13112624682432       0.0%    100.0%      0.0%     
 flops    11 x    32 x     9       14867591808960       0.0%    100.0%      0.0%     
 flops    31 x    32 x    36       15114801376512       0.0%    100.0%      0.0%     
 flops    11 x    29 x    29       15250984605868       0.0%    100.0%      0.0%     
 flops    31 x    29 x    29       16241180461588       0.0%    100.0%      0.0%     
 flops    32 x    11 x    75       17155919510400       0.0%    100.0%      0.0%     
 flops    11 x    32 x    75       17532590856000       0.0%    100.0%      0.0%     
 flops    32 x    31 x     9       20593212735744       0.0%    100.0%      0.0%     
 flops    32 x    53 x    32       22227727046656       0.0%    100.0%      0.0%     
 flops    32 x    31 x    75       24279479347200       0.0%    100.0%      0.0%     
 flops    31 x    32 x     9       24598235058624       0.0%    100.0%      0.0%     
 flops    31 x    32 x    75       29123722867200       0.0%    100.0%      0.0%     
 flops    32 x    29 x    11       29818035240576       0.0%    100.0%      0.0%     
 flops    32 x    29 x    31       32590301976064       0.0%    100.0%      0.0%     
 flops    32 x    45 x    32       32733820477440       0.0%    100.0%      0.0%     
 flops    11 x    29 x    32       35649277945600       0.0%    100.0%      0.0%     
 flops    32 x    29 x     9       39552399493632       0.0%    100.0%      0.0%     
 flops    32 x    37 x    32       44157443600384       0.0%    100.0%      0.0%     
 flops    32 x    89 x    32       52671136923648       0.0%    100.0%      0.0%     
 flops    32 x     9 x    29       59969033273088       0.0%    100.0%      0.0%     
 flops    31 x    29 x    32       61036806918144       0.0%    100.0%      0.0%     
 flops    32 x    50 x    32       61352232345600       0.0%    100.0%      0.0%     
 flops    32 x    69 x    32       78367396546560       0.0%    100.0%      0.0%     
 flops    29 x    29 x    32       85835000815744       0.0%    100.0%      0.0%     
 flops    32 x     9 x    32       92079919319040       0.0%    100.0%      0.0%     
 flops    32 x    32 x    37      112453988751360       0.0%    100.0%      0.0%     
 flops    32 x    11 x    29      112629231145728       0.0%    100.0%      0.0%     
 flops    32 x    31 x    29      121046973960128       0.0%    100.0%      0.0%     
 flops    32 x    36 x    32      128360649424896       0.0%    100.0%      0.0%     
 flops    11 x    32 x    29      128634010417792       0.0%    100.0%      0.0%     
 flops    32 x    75 x    32      154108031232000       0.0%    100.0%      0.0%     
 flops    32 x    32 x    36      176621165862912       0.0%    100.0%      0.0%     
 flops    31 x    32 x    29      212786730597056       0.0%    100.0%      0.0%     
 flops    32 x    32 x     9      288284903276544       0.0%    100.0%      0.0%     
 flops    32 x    29 x    29      339950456885504       0.0%    100.0%      0.0%     
 flops    32 x    32 x    75      340503725721600       0.0%    100.0%      0.0%     
 flops    32 x    29 x    32      733501123987456       0.0%    100.0%      0.0%     
 flops    32 x    32 x    29     2506152816578560       0.0%    100.0%      0.0%     
 flops inhomo. stacks           36828691011480896     100.0%      0.0%      0.0%
 flops total                        43.580141E+15      84.5%     15.5%      0.0%
 flops max/rank                    710.905583E+12      83.5%     16.5%      0.0%
 matmuls inhomo. stacks               93318599971     100.0%      0.0%      0.0%
 matmuls total                       241178877139      38.7%     61.3%      0.0%
 number of processed stacks             270492225      34.6%     65.4%      0.0%
 average stack size                                   997.5     835.7       0.0
 marketing flops                    51.769698E+15
 -------------------------------------------------------------------------------
 # multiplications                            491
 max memory usage/rank              22.041543E+09
 # max total images/rank                        1
 # max 3D layers                                1
 # MPI messages exchanged                  439936
 MPI messages size (bytes):
  total size                        52.449616E+12
  min size                           0.000000E+00
  max size                         627.146496E+06
  average size                     119.221016E+06
 MPI breakdown and total messages size (bytes):
             size <=      128               46249                        0
       128 < size <=     8192                 413                  3030272
      8192 < size <=    32768                 707                 14360360
     32768 < size <=   131072                 994                 74554256
    131072 < size <=  4194304                3248               2919173880
   4194304 < size <= 16777216               48293             599151143976
  16777216 < size                          340032           51847489990296
 -------------------------------------------------------------------------------
 -                                                                             -
 -                      DBCSR MESSAGE PASSING PERFORMANCE                      -
 -                                                                             -
 -------------------------------------------------------------------------------
 ROUTINE             CALLS      AVE VOLUME [Bytes]
 MP_Bcast              578                     12.
 MP_Allreduce         3219                    146.
 MP_Alltoall          3302               13080503.
 MP_ISend            37268               27991910.
 MP_IRecv            25680               32763695.
 -------------------------------------------------------------------------------

 -------------------------------------------------------------------------------
 -                                                                             -
 -                                GRID STATISTICS                              -
 -                                                                             -
 -------------------------------------------------------------------------------
 LP    KERNEL             BACKEND                              COUNT     PERCENT
 6     collocate ortho    CPU                                  72045      28.63%
 6     integrate ortho    CPU                                  72045      28.63%
 4     collocate ortho    CPU                                  46161      18.34%
 4     integrate ortho    CPU                                  46161      18.34%
 2     collocate ortho    CPU                                   6930       2.75%
 2     integrate ortho    CPU                                   6930       2.75%
 0     collocate general  CPU                                    930       0.37%
 0     integrate general  CPU                                    465       0.18%
 -------------------------------------------------------------------------------

 -------------------------------------------------------------------------------
 -                                                                             -
 -                          OFFLOAD MEMPOOL STATISTICS                         -
 -                                                                             -
 -------------------------------------------------------------------------------
 Memory consumption                Number of allocations  Used [MiB]  Size [MiB]
 Host                                                  7         297    21906795
 -------------------------------------------------------------------------------

 MEMORY| Estimated peak process memory [MiB]                               13121

 -------------------------------------------------------------------------------
 -                                                                             -
 -                         MESSAGE PASSING PERFORMANCE                         -
 -                                                                             -
 -------------------------------------------------------------------------------

 ROUTINE             CALLS      AVE VOLUME [Bytes]
 MP_Group                6
 MP_Bcast            11602                 269455.
 MP_Allreduce         4463                5329732.
 MP_Sync                13
 MP_Alltoall            74              104433088.
 MP_SendRecv           567                 602112.
 MP_ISendRecv          567                 602112.
 MP_Wait               957
 MP_comm_split          15
 MP_ISend              330                2451245.
 MP_IRecv              330                2453908.
 -------------------------------------------------------------------------------


 -------------------------------------------------------------------------------
 -                                                                             -
 -                           R E F E R E N C E S                               -
 -                                                                             -
 -------------------------------------------------------------------------------
 
 CP2K version 2026.2 (Development Version), the CP2K developers group (2026).
 CP2K is freely available from https://www.cp2k.org/ .
 
 M. Iannuzzi, J. Wilhelm, F. Stein, A. Bussy, H. Elgabarty, D. Golze, A. Hehn, 
 M. Graml, S. Marek, B. Sertcan Gökmen, C. Schran, H. Forbert, R. Z. 
 Khaliullin, A. Kozhevnikov, M. Taillefumier, R. Meli, V. V. Rybkin, M. Brehm, 
 R. Schade, O. Schütt, J. V. Pototschnig, H. Mirhosseini, A. Knüpfer, D. Marx, 
 M. Krack, J. Hutter, T. D. Kühne.
 J. Phys. Chem. B 130, 1237-1310 (2026).
 The CP2K Program Package Made Simple.
 https://doi.org/10.1021/acs.jpcb.5c05851

 M. Graml, K. Zollner, D. Hernangómez-Pérez, P. E. Faria Junior, J. Wilhelm.
 J. Chem. Theory Comput. 20, 2202-2208 (2024).
 Low-scaling GW algorithm applied to twisted transition-metal dichalcogenide 
 heterobilayers.
 https://doi.org/10.1021/acs.jctc.3c01230

 T. D. Kühne, M. Iannuzzi, M. Del Ben, V. V. Rybkin, P. Seewald, F. Stein, T. 
 Laino, R. Z. Khaliullin, O. Schütt, F. Schiffmann, D. Golze, J. Wilhelm, S. 
 Chulkov, M. H. Bani-Hashemian, V. Weber, U. Borstnik, M. Taillefumier, A. S. 
 Jakobovits, A. Lazzaro, H. Pabst, T. Müller, R. Schade, M. Guidon, S. 
 Andermatt, N. Holmberg, G. K. Schenter, A. Hehn, A. Bussy, F. Belleflamme, G. 
 Tabacchi, A. Glöß, M. Lass, I. Bethune, C. J. Mundy, C. Plessl, M. Watkins, 
 J. VandeVondele, M. Krack, J. Hutter.
 J. Chem. Phys. 152, 194103 (2020).
 CP2K: An electronic structure and molecular dynamics software package - 
 Quickstep: Efficient and accurate electronic structure calculations.
 https://doi.org/10.1063/5.0007045

 O. Schuett, P. Messmer, J. Hutter, J. VandeVondele.
 Electronic Structure Calculations on Graphics Processing Units, 173-190 (2016).
 GPU-Accelerated Sparse Matrix-Matrix Multiplication for Linear Scaling Density 
 Functional Theory.
 https://doi.org/10.1002/9781118670712.ch8

 U. Borstnik, J. VandeVondele, V. Weber, J. Hutter.
 Parallel Comput. 40, 47-58 (2014).
 Sparse matrix multiplication: The distributed block-compressed sparse row 
 library.
 https://doi.org/10.1016/j.parco.2014.03.012

 J. VandeVondele, J. Hutter.
 J. Chem. Phys. 127, 114105 (2007).
 Gaussian basis sets for accurate calculations on molecular systems in gas and 
 condensed phases.
 https://doi.org/10.1063/1.2770708

 J. VandeVondele, M. Krack, F. Mohamed, M. Parrinello, T. Chassaing, J. Hutter.
 Comput. Phys. Commun. 167, 103-128 (2005).
 QUICKSTEP: Fast and accurate density functional calculations using a mixed 
 Gaussian and plane waves approach.
 https://doi.org/10.1016/j.cpc.2004.12.014

 M. Krack.
 Theor. Chem. Acc. 114, 145-152 (2005).
 Pseudopotentials for H to Kr optimized for gradient-corrected 
 exchange-correlation functionals.
 https://doi.org/10.1007/s00214-005-0655-y

 M. Frigo, S. G. Johnson.
 Proc. IEEE 93, 216-231 (2005).
 The design and implementation of FFTW3.
 https://doi.org/10.1109/JPROC.2004.840301

 C. Hartwigsen, S. Goedecker, J. Hutter.
 Phys. Rev. B 58, 3641-3662 (1998).
 Relativistic separable dual-space Gaussian pseudopotentials from H to Rn.
 https://doi.org/10.1103/PhysRevB.58.3641

 G. Lippert, J. Hutter, M. Parrinello.
 Mol. Phys. 92, 477-487 (1997).
 A hybrid Gaussian and plane wave density functional scheme.
 https://doi.org/10.1080/002689797170220

 S. Goedecker, M. Teter, J. Hutter.
 Phys. Rev. B 54, 1703-1710 (1996).
 Separable dual-space Gaussian pseudopotentials.
 https://doi.org/10.1103/PhysRevB.54.1703

 J. P. Perdew, K. Burke, M. Ernzerhof.
 Phys. Rev. Lett. 77, 3865-3868 (1996).
 Generalized gradient approximation made simple.
 https://doi.org/10.1103/PhysRevLett.77.3865

 P. E. Blöchl.
 J. Chem. Phys. 103, 7422-7428 (1995).
 Electrostatic decoupling of periodic images of plane‐wave‐expanded 
 densities and derived atomic point charges.
 https://doi.org/10.1063/1.470314

 R. H. Byrd, P. H. Lu, J. Nocedal, C. Y. Zhu.
 SIAM J. Sci. Comput. 16, 1190-1208 (1995).
 A Limited Memory Algorithm for Bound Constrained Optimization.
 https://doi.org/10.1137/0916069

 C. G. Broyden.
 Math. Comput. 19, 577-593 (1965).
 A class of methods for solving nonlinear simultaneous equations.
 https://doi.org/10.1090/S0025-5718-1965-0198670-6


 -------------------------------------------------------------------------------
 -                                                                             -
 -                                T I M I N G                                  -
 -                                                                             -
 -------------------------------------------------------------------------------
 SUBROUTINE                       CALLS  ASD         SELF TIME        TOTAL TIME
                                MAXIMUM       AVERAGE  MAXIMUM  AVERAGE  MAXIMUM
 CP2K                                 1  1.0     0.18     0.19 17570.44 17570.45
 qs_energies                          1  2.0     0.02     0.03 17569.10 17569.10
 qs_energies_properties               1  3.0     0.01     0.01 17535.16 17535.16
 post_scf_bandstructure               1  4.0     0.00     0.01 17535.16 17535.16
 run_gw                               1  5.0     0.00     0.00 17509.87 17509.90
 gw_calc_ri_rs_non_periodic           1  6.0     0.02     0.03 17218.65 17218.73
 compute_Z_lP                         1  7.0     0.00     0.00  9400.91  9400.92
 compute_Z_lP_auto_ri                 1  8.0     0.01     0.02  9400.91  9400.91
 fit_auto_ri_z_lp                     1  9.0    34.86    97.89  6115.99  6144.06
 fit_distributed_auto_ri_z_lp         1 10.0     0.91     1.07  5913.16  6000.27
 compute_W                            1  7.0     0.02     0.04  3717.41  3717.44
 dbcsr_multiply_generic             491  9.6     0.19     0.56  3232.95  3534.61
 solve_D_lp_distributed              49 11.0   141.08   154.53  3134.29  3466.31
 cp_fm_gemm                         432 10.5  3288.11  3334.02  3288.11  3334.02
 parallel_gemm_fm_gemm              429  9.6     0.01     0.01  3287.27  3333.19
 compute_auto_ri_d_lp                 1  9.0     0.00     0.01  3256.71  3256.74
 compute_auto_ri_d_lp_AB_d_lp         1 10.0     0.14     0.38  2782.43  3254.87
 compute_d_lp_auto_ri_atom            8 11.0  2065.80  2444.06  2669.21  3119.03
 mp_sum_root_rm                     865 10.5  2228.97  2760.18  2228.97  2760.18
 multiply_cannon                    491 10.6     0.23     0.86  2468.58  2600.96
 multiply_cannon_loop               491 11.6     0.33     0.72  2440.28  2576.37
 multiply_cannon_multrec           3928 12.6  2337.57  2493.71  2338.24  2494.38
 compute_fm_W_freq                   30  8.0     0.07     0.40  2454.25  2454.82
 cp_fm_cholesky_decompose            84 10.7  2068.16  2314.55  2068.16  2314.55
 compute_Sigma_c_and_QP_energie       1  7.0     0.02     0.02  1731.32  1731.36
 compute_Sigma_c                      1  8.0     0.02     0.10  1686.15  1686.16
 contract_grid_panels_sigma_c        30  9.0     0.03     0.28  1631.43  1631.93
 contract_grid_panels                31  8.0     0.01     0.02  1283.53  1366.02
 get_mat_chi_Gamma_tau                1  7.0     0.00     0.01  1344.96  1344.98
 solve_D_lp_distributed_dgemm     13721 12.0   995.91  1093.47   995.91  1093.47
 mp_sum_l                          1650 10.4   617.77   973.90   617.77   973.90
 optimize_ri_rs_grid                  1  7.0     0.00     0.00   930.13   930.20
 rirs_grid_LBFGS                      1  8.0    18.90    21.94   921.82   924.97
 evaluate_rirs_grid_cluster        2408  9.0    46.03    61.97   660.08   896.82
 compute_auto_ri_d_lp_transform       1 10.0     0.00     0.02   474.28   783.87
 build_phi_on_sphere                 60 11.0   134.07   143.20   694.99   745.27
 evaluate_ao_on_points            27900 12.0   560.92   605.72   560.92   605.72
 abc_contract_xsmm               330002 12.8   512.29   575.26   512.29   575.26
 build_3c_integral_block_auto_r  312536 12.0     0.88     1.00   509.83   572.69
 mp_sum_d                           759  4.4   242.35   564.87   242.35   564.87
 cp_fm_syevd                          7  8.7     0.00     0.00   357.04   357.25
 cp_fm_redistribute_end               7  9.7   178.66   357.06   178.69   357.07
 cp_fm_syevd_base                     7  9.7   177.85   355.80   177.85   355.80
 -------------------------------------------------------------------------------

 The number of warnings for this run is : 1
 
 -------------------------------------------------------------------------------
  **** **** ******  **  PROGRAM ENDED AT                 2026-09-18 20:19:09.099
 ***** ** ***  *** **   PROGRAM RAN ON                                  n2cn0855
 **    ****   ******    PROGRAM RAN BY                                  eprop2d1
 ***** **    ** ** **   PROGRAM PROCESS ID                                414778
  **** **  *******  **  PROGRAM STOPPED IN /scratch/hpc-prf-metdyn/eprop2d1_Jan/
                                           53_benchmark_RI_opt
