 DBCSR| CPU Multiplication driver                                           XSMM (U)
 DBCSR| Multrec recursion limit                                              512 (U)
 DBCSR| Multiplication stack size                                           1000 (D)
 DBCSR| Maximum elements for images                                    UNLIMITED (U)
 DBCSR| Multiplicative factor virtual images                                   1 (U)
 DBCSR| Use multiplication densification                                       T (D)
 DBCSR| Multiplication size stacks                                             3 (U)
 DBCSR| Use memory pool for CPU allocation                                     F (U)
 DBCSR| Number of 3D layers                                               SINGLE (U)
 DBCSR| Use MPI memory allocation                                              F (U)
 DBCSR| Use RMA algorithm                                                      F (U)
 DBCSR| Use Communication thread                                               T (U)
 DBCSR| Communication thread load                                             57 (D)
 DBCSR| MPI: My process id                                                     0
 DBCSR| MPI: Number of processes                                              13
 DBCSR| OMP: Current number of threads                                         9
 DBCSR| OMP: Max number of threads                                             9
 DBCSR| Split modifier for TAS multiplication algorithm                  1.0E+00 (U)


  **** **** ******  **  PROGRAM STARTED AT               2026-10-03 12:09:19.349
 ***** ** ***  *** **   PROGRAM STARTED ON                              n2cn0591
 **    ****   ******    PROGRAM STARTED BY                              eprop2d1
 ***** **    ** ** **   PROGRAM PROCESS ID                               1140284
  **** **  *******  **  PROGRAM STARTED IN /scratch/hpc-prf-metdyn/eprop2d1_Jan/
                                           53_benchmark_RI_opt/418_gw100_fig5_fu
                                           ll_epsfilter_1e12_20261002/calculatio
                                           ns/rc3p0/ri3_rs09/70_CH3OH

 CP2K| version string:                 CP2K version 2026.2 (Development Version)
 CP2K| source code revision number:                                   0671c5aa6c
 CP2K| cp2kflags: omp libint fftw3 libxc parallel scalapack openblas            
 CP2K| is freely available from                            https://www.cp2k.org/
 CP2K| Program compiled at                                   2026-09-20 09:25:26
 CP2K| Program compiled on                                              n2login5
 CP2K| Program compiled for                                               x86_64
 CP2K| Data directory path    /scratch/hpc-prf-metdyn/eprop2d1_Jan/53_benchmark_
 CP2K| Input file name                                                 input.inp
 
 eprop2d1@n2cn0591 has created rank and process                      0   1140284
 eprop2d1@n2cn0591 has created rank and process                      1   1140285
 eprop2d1@n2cn0591 has created rank and process                      2   1140286
 eprop2d1@n2cn0591 has created rank and process                      3   1140287
 eprop2d1@n2cn0591 has created rank and process                      4   1140288
 eprop2d1@n2cn0591 has created rank and process                      5   1140289
 
 eprop2d1@n2cn0591 is running                                        6 processes

 GLOBAL| Force Environment number                                              1
 GLOBAL| Basis set file name            /scratch/hpc-prf-metdyn/eprop2d1_Jan/53_
 GLOBAL| Potential file name            /scratch/hpc-prf-metdyn/eprop2d1_Jan/53_
 GLOBAL| MM Potential file name                                     MM_POTENTIAL
 GLOBAL| Coordinate file name                                      __STD_INPUT__
 GLOBAL| Method name                                                        CP2K
 GLOBAL| Project name                                             g418_c309_m070
 GLOBAL| Run type                                                         ENERGY
 GLOBAL| FFT library                                                       FFTW3
 GLOBAL| Diagonalization library                                       ScaLAPACK
 GLOBAL| Cholesky decomposition library                                ScaLAPACK
 GLOBAL| DGEMM library                                                      BLAS
 GLOBAL| Direct generalized diagonalization requested                          F
 GLOBAL| Orthonormality check for eigenvectors                          DISABLED
 GLOBAL| Matrix multiplication library                                 ScaLAPACK
 GLOBAL| All-to-all communication in single precision                          F
 GLOBAL| Grid backend                                                       AUTO
 GLOBAL| Global print level                                                  LOW
 GLOBAL| MPI I/O enabled                                                       T
 GLOBAL| Total number of message passing processes                             6
 GLOBAL| Number of distributed systems (nodes)                                 1
 GLOBAL| Number of threads for this process                                    9
 GLOBAL| This output is from process                                           0
 GLOBAL| OpenMP stack size per thread (OMP_STACKSIZE)                       512M
 GLOBAL| CPU model name                          AMD EPYC 7763 64-Core Processor

 MEMORY| system memory details [Kb]
 MEMORY|                        rank 0           min           max       average
 MEMORY| MemTotal            263897584     263897584     263897584     263897584
 MEMORY| MemFree             229947180     229947180     229951276     229950593
 MEMORY| Buffers                283040        283040        283040        283040
 MEMORY| Cached                7087436       7087436       7087436       7087436
 MEMORY| Slab                  1591220       1591220       1591220       1591220
 MEMORY| SReclaimable           289368        289368        289368        289368
 MEMORY| MemLikelyFree       237607024     237607024     237611120     237610437


 GENERATE|  Preliminary Number of Bonds generated:                             0
 GENERATE|  Achieved consistency in connectivity generation.

 *******************************************************************************
 *******************************************************************************
 **                                                                           **
 **     #####                         ##              ##                      **
 **    ##   ##            ##          ##              ##                      **
 **   ##     ##                       ##            ######                    **
 **   ##     ##  ##   ##  ##   #####  ##  ##   ####   ##    #####    #####    **
 **   ##     ##  ##   ##  ##  ##      ## ##   ##      ##   ##   ##  ##   ##   **
 **   ##  ## ##  ##   ##  ##  ##      ####     ###    ##   ######   ######    **
 **    ##  ###   ##   ##  ##  ##      ## ##      ##   ##   ##       ##        **
 **     #######   #####   ##   #####  ##  ##  ####    ##    #####   ##        **
 **           ##                                                    ##        **
 **                                                                           **
 **                                                ... make the atoms dance   **
 **                                                                           **
 **            Copyright (C) by CP2K developers group (2000-2026)             **
 **                      J. Chem. Phys. 152, 194103 (2020)                    **
 **                                                                           **
 *******************************************************************************


 TOTAL NUMBERS AND MAXIMUM NUMBERS

  Total number of            - Atomic kinds:                                   3
                             - Atoms:                                          6
                             - Shell sets:                                     6
                             - Shells:                                        38
                             - Primitive Cartesian functions:                 38
                             - Cartesian basis functions:                    104
                             - Spherical basis functions:                     94

  Maximum angular momentum of- Orbital basis functions:                        3
                             - Local part of the GTH pseudopotential:          2
                             - Non-local part of the GTH pseudopotential:      0


 SCF PARAMETERS         Density guess:                                   RESTART
                        --------------------------------------------------------
                        max_scf:                                             500
                        max_scf_history:                                       0
                        max_diis:                                              4
                        --------------------------------------------------------
                        eps_scf:                                        1.00E-08
                        eps_scf_history:                                0.00E+00
                        eps_diis:                                       0.00E+00
                        eps_eigval:                                     1.00E-05
                        --------------------------------------------------------
                        level_shift [a.u.]:                             0.000000
                        --------------------------------------------------------
                        Outer loop SCF in use 
                        No variables optimised in outer loop
                        eps_scf                                         1.00E-08
                        max_scf                                               20
                        No outer loop optimization
                        step_size                                       5.00E-01

 Extrapolation method: initial_guess

 Number of electrons:                                                         14
 Number of occupied orbitals:                                                  7
 Number of molecular orbitals:                                                 7

 Number of orbital functions:                                                 94
 Number of independent orbital functions:                                     94


 SCF WAVEFUNCTION OPTIMIZATION

  ----------------------------------- OT ---------------------------------------
  Minimizer      : DIIS                : direct inversion
                                         in the iterative subspace
                                         using   7 DIIS vectors
                                         safer DIIS on
  Preconditioner : FULL_KINETIC        : inversion of T + eS
  Lattice FFT   : OFF
  Precond_solver : DEFAULT
  stepsize       :    0.15000000                  energy_gap     :    0.20000000
  eps_taylor     :   0.10000E-15                  max_taylor     :             4
  ----------------------------------- OT ---------------------------------------

  Step     Update method      Time    Convergence         Total energy    Change
  ------------------------------------------------------------------------------
  Decoupling Energy:                                               0.0000125481
     1 OT DIIS     0.15E+00    1.9     9.3931E-09       -24.0841690852 -2.41E+01

  *** SCF run converged in     1 steps ***


  Electronic density on regular grids:        -14.0000000000        0.0000000000
  Core density on regular grids:               14.0000000000       -0.0000000000
  Total charge density on r-space grids:       -0.0000000000
  Total charge density g-space grids:          -0.0000000000

  Overlap energy of the core charge distribution:               0.00000090293764
  Self energy of the core charge distribution:                -60.50311084124164
  Core Hamiltonian energy:                                     18.13834667862850
  Hartree energy:                                              24.98626612972692
  Exchange-correlation energy:                                 -6.70567195524256

  Total energy:                                               -24.08416908519114

  outer SCF iter =    1 RMS gradient =   0.94E-08 energy =        -24.0841690852
  outer SCF loop converged in   1 iterations or    1 steps

  
 -------------------------------------------------------------------------------
 -                                                                             -
 -                          BANDSTRUCTURE CALCULATION                          -
 -                                                                             -
 -------------------------------------------------------------------------------
  
 Number of occupied molecular orbitals (MOs) = Number of occupied bands        7
 Number of unoccupied (= virtual) MOs = Number of unoccupied bands            87
 Number of Gaussian basis functions for MOs                                   94
  
 -------------------------------------------------------------------------------
 -                                                                             -
 -                                GW CALCULATION                               -
 -                                                                             -
 -------------------------------------------------------------------------------
  
 Input: Number of time/freq. points                                           30
 Input: ω_max for fitting Σ(iω) (eV)                                        10.0
 Input: Filter threshold for sparse tensor operations                    1.0E-12
 Input: Apply Hedin shift                                                      F
 Detected: Available memory per MPI process                              35.0 GB
 
 Input: RI-RS Tikhonov regularization                                   1.00E-04
 Input: AO grid hard cutoff radius                                        8.00 Å
 Input: MPI ranks per atom in Z_lP solve                                      -1
 Input: Keep sparsity in χ/G/W panels                                          T
 Input: GW flavour                                                          G0W0
 
 Input: RI-RS grid optimization activated                                      T
 Input: RS points per AO function                                            9.0
 Input: Cutoff radius for atomic clusters                                  3.0 Å
 Input: Maximum grid optimization iterations                                 300
 
 Input: AUTO_RI basis optimization activated:                                  T
 Input: AUTO_RI number of RI functions per AO function:                      3.0
 Input: AUTO_RI frontier orbital window:                                  5.0 eV
 Input: AUTO_RI neighbor radius:                                           3.0 Å
 
 Cutoff radius for the truncated Coulomb operator in RI metric:            7.0 Å
 Regularization parameter of RI                                          0.0E+00
 Regularization parameter of minimax grids                               1.0E-06
 
 AUTO_RI| Number of automatic RI functions for χ, ε, W:                      282
 AUTO_RI| Total RI basis optimization time:                                1.2 s
  Decoupling Energy:                                               0.0000125481
 
 SCF direct band gap (eV)                                                   5.87
 Max. SCF eigval diff. (eV)                                               279.34
 E-Range for minimax grid                                                  47.56
 Number of Padé parameters for analytic continuation:                         16
 
 RI-RS basis radii (Å):
     Kind  Elem     r_AO (Å)     r_RI (Å)
        1    C        15.9835       10.1279
        2    O        12.8635        8.6829
        3    H        13.9082        8.7963
 
 Started RI-RS grid optimization
 RI-RS grid initial normalized error                          1.724448158257E-03
 RI-RS grid optimization completed, execution time:                       63.0 s
 Normalized 3C error:                                                    1.5E-08
 Maximum absolute 3C error:                                              8.9E-04
 Optimized points outside molecular Voronoi cells:                           129 / 846
 Total grid points used for RI-RS:                                           846
 
 RI-RS grid row-blocks of ϕ_μ(r_l)                                            30
 RI-RS grid points per block (max)                                            32
 
 Percentage of non-zero matrix elements in ϕ_μ(r_l)                     100.00 %
 
 RI-RS memory estimate per MPI process:
   Available memory per process (system)                                41.81 GB
   Required for Z_lP (dense upper bound; actual is sparser)              0.00 GB
   Required for χ, W, Σ panels (peak per panel step)                     0.00 GB
   Required for Z_lP solve peak (D_local+ϕ, worst-case atom)             0.01 GB
   Worst-case local-grid number of grid points:                              846
   Worst-case memory D_local:                                            0.01 GB
 
 Started computing Z_lP
 Computed Z_lP (MPI rank 0) for atom          1 /  1,    Execution time    0.1 s
 Computed Z_lP (all MPI ranks) for all atoms,            Execution time    0.1 s

 Memory per MPI process after computing Z_lP:
 Available memory per MPI process                               41.0 GB
 Used memory per MPI process                                     1.2 GB
 Number of batches for χ, Σ matrices                                           1
 
 Percentage of non-zero matrix elements in Z_lP                         100.00 %
 Percentage of non-zero matrix elements in G_ll', χ_ll', W_ll'          100.00 %
 Percentage of non-zero matrix elements in χ_PQ for time point 1        100.00 %
 
 Computed χ(iτ,k=0) for time point            1 / 30,    Execution time    0.0 s
 Computed χ(iτ,k=0) for time point            2 / 30,    Execution time    0.0 s
 Computed χ(iτ,k=0) for time point            3 / 30,    Execution time    0.0 s
 Computed χ(iτ,k=0) for time point            4 / 30,    Execution time    0.0 s
 Computed χ(iτ,k=0) for time point            5 / 30,    Execution time    0.0 s
 Computed χ(iτ,k=0) for time point            6 / 30,    Execution time    0.0 s
 Computed χ(iτ,k=0) for time point            7 / 30,    Execution time    0.0 s
 Computed χ(iτ,k=0) for time point            8 / 30,    Execution time    0.0 s
 Computed χ(iτ,k=0) for time point            9 / 30,    Execution time    0.0 s
 Computed χ(iτ,k=0) for time point           10 / 30,    Execution time    0.0 s
 Computed χ(iτ,k=0) for time point           11 / 30,    Execution time    0.0 s
 Computed χ(iτ,k=0) for time point           12 / 30,    Execution time    0.0 s
 Computed χ(iτ,k=0) for time point           13 / 30,    Execution time    0.0 s
 Computed χ(iτ,k=0) for time point           14 / 30,    Execution time    0.0 s
 Computed χ(iτ,k=0) for time point           15 / 30,    Execution time    0.0 s
 Computed χ(iτ,k=0) for time point           16 / 30,    Execution time    0.0 s
 Computed χ(iτ,k=0) for time point           17 / 30,    Execution time    0.0 s
 Computed χ(iτ,k=0) for time point           18 / 30,    Execution time    0.0 s
 Computed χ(iτ,k=0) for time point           19 / 30,    Execution time    0.0 s
 Computed χ(iτ,k=0) for time point           20 / 30,    Execution time    0.0 s
 Computed χ(iτ,k=0) for time point           21 / 30,    Execution time    0.0 s
 Computed χ(iτ,k=0) for time point           22 / 30,    Execution time    0.0 s
 Computed χ(iτ,k=0) for time point           23 / 30,    Execution time    0.0 s
 Computed χ(iτ,k=0) for time point           24 / 30,    Execution time    0.0 s
 Computed χ(iτ,k=0) for time point           25 / 30,    Execution time    0.0 s
 Computed χ(iτ,k=0) for time point           26 / 30,    Execution time    0.0 s
 Computed χ(iτ,k=0) for time point           27 / 30,    Execution time    0.0 s
 Computed χ(iτ,k=0) for time point           28 / 30,    Execution time    0.0 s
 Computed χ(iτ,k=0) for time point           29 / 30,    Execution time    0.0 s
 Computed χ(iτ,k=0) for time point           30 / 30,    Execution time    0.0 s
 
 Computed W(iτ),                                         Execution time    0.2 s
 
 Computed Σ^x(k=0),                                      Execution time    0.0 s
 
 Computed Σ^c(iτ) for time point              1 / 30,    Execution time    0.0 s
 Computed Σ^c(iτ) for time point              2 / 30,    Execution time    0.0 s
 Computed Σ^c(iτ) for time point              3 / 30,    Execution time    0.0 s
 Computed Σ^c(iτ) for time point              4 / 30,    Execution time    0.0 s
 Computed Σ^c(iτ) for time point              5 / 30,    Execution time    0.0 s
 Computed Σ^c(iτ) for time point              6 / 30,    Execution time    0.0 s
 Computed Σ^c(iτ) for time point              7 / 30,    Execution time    0.0 s
 Computed Σ^c(iτ) for time point              8 / 30,    Execution time    0.0 s
 Computed Σ^c(iτ) for time point              9 / 30,    Execution time    0.0 s
 Computed Σ^c(iτ) for time point             10 / 30,    Execution time    0.0 s
 Computed Σ^c(iτ) for time point             11 / 30,    Execution time    0.0 s
 Computed Σ^c(iτ) for time point             12 / 30,    Execution time    0.0 s
 Computed Σ^c(iτ) for time point             13 / 30,    Execution time    0.0 s
 Computed Σ^c(iτ) for time point             14 / 30,    Execution time    0.0 s
 Computed Σ^c(iτ) for time point             15 / 30,    Execution time    0.0 s
 Computed Σ^c(iτ) for time point             16 / 30,    Execution time    0.0 s
 Computed Σ^c(iτ) for time point             17 / 30,    Execution time    0.0 s
 Computed Σ^c(iτ) for time point             18 / 30,    Execution time    0.0 s
 Computed Σ^c(iτ) for time point             19 / 30,    Execution time    0.0 s
 Computed Σ^c(iτ) for time point             20 / 30,    Execution time    0.0 s
 Computed Σ^c(iτ) for time point             21 / 30,    Execution time    0.0 s
 Computed Σ^c(iτ) for time point             22 / 30,    Execution time    0.0 s
 Computed Σ^c(iτ) for time point             23 / 30,    Execution time    0.0 s
 Computed Σ^c(iτ) for time point             24 / 30,    Execution time    0.0 s
 Computed Σ^c(iτ) for time point             25 / 30,    Execution time    0.0 s
 Computed Σ^c(iτ) for time point             26 / 30,    Execution time    0.0 s
 Computed Σ^c(iτ) for time point             27 / 30,    Execution time    0.0 s
 Computed Σ^c(iτ) for time point             28 / 30,    Execution time    0.0 s
 Computed Σ^c(iτ) for time point             29 / 30,    Execution time    0.0 s
 Computed Σ^c(iτ) for time point             30 / 30,    Execution time    0.0 s
 
 SCF valence band maximum (eV):                                           -6.317
 SCF conduction band minimum (eV):                                        -0.443
 SCF indirect band gap (eV):                                               5.874
 SCF direct band gap (eV):                                                 5.874
 
 G0W0 valence band maximum (eV):                                         -10.204
 G0W0 conduction band minimum (eV):                                        1.502
 G0W0 indirect band gap (eV):                                             11.707
 G0W0 direct band gap (eV):                                               11.707
 
 Hartree-Fock with SCF orbitals valence band maximum (eV):               -12.453
 Hartree-Fock with SCF orbitals conduction band minimum (eV)               2.153
 Hartree-Fock with SCF orbitals indirect band gap (eV):                   14.606
 Hartree-Fock with SCF orbitals direct band gap (eV):                     14.606

 ENERGY| Total FORCE_EVAL ( QS ) energy [hartree]            -24.084169085191139

 -------------------------------------------------------------------------------
 -                                                                             -
 -                                DBCSR STATISTICS                             -
 -                                                                             -
 -------------------------------------------------------------------------------
 COUNTER                                    TOTAL       BLAS       SMM       ACC
 flops     7 x     7 x     7                  686     100.0%      0.0%      0.0%     
 flops     7 x     7 x     9                10584     100.0%      0.0%      0.0%     
 flops     9 x     7 x     7                14112     100.0%      0.0%      0.0%     
 flops     7 x     7 x    29                17052     100.0%      0.0%      0.0%     
 flops     9 x     9 x     7                22680     100.0%      0.0%      0.0%     
 flops    29 x     7 x     7                22736     100.0%      0.0%      0.0%     
 flops    29 x     9 x     7                29232     100.0%      0.0%      0.0%     
 flops     9 x    29 x     7                29232     100.0%      0.0%      0.0%     
 flops    29 x    29 x     7                70644     100.0%      0.0%      0.0%     
 flops     9 x     7 x     9               145152     100.0%      0.0%      0.0%     
 flops     5 x    42 x     5               172200     100.0%      0.0%      0.0%     
 flops     5 x     5 x    42               180600     100.0%      0.0%      0.0%     
 flops     5 x    45 x     5               184500     100.0%      0.0%      0.0%     
 flops     5 x     5 x    45               193500     100.0%      0.0%      0.0%     
 flops     5 x    48 x     5               196800     100.0%      0.0%      0.0%     
 flops    29 x     7 x     9               233856     100.0%      0.0%      0.0%     
 flops     9 x     7 x    29               233856     100.0%      0.0%      0.0%     
 flops     5 x     9 x     5               255600     100.0%      0.0%      0.0%     
 flops    29 x     7 x    29               376768     100.0%      0.0%      0.0%     
 flops     5 x    29 x     5               421950     100.0%      0.0%      0.0%     
 flops     5 x    49 x     5               605150     100.0%      0.0%      0.0%     
 flops     5 x     5 x    49               632100     100.0%      0.0%      0.0%     
 flops     5 x     5 x     9               669600     100.0%      0.0%      0.0%     
 flops    42 x    42 x     5               705600     100.0%      0.0%      0.0%     
 flops    42 x    45 x     5               756000     100.0%      0.0%      0.0%     
 flops    45 x    42 x     5               756000     100.0%      0.0%      0.0%     
 flops     5 x    42 x    42               776160     100.0%      0.0%      0.0%     
 flops    42 x    48 x     5               806400     100.0%      0.0%      0.0%     
 flops    48 x    42 x     5               806400     100.0%      0.0%      0.0%     
 flops    45 x    45 x     5               810000     100.0%      0.0%      0.0%     
 flops     5 x    45 x    42               831600     100.0%      0.0%      0.0%     
 flops     5 x    42 x    45               831600     100.0%      0.0%      0.0%     
 flops    45 x    48 x     5               864000     100.0%      0.0%      0.0%     
 flops    48 x    45 x     5               864000     100.0%      0.0%      0.0%     
 flops     5 x    48 x    42               887040     100.0%      0.0%      0.0%     
 flops     5 x    45 x    45               891000     100.0%      0.0%      0.0%     
 flops    48 x    48 x     5               921600     100.0%      0.0%      0.0%     
 flops     9 x     9 x     5               936360     100.0%      0.0%      0.0%     
 flops     5 x    48 x    45               950400     100.0%      0.0%      0.0%     
 flops     5 x     5 x    29              1078800     100.0%      0.0%      0.0%     
 flops    17 x    42 x     5              1163820     100.0%      0.0%      0.0%     
 flops     5 x    42 x    17              1199520     100.0%      0.0%      0.0%     
 flops     5 x    17 x    42              1228080     100.0%      0.0%      0.0%     
 flops    17 x    45 x     5              1246950     100.0%      0.0%      0.0%     
 flops    17 x     5 x    42              1256640     100.0%      0.0%      0.0%     
 flops     5 x    45 x    17              1285200     100.0%      0.0%      0.0%     
 flops     5 x    17 x    45              1315800     100.0%      0.0%      0.0%     
 flops    17 x    48 x     5              1330080     100.0%      0.0%      0.0%     
 flops    17 x     5 x    45              1346400     100.0%      0.0%      0.0%     
 flops     5 x    48 x    17              1362720     100.0%      0.0%      0.0%     
 flops    29 x     9 x     5              1508580     100.0%      0.0%      0.0%     
 flops     9 x    29 x     5              1524240     100.0%      0.0%      0.0%     
 flops    17 x     9 x     5              1783980     100.0%      0.0%      0.0%     
 flops     5 x     9 x    17              1797750     100.0%      0.0%      0.0%     
 flops     5 x     9 x     9              2408940     100.0%      0.0%      0.0%     
 flops    29 x    29 x     5              2455720     100.0%      0.0%      0.0%     
 flops    49 x    42 x     5              2469600     100.0%      0.0%      0.0%     
 flops    42 x    49 x     5              2469600     100.0%      0.0%      0.0%     
 flops    49 x    45 x     5              2646000     100.0%      0.0%      0.0%     
 flops    45 x    49 x     5              2646000     100.0%      0.0%      0.0%     
 flops     5 x    49 x    42              2716560     100.0%      0.0%      0.0%     
 flops     5 x    42 x    49              2716560     100.0%      0.0%      0.0%     
 flops    49 x    48 x     5              2822400     100.0%      0.0%      0.0%     
 flops    48 x    49 x     5              2822400     100.0%      0.0%      0.0%     
 flops     5 x    29 x    17              2903770     100.0%      0.0%      0.0%     
 flops    17 x    29 x     5              2903770     100.0%      0.0%      0.0%     
 flops     5 x    49 x    45              2910600     100.0%      0.0%      0.0%     
 flops     5 x    45 x    49              2910600     100.0%      0.0%      0.0%     
 flops     5 x    48 x    49              3104640     100.0%      0.0%      0.0%     
 flops     5 x    29 x     9              3883680     100.0%      0.0%      0.0%     
 flops     5 x     9 x    29              3883680     100.0%      0.0%      0.0%     
 flops    17 x    49 x     5              4073370     100.0%      0.0%      0.0%     
 flops     5 x    49 x    17              4198320     100.0%      0.0%      0.0%     
 flops     5 x    17 x    49              4298280     100.0%      0.0%      0.0%     
 flops    17 x     5 x    49              4398240     100.0%      0.0%      0.0%     
 flops     5 x    17 x     9              4553280     100.0%      0.0%      0.0%     
 flops    17 x     5 x     9              4553280     100.0%      0.0%      0.0%     
 flops    42 x    42 x    17              4798080     100.0%      0.0%      0.0%     
 flops    42 x    45 x    17              5140800     100.0%      0.0%      0.0%     
 flops    45 x    42 x    17              5140800     100.0%      0.0%      0.0%     
 flops    17 x    42 x    42              5277888     100.0%      0.0%      0.0%     
 flops    42 x    48 x    17              5483520     100.0%      0.0%      0.0%     
 flops    48 x    42 x    17              5483520     100.0%      0.0%      0.0%     
 flops    45 x    45 x    17              5508000     100.0%      0.0%      0.0%     
 flops    17 x    45 x    42              5654880     100.0%      0.0%      0.0%     
 flops    17 x    42 x    45              5654880     100.0%      0.0%      0.0%     
 flops    45 x    48 x    17              5875200     100.0%      0.0%      0.0%     
 flops    48 x    45 x    17              5875200     100.0%      0.0%      0.0%     
 flops    17 x    48 x    42              6031872     100.0%      0.0%      0.0%     
 flops    17 x    45 x    45              6058800     100.0%      0.0%      0.0%     
 flops    48 x    48 x    17              6266880     100.0%      0.0%      0.0%     
 flops     5 x    29 x    29              6458880     100.0%      0.0%      0.0%     
 flops    17 x    48 x    45              6462720     100.0%      0.0%      0.0%     
 flops     9 x     9 x    17              6488424     100.0%      0.0%      0.0%     
 flops     5 x    17 x    29              7335840     100.0%      0.0%      0.0%     
 flops    17 x     5 x    29              7335840     100.0%      0.0%      0.0%     
 flops    17 x    42 x    17              8132460     100.0%      0.0%      0.0%     
 flops    17 x    17 x    42              8545152     100.0%      0.0%      0.0%     
 flops    49 x    49 x     5              8643600     100.0%      0.0%      0.0%     
 flops    17 x    45 x    17              8713350     100.0%      0.0%      0.0%     
 flops    17 x    17 x    45              9155520     100.0%      0.0%      0.0%     
 flops    17 x    48 x    17              9294240     100.0%      0.0%      0.0%     
 flops     5 x    49 x    49              9507960     100.0%      0.0%      0.0%     
 flops    29 x     9 x    17             10453572     100.0%      0.0%      0.0%     
 flops     9 x    29 x    17             10506816     100.0%      0.0%      0.0%     
 flops    17 x     9 x    17             12401568     100.0%      0.0%      0.0%     
 flops    32 x    42 x     5             13413120     100.0%      0.0%      0.0%     
 flops     5 x    42 x    32             13560960     100.0%      0.0%      0.0%     
 flops     5 x    32 x    42             13870080     100.0%      0.0%      0.0%     
 flops    32 x     5 x    42             14085120     100.0%      0.0%      0.0%     
 flops    32 x    45 x     5             14400000     100.0%      0.0%      0.0%     
 flops     5 x    45 x    32             14515200     100.0%      0.0%      0.0%     
 flops     5 x    32 x    45             14860800     100.0%      0.0%      0.0%     
 flops    32 x     5 x    45             15091200     100.0%      0.0%      0.0%     
 flops    32 x    48 x     5             15221760     100.0%      0.0%      0.0%     
 flops     5 x    48 x    32             15436800     100.0%      0.0%      0.0%     
 flops    17 x     9 x     9             16386300     100.0%      0.0%      0.0%     
 flops    49 x    42 x    17             16793280     100.0%      0.0%      0.0%     
 flops    42 x    49 x    17             16793280     100.0%      0.0%      0.0%     
 flops    29 x    29 x    17             16927648     100.0%      0.0%      0.0%     
 flops    49 x    45 x    17             17992800     100.0%      0.0%      0.0%     
 flops    45 x    49 x    17             17992800     100.0%      0.0%      0.0%     
 flops    17 x    49 x    42             18472608     100.0%      0.0%      0.0%     
 flops    17 x    42 x    49             18472608     100.0%      0.0%      0.0%     
 flops    49 x    48 x    17             19192320     100.0%      0.0%      0.0%     
 flops    48 x    49 x    17             19192320     100.0%      0.0%      0.0%     
 flops    17 x    49 x    45             19792080     100.0%      0.0%      0.0%     
 flops    17 x    45 x    49             19792080     100.0%      0.0%      0.0%     
 flops    17 x    29 x    17             20064114     100.0%      0.0%      0.0%     
 flops    32 x     9 x     5             20194560     100.0%      0.0%      0.0%     
 flops     5 x     9 x    32             20471040     100.0%      0.0%      0.0%     
 flops    17 x    48 x    49             21111552     100.0%      0.0%      0.0%     
 flops    17 x    29 x     9             26409024     100.0%      0.0%      0.0%     
 flops    17 x     9 x    29             26409024     100.0%      0.0%      0.0%     
 flops    17 x    49 x    17             28463610     100.0%      0.0%      0.0%     
 flops    17 x    17 x    49             29908032     100.0%      0.0%      0.0%     
 flops    17 x    17 x     9             30951900     100.0%      0.0%      0.0%     
 flops    32 x    29 x     5             32906880     100.0%      0.0%      0.0%     
 flops     5 x    29 x    32             33185280     100.0%      0.0%      0.0%     
 flops    17 x    29 x    29             43806008     100.0%      0.0%      0.0%     
 flops    32 x    49 x     5             46992960     100.0%      0.0%      0.0%     
 flops     5 x    49 x    32             47432000     100.0%      0.0%      0.0%     
 flops     5 x    32 x    49             48545280     100.0%      0.0%      0.0%     
 flops    32 x     5 x    49             48952960     100.0%      0.0%      0.0%     
 flops    17 x    17 x    29             49883712     100.0%      0.0%      0.0%     
 flops    32 x     5 x     9             51425280     100.0%      0.0%      0.0%     
 flops     5 x    32 x     9             51425280     100.0%      0.0%      0.0%     
 flops    42 x    42 x    32             55093248     100.0%      0.0%      0.0%     
 flops    49 x    49 x    17             58776480     100.0%      0.0%      0.0%     
 flops    42 x    45 x    32             59028480     100.0%      0.0%      0.0%     
 flops    45 x    42 x    32             59028480     100.0%      0.0%      0.0%     
 flops    32 x    42 x    42             59609088     100.0%      0.0%      0.0%     
 flops    48 x    42 x    32             62963712     100.0%      0.0%      0.0%     
 flops    45 x    45 x    32             63244800     100.0%      0.0%      0.0%     
 flops    42 x    48 x    32             63350784     100.0%      0.0%      0.0%     
 flops    32 x    42 x    45             63866880     100.0%      0.0%      0.0%     
 flops    32 x    45 x    42             63866880     100.0%      0.0%      0.0%     
 flops    17 x    49 x    49             64654128     100.0%      0.0%      0.0%     
 flops    48 x    45 x    32             67461120     100.0%      0.0%      0.0%     
 flops    45 x    48 x    32             67875840     100.0%      0.0%      0.0%     
 flops    32 x    48 x    42             68124672     100.0%      0.0%      0.0%     
 flops    32 x    45 x    45             68428800     100.0%      0.0%      0.0%     
 flops    48 x    48 x    32             72400896     100.0%      0.0%      0.0%     
 flops    32 x    48 x    45             72990720     100.0%      0.0%      0.0%     
 flops     9 x     9 x    32             73488384     100.0%      0.0%      0.0%     
 flops     5 x    32 x    29             82851840     100.0%      0.0%      0.0%     
 flops    32 x     5 x    29             83315840     100.0%      0.0%      0.0%     
 flops    17 x    42 x    32             91711872     100.0%      0.0%      0.0%     
 flops    32 x    42 x    17             92443008     100.0%      0.0%      0.0%     
 flops    32 x    17 x    42             95778816     100.0%      0.0%      0.0%     
 flops    17 x    32 x    42             96509952     100.0%      0.0%      0.0%     
 flops    17 x    45 x    32             98262720     100.0%      0.0%      0.0%     
 flops    32 x    45 x    17             99046080     100.0%      0.0%      0.0%     
 flops    32 x    17 x    45            102620160     100.0%      0.0%      0.0%     
 flops    17 x    32 x    45            103403520     100.0%      0.0%      0.0%     
 flops    17 x    48 x    32            104656896     100.0%      0.0%      0.0%     
 flops    32 x    48 x    17            105649152     100.0%      0.0%      0.0%     
 flops    29 x     9 x    32            118397952     100.0%      0.0%      0.0%     
 flops     9 x    29 x    32            118665216     100.0%      0.0%      0.0%     
 flops    32 x     9 x    17            139800384     100.0%      0.0%      0.0%     
 flops    17 x     9 x    32            140662080     100.0%      0.0%      0.0%     
 flops    32 x     9 x     9            185131008     100.0%      0.0%      0.0%     
 flops    29 x    29 x    32            191182848     100.0%      0.0%      0.0%     
 flops    49 x    42 x    32            192826368     100.0%      0.0%      0.0%     
 flops    42 x    49 x    32            194011776     100.0%      0.0%      0.0%     
 flops    49 x    45 x    32            206599680     100.0%      0.0%      0.0%     
 flops    45 x    49 x    32            207869760     100.0%      0.0%      0.0%     
 flops    32 x    42 x    49            208631808     100.0%      0.0%      0.0%     
 flops    32 x    49 x    42            208631808     100.0%      0.0%      0.0%     
 flops    49 x    48 x    32            221727744     100.0%      0.0%      0.0%     
 flops    48 x    49 x    32            221727744     100.0%      0.0%      0.0%     
 flops    32 x    49 x    45            223534080     100.0%      0.0%      0.0%     
 flops    32 x    45 x    49            223534080     100.0%      0.0%      0.0%     
 flops    32 x    29 x    17            226070080     100.0%      0.0%      0.0%     
 flops    17 x    29 x    32            229856320     100.0%      0.0%      0.0%     
 flops    32 x    48 x    49            238436352     100.0%      0.0%      0.0%     
 flops    32 x     9 x    29            298266624     100.0%      0.0%      0.0%     
 flops    32 x    29 x     9            298266624     100.0%      0.0%      0.0%     
 flops    17 x    49 x    32            321418048     100.0%      0.0%      0.0%     
 flops    32 x    49 x    17            323657152     100.0%      0.0%      0.0%     
 flops    32 x    17 x    49            332880128     100.0%      0.0%      0.0%     
 flops    17 x    32 x    49            337784832     100.0%      0.0%      0.0%     
 flops    32 x    17 x     9            349672320     100.0%      0.0%      0.0%     
 flops    17 x    32 x     9            349691904     100.0%      0.0%      0.0%     
 flops    32 x    29 x    29            496041984     100.0%      0.0%      0.0%     
 flops    17 x    32 x    29            563392512     100.0%      0.0%      0.0%     
 flops    32 x    17 x    29            567052544     100.0%      0.0%      0.0%     
 flops    49 x    49 x    32            679041216     100.0%      0.0%      0.0%     
 flops    32 x    49 x    49            730211328     100.0%      0.0%      0.0%     
 flops    32 x    42 x    32           1046212608     100.0%      0.0%      0.0%     
 flops    32 x    32 x    42           1081737216     100.0%      0.0%      0.0%     
 flops    32 x    45 x    32           1120757760     100.0%      0.0%      0.0%     
 flops    32 x    32 x    45           1159004160     100.0%      0.0%      0.0%     
 flops    32 x    48 x    32           1196064768     100.0%      0.0%      0.0%     
 flops    32 x     9 x    32           1590294528     100.0%      0.0%      0.0%     
 flops    32 x    29 x    32           2593945600     100.0%      0.0%      0.0%     
 flops    32 x    49 x    32           3664754688     100.0%      0.0%      0.0%     
 flops    32 x    32 x    49           3759587328     100.0%      0.0%      0.0%     
 flops    32 x    32 x     9           3949461504     100.0%      0.0%      0.0%     
 flops    32 x    32 x    29           6421225472     100.0%      0.0%      0.0%     
 flops inhomo. stacks                  2568384000     100.0%      0.0%      0.0%
 flops total                        43.178378E+09     100.0%      0.0%      0.0%
 flops max/rank                      8.173607E+09     100.0%      0.0%      0.0%
 matmuls inhomo. stacks                     23490     100.0%      0.0%      0.0%
 matmuls total                            1123482     100.0%      0.0%      0.0%
 number of processed stacks                225386     100.0%      0.0%      0.0%
 average stack size                                     5.0       0.0       0.0
 marketing flops                    60.042420E+09
 -------------------------------------------------------------------------------
 # multiplications                           6060
 max memory usage/rank              24.975254E+09
 # max total images/rank                        3
 # max 3D layers                                1
 # MPI messages exchanged                   21210
 MPI messages size (bytes):
  total size                         1.367892E+09
  min size                           0.000000E+00
  max size                         409.600000E+03
  average size                      64.492773E+03
 MPI breakdown and total messages size (bytes):
             size <=      128                3117                        0
       128 < size <=     8192                1827                  5735624
      8192 < size <=    32768                6164                138074736
     32768 < size <=   131072                7258                555302336
    131072 < size <=  4194304                2844                668779072
   4194304 < size <= 16777216                   0                        0
  16777216 < size                               0                        0
 -------------------------------------------------------------------------------

 *** WARNING in dbcsr_mm.F:301 :: Using a non-square number of MPI ranks ***
 *** might lead to poor performance. Used ranks: 6 Suggested: 4 9        ***

 -------------------------------------------------------------------------------
 -                                                                             -
 -                      DBCSR MESSAGE PASSING PERFORMANCE                      -
 -                                                                             -
 -------------------------------------------------------------------------------
 ROUTINE             CALLS      AVE VOLUME [Bytes]
 MP_Bcast              221                     12.
 MP_Allreduce         2562                     16.
 MP_Alltoall          3385                  14961.
 MP_ISend            10986                  37169.
 MP_IRecv            10820                  31710.
 -------------------------------------------------------------------------------

 -------------------------------------------------------------------------------
 -                                                                             -
 -                                GRID STATISTICS                              -
 -                                                                             -
 -------------------------------------------------------------------------------
 LP    KERNEL             BACKEND                              COUNT     PERCENT
 2     collocate ortho    CPU                                   8328      20.95%
 2     integrate ortho    CPU                                   8328      20.95%
 4     collocate ortho    CPU                                   7824      19.69%
 4     integrate ortho    CPU                                   7824      19.69%
 6     collocate ortho    CPU                                   3504       8.82%
 6     integrate ortho    CPU                                   3504       8.82%
 0     collocate general  CPU                                    432       1.09%
 -------------------------------------------------------------------------------

 -------------------------------------------------------------------------------
 -                                                                             -
 -                          OFFLOAD MEMPOOL STATISTICS                         -
 -                                                                             -
 -------------------------------------------------------------------------------
 Memory consumption                Number of allocations  Used [MiB]  Size [MiB]
 Host                                                  6         127    22326992
 -------------------------------------------------------------------------------

 MEMORY| Estimated peak process memory [MiB]                                3001

 -------------------------------------------------------------------------------
 -                                                                             -
 -                         MESSAGE PASSING PERFORMANCE                         -
 -                                                                             -
 -------------------------------------------------------------------------------

 ROUTINE             CALLS      AVE VOLUME [Bytes]
 MP_Group                5
 MP_Bcast              346                 291248.
 MP_Allreduce         1866                   5921.
 MP_Sync                10
 MP_Alltoall            44              111579687.
 MP_SendRecv            30                3141333.
 MP_ISendRecv           30                3141333.
 MP_Wait                80
 MP_comm_split          10
 MP_ISend               40                9540000.
 MP_IRecv               40                9540000.
 -------------------------------------------------------------------------------


 -------------------------------------------------------------------------------
 -                                                                             -
 -                           R E F E R E N C E S                               -
 -                                                                             -
 -------------------------------------------------------------------------------
 
 CP2K version 2026.2 (Development Version), the CP2K developers group (2026).
 CP2K is freely available from https://www.cp2k.org/ .
 
 M. Iannuzzi, J. Wilhelm, F. Stein, A. Bussy, H. Elgabarty, D. Golze, A. Hehn, 
 M. Graml, S. Marek, B. Sertcan Gökmen, C. Schran, H. Forbert, R. Z. 
 Khaliullin, A. Kozhevnikov, M. Taillefumier, R. Meli, V. V. Rybkin, M. Brehm, 
 R. Schade, O. Schütt, J. V. Pototschnig, H. Mirhosseini, A. Knüpfer, D. Marx, 
 M. Krack, J. Hutter, T. D. Kühne.
 J. Phys. Chem. B 130, 1237-1310 (2026).
 The CP2K Program Package Made Simple.
 https://doi.org/10.1021/acs.jpcb.5c05851

 M. Graml, K. Zollner, D. Hernangómez-Pérez, P. E. Faria Junior, J. Wilhelm.
 J. Chem. Theory Comput. 20, 2202-2208 (2024).
 Low-scaling GW algorithm applied to twisted transition-metal dichalcogenide 
 heterobilayers.
 https://doi.org/10.1021/acs.jctc.3c01230

 T. D. Kühne, M. Iannuzzi, M. Del Ben, V. V. Rybkin, P. Seewald, F. Stein, T. 
 Laino, R. Z. Khaliullin, O. Schütt, F. Schiffmann, D. Golze, J. Wilhelm, S. 
 Chulkov, M. H. Bani-Hashemian, V. Weber, U. Borstnik, M. Taillefumier, A. S. 
 Jakobovits, A. Lazzaro, H. Pabst, T. Müller, R. Schade, M. Guidon, S. 
 Andermatt, N. Holmberg, G. K. Schenter, A. Hehn, A. Bussy, F. Belleflamme, G. 
 Tabacchi, A. Glöß, M. Lass, I. Bethune, C. J. Mundy, C. Plessl, M. Watkins, 
 J. VandeVondele, M. Krack, J. Hutter.
 J. Chem. Phys. 152, 194103 (2020).
 CP2K: An electronic structure and molecular dynamics software package - 
 Quickstep: Efficient and accurate electronic structure calculations.
 https://doi.org/10.1063/5.0007045

 O. Schuett, P. Messmer, J. Hutter, J. VandeVondele.
 Electronic Structure Calculations on Graphics Processing Units, 173-190 (2016).
 GPU-Accelerated Sparse Matrix-Matrix Multiplication for Linear Scaling Density 
 Functional Theory.
 https://doi.org/10.1002/9781118670712.ch8

 U. Borstnik, J. VandeVondele, V. Weber, J. Hutter.
 Parallel Comput. 40, 47-58 (2014).
 Sparse matrix multiplication: The distributed block-compressed sparse row 
 library.
 https://doi.org/10.1016/j.parco.2014.03.012

 J. VandeVondele, J. Hutter.
 J. Chem. Phys. 127, 114105 (2007).
 Gaussian basis sets for accurate calculations on molecular systems in gas and 
 condensed phases.
 https://doi.org/10.1063/1.2770708

 J. VandeVondele, M. Krack, F. Mohamed, M. Parrinello, T. Chassaing, J. Hutter.
 Comput. Phys. Commun. 167, 103-128 (2005).
 QUICKSTEP: Fast and accurate density functional calculations using a mixed 
 Gaussian and plane waves approach.
 https://doi.org/10.1016/j.cpc.2004.12.014

 M. Krack.
 Theor. Chem. Acc. 114, 145-152 (2005).
 Pseudopotentials for H to Kr optimized for gradient-corrected 
 exchange-correlation functionals.
 https://doi.org/10.1007/s00214-005-0655-y

 M. Frigo, S. G. Johnson.
 Proc. IEEE 93, 216-231 (2005).
 The design and implementation of FFTW3.
 https://doi.org/10.1109/JPROC.2004.840301

 J. VandeVondele, J. Hutter.
 J. Chem. Phys. 118, 4365-4369 (2003).
 An efficient orbital transformation method for electronic structure 
 calculations.
 https://doi.org/10.1063/1.1543154

 C. Hartwigsen, S. Goedecker, J. Hutter.
 Phys. Rev. B 58, 3641-3662 (1998).
 Relativistic separable dual-space Gaussian pseudopotentials from H to Rn.
 https://doi.org/10.1103/PhysRevB.58.3641

 G. Lippert, J. Hutter, M. Parrinello.
 Mol. Phys. 92, 477-487 (1997).
 A hybrid Gaussian and plane wave density functional scheme.
 https://doi.org/10.1080/002689797170220

 S. Goedecker, M. Teter, J. Hutter.
 Phys. Rev. B 54, 1703-1710 (1996).
 Separable dual-space Gaussian pseudopotentials.
 https://doi.org/10.1103/PhysRevB.54.1703

 J. P. Perdew, K. Burke, M. Ernzerhof.
 Phys. Rev. Lett. 77, 3865-3868 (1996).
 Generalized gradient approximation made simple.
 https://doi.org/10.1103/PhysRevLett.77.3865

 P. E. Blöchl.
 J. Chem. Phys. 103, 7422-7428 (1995).
 Electrostatic decoupling of periodic images of plane‐wave‐expanded 
 densities and derived atomic point charges.
 https://doi.org/10.1063/1.470314

 R. H. Byrd, P. H. Lu, J. Nocedal, C. Y. Zhu.
 SIAM J. Sci. Comput. 16, 1190-1208 (1995).
 A Limited Memory Algorithm for Bound Constrained Optimization.
 https://doi.org/10.1137/0916069


 -------------------------------------------------------------------------------
 -                                                                             -
 -                                T I M I N G                                  -
 -                                                                             -
 -------------------------------------------------------------------------------
 SUBROUTINE                       CALLS  ASD         SELF TIME        TOTAL TIME MAXRANK
                                MAXIMUM       AVERAGE  MAXIMUM  AVERAGE  MAXIMUM
 CP2K                                 1  1.0    0.008    0.020   71.833   71.833       0
 qs_energies                          1  2.0    0.000    0.000   70.736   70.736       4
 qs_energies_properties               1  3.0    0.000    0.000   67.273   67.273       0
 post_scf_bandstructure               1  4.0    0.000    0.000   67.273   67.273       1
 run_gw                               1  5.0    0.000    0.000   67.248   67.264       3
 gw_calc_ri_rs_non_periodic           1  6.0    0.000    0.000   65.074   65.260       0
 optimize_ri_rs_grid                  1  7.0    0.000    0.000   64.088   64.258       0
 rirs_grid_LBFGS                      1  8.0    1.589    1.596   63.023   63.029       3
 evaluate_rirs_grid_cluster         301  9.0    5.064    5.598   60.281   61.407       3
 rirs_cluster_gradient_coordina     301 10.0   17.111   17.247   17.111   17.247       4
 rirs_cluster_gradient_products     301 10.0   15.889   16.044   15.889   16.044       4
 rirs_cluster_D_ll                  301 10.0    7.985    8.290    7.985    8.290       3
 rirs_cluster_residual              301 10.0    5.227    5.393    5.227    5.393       3
 rirs_cluster_d_lP                  301 10.0    4.649    4.870    4.649    4.870       1
 rirs_cluster_AO_products           301 10.0    4.356    4.428    4.356    4.428       1
 scf_env_do_scf                       1  3.0    0.000    0.000    2.550    2.550       0
 qs_ks_build_kohn_sham_matrix         2  7.5    0.006    0.010    2.471    2.471       1
 create_and_init_bs_env_for_gw        1  6.0    0.003    0.004    2.174    2.341       5
 fft_wrap_pw1pw2                     28 10.0    0.001    0.001    2.245    2.304       3
 fft_wrap_pw1pw2_300                 16 11.2    0.119    0.140    2.131    2.194       5
 mp_sum_d                           724  4.7    1.162    2.170    1.162    2.170       5
 init_scf_loop                        1  4.0    0.000    0.000    1.898    1.898       1
 qs_ks_update_qs_env                  2  5.0    0.000    0.000    1.895    1.895       2
 rebuild_ks_matrix                    1  6.0    0.000    0.000    1.895    1.895       2
 fft3d_ps                            28 12.0    0.950    1.007    1.614    1.680       3
 qs_rho_update_rho_low                2  5.0    0.000    0.000    1.303    1.303       4
 calculate_rho_elec                   2  6.0    0.034    0.034    1.303    1.303       4
 qs_vxc_create                        2  8.5    0.000    0.000    1.289    1.295       4
 xc_vxc_pw_create                     1  9.0    0.026    0.030    1.289    1.295       2
 generate_auto_ri_basis               1  7.0    0.000    0.000    1.183    1.183       3
 xc_pw_derive                         6 11.0    0.000    0.000    0.954    1.024       5
 qs_init_subsys                       1  2.0    0.001    0.001    0.879    0.880       0
 qs_env_setup                         1  3.0    0.000    0.000    0.877    0.878       3
 qs_env_rebuild_pw_env                2  3.5    0.000    0.000    0.877    0.878       3
 pw_env_rebuild                       1  5.0    0.000    0.000    0.877    0.878       1
 pw_grid_setup                        5  5.2    0.000    0.000    0.864    0.866       5
 pw_grid_setup_internal               5  6.2    0.015    0.015    0.864    0.866       5
 compute_AB_optimized_RI_basis        1  8.0    0.000    0.000    0.840    0.840       5
 compute_AB_optimized_RI_basis_       1  9.0    0.000    0.000    0.829    0.839       0
 rirs_grid_build_clusters             1  8.0    0.505    0.509    0.803    0.807       5
 compute_B_PQ_AB                      3 10.0    0.081    0.199    0.325    0.800       0
 pw_grid_sort                         5  7.2    0.513    0.518    0.764    0.767       0
 density_rs2pw                        2  7.0    0.000    0.000    0.746    0.762       4
 mp_sum_dm                           34 10.7    0.553    0.752    0.553    0.752       3
 xc_pw_divergence                     1 10.0    0.000    0.000    0.639    0.702       4
 init_scf_run                         1  3.0    0.000    0.000    0.680    0.680       4
 scf_env_initial_rho_setup            1  4.0    0.000    0.000    0.680    0.680       0
 scf_env_do_scf_inner_loop            1  4.0    0.000    0.000    0.647    0.651       3
 xc_rho_set_and_dset_create           1 10.0    0.020    0.023    0.612    0.651       2
 cp_fm_get_submatrix                 30 10.0    0.000    0.000    0.483    0.645       4
 compute_V_xc                         1  7.0    0.000    0.000    0.577    0.577       5
 grid_collocate_task_list             2  7.0    0.514    0.538    0.514    0.538       0
 setup_time_and_frequency_minim       1  7.0    0.000    0.000    0.354    0.513       0
 build_minimax_time_frequency_g       1  8.0    0.000    0.000    0.354    0.513       4
 fit_l_sq_weights                     3  9.0    0.354    0.513    0.354    0.513       5
 sum_up_and_integrate                 2  8.5    0.000    0.000    0.485    0.493       5
 integrate_v_rspace                   2  9.5    0.000    0.000    0.477    0.486       5
 contract_B_PQ                       14 11.8    0.172    0.440    0.186    0.474       0
 potential_pw2rs                      2 10.5    0.002    0.002    0.465    0.470       5
 initialize_ri_rs_grid                1  8.0    0.148    0.391    0.261    0.431       0
 mp_alltoall_z22v                    28 14.0    0.322    0.423    0.322    0.423       0
 compute_Sigma_c_and_QP_energie       1  7.0    0.000    0.000    0.404    0.419       3
 yz_to_x                             14 12.2    0.153    0.173    0.345    0.411       2
 abc_contract_xsmm                 5176  9.2    0.364    0.410    0.364    0.410       0
 compute_Sigma_c                      1  8.0    0.002    0.002    0.389    0.389       0
 x_to_yz                             14 13.8    0.186    0.198    0.316    0.362       3
 qs_ks_ddapc                          2  8.5    0.000    0.000    0.350    0.360       5
 contract_grid_panels_sigma_c        30  9.0    0.320    0.323    0.351    0.352       4
 pw_poisson_solve                     2  8.5    0.000    0.000    0.299    0.302       5
 mp_bcast_dm                         23  9.2    0.114    0.263    0.114    0.263       1
 sort_shells                          5  8.2    0.251    0.254    0.251    0.254       5
 get_mat_chi_Gamma_tau                1  7.0    0.000    0.001    0.244    0.244       0
 compute_B_PQ_exchange                7 10.8    0.000    0.000    0.093    0.237       0
 compute_B_PQ_transition              7 10.8    0.000    0.000    0.093    0.237       0
 contract_grid_panels                31  8.0    0.214    0.217    0.235    0.237       5
 compute_M_pq_inv_and_V_pq            1  8.0    0.000    0.000    0.233    0.233       2
 qs_energies_init_hamiltonians        1  3.0    0.000    0.000    0.232    0.233       5
 qs_env_update_s_mstruct              1  4.0    0.000    0.000    0.229    0.230       0
 compute_contracted_RI_matrix         2  9.0    0.000    0.000    0.221    0.221       5
 compute_optimized_RI_matrix_bl       8 10.0    0.013    0.018    0.167    0.219       1
 compute_M_PQ_AB                    172 11.0    0.000    0.000    0.166    0.216       1
 compute_M_PQ                       172 12.0    0.000    0.000    0.166    0.215       1
 int_operators_r12_ab_os            172 13.0    0.000    0.000    0.166    0.215       1
 int_operator_ab_os_low             172 14.0    0.069    0.090    0.166    0.215       1
 pw_gather_p                         14 11.2    0.193    0.212    0.193    0.212       3
 calculate_rho_core                   1  5.0    0.017    0.017    0.208    0.210       3
 pw_derive                           12 11.2    0.198    0.208    0.198    0.208       5
 pw_copy                             28 10.5    0.201    0.208    0.201    0.208       4
 transfer_rs2pw                       9  7.8    0.000    0.000    0.180    0.203       3
 pw_scatter_p                        14 12.8    0.182    0.190    0.182    0.190       4
 create_qs_kind_set                   1  2.0    0.000    0.000    0.185    0.187       2
 read_qs_kind                         3  3.0    0.078    0.082    0.185    0.187       0
 compute_W                            1  7.0    0.000    0.000    0.181    0.181       0
 pw_poisson_set                       3  8.3    0.000    0.000    0.168    0.171       4
 transfer_rs2pw_300                   3  8.3    0.066    0.069    0.138    0.163       0
 transfer_pw2rs                       8 11.5    0.000    0.000    0.146    0.146       3
 compute_Z_lP                         1  7.0    0.000    0.000    0.144    0.144       1
 compute_Z_lP_auto_ri                 1  8.0    0.000    0.000    0.144    0.144       0
 copy_dbcsr_to_fm                   104  9.5    0.084    0.131    0.085    0.133       3
 compute_d_lp_auto_ri_batch           1  9.0    0.000    0.000    0.073    0.131       4
 compute_d_lp_auto_ri_atom            1 10.0    0.033    0.119    0.073    0.131       0
 mp_waitany                          40 11.0    0.096    0.124    0.096    0.124       5
 xc_functional_eval                   1 11.0    0.000    0.000    0.090    0.123       5
 pbe_lda_eval                         1 12.0    0.090    0.123    0.090    0.123       2
 pw_integral_ab_c1d_c1d_gs            4 10.0    0.116    0.119    0.120    0.122       3
 parallel_gemm_fm_gemm              431  9.6    0.000    0.000    0.111    0.114       1
 cp_fm_gemm                         434 10.5    0.111    0.114    0.111    0.114       2
 compute_fm_W_freq                   30  8.0    0.000    0.000    0.109    0.110       3
 compute_AA_optimized_RI_basis        1  8.0    0.000    0.000    0.110    0.110       0
 parser_read_line                 42904  4.0    0.008    0.008    0.107    0.110       2
 transfer_pw2rs_300                   2 12.5    0.051    0.052    0.101    0.103       0
 parser_read_line_low                49  5.0    0.012    0.060    0.099    0.102       0
 fft_wrap_pw1pw2_100                  4 10.8    0.007    0.013    0.093    0.101       4
 broadcast_input_information         49  6.0    0.014    0.021    0.087    0.100       2
 check_for_restart_files              1  7.0    0.055    0.090    0.055    0.090       4
 pw_copy_to_array                    14 11.2    0.080    0.086    0.080    0.086       2
 cp_ddapc_apply_CD                    2  9.5    0.000    0.000    0.083    0.085       0
 pw_axpy                             25  6.6    0.077    0.081    0.077    0.081       4
 operator2                        82912 15.0    0.057    0.073    0.057    0.073       1
 -------------------------------------------------------------------------------

 The number of warnings for this run is : 0
 
 -------------------------------------------------------------------------------
  **** **** ******  **  PROGRAM ENDED AT                 2026-10-03 12:10:31.217
 ***** ** ***  *** **   PROGRAM RAN ON                                  n2cn0591
 **    ****   ******    PROGRAM RAN BY                                  eprop2d1
 ***** **    ** ** **   PROGRAM PROCESS ID                               1140284
  **** **  *******  **  PROGRAM STOPPED IN /scratch/hpc-prf-metdyn/eprop2d1_Jan/
                                           53_benchmark_RI_opt/418_gw100_fig5_fu
                                           ll_epsfilter_1e12_20261002/calculatio
                                           ns/rc3p0/ri3_rs09/70_CH3OH
