 DBCSR| CPU Multiplication driver                                           XSMM (U)
 DBCSR| Multrec recursion limit                                              512 (U)
 DBCSR| Multiplication stack size                                           1000 (D)
 DBCSR| Maximum elements for images                                    UNLIMITED (U)
 DBCSR| Multiplicative factor virtual images                                   1 (U)
 DBCSR| Use multiplication densification                                       T (D)
 DBCSR| Multiplication size stacks                                             3 (U)
 DBCSR| Use memory pool for CPU allocation                                     F (U)
 DBCSR| Number of 3D layers                                               SINGLE (U)
 DBCSR| Use MPI memory allocation                                              F (U)
 DBCSR| Use RMA algorithm                                                      F (U)
 DBCSR| Use Communication thread                                               T (U)
 DBCSR| Communication thread load                                              0 (D)
 DBCSR| MPI: My process id                                                     1
 DBCSR| MPI: Number of processes                                               2
 DBCSR| OMP: Current number of threads                                        64
 DBCSR| OMP: Max number of threads                                            64
 DBCSR| Split modifier for TAS multiplication algorithm                  1.0E+00 (U)


  **** **** ******  **  PROGRAM STARTED AT               2026-09-17 02:44:44.211
 ***** ** ***  *** **   PROGRAM STARTED ON                              n2cn0435
 **    ****   ******    PROGRAM STARTED BY                              eprop2d1
 ***** **    ** ** **   PROGRAM PROCESS ID                                233053
  **** **  *******  **  PROGRAM STARTED IN /scratch/hpc-prf-metdyn/eprop2d1_Jan/
                                           53_benchmark_RI_opt/106_GW100_GTH_RIR
                                           S_riao5_7_c7/extensions/lebedev_riao2
                                           /calculations/27_C3H6/leb_r10

 CP2K| version string:                 CP2K version 2026.2 (Development Version)
 CP2K| source code revision number:                                      unknown
 CP2K| cp2kflags: omp libint fftw3 libxc parallel scalapack openblas            
 CP2K| is freely available from                            https://www.cp2k.org/
 CP2K| Program compiled at                                   2026-09-15 17:57:52
 CP2K| Program compiled on                                              n2login6
 CP2K| Program compiled for                                               x86_64
 CP2K| Data directory path    /scratch/hpc-prf-metdyn/eprop2d1_Jan/53_benchmark_
 CP2K| Input file name                                                 input.inp
 
 eprop2d1@n2cn0435 has created rank and process                      0    233053
 
 eprop2d1@n2cn0435 is running                                        1 processes

 GLOBAL| Force Environment number                                              1
 GLOBAL| Basis set file name            /scratch/hpc-prf-metdyn/eprop2d1_Jan/53_
 GLOBAL| Potential file name            /scratch/hpc-prf-metdyn/eprop2d1_Jan/53_
 GLOBAL| MM Potential file name                                     MM_POTENTIAL
 GLOBAL| Coordinate file name                                      __STD_INPUT__
 GLOBAL| Method name                                                        CP2K
 GLOBAL| Project name                               gw100_106_27_C3H6_a2_leb_r10
 GLOBAL| Run type                                                         ENERGY
 GLOBAL| FFT library                                                       FFTW3
 GLOBAL| Diagonalization library                                       ScaLAPACK
 GLOBAL| Cholesky decomposition library                                ScaLAPACK
 GLOBAL| DGEMM library                                                      BLAS
 GLOBAL| Direct generalized diagonalization requested                          F
 GLOBAL| Orthonormality check for eigenvectors                          DISABLED
 GLOBAL| Matrix multiplication library                                 ScaLAPACK
 GLOBAL| All-to-all communication in single precision                          F
 GLOBAL| Grid backend                                                       AUTO
 GLOBAL| Global print level                                                  LOW
 GLOBAL| MPI I/O enabled                                                       T
 GLOBAL| Total number of message passing processes                             1
 GLOBAL| Number of distributed systems (nodes)                                 1
 GLOBAL| Number of threads for this process                                   64
 GLOBAL| This output is from process                                           0
 GLOBAL| OpenMP stack size per thread (OMP_STACKSIZE)                       128M
 GLOBAL| CPU model name                          AMD EPYC 7763 64-Core Processor

 MEMORY| system memory details [Kb]
 MEMORY|                        rank 0           min           max       average
 MEMORY| MemTotal            263897624     263897624     263897624     263897624
 MEMORY| MemFree             252758856     252758856     252758856     252758856
 MEMORY| Buffers                314328        314328        314328        314328
 MEMORY| Cached                6548684       6548684       6548684       6548684
 MEMORY| Slab                  1379864       1379864       1379864       1379864
 MEMORY| SReclaimable           327412        327412        327412        327412
 MEMORY| MemLikelyFree       259949280     259949280     259949280     259949280


 GENERATE|  Preliminary Number of Bonds generated:                             0
 GENERATE|  Achieved consistency in connectivity generation.

 *******************************************************************************
 *******************************************************************************
 **                                                                           **
 **     #####                         ##              ##                      **
 **    ##   ##            ##          ##              ##                      **
 **   ##     ##                       ##            ######                    **
 **   ##     ##  ##   ##  ##   #####  ##  ##   ####   ##    #####    #####    **
 **   ##     ##  ##   ##  ##  ##      ## ##   ##      ##   ##   ##  ##   ##   **
 **   ##  ## ##  ##   ##  ##  ##      ####     ###    ##   ######   ######    **
 **    ##  ###   ##   ##  ##  ##      ## ##      ##   ##   ##       ##        **
 **     #######   #####   ##   #####  ##  ##  ####    ##    #####   ##        **
 **           ##                                                    ##        **
 **                                                                           **
 **                                                ... make the atoms dance   **
 **                                                                           **
 **            Copyright (C) by CP2K developers group (2000-2026)             **
 **                      J. Chem. Phys. 152, 194103 (2020)                    **
 **                                                                           **
 *******************************************************************************


 TOTAL NUMBERS AND MAXIMUM NUMBERS

  Total number of            - Atomic kinds:                                   2
                             - Atoms:                                          9
                             - Shell sets:                                     9
                             - Shells:                                        39
                             - Primitive Cartesian functions:                 60
                             - Cartesian basis functions:                     78
                             - Spherical basis functions:                     75

  Maximum angular momentum of- Orbital basis functions:                        2
                             - Local part of the GTH pseudopotential:          2
                             - Non-local part of the GTH pseudopotential:      0


 SCF PARAMETERS         Density guess:                                    ATOMIC
                        --------------------------------------------------------
                        max_scf:                                             500
                        max_scf_history:                                       0
                        max_diis:                                              4
                        --------------------------------------------------------
                        eps_scf:                                        1.00E-08
                        eps_scf_history:                                0.00E+00
                        eps_diis:                                       0.00E+00
                        eps_eigval:                                     1.00E-05
                        --------------------------------------------------------
                        level_shift [a.u.]:                             0.000000
                        --------------------------------------------------------
                        Outer loop SCF in use 
                        No variables optimised in outer loop
                        eps_scf                                         1.00E-08
                        max_scf                                               20
                        No outer loop optimization
                        step_size                                       5.00E-01

 Extrapolation method: initial_guess

 Number of electrons:                                                         18
 Number of occupied orbitals:                                                  9
 Number of molecular orbitals:                                                 9

 Number of orbital functions:                                                 75
 Number of independent orbital functions:                                     75


 SCF WAVEFUNCTION OPTIMIZATION

  ----------------------------------- OT ---------------------------------------
  Minimizer      : DIIS                : direct inversion
                                         in the iterative subspace
                                         using   7 DIIS vectors
                                         safer DIIS on
  Preconditioner : FULL_KINETIC        : inversion of T + eS
  Lattice FFT   : OFF
  Precond_solver : DEFAULT
  stepsize       :    0.15000000                  energy_gap     :    0.20000000
  eps_taylor     :   0.10000E-15                  max_taylor     :             4
  ----------------------------------- OT ---------------------------------------

  Step     Update method      Time    Convergence         Total energy    Change
  ------------------------------------------------------------------------------
  Decoupling Energy:                                               0.0001279626
     1 OT DIIS     0.15E+00    4.0     0.09343975       -18.6953574155 -1.87E+01
  Decoupling Energy:                                               0.0000290672
     2 OT DIIS     0.15E+00    5.2     0.05654618       -19.3155623934 -6.20E-01
  Decoupling Energy:                                               0.0000119743
     3 OT DIIS     0.15E+00    5.2     0.04719176       -19.6289852760 -3.13E-01
  Decoupling Energy:                                               0.0000162515
     4 OT DIIS     0.15E+00    5.3     0.03878152       -19.9184688395 -2.89E-01
  Decoupling Energy:                                               0.0000186877
     5 OT DIIS     0.15E+00    5.2     0.03162669       -20.1389100287 -2.20E-01
  Decoupling Energy:                                               0.0000103335
     6 OT DIIS     0.15E+00    5.3     0.02636982       -20.2927684593 -1.54E-01
  Decoupling Energy:                                               0.0000012458
     7 OT DIIS     0.15E+00    5.3     0.01695299       -20.4539283359 -1.61E-01
  Decoupling Energy:                                               0.0000021898
     8 OT DIIS     0.15E+00    5.3     0.01339029       -20.4961713760 -4.22E-02
  Decoupling Energy:                                               0.0000006243
     9 OT DIIS     0.15E+00    5.3     0.00864538       -20.5431269131 -4.70E-02
  Decoupling Energy:                                               0.0000001488
    10 OT DIIS     0.15E+00    5.3     0.00632953       -20.5626093997 -1.95E-02
  Decoupling Energy:                                               0.0000007301
    11 OT DIIS     0.15E+00    5.3     0.00482773       -20.5680796109 -5.47E-03
  Decoupling Energy:                                               0.0000002126
    12 OT DIIS     0.15E+00    5.3     0.00285769       -20.5736678892 -5.59E-03
  Decoupling Energy:                                               0.0000000425
    13 OT DIIS     0.15E+00    5.3     0.00173016       -20.5757707496 -2.10E-03
  Decoupling Energy:                                               0.0000000187
    14 OT DIIS     0.15E+00    5.3     0.00114539       -20.5765650300 -7.94E-04
  Decoupling Energy:                                               0.0000000099
    15 OT DIIS     0.15E+00    5.3     0.00079210       -20.5768856681 -3.21E-04
  Decoupling Energy:                                               0.0000000073
    16 OT DIIS     0.15E+00    5.3     0.00051970       -20.5770556830 -1.70E-04
  Decoupling Energy:                                               0.0000000064
    17 OT DIIS     0.15E+00    5.3     0.00035798       -20.5771244954 -6.88E-05
  Decoupling Energy:                                               0.0000000062
    18 OT DIIS     0.15E+00    5.3     0.00023764       -20.5771587512 -3.43E-05
  Decoupling Energy:                                               0.0000000061
    19 OT DIIS     0.15E+00    5.3     0.00015428       -20.5771751389 -1.64E-05
  Decoupling Energy:                                               0.0000000059
    20 OT DIIS     0.15E+00    5.3     0.00011458       -20.5771806090 -5.47E-06
  Decoupling Energy:                                               0.0000000057
    21 OT DIIS     0.15E+00    5.3     0.00008008       -20.5771839202 -3.31E-06
  Decoupling Energy:                                               0.0000000055
    22 OT DIIS     0.15E+00    5.3     0.00005415       -20.5771855886 -1.67E-06
  Decoupling Energy:                                               0.0000000055
    23 OT DIIS     0.15E+00    5.3     0.00004208       -20.5771861851 -5.97E-07
  Decoupling Energy:                                               0.0000000055
    24 OT DIIS     0.15E+00    5.3     0.00003533       -20.5771864628 -2.78E-07
  Decoupling Energy:                                               0.0000000054
    25 OT DIIS     0.15E+00    5.3     0.00002887       -20.5771867189 -2.56E-07
  Decoupling Energy:                                               0.0000000054
    26 OT DIIS     0.15E+00    5.3     0.00002142       -20.5771869548 -2.36E-07
  Decoupling Energy:                                               0.0000000053
    27 OT DIIS     0.15E+00    5.3     0.00001606       -20.5771870723 -1.17E-07
  Decoupling Energy:                                               0.0000000052
    28 OT DIIS     0.15E+00    5.3     0.00001235       -20.5771871288 -5.65E-08
  Decoupling Energy:                                               0.0000000051
    29 OT DIIS     0.15E+00    5.3     0.00000946       -20.5771871583 -2.95E-08
  Decoupling Energy:                                               0.0000000051
    30 OT DIIS     0.15E+00    5.3     0.00000715       -20.5771871760 -1.77E-08
  Decoupling Energy:                                               0.0000000051
    31 OT DIIS     0.15E+00    5.3     0.00000541       -20.5771871869 -1.09E-08
  Decoupling Energy:                                               0.0000000051
    32 OT DIIS     0.15E+00    5.3     0.00000420       -20.5771871923 -5.41E-09
  Decoupling Energy:                                               0.0000000051
    33 OT DIIS     0.15E+00    5.3     0.00000314       -20.5771871959 -3.63E-09
  Decoupling Energy:                                               0.0000000051
    34 OT DIIS     0.15E+00    5.3     0.00000247       -20.5771871977 -1.75E-09
  Decoupling Energy:                                               0.0000000051
    35 OT DIIS     0.15E+00    5.3     0.00000209       -20.5771871986 -8.98E-10
  Decoupling Energy:                                               0.0000000051
    36 OT DIIS     0.15E+00    5.3     0.00000178       -20.5771871993 -7.60E-10
  Decoupling Energy:                                               0.0000000051
    37 OT DIIS     0.15E+00    5.3     0.00000152       -20.5771872000 -6.16E-10
  Decoupling Energy:                                               0.0000000051
    38 OT DIIS     0.15E+00    5.3     0.00000124       -20.5771872005 -5.73E-10
  Decoupling Energy:                                               0.0000000051
    39 OT DIIS     0.15E+00    5.3     0.00000095       -20.5771872010 -4.80E-10
  Decoupling Energy:                                               0.0000000051
    40 OT DIIS     0.15E+00    5.3     0.00000074       -20.5771872013 -2.43E-10
  Decoupling Energy:                                               0.0000000051
    41 OT DIIS     0.15E+00    5.3     0.00000057       -20.5771872014 -1.34E-10
  Decoupling Energy:                                               0.0000000051
    42 OT DIIS     0.15E+00    5.3     0.00000044       -20.5771872015 -7.55E-11
  Decoupling Energy:                                               0.0000000051
    43 OT DIIS     0.15E+00    5.3     0.00000034       -20.5771872015 -4.17E-11
  Decoupling Energy:                                               0.0000000051
    44 OT DIIS     0.15E+00    5.3     0.00000026       -20.5771872015 -2.45E-11
  Decoupling Energy:                                               0.0000000051
    45 OT DIIS     0.15E+00    5.3     0.00000020       -20.5771872015 -1.28E-11
  Decoupling Energy:                                               0.0000000051
    46 OT DIIS     0.15E+00    5.3     0.00000015       -20.5771872016 -7.24E-12
  Decoupling Energy:                                               0.0000000051
    47 OT DIIS     0.15E+00    5.3     0.00000012       -20.5771872016 -3.82E-12
  Decoupling Energy:                                               0.0000000051
    48 OT DIIS     0.15E+00    5.3     0.00000010       -20.5771872016 -2.14E-12
  Decoupling Energy:                                               0.0000000051
    49 OT DIIS     0.15E+00    5.3     0.00000009       -20.5771872016 -1.67E-12
  Decoupling Energy:                                               0.0000000051
    50 OT DIIS     0.15E+00    5.3     0.00000007       -20.5771872016 -1.60E-12
  Decoupling Energy:                                               0.0000000051
    51 OT DIIS     0.15E+00    5.3     0.00000006       -20.5771872016 -1.29E-12
  Decoupling Energy:                                               0.0000000051
    52 OT DIIS     0.15E+00    5.3     0.00000005       -20.5771872016 -9.27E-13
  Decoupling Energy:                                               0.0000000051
    53 OT DIIS     0.15E+00    5.3     0.00000004       -20.5771872016 -5.72E-13
  Decoupling Energy:                                               0.0000000051
    54 OT DIIS     0.15E+00    5.3     0.00000003       -20.5771872016 -3.62E-13
  Decoupling Energy:                                               0.0000000051
    55 OT DIIS     0.15E+00    5.3     0.00000002       -20.5771872016 -1.88E-13
  Decoupling Energy:                                               0.0000000051
    56 OT DIIS     0.15E+00    5.3     0.00000002       -20.5771872016 -1.53E-13
  Decoupling Energy:                                               0.0000000051
    57 OT DIIS     0.15E+00    8.8     0.00000002       -20.5771872016 -8.88E-14
  Decoupling Energy:                                               0.0000000051
    58 OT DIIS     0.15E+00    5.3     0.00000001       -20.5771872016 -7.46E-14
  Decoupling Energy:                                               0.0000000051
    59 OT DIIS     0.15E+00    5.3     9.4131E-09       -20.5771872016 -3.55E-14

  *** SCF run converged in    59 steps ***


  Electronic density on regular grids:        -18.0000000000       -0.0000000000
  Core density on regular grids:               18.0000000000       -0.0000000000
  Total charge density on r-space grids:       -0.0000000000
  Total charge density g-space grids:          -0.0000000000

  Overlap energy of the core charge distribution:               0.00000230277750
  Self energy of the core charge distribution:                -48.46786753351198
  Core Hamiltonian energy:                                     15.61876324225864
  Hartree energy:                                              19.65991881233025
  Exchange-correlation energy:                                 -7.38800402542052

  Total energy:                                               -20.57718720156612

  outer SCF iter =    1 RMS gradient =   0.94E-08 energy =        -20.5771872016
  outer SCF loop converged in   1 iterations or   59 steps

  
 -------------------------------------------------------------------------------
 -                                                                             -
 -                          BANDSTRUCTURE CALCULATION                          -
 -                                                                             -
 -------------------------------------------------------------------------------
  
 Number of occupied molecular orbitals (MOs) = Number of occupied bands        9
 Number of unoccupied (= virtual) MOs = Number of unoccupied bands            66
 Number of Gaussian basis functions for MOs                                   75
  
 -------------------------------------------------------------------------------
 -                                                                             -
 -                                GW CALCULATION                               -
 -                                                                             -
 -------------------------------------------------------------------------------
  
 Input: Number of time/freq. points                                           30
 Input: ω_max for fitting Σ(iω) (eV)                                        10.0
 Input: Filter threshold for sparse tensor operations                    1.0E-07
 Input: Apply Hedin shift                                                      F
 Input: Available memory per MPI process                                  8.0 GB
 
 Input: RI-RS Tikhonov regularization                                   1.00E-04
 Input: AO grid hard cutoff radius                                        8.00 Å
 Input: MPI ranks per atom in Z_lP solve                                      -1
 Input: Keep sparsity in χ/G/W panels                                          T
 Input: GW flavour                                                          G0W0
 
 Input: RI-RS grid optimization activated                                      T
 Input: Initial RI-RS grid                                              CHOLESKY
 Input: RS points per AO function                                        10.0000
 Input: Initial RS candidates per AO function                           250.0000
 Input: Additional Lebedev degree                                              2
 Input: Cholesky selection matrix                                        D_PRIME
 Input: Cholesky candidate domain                                      FULL_ATOM
 Input: Initial radial quadrature                                       GAPW_LOG
 Input: Cutoff radius for atomic clusters                                  5.0 Å
 Input: Maximum grid optimization iterations                                 300
 Input: L-BFGS history size                                                    7
 Input: L-BFGS relative-function factor                              0.00000E+00
 Input: L-BFGS projected-gradient tolerance                          1.00000E-09
 
 Input: AUTO_RI basis optimization activated:                                  T
 Input: AUTO_RI requested RI/AO ratio:                                       2.0
 Input: AUTO_RI frontier orbital window:                                  5.0 eV
 Input: AUTO_RI neighbor radius:                                           3.0 Å
 
 Cutoff radius for the truncated Coulomb operator in RI metric:            7.0 Å
 Regularization parameter of RI                                          0.0E+00
 Regularization parameter of minimax grids                               1.0E-06
 
 AUTO_RI| Number of automatic RI functions for χ, ε, W:                      150
 AUTO_RI| Total RI basis optimization time:                                4.7 s
  Decoupling Energy:                                               0.0000000051
 
 SCF direct band gap (eV)                                                   6.97
 Max. SCF eigval diff. (eV)                                               208.30
 E-Range for minimax grid                                                  29.87
 Number of Padé parameters for analytic continuation:                         16
 
 RI-RS basis radii (Å):
     Kind  Elem     r_AO (Å)     r_RI (Å)
        1    C         8.0299        5.0785
        2    H         9.5011        6.0090
 
 RI-RS initialization: atomic kind                                             1
 RI-RS initialization: Lebedev degree                                         11
 RI-RS initialization: radial shells                                          65
 RI-RS initialization: candidates per atom                                  3250
 RI-RS initialization: retained points per atom                              130
 RI-RS initialization: atomic kind                                             2
 RI-RS initialization: Lebedev degree                                          7
 RI-RS initialization: radial shells                                          58
 RI-RS initialization: candidates per atom                                  1508
 RI-RS initialization: retained points per atom                               60
 RI-RS initialization: largest cluster candidate count                     18798
 RI-RS initialization: most pivots in one cluster                           1682
 RI-RS initialization: most stored AO values in one cluster              1346929
 RI-RS initialization: wall time [s]                                       5.122
 Started RI-RS grid optimization
 RI-RS grid initial normalized error                          1.600781674785E-06
 RI-RS grid optimization completed, execution time:                      106.6 s
 Normalized 3C error:                                                    7.1E-09
 Maximum absolute 3C error:                                              5.0E-04
 Optimized points outside molecular Voronoi cells:                           102 / 750
 Total grid points used for RI-RS:                                           750
 
 RI-RS grid row-blocks of Φ_μ(r_l)                                            27
 RI-RS grid points per block (max)                                            32
 
 Percentage of non-zero matrix elements in Φ_μ(r_l)                     100.00 %
 
 RI-RS memory estimate per MPI process:
   Available memory per process (system)                               265.54 GB
   Required for Z_lP (dense upper bound; actual is sparser)              0.00 GB
   Required for χ, W, Σ panels (peak per panel step)                     0.02 GB
   Required for Z_lP solve peak (D_local+φ, worst-case atom)             0.01 GB
   Worst-case local-grid number of grid points:                              750
   Worst-case memory D_local:                                            0.00 GB
 
 Started computing Z_lP
 Computed Z_lP (MPI rank 0) for atom          1 /  9,    Execution time    0.0 s
 Computed Z_lP (MPI rank 0) for atom          2 /  9,    Execution time    0.0 s
 Computed Z_lP (MPI rank 0) for atom          3 /  9,    Execution time    0.0 s
 Computed Z_lP (MPI rank 0) for atom          4 /  9,    Execution time    0.0 s
 Computed Z_lP (MPI rank 0) for atom          5 /  9,    Execution time    0.0 s
 Computed Z_lP (MPI rank 0) for atom          6 /  9,    Execution time    0.0 s
 Computed Z_lP (MPI rank 0) for atom          7 /  9,    Execution time    0.0 s
 Computed Z_lP (MPI rank 0) for atom          8 /  9,    Execution time    0.0 s
 Computed Z_lP (MPI rank 0) for atom          9 /  9,    Execution time    0.0 s
 Computed Z_lP (all MPI ranks) for all atoms,            Execution time    0.2 s

 Number of batches for χ, Σ matrices                                           1
 
 Percentage of non-zero matrix elements in Z_lP                         100.00 %
 Percentage of non-zero matrix elements in G_ll', χ_ll', W_ll'          100.00 %
 Percentage of non-zero matrix elements in χ_PQ for time point 1        100.00 %
 
 Computed χ(iτ,k=0) for time point            1 / 30,    Execution time    0.0 s
 Computed χ(iτ,k=0) for time point            2 / 30,    Execution time    0.0 s
 Computed χ(iτ,k=0) for time point            3 / 30,    Execution time    0.0 s
 Computed χ(iτ,k=0) for time point            4 / 30,    Execution time    0.0 s
 Computed χ(iτ,k=0) for time point            5 / 30,    Execution time    0.0 s
 Computed χ(iτ,k=0) for time point            6 / 30,    Execution time    0.0 s
 Computed χ(iτ,k=0) for time point            7 / 30,    Execution time    0.0 s
 Computed χ(iτ,k=0) for time point            8 / 30,    Execution time    0.0 s
 Computed χ(iτ,k=0) for time point            9 / 30,    Execution time    0.0 s
 Computed χ(iτ,k=0) for time point           10 / 30,    Execution time    0.0 s
 Computed χ(iτ,k=0) for time point           11 / 30,    Execution time    0.0 s
 Computed χ(iτ,k=0) for time point           12 / 30,    Execution time    0.0 s
 Computed χ(iτ,k=0) for time point           13 / 30,    Execution time    0.0 s
 Computed χ(iτ,k=0) for time point           14 / 30,    Execution time    0.0 s
 Computed χ(iτ,k=0) for time point           15 / 30,    Execution time    0.0 s
 Computed χ(iτ,k=0) for time point           16 / 30,    Execution time    0.0 s
 Computed χ(iτ,k=0) for time point           17 / 30,    Execution time    0.0 s
 Computed χ(iτ,k=0) for time point           18 / 30,    Execution time    0.0 s
 Computed χ(iτ,k=0) for time point           19 / 30,    Execution time    0.0 s
 Computed χ(iτ,k=0) for time point           20 / 30,    Execution time    0.0 s
 Computed χ(iτ,k=0) for time point           21 / 30,    Execution time    0.0 s
 Computed χ(iτ,k=0) for time point           22 / 30,    Execution time    0.0 s
 Computed χ(iτ,k=0) for time point           23 / 30,    Execution time    0.0 s
 Computed χ(iτ,k=0) for time point           24 / 30,    Execution time    0.0 s
 Computed χ(iτ,k=0) for time point           25 / 30,    Execution time    0.0 s
 Computed χ(iτ,k=0) for time point           26 / 30,    Execution time    0.0 s
 Computed χ(iτ,k=0) for time point           27 / 30,    Execution time    0.0 s
 Computed χ(iτ,k=0) for time point           28 / 30,    Execution time    0.0 s
 Computed χ(iτ,k=0) for time point           29 / 30,    Execution time    0.0 s
 Computed χ(iτ,k=0) for time point           30 / 30,    Execution time    0.0 s
 
 Computed W(iτ),                                         Execution time    0.2 s
 
 Computed Σ^x(k=0),                                      Execution time    0.0 s
 
 Computed Σ^c(iτ) for time point              1 / 30,    Execution time    0.0 s
 Computed Σ^c(iτ) for time point              2 / 30,    Execution time    0.0 s
 Computed Σ^c(iτ) for time point              3 / 30,    Execution time    0.0 s
 Computed Σ^c(iτ) for time point              4 / 30,    Execution time    0.0 s
 Computed Σ^c(iτ) for time point              5 / 30,    Execution time    0.0 s
 Computed Σ^c(iτ) for time point              6 / 30,    Execution time    0.0 s
 Computed Σ^c(iτ) for time point              7 / 30,    Execution time    0.0 s
 Computed Σ^c(iτ) for time point              8 / 30,    Execution time    0.0 s
 Computed Σ^c(iτ) for time point              9 / 30,    Execution time    0.0 s
 Computed Σ^c(iτ) for time point             10 / 30,    Execution time    0.0 s
 Computed Σ^c(iτ) for time point             11 / 30,    Execution time    0.0 s
 Computed Σ^c(iτ) for time point             12 / 30,    Execution time    0.0 s
 Computed Σ^c(iτ) for time point             13 / 30,    Execution time    0.0 s
 Computed Σ^c(iτ) for time point             14 / 30,    Execution time    0.0 s
 Computed Σ^c(iτ) for time point             15 / 30,    Execution time    0.0 s
 Computed Σ^c(iτ) for time point             16 / 30,    Execution time    0.0 s
 Computed Σ^c(iτ) for time point             17 / 30,    Execution time    0.0 s
 Computed Σ^c(iτ) for time point             18 / 30,    Execution time    0.0 s
 Computed Σ^c(iτ) for time point             19 / 30,    Execution time    0.0 s
 Computed Σ^c(iτ) for time point             20 / 30,    Execution time    0.0 s
 Computed Σ^c(iτ) for time point             21 / 30,    Execution time    0.0 s
 Computed Σ^c(iτ) for time point             22 / 30,    Execution time    0.0 s
 Computed Σ^c(iτ) for time point             23 / 30,    Execution time    0.0 s
 Computed Σ^c(iτ) for time point             24 / 30,    Execution time    0.0 s
 Computed Σ^c(iτ) for time point             25 / 30,    Execution time    0.0 s
 Computed Σ^c(iτ) for time point             26 / 30,    Execution time    0.0 s
 Computed Σ^c(iτ) for time point             27 / 30,    Execution time    0.0 s
 Computed Σ^c(iτ) for time point             28 / 30,    Execution time    0.0 s
 Computed Σ^c(iτ) for time point             29 / 30,    Execution time    0.0 s
 Computed Σ^c(iτ) for time point             30 / 30,    Execution time    0.0 s
 
 SCF valence band maximum (eV):                                           -7.083
 SCF conduction band minimum (eV):                                        -0.110
 SCF indirect band gap (eV):                                               6.973
 SCF direct band gap (eV):                                                 6.973
 
 G0W0 valence band maximum (eV):                                          -9.804
 G0W0 conduction band minimum (eV):                                        1.686
 G0W0 indirect band gap (eV):                                             11.491
 G0W0 direct band gap (eV):                                               11.491
 
 Hartree-Fock with SCF orbitals valence band maximum (eV):               -11.101
 Hartree-Fock with SCF orbitals conduction band minimum (eV)               2.288
 Hartree-Fock with SCF orbitals indirect band gap (eV):                   13.389
 Hartree-Fock with SCF orbitals direct band gap (eV):                     13.389

 ENERGY| Total FORCE_EVAL ( QS ) energy [hartree]            -20.577187201566122

 -------------------------------------------------------------------------------
 -                                                                             -
 -                                DBCSR STATISTICS                             -
 -                                                                             -
 -------------------------------------------------------------------------------
 COUNTER                                    TOTAL       BLAS       SMM       ACC
 flops     2 x     2 x    17                 2856     100.0%      0.0%      0.0%     
 flops     2 x     2 x    16                 3456     100.0%      0.0%      0.0%     
 flops     2 x     2 x    18                 5616     100.0%      0.0%      0.0%     
 flops     2 x    17 x     2                40800     100.0%      0.0%      0.0%     
 flops     2 x    16 x     2                57728     100.0%      0.0%      0.0%     
 flops     2 x    18 x     2                64800     100.0%      0.0%      0.0%     
 flops     2 x     6 x     2                64992     100.0%      0.0%      0.0%     
 flops     2 x    13 x     2                73216     100.0%      0.0%      0.0%     
 flops     2 x    28 x    17                79968     100.0%      0.0%      0.0%     
 flops     2 x    28 x    16                96768     100.0%      0.0%      0.0%     
 flops     2 x     2 x    75               102600     100.0%      0.0%      0.0%     
 flops     2 x     2 x     6               150480     100.0%      0.0%      0.0%     
 flops     2 x    28 x    18               157248     100.0%      0.0%      0.0%     
 flops     2 x     2 x    13               168480     100.0%      0.0%      0.0%     
 flops     2 x     2 x   150               172800     100.0%      0.0%      0.0%     
 flops    28 x     2 x    17               205632     100.0%      0.0%      0.0%     
 flops    17 x    17 x     2               221952     100.0%      0.0%      0.0%     
 flops     2 x    17 x    17               260100     100.0%      0.0%      0.0%     
 flops     2 x    32 x    17               274176     100.0%      0.0%      0.0%     
 flops    28 x     2 x    16               290304     100.0%      0.0%      0.0%     
 flops    16 x    17 x     2               313344     100.0%      0.0%      0.0%     
 flops    17 x    16 x     2               319872     100.0%      0.0%      0.0%     
 flops    28 x     2 x    18               326592     100.0%      0.0%      0.0%     
 flops     2 x    32 x    16               331776     100.0%      0.0%      0.0%     
 flops    18 x    17 x     2               352512     100.0%      0.0%      0.0%     
 flops    17 x    18 x     2               352512     100.0%      0.0%      0.0%     
 flops     2 x    16 x    17               365568     100.0%      0.0%      0.0%     
 flops     2 x    17 x    16               365568     100.0%      0.0%      0.0%     
 flops     6 x     6 x     2               405216     100.0%      0.0%      0.0%     
 flops     2 x    18 x    17               418608     100.0%      0.0%      0.0%     
 flops     2 x    17 x    18               418608     100.0%      0.0%      0.0%     
 flops    13 x     6 x     2               438984     100.0%      0.0%      0.0%     
 flops    16 x    16 x     2               451584     100.0%      0.0%      0.0%     
 flops     6 x    13 x     2               453024     100.0%      0.0%      0.0%     
 flops    13 x    13 x     2               490776     100.0%      0.0%      0.0%     
 flops    16 x    18 x     2               497664     100.0%      0.0%      0.0%     
 flops    18 x    16 x     2               508032     100.0%      0.0%      0.0%     
 flops     2 x    16 x    16               516096     100.0%      0.0%      0.0%     
 flops     2 x    32 x    18               539136     100.0%      0.0%      0.0%     
 flops    18 x    18 x     2               559872     100.0%      0.0%      0.0%     
 flops     2 x    16 x    18               573696     100.0%      0.0%      0.0%     
 flops     2 x    18 x    16               573696     100.0%      0.0%      0.0%     
 flops     2 x    18 x    18               641520     100.0%      0.0%      0.0%     
 flops    32 x     2 x    17               705024     100.0%      0.0%      0.0%     
 flops    13 x     6 x     9               758160     100.0%      0.0%      0.0%     
 flops     6 x    13 x     9               758160     100.0%      0.0%      0.0%     
 flops     9 x     9 x     9               765450     100.0%      0.0%      0.0%     
 flops     6 x     6 x     9               816480     100.0%      0.0%      0.0%     
 flops    32 x     2 x    16               995328     100.0%      0.0%      0.0%     
 flops    13 x    13 x     9              1095120     100.0%      0.0%      0.0%     
 flops    28 x    17 x     2              1108128     100.0%      0.0%      0.0%     
 flops    32 x     2 x    18              1112832     100.0%      0.0%      0.0%     
 flops     2 x     6 x     6              1228608     100.0%      0.0%      0.0%     
 flops     2 x    17 x    28              1277584     100.0%      0.0%      0.0%     
 flops     2 x    13 x     6              1364064     100.0%      0.0%      0.0%     
 flops     2 x     6 x    13              1364688     100.0%      0.0%      0.0%     
 flops     2 x    13 x    13              1478412     100.0%      0.0%      0.0%     
 flops    28 x    16 x     2              1559040     100.0%      0.0%      0.0%     
 flops     6 x     9 x     9              1714608     100.0%      0.0%      0.0%     
 flops    28 x    18 x     2              1757952     100.0%      0.0%      0.0%     
 flops     2 x    16 x    28              1800960     100.0%      0.0%      0.0%     
 flops    13 x     9 x     9              1857492     100.0%      0.0%      0.0%     
 flops    28 x     6 x     2              1919904     100.0%      0.0%      0.0%     
 flops     2 x     6 x    28              1960224     100.0%      0.0%      0.0%     
 flops     2 x    18 x    28              2028096     100.0%      0.0%      0.0%     
 flops    28 x    13 x     2              2143232     100.0%      0.0%      0.0%     
 flops     2 x    13 x    28              2153424     100.0%      0.0%      0.0%     
 flops     9 x     9 x    75              2855250     100.0%      0.0%      0.0%     
 flops    28 x     2 x    75              2872800     100.0%      0.0%      0.0%     
 flops     2 x    28 x    75              2872800     100.0%      0.0%      0.0%     
 flops     6 x     9 x    75              2916000     100.0%      0.0%      0.0%     
 flops     6 x     9 x     6              2939328     100.0%      0.0%      0.0%     
 flops    13 x     9 x    75              3159000     100.0%      0.0%      0.0%     
 flops    13 x     9 x     6              3184272     100.0%      0.0%      0.0%     
 flops     6 x     9 x    13              3184272     100.0%      0.0%      0.0%     
 flops    13 x     9 x    13              3449628     100.0%      0.0%      0.0%     
 flops    32 x    17 x     2              3927680     100.0%      0.0%      0.0%     
 flops     2 x    28 x     6              4216128     100.0%      0.0%      0.0%     
 flops    28 x     2 x     6              4232256     100.0%      0.0%      0.0%     
 flops     2 x    17 x    32              4258432     100.0%      0.0%      0.0%     
 flops     2 x    28 x    13              4717440     100.0%      0.0%      0.0%     
 flops    28 x     2 x    13              4746560     100.0%      0.0%      0.0%     
 flops    28 x     2 x   150              4838400     100.0%      0.0%      0.0%     
 flops     2 x    28 x   150              4838400     100.0%      0.0%      0.0%     
 flops    32 x    16 x     2              5541888     100.0%      0.0%      0.0%     
 flops    28 x    28 x    17              5757696     100.0%      0.0%      0.0%     
 flops     2 x    16 x    32              5994496     100.0%      0.0%      0.0%     
 flops    17 x    17 x    28              6214656     100.0%      0.0%      0.0%     
 flops    32 x    18 x     2              6239232     100.0%      0.0%      0.0%     
 flops    32 x     6 x     2              6636288     100.0%      0.0%      0.0%     
 flops     2 x    18 x    32              6762240     100.0%      0.0%      0.0%     
 flops     2 x     6 x    32              6890496     100.0%      0.0%      0.0%     
 flops    28 x    17 x    17              7282800     100.0%      0.0%      0.0%     
 flops    32 x    13 x     2              7416448     100.0%      0.0%      0.0%     
 flops     2 x    13 x    32              7606144     100.0%      0.0%      0.0%     
 flops    28 x    28 x    16              8128512     100.0%      0.0%      0.0%     
 flops    17 x    16 x    28              8773632     100.0%      0.0%      0.0%     
 flops    16 x    17 x    28              8773632     100.0%      0.0%      0.0%     
 flops    28 x    28 x    18              9144576     100.0%      0.0%      0.0%     
 flops    32 x     2 x    75              9849600     100.0%      0.0%      0.0%     
 flops     2 x    32 x    75              9849600     100.0%      0.0%      0.0%     
 flops    18 x    17 x    28              9870336     100.0%      0.0%      0.0%     
 flops    17 x    18 x    28              9870336     100.0%      0.0%      0.0%     
 flops    28 x    16 x    17             10235904     100.0%      0.0%      0.0%     
 flops    28 x    17 x    16             10235904     100.0%      0.0%      0.0%     
 flops    28 x    18 x    17             11721024     100.0%      0.0%      0.0%     
 flops    28 x    17 x    18             11721024     100.0%      0.0%      0.0%     
 flops    16 x    16 x    28             12386304     100.0%      0.0%      0.0%     
 flops     6 x     6 x    28             12398400     100.0%      0.0%      0.0%     
 flops    13 x     6 x    28             13431600     100.0%      0.0%      0.0%     
 flops     6 x    13 x    28             13654368     100.0%      0.0%      0.0%     
 flops    18 x    16 x    28             13934592     100.0%      0.0%      0.0%     
 flops    16 x    18 x    28             13934592     100.0%      0.0%      0.0%     
 flops    28 x    16 x    16             14450688     100.0%      0.0%      0.0%     
 flops     2 x    32 x     6             14514432     100.0%      0.0%      0.0%     
 flops    13 x    13 x    28             14792232     100.0%      0.0%      0.0%     
 flops    32 x     2 x     6             15130368     100.0%      0.0%      0.0%     
 flops    18 x    18 x    28             15676416     100.0%      0.0%      0.0%     
 flops    28 x    16 x    18             16063488     100.0%      0.0%      0.0%     
 flops    28 x    18 x    16             16063488     100.0%      0.0%      0.0%     
 flops     2 x    32 x    13             16170752     100.0%      0.0%      0.0%     
 flops    32 x     2 x    13             16581760     100.0%      0.0%      0.0%     
 flops    32 x     2 x   150             16588800     100.0%      0.0%      0.0%     
 flops     2 x    32 x   150             16588800     100.0%      0.0%      0.0%     
 flops    28 x    18 x    18             17962560     100.0%      0.0%      0.0%     
 flops    32 x    28 x    17             19740672     100.0%      0.0%      0.0%     
 flops    28 x    32 x    17             19740672     100.0%      0.0%      0.0%     
 flops    17 x    17 x    32             22195200     100.0%      0.0%      0.0%     
 flops    32 x    17 x    17             24969600     100.0%      0.0%      0.0%     
 flops    32 x    28 x    16             27869184     100.0%      0.0%      0.0%     
 flops    28 x    32 x    16             27869184     100.0%      0.0%      0.0%     
 flops    32 x    28 x    18             31159296     100.0%      0.0%      0.0%     
 flops    17 x    16 x    32             31334400     100.0%      0.0%      0.0%     
 flops    16 x    17 x    32             31334400     100.0%      0.0%      0.0%     
 flops    28 x    32 x    18             31352832     100.0%      0.0%      0.0%     
 flops    28 x     6 x     6             34401024     100.0%      0.0%      0.0%     
 flops    32 x    16 x    17             35094528     100.0%      0.0%      0.0%     
 flops    32 x    17 x    16             35094528     100.0%      0.0%      0.0%     
 flops    18 x    17 x    32             35251200     100.0%      0.0%      0.0%     
 flops    17 x    18 x    32             35251200     100.0%      0.0%      0.0%     
 flops    28 x    17 x    28             35505792     100.0%      0.0%      0.0%     
 flops    28 x     6 x    13             38211264     100.0%      0.0%      0.0%     
 flops    28 x    13 x     6             38211264     100.0%      0.0%      0.0%     
 flops    32 x    18 x    17             40186368     100.0%      0.0%      0.0%     
 flops    32 x    17 x    18             40186368     100.0%      0.0%      0.0%     
 flops    28 x    13 x    13             41395536     100.0%      0.0%      0.0%     
 flops     6 x     6 x    32             42536448     100.0%      0.0%      0.0%     
 flops    16 x    16 x    32             44236800     100.0%      0.0%      0.0%     
 flops    13 x     6 x    32             46081152     100.0%      0.0%      0.0%     
 flops     6 x    13 x    32             46605312     100.0%      0.0%      0.0%     
 flops    32 x    16 x    16             49545216     100.0%      0.0%      0.0%     
 flops    18 x    16 x    32             49766400     100.0%      0.0%      0.0%     
 flops    16 x    18 x    32             49766400     100.0%      0.0%      0.0%     
 flops    28 x    16 x    28             49900032     100.0%      0.0%      0.0%     
 flops    13 x    13 x    32             50489088     100.0%      0.0%      0.0%     
 flops    32 x    16 x    18             55074816     100.0%      0.0%      0.0%     
 flops    32 x    18 x    16             55074816     100.0%      0.0%      0.0%     
 flops    18 x    18 x    32             55987200     100.0%      0.0%      0.0%     
 flops    28 x    18 x    28             56306880     100.0%      0.0%      0.0%     
 flops    28 x     6 x    28             60606336     100.0%      0.0%      0.0%     
 flops    32 x    18 x    18             61585920     100.0%      0.0%      0.0%     
 flops    28 x    13 x    28             66349920     100.0%      0.0%      0.0%     
 flops    32 x    32 x    17             67682304     100.0%      0.0%      0.0%     
 flops    28 x    28 x    75             80438400     100.0%      0.0%      0.0%     
 flops    32 x    32 x    16             95551488     100.0%      0.0%      0.0%     
 flops    32 x    32 x    18            106831872     100.0%      0.0%      0.0%     
 flops    28 x    17 x    32            116768512     100.0%      0.0%      0.0%     
 flops    32 x     6 x     6            117946368     100.0%      0.0%      0.0%     
 flops    28 x    28 x     6            118794816     100.0%      0.0%      0.0%     
 flops    32 x    17 x    28            122495744     100.0%      0.0%      0.0%     
 flops    32 x     6 x    13            131010048     100.0%      0.0%      0.0%     
 flops    32 x    13 x     6            131010048     100.0%      0.0%      0.0%     
 flops    28 x    28 x    13            132822144     100.0%      0.0%      0.0%     
 flops    28 x    28 x   150            135475200     100.0%      0.0%      0.0%     
 flops    32 x    13 x    13            141927552     100.0%      0.0%      0.0%     
 flops    28 x    16 x    32            164433920     100.0%      0.0%      0.0%     
 flops    32 x    16 x    28            172691456     100.0%      0.0%      0.0%     
 flops    28 x    18 x    32            185762304     100.0%      0.0%      0.0%     
 flops    32 x    18 x    28            194471424     100.0%      0.0%      0.0%     
 flops    32 x     6 x    28            204868608     100.0%      0.0%      0.0%     
 flops    28 x     6 x    32            206836224     100.0%      0.0%      0.0%     
 flops    32 x    13 x    28            224130816     100.0%      0.0%      0.0%     
 flops    28 x    13 x    32            228487168     100.0%      0.0%      0.0%     
 flops    32 x    28 x    75            275788800     100.0%      0.0%      0.0%     
 flops    28 x    32 x    75            275788800     100.0%      0.0%      0.0%     
 flops    32 x    17 x    32            409610240     100.0%      0.0%      0.0%     
 flops    28 x    32 x     6            411586560     100.0%      0.0%      0.0%     
 flops    32 x    28 x     6            424005120     100.0%      0.0%      0.0%     
 flops    28 x    32 x    13            457020928     100.0%      0.0%      0.0%     
 flops    32 x    28 x    13            464196096     100.0%      0.0%      0.0%     
 flops    32 x    28 x   150            464486400     100.0%      0.0%      0.0%     
 flops    28 x    32 x   150            464486400     100.0%      0.0%      0.0%     
 flops    32 x    16 x    32            577601536     100.0%      0.0%      0.0%     
 flops    32 x    18 x    32            650539008     100.0%      0.0%      0.0%     
 flops    32 x     6 x    32            704913408     100.0%      0.0%      0.0%     
 flops    32 x    13 x    32            779311104     100.0%      0.0%      0.0%     
 flops    32 x    32 x    75            945561600     100.0%      0.0%      0.0%     
 flops    32 x    32 x     6           1458634752     100.0%      0.0%      0.0%     
 flops    32 x    32 x   150           1592524800     100.0%      0.0%      0.0%     
 flops    32 x    32 x    13           1594404864     100.0%      0.0%      0.0%     
 flops inhomo. stacks                   893025792     100.0%      0.0%      0.0%
 flops total                        18.010670E+09     100.0%      0.0%      0.0%
 flops max/rank                     18.010670E+09     100.0%      0.0%      0.0%
 matmuls inhomo. stacks                     31273     100.0%      0.0%      0.0%
 matmuls total                            1081363     100.0%      0.0%      0.0%
 number of processed stacks                 47334     100.0%      0.0%      0.0%
 average stack size                                    22.8       0.0       0.0
 marketing flops                    29.276502E+09
 -------------------------------------------------------------------------------
 # multiplications                           1787
 max memory usage/rank              63.907942E+09
 # max total images/rank                        1
 # max 3D layers                                1
 # MPI messages exchanged                       0
 -------------------------------------------------------------------------------
 -                                                                             -
 -                      DBCSR MESSAGE PASSING PERFORMANCE                      -
 -                                                                             -
 -------------------------------------------------------------------------------
 ROUTINE             CALLS      AVE VOLUME [Bytes]
 MP_Bcast              201                     12.
 MP_Allreduce         8683                     13.
 MP_Alltoall          7576                  14042.
 MP_ISend             6788                   1358.
 MP_IRecv             6788                   1358.
 -------------------------------------------------------------------------------

 -------------------------------------------------------------------------------
 -                                                                             -
 -                                GRID STATISTICS                              -
 -                                                                             -
 -------------------------------------------------------------------------------
 LP    KERNEL             BACKEND                              COUNT     PERCENT
 2     collocate ortho    CPU                                  58800      25.57%
 2     integrate ortho    CPU                                  58800      25.57%
 3     collocate ortho    CPU                                  43200      18.79%
 3     integrate ortho    CPU                                  43200      18.79%
 4     collocate ortho    CPU                                  12960       5.64%
 4     integrate ortho    CPU                                  12960       5.64%
 0     collocate general  CPU                                      9       0.00%
 -------------------------------------------------------------------------------

 -------------------------------------------------------------------------------
 -                                                                             -
 -                          OFFLOAD MEMPOOL STATISTICS                         -
 -                                                                             -
 -------------------------------------------------------------------------------
 Memory consumption                Number of allocations  Used [MiB]  Size [MiB]
 Host                                                  6         260    21770549
 -------------------------------------------------------------------------------

 MEMORY| Estimated peak process memory [MiB]                               22067

 -------------------------------------------------------------------------------
 -                                                                             -
 -                         MESSAGE PASSING PERFORMANCE                         -
 -                                                                             -
 -------------------------------------------------------------------------------

 ROUTINE             CALLS      AVE VOLUME [Bytes]
 MP_Group                5
 MP_Bcast             1288                   1870.
 MP_Allreduce         4826                    987.
 MP_Sync                71
 MP_comm_split          68
 -------------------------------------------------------------------------------


 -------------------------------------------------------------------------------
 -                                                                             -
 -                           R E F E R E N C E S                               -
 -                                                                             -
 -------------------------------------------------------------------------------
 
 CP2K version 2026.2 (Development Version), the CP2K developers group (2026).
 CP2K is freely available from https://www.cp2k.org/ .
 
 M. Iannuzzi, J. Wilhelm, F. Stein, A. Bussy, H. Elgabarty, D. Golze, A. Hehn, 
 M. Graml, S. Marek, B. Sertcan Gökmen, C. Schran, H. Forbert, R. Z. 
 Khaliullin, A. Kozhevnikov, M. Taillefumier, R. Meli, V. V. Rybkin, M. Brehm, 
 R. Schade, O. Schütt, J. V. Pototschnig, H. Mirhosseini, A. Knüpfer, D. Marx, 
 M. Krack, J. Hutter, T. D. Kühne.
 J. Phys. Chem. B 130, 1237-1310 (2026).
 The CP2K Program Package Made Simple.
 https://doi.org/10.1021/acs.jpcb.5c05851

 M. Graml, K. Zollner, D. Hernangómez-Pérez, P. E. Faria Junior, J. Wilhelm.
 J. Chem. Theory Comput. 20, 2202-2208 (2024).
 Low-scaling GW algorithm applied to twisted transition-metal dichalcogenide 
 heterobilayers.
 https://doi.org/10.1021/acs.jctc.3c01230

 T. D. Kühne, M. Iannuzzi, M. Del Ben, V. V. Rybkin, P. Seewald, F. Stein, T. 
 Laino, R. Z. Khaliullin, O. Schütt, F. Schiffmann, D. Golze, J. Wilhelm, S. 
 Chulkov, M. H. Bani-Hashemian, V. Weber, U. Borstnik, M. Taillefumier, A. S. 
 Jakobovits, A. Lazzaro, H. Pabst, T. Müller, R. Schade, M. Guidon, S. 
 Andermatt, N. Holmberg, G. K. Schenter, A. Hehn, A. Bussy, F. Belleflamme, G. 
 Tabacchi, A. Glöß, M. Lass, I. Bethune, C. J. Mundy, C. Plessl, M. Watkins, 
 J. VandeVondele, M. Krack, J. Hutter.
 J. Chem. Phys. 152, 194103 (2020).
 CP2K: An electronic structure and molecular dynamics software package - 
 Quickstep: Efficient and accurate electronic structure calculations.
 https://doi.org/10.1063/5.0007045

 O. Schuett, P. Messmer, J. Hutter, J. VandeVondele.
 Electronic Structure Calculations on Graphics Processing Units, 173-190 (2016).
 GPU-Accelerated Sparse Matrix-Matrix Multiplication for Linear Scaling Density 
 Functional Theory.
 https://doi.org/10.1002/9781118670712.ch8

 U. Borstnik, J. VandeVondele, V. Weber, J. Hutter.
 Parallel Comput. 40, 47-58 (2014).
 Sparse matrix multiplication: The distributed block-compressed sparse row 
 library.
 https://doi.org/10.1016/j.parco.2014.03.012

 J. VandeVondele, J. Hutter.
 J. Chem. Phys. 127, 114105 (2007).
 Gaussian basis sets for accurate calculations on molecular systems in gas and 
 condensed phases.
 https://doi.org/10.1063/1.2770708

 J. VandeVondele, M. Krack, F. Mohamed, M. Parrinello, T. Chassaing, J. Hutter.
 Comput. Phys. Commun. 167, 103-128 (2005).
 QUICKSTEP: Fast and accurate density functional calculations using a mixed 
 Gaussian and plane waves approach.
 https://doi.org/10.1016/j.cpc.2004.12.014

 M. Krack.
 Theor. Chem. Acc. 114, 145-152 (2005).
 Pseudopotentials for H to Kr optimized for gradient-corrected 
 exchange-correlation functionals.
 https://doi.org/10.1007/s00214-005-0655-y

 M. Frigo, S. G. Johnson.
 Proc. IEEE 93, 216-231 (2005).
 The design and implementation of FFTW3.
 https://doi.org/10.1109/JPROC.2004.840301

 J. VandeVondele, J. Hutter.
 J. Chem. Phys. 118, 4365-4369 (2003).
 An efficient orbital transformation method for electronic structure 
 calculations.
 https://doi.org/10.1063/1.1543154

 C. Hartwigsen, S. Goedecker, J. Hutter.
 Phys. Rev. B 58, 3641-3662 (1998).
 Relativistic separable dual-space Gaussian pseudopotentials from H to Rn.
 https://doi.org/10.1103/PhysRevB.58.3641

 G. Lippert, J. Hutter, M. Parrinello.
 Mol. Phys. 92, 477-487 (1997).
 A hybrid Gaussian and plane wave density functional scheme.
 https://doi.org/10.1080/002689797170220

 S. Goedecker, M. Teter, J. Hutter.
 Phys. Rev. B 54, 1703-1710 (1996).
 Separable dual-space Gaussian pseudopotentials.
 https://doi.org/10.1103/PhysRevB.54.1703

 J. P. Perdew, K. Burke, M. Ernzerhof.
 Phys. Rev. Lett. 77, 3865-3868 (1996).
 Generalized gradient approximation made simple.
 https://doi.org/10.1103/PhysRevLett.77.3865

 P. E. Blöchl.
 J. Chem. Phys. 103, 7422-7428 (1995).
 Electrostatic decoupling of periodic images of plane‐wave‐expanded 
 densities and derived atomic point charges.
 https://doi.org/10.1063/1.470314

 R. H. Byrd, P. H. Lu, J. Nocedal, C. Y. Zhu.
 SIAM J. Sci. Comput. 16, 1190-1208 (1995).
 A Limited Memory Algorithm for Bound Constrained Optimization.
 https://doi.org/10.1137/0916069


 -------------------------------------------------------------------------------
 -                                                                             -
 -                                T I M I N G                                  -
 -                                                                             -
 -------------------------------------------------------------------------------
 SUBROUTINE                       CALLS  ASD         SELF TIME        TOTAL TIME MAXRANK
                                MAXIMUM       AVERAGE  MAXIMUM  AVERAGE  MAXIMUM
 CP2K                                 1  1.0    0.160    0.160  444.923  444.923       0
 qs_energies                          1  2.0    0.045    0.045  437.936  437.936       0
 scf_env_do_scf                       1  3.0    0.018    0.018  315.307  315.307       0
 scf_env_do_scf_inner_loop           59  4.0    0.060    0.060  311.315  311.315       0
 qs_ks_build_kohn_sham_matrix        60  7.0    1.601    1.601  237.759  237.759       0
 qs_ks_update_qs_env                 60  5.0    0.005    0.005  236.629  236.629       0
 rebuild_ks_matrix                   59  6.0    0.001    0.001  236.586  236.586       0
 fft_wrap_pw1pw2                   1014 10.3    0.017    0.017  200.632  200.632       0
 fft_wrap_pw1pw2_300                654 11.8   12.309   12.309  194.231  194.231       0
 qs_vxc_create                       60  8.0    0.016    0.016  165.032  165.032       0
 xc_vxc_pw_create                    59  9.0    8.566    8.566  165.016  165.016       0
 qs_energies_properties               1  3.0    0.002    0.002  120.193  120.193       0
 post_scf_bandstructure               1  4.0    0.001    0.001  120.191  120.191       0
 gw                                   1  5.0    0.001    0.001  120.080  120.080       0
 xc_pw_derive                       354 11.0    0.002    0.002  117.511  117.511       0
 gw_calc_non_periodic_ri_rs           1  6.0    0.001    0.001  113.683  113.683       0
 ri_rs_grid_assembler                 1  7.0    0.004    0.004  111.710  111.710       0
 fft3d_s                           1015 12.3  108.703  108.703  108.728  108.728       0
 optimize_ri_rs_grid                  1  8.0    0.000    0.000  106.583  106.583       0
 rirs_grid_LBFGS                      1  9.0    0.896    0.896   98.782   98.782       0
 evaluate_rirs_grid_cluster        1107 10.0   16.365   16.365   97.885   97.885       0
 xc_pw_divergence                    59 10.0    0.001    0.001   79.613   79.613       0
 qs_rho_update_rho_low               60  5.0    0.003    0.003   76.797   76.797       0
 calculate_rho_elec                  60  6.0    6.025    6.025   76.794   76.794       0
 xc_rho_set_and_dset_create          59 10.0    5.182    5.182   74.176   74.176       0
 pw_scatter_s                       536 12.8   42.805   42.805   42.805   42.805       0
 density_rs2pw                       60  7.0    0.020    0.020   41.614   41.614       0
 rirs_cluster_gradient_coordina    1107 11.0   33.230   33.230   33.230   33.230       0
 grid_collocate_task_list            60  7.0   29.155   29.155   29.155   29.155       0
 qs_ks_ddapc                         60  8.0    0.002    0.002   27.206   27.206       0
 sum_up_and_integrate                60  8.0    0.010    0.010   25.203   25.203       0
 integrate_v_rspace                  60  9.0    0.051    0.051   24.158   24.158       0
 potential_pw2rs                     60 10.0    0.265    0.265   23.787   23.787       0
 pw_gather_s                        478 11.9   19.349   19.349   19.349   19.349       0
 pw_integral_ab_c1d_c1d_gs          120  9.5   18.342   18.342   18.342   18.342       0
 pw_poisson_solve                    60  8.0    0.004    0.004   17.703   17.703       0
 rirs_cluster_gradient_products    1107 11.0   17.578   17.578   17.578   17.578       0
 pw_derive                          534 11.3   14.230   14.230   14.230   14.230       0
 rirs_cluster_AO_products          1107 11.0   12.022   12.022   12.022   12.022       0
 cp_ddapc_apply_CD                   60  9.0    0.007    0.007   10.002   10.002       0
 pw_copy                            956 10.6    9.307    9.307    9.307    9.307       0
 rirs_cluster_residual             1107 11.0    8.909    8.909    8.909    8.909       0
 pw_copy_from_array                 536 12.8    8.536    8.536    8.536    8.536       0
 pw_copy_to_array                   478 11.9    8.078    8.078    8.078    8.078       0
 rirs_grid_build_clusters             1  9.0    5.712    5.712    7.801    7.801       0
 xc_functional_eval                  59 11.0    0.003    0.003    6.870    6.870       0
 pbe_lda_eval                        59 12.0    6.867    6.867    6.867    6.867       0
 qs_init_subsys                       1  2.0    0.027    0.027    6.633    6.633       0
 qs_env_setup                         1  3.0    0.009    0.009    6.587    6.587       0
 qs_env_rebuild_pw_env                2  3.5    0.001    0.001    6.539    6.539       0
 pw_env_rebuild                       1  5.0    0.036    0.036    6.538    6.538       0
 pw_grid_setup                        5  5.2    0.002    0.002    6.448    6.448       0
 pw_grid_setup_internal               5  6.2    0.082    0.082    6.446    6.446       0
 create_and_init_bs_env_for_gw        1  6.0    0.043    0.043    6.396    6.396       0
 pw_poisson_set                      61  9.0    0.002    0.002    6.229    6.229       0
 rirs_cluster_D_ll                 1107 11.0    6.087    6.087    6.087    6.087       0
 pw_grid_sort                         5  7.2    4.698    4.698    6.064    6.064       0
 pw_axpy                            605  9.2    6.011    6.011    6.011    6.011       0
 fft_wrap_pw1pw2_100                120 10.5    0.758    0.758    5.586    5.586       0
 build_grid_cache                     1  8.0    0.000    0.000    5.123    5.123       0
 initialize_cholesky_rirs_grids       1  9.0    5.119    5.119    5.122    5.122       0
 generate_auto_ri_basis               1  7.0    0.005    0.005    4.666    4.666       0
 init_scf_loop                        1  4.0    0.017    0.017    3.973    3.973       0
 rirs_cluster_d_lP                 1107 11.0    3.696    3.696    3.696    3.696       0
 qs_scf_new_mos                      59  5.0    0.000    0.000    3.109    3.109       0
 qs_scf_loop_do_ot                   59  6.0    0.018    0.018    3.109    3.109       0
 ot_scf_mini                         59  7.0    0.076    0.076    2.988    2.988       0
 compute_M_PQ_AB                   2190 11.0    0.003    0.003    2.768    2.768       0
 compute_M_PQ                      2190 12.0    0.004    0.004    2.765    2.765       0
 int_operators_r12_ab_os           2190 13.0    0.002    0.002    2.761    2.761       0
 int_operator_ab_os_low            2190 14.0    1.146    1.146    2.759    2.759       0
 compute_M_pq_inv_and_V_pq            1  8.0    0.000    0.000    2.738    2.738       0
 compute_contracted_RI_matrix         2  9.0    0.008    0.008    2.702    2.702       0
 compute_optimized_RI_matrix_bl      90 10.0    0.080    0.080    2.692    2.692       0
 pw_zero                            315  9.9    2.481    2.481    2.481    2.481       0
 abc_contract_xsmm               143067 10.0    2.229    2.229    2.229    2.229       0
 pw_scale                           237  9.8    1.871    1.871    1.871    1.871       0
 ot_mini                             59  8.0    0.012    0.012    1.804    1.804       0
 init_scf_run                         1  3.0    0.008    0.008    1.572    1.572       0
 scf_env_initial_rho_setup            1  4.0    0.006    0.006    1.562    1.562       0
 compute_AB_optimized_RI_basis        1  8.0    0.001    0.001    1.537    1.537       0
 compute_AB_optimized_RI_basis_       1  9.0    0.002    0.002    1.534    1.534       0
 qs_ot_get_derivative                59  9.0    0.338    0.338    1.455    1.455       0
 sort_shells                          5  8.2    1.366    1.366    1.366    1.366       0
 compute_B_PQ_AB                     30 10.0    0.346    0.346    1.281    1.281       0
 transfer_rs2pw                     241  8.0    0.005    0.005    1.189    1.189       0
 compute_V_xc                         1  7.0    0.004    0.004    1.179    1.179       0
 qs_ot_get_derivative_diag           58 10.0    1.091    1.091    1.109    1.109       0
 transfer_pw2rs                     240 11.0    0.001    0.001    1.067    1.067       0
 pw_multiply_with                    60  9.0    1.015    1.015    1.015    1.015       0
 transfer_rs2pw_300                  61  9.0    0.941    0.941    0.941    0.941       0
 xc_pw_smooth                        59 10.0    0.000    0.000    0.923    0.923       0
 compute_Sigma_c_and_QP_energie       1  7.0    0.000    0.000    0.905    0.905       0
 qs_ot_get_p                         60  8.0    0.123    0.123    0.902    0.902       0
 compute_Sigma_c                      1  8.0    0.013    0.013    0.881    0.881       0
 transfer_pw2rs_300                  60 12.0    0.869    0.869    0.869    0.869       0
 operator2                      1133838 15.0    0.827    0.827    0.827    0.827       0
 qs_energies_init_hamiltonians        1  3.0    0.041    0.041    0.794    0.794       0
 ab_contract                    1134891 15.0    0.787    0.787    0.787    0.787       0
 contract_grid_panels_sigma_c        30  9.0    0.673    0.673    0.774    0.774       0
 get_ddapc                           60 10.0    0.002    0.002    0.672    0.672       0
 qs_env_update_s_mstruct              1  4.0    0.004    0.004    0.634    0.634       0
 qs_ot_p2m_diag                      59  9.0    0.230    0.230    0.608    0.608       0
 fft_wrap_pw1pw2_40                 120 10.5    0.045    0.045    0.600    0.600       0
 contract_B_PQ                      138 11.9    0.540    0.540    0.585    0.585       0
 get_mat_chi_Gamma_tau                1  7.0    0.001    0.001    0.557    0.557       0
 contract_grid_panels                31  8.0    0.454    0.454    0.525    0.525       0
 calculate_rho_core                   1  5.0    0.111    0.111    0.470    0.470       0
 -------------------------------------------------------------------------------

 The number of warnings for this run is : 0
 
 -------------------------------------------------------------------------------
  **** **** ******  **  PROGRAM ENDED AT                 2026-09-17 02:52:11.438
 ***** ** ***  *** **   PROGRAM RAN ON                                  n2cn0435
 **    ****   ******    PROGRAM RAN BY                                  eprop2d1
 ***** **    ** ** **   PROGRAM PROCESS ID                                233053
  **** **  *******  **  PROGRAM STOPPED IN /scratch/hpc-prf-metdyn/eprop2d1_Jan/
                                           53_benchmark_RI_opt/106_GW100_GTH_RIR
                                           S_riao5_7_c7/extensions/lebedev_riao2
                                           /calculations/27_C3H6/leb_r10
