 DBCSR| CPU Multiplication driver                                           XSMM (U)
 DBCSR| Multrec recursion limit                                              512 (U)
 DBCSR| Multiplication stack size                                           1000 (D)
 DBCSR| Maximum elements for images                                    UNLIMITED (U)
 DBCSR| Multiplicative factor virtual images                                   1 (U)
 DBCSR| Use multiplication densification                                       T (D)
 DBCSR| Multiplication size stacks                                             3 (U)
 DBCSR| Use memory pool for CPU allocation                                     F (U)
 DBCSR| Number of 3D layers                                               SINGLE (U)
 DBCSR| Use MPI memory allocation                                              F (U)
 DBCSR| Use RMA algorithm                                                      F (U)
 DBCSR| Use Communication thread                                               T (U)
 DBCSR| Communication thread load                                             53 (D)
 DBCSR| MPI: My process id                                                     0
 DBCSR| MPI: Number of processes                                               5
 DBCSR| OMP: Current number of threads                                        10
 DBCSR| OMP: Max number of threads                                            10
 DBCSR| Split modifier for TAS multiplication algorithm                  1.0E+00 (U)


  **** **** ******  **  PROGRAM STARTED AT               2026-10-03 19:13:13.068
 ***** ** ***  *** **   PROGRAM STARTED ON                              n2cn0350
 **    ****   ******    PROGRAM STARTED BY                              eprop2d1
 ***** **    ** ** **   PROGRAM PROCESS ID                                917400
  **** **  *******  **  PROGRAM STARTED IN /scratch/hpc-prf-metdyn/eprop2d1_Jan/
                                           53_benchmark_RI_opt/418_gw100_fig5_fu
                                           ll_epsfilter_1e12_20261002/calculatio
                                           ns/rc5p0/ri4_rs08/40_GeH4

 CP2K| version string:                 CP2K version 2026.2 (Development Version)
 CP2K| source code revision number:                                   0671c5aa6c
 CP2K| cp2kflags: omp libint fftw3 libxc parallel scalapack openblas            
 CP2K| is freely available from                            https://www.cp2k.org/
 CP2K| Program compiled at                                   2026-09-20 09:25:26
 CP2K| Program compiled on                                              n2login5
 CP2K| Program compiled for                                               x86_64
 CP2K| Data directory path    /scratch/hpc-prf-metdyn/eprop2d1_Jan/53_benchmark_
 CP2K| Input file name        /scratch/hpc-prf-metdyn/eprop2d1_Jan/53_benchmark_
 
 eprop2d1@n2cn0350 has created rank and process                      0    917400
 eprop2d1@n2cn0350 has created rank and process                      1    917401
 eprop2d1@n2cn0350 has created rank and process                      2    917402
 eprop2d1@n2cn0350 has created rank and process                      3    917403
 eprop2d1@n2cn0350 has created rank and process                      4    917404
 
 eprop2d1@n2cn0350 is running                                        5 processes

 GLOBAL| Force Environment number                                              1
 GLOBAL| Basis set file name            /scratch/hpc-prf-metdyn/eprop2d1_Jan/53_
 GLOBAL| Potential file name            /scratch/hpc-prf-metdyn/eprop2d1_Jan/53_
 GLOBAL| MM Potential file name                                     MM_POTENTIAL
 GLOBAL| Coordinate file name                                      __STD_INPUT__
 GLOBAL| Method name                                                        CP2K
 GLOBAL| Project name                                             g418_e408_m040
 GLOBAL| Run type                                                         ENERGY
 GLOBAL| FFT library                                                       FFTW3
 GLOBAL| Diagonalization library                                       ScaLAPACK
 GLOBAL| Cholesky decomposition library                                ScaLAPACK
 GLOBAL| DGEMM library                                                      BLAS
 GLOBAL| Direct generalized diagonalization requested                          F
 GLOBAL| Orthonormality check for eigenvectors                          DISABLED
 GLOBAL| Matrix multiplication library                                 ScaLAPACK
 GLOBAL| All-to-all communication in single precision                          F
 GLOBAL| Grid backend                                                       AUTO
 GLOBAL| Global print level                                                  LOW
 GLOBAL| MPI I/O enabled                                                       T
 GLOBAL| Total number of message passing processes                             5
 GLOBAL| Number of distributed systems (nodes)                                 1
 GLOBAL| Number of threads for this process                                   10
 GLOBAL| This output is from process                                           0
 GLOBAL| OpenMP stack size per thread (OMP_STACKSIZE)                       512M
 GLOBAL| CPU model name                          AMD EPYC 7763 64-Core Processor

 MEMORY| system memory details [Kb]
 MEMORY|                        rank 0           min           max       average
 MEMORY| MemTotal            263897608     263897608     263897608     263897608
 MEMORY| MemFree             243996028     243996028     243996028     243996028
 MEMORY| Buffers                284752        284752        284752        284752
 MEMORY| Cached               14291336      14291336      14291336      14291336
 MEMORY| Slab                  1651384       1651384       1651384       1651384
 MEMORY| SReclaimable           316768        316768        316768        316768
 MEMORY| MemLikelyFree       258888884     258888884     258888884     258888884


 GENERATE|  Preliminary Number of Bonds generated:                             0
 GENERATE|  Achieved consistency in connectivity generation.

 *******************************************************************************
 *******************************************************************************
 **                                                                           **
 **     #####                         ##              ##                      **
 **    ##   ##            ##          ##              ##                      **
 **   ##     ##                       ##            ######                    **
 **   ##     ##  ##   ##  ##   #####  ##  ##   ####   ##    #####    #####    **
 **   ##     ##  ##   ##  ##  ##      ## ##   ##      ##   ##   ##  ##   ##   **
 **   ##  ## ##  ##   ##  ##  ##      ####     ###    ##   ######   ######    **
 **    ##  ###   ##   ##  ##  ##      ## ##      ##   ##   ##       ##        **
 **     #######   #####   ##   #####  ##  ##  ####    ##    #####   ##        **
 **           ##                                                    ##        **
 **                                                                           **
 **                                                ... make the atoms dance   **
 **                                                                           **
 **            Copyright (C) by CP2K developers group (2000-2026)             **
 **                      J. Chem. Phys. 152, 194103 (2020)                    **
 **                                                                           **
 *******************************************************************************


 TOTAL NUMBERS AND MAXIMUM NUMBERS

  Total number of            - Atomic kinds:                                   2
                             - Atoms:                                          5
                             - Shell sets:                                     5
                             - Shells:                                        29
                             - Primitive Cartesian functions:                 29
                             - Cartesian basis functions:                     70
                             - Spherical basis functions:                     65

  Maximum angular momentum of- Orbital basis functions:                        3
                             - Local part of the GTH pseudopotential:          2
                             - Non-local part of the GTH pseudopotential:      4


 SCF PARAMETERS         Density guess:                                   RESTART
                        --------------------------------------------------------
                        max_scf:                                             500
                        max_scf_history:                                       0
                        max_diis:                                              4
                        --------------------------------------------------------
                        eps_scf:                                        1.00E-08
                        eps_scf_history:                                0.00E+00
                        eps_diis:                                       0.00E+00
                        eps_eigval:                                     1.00E-05
                        --------------------------------------------------------
                        level_shift [a.u.]:                             0.000000
                        --------------------------------------------------------
                        Outer loop SCF in use 
                        No variables optimised in outer loop
                        eps_scf                                         1.00E-08
                        max_scf                                               20
                        No outer loop optimization
                        step_size                                       5.00E-01

 Extrapolation method: initial_guess

 Number of electrons:                                                          8
 Number of occupied orbitals:                                                  4
 Number of molecular orbitals:                                                 4

 Number of orbital functions:                                                 65
 Number of independent orbital functions:                                     65


 SCF WAVEFUNCTION OPTIMIZATION

  ----------------------------------- OT ---------------------------------------
  Minimizer      : DIIS                : direct inversion
                                         in the iterative subspace
                                         using   7 DIIS vectors
                                         safer DIIS on
  Preconditioner : FULL_KINETIC        : inversion of T + eS
  Lattice FFT   : OFF
  Precond_solver : DEFAULT
  stepsize       :    0.15000000                  energy_gap     :    0.20000000
  eps_taylor     :   0.10000E-15                  max_taylor     :             4
  ----------------------------------- OT ---------------------------------------

  Step     Update method      Time    Convergence         Total energy    Change
  ------------------------------------------------------------------------------
  Decoupling Energy:                                              -0.0000000915
     1 OT DIIS     0.15E+00    2.2     5.8861E-09        -6.2415198030 -6.24E+00

  *** SCF run converged in     1 steps ***


  Electronic density on regular grids:         -8.0000000000        0.0000000000
  Core density on regular grids:                8.0000000000       -0.0000000000
  Total charge density on r-space grids:       -0.0000000000
  Total charge density g-space grids:          -0.0000000000

  Overlap energy of the core charge distribution:               0.00000310550383
  Self energy of the core charge distribution:                -14.00026003618506
  Core Hamiltonian energy:                                      3.86932157036468
  Hartree energy:                                               6.41387525258903
  Exchange-correlation energy:                                 -2.52445969529705

  Total energy:                                                -6.24151980302458

  outer SCF iter =    1 RMS gradient =   0.59E-08 energy =         -6.2415198030
  outer SCF loop converged in   1 iterations or    1 steps

  
 -------------------------------------------------------------------------------
 -                                                                             -
 -                          BANDSTRUCTURE CALCULATION                          -
 -                                                                             -
 -------------------------------------------------------------------------------
  
 Number of occupied molecular orbitals (MOs) = Number of occupied bands        4
 Number of unoccupied (= virtual) MOs = Number of unoccupied bands            61
 Number of Gaussian basis functions for MOs                                   65
  
 -------------------------------------------------------------------------------
 -                                                                             -
 -                                GW CALCULATION                               -
 -                                                                             -
 -------------------------------------------------------------------------------
  
 Input: Number of time/freq. points                                           30
 Input: ω_max for fitting Σ(iω) (eV)                                        10.0
 Input: Filter threshold for sparse tensor operations                    1.0E-12
 Input: Apply Hedin shift                                                      F
 Detected: Available memory per MPI process                              43.3 GB
 
 Input: RI-RS Tikhonov regularization                                   1.00E-04
 Input: AO grid hard cutoff radius                                        8.00 Å
 Input: MPI ranks per atom in Z_lP solve                                      -1
 Input: Keep sparsity in χ/G/W panels                                          T
 Input: GW flavour                                                          G0W0
 
 Input: RI-RS grid optimization activated                                      T
 Input: RS points per AO function                                            8.0
 Input: Cutoff radius for atomic clusters                                  5.0 Å
 Input: Maximum grid optimization iterations                                 300
 
 Input: AUTO_RI basis optimization activated:                                  T
 Input: AUTO_RI number of RI functions per AO function:                      4.0
 Input: AUTO_RI frontier orbital window:                                  5.0 eV
 Input: AUTO_RI neighbor radius:                                           3.0 Å
 
 Cutoff radius for the truncated Coulomb operator in RI metric:            7.0 Å
 Regularization parameter of RI                                          0.0E+00
 Regularization parameter of minimax grids                               1.0E-06
 
 AUTO_RI| Number of automatic RI functions for χ, ε, W:                      260
 AUTO_RI| Total RI basis optimization time:                                0.7 s
  Decoupling Energy:                                              -0.0000000915
 
 SCF direct band gap (eV)                                                   7.76
 Max. SCF eigval diff. (eV)                                               171.37
 E-Range for minimax grid                                                  22.07
 Number of Padé parameters for analytic continuation:                         16
 
 RI-RS basis radii (Å):
     Kind  Elem     r_AO (Å)     r_RI (Å)
        1    Ge        8.3589        6.1194
        2    H        13.9082        8.7963
 
 Started RI-RS grid optimization
 RI-RS grid initial normalized error                          5.211204206741E-03
 RI-RS grid optimization completed, execution time:                       23.2 s
 Normalized 3C error:                                                    1.7E-08
 Maximum absolute 3C error:                                              8.2E-04
 Optimized points outside molecular Voronoi cells:                           105 / 520
 Total grid points used for RI-RS:                                           520
 
 RI-RS grid row-blocks of ϕ_μ(r_l)                                            20
 RI-RS grid points per block (max)                                            32
 
 Percentage of non-zero matrix elements in ϕ_μ(r_l)                     100.00 %
 
 RI-RS memory estimate per MPI process:
   Available memory per process (system)                                52.38 GB
   Required for Z_lP (dense upper bound; actual is sparser)              0.00 GB
   Required for χ, W, Σ panels (peak per panel step)                     0.00 GB
   Required for Z_lP solve peak (D_local+ϕ, worst-case atom)             0.01 GB
   Worst-case local-grid number of grid points:                              520
   Worst-case memory D_local:                                            0.00 GB
 
 Started computing Z_lP
 Computed Z_lP (MPI rank 0) for atom          1 /  1,    Execution time    0.0 s
 Computed Z_lP (all MPI ranks) for all atoms,            Execution time    0.0 s

 Memory per MPI process after computing Z_lP:
 Available memory per MPI process                               52.4 GB
 Used memory per MPI process                                     0.9 GB
 Number of batches for χ, Σ matrices                                           1
 
 Percentage of non-zero matrix elements in Z_lP                         100.00 %
 Percentage of non-zero matrix elements in G_ll', χ_ll', W_ll'          100.00 %
 Percentage of non-zero matrix elements in χ_PQ for time point 1        100.00 %
 
 Computed χ(iτ,k=0) for time point            1 / 30,    Execution time    0.0 s
 Computed χ(iτ,k=0) for time point            2 / 30,    Execution time    0.0 s
 Computed χ(iτ,k=0) for time point            3 / 30,    Execution time    0.0 s
 Computed χ(iτ,k=0) for time point            4 / 30,    Execution time    0.0 s
 Computed χ(iτ,k=0) for time point            5 / 30,    Execution time    0.0 s
 Computed χ(iτ,k=0) for time point            6 / 30,    Execution time    0.0 s
 Computed χ(iτ,k=0) for time point            7 / 30,    Execution time    0.0 s
 Computed χ(iτ,k=0) for time point            8 / 30,    Execution time    0.0 s
 Computed χ(iτ,k=0) for time point            9 / 30,    Execution time    0.0 s
 Computed χ(iτ,k=0) for time point           10 / 30,    Execution time    0.0 s
 Computed χ(iτ,k=0) for time point           11 / 30,    Execution time    0.0 s
 Computed χ(iτ,k=0) for time point           12 / 30,    Execution time    0.0 s
 Computed χ(iτ,k=0) for time point           13 / 30,    Execution time    0.0 s
 Computed χ(iτ,k=0) for time point           14 / 30,    Execution time    0.0 s
 Computed χ(iτ,k=0) for time point           15 / 30,    Execution time    0.0 s
 Computed χ(iτ,k=0) for time point           16 / 30,    Execution time    0.0 s
 Computed χ(iτ,k=0) for time point           17 / 30,    Execution time    0.0 s
 Computed χ(iτ,k=0) for time point           18 / 30,    Execution time    0.0 s
 Computed χ(iτ,k=0) for time point           19 / 30,    Execution time    0.0 s
 Computed χ(iτ,k=0) for time point           20 / 30,    Execution time    0.0 s
 Computed χ(iτ,k=0) for time point           21 / 30,    Execution time    0.0 s
 Computed χ(iτ,k=0) for time point           22 / 30,    Execution time    0.0 s
 Computed χ(iτ,k=0) for time point           23 / 30,    Execution time    0.0 s
 Computed χ(iτ,k=0) for time point           24 / 30,    Execution time    0.0 s
 Computed χ(iτ,k=0) for time point           25 / 30,    Execution time    0.0 s
 Computed χ(iτ,k=0) for time point           26 / 30,    Execution time    0.0 s
 Computed χ(iτ,k=0) for time point           27 / 30,    Execution time    0.0 s
 Computed χ(iτ,k=0) for time point           28 / 30,    Execution time    0.0 s
 Computed χ(iτ,k=0) for time point           29 / 30,    Execution time    0.0 s
 Computed χ(iτ,k=0) for time point           30 / 30,    Execution time    0.0 s
 
 Cholesky decomposition failed, using diagonalization.
 Discarded eigenmodes:                                                         0
 Computed W(iτ),                                         Execution time    0.2 s
 
 Computed Σ^x(k=0),                                      Execution time    0.0 s
 
 Computed Σ^c(iτ) for time point              1 / 30,    Execution time    0.0 s
 Computed Σ^c(iτ) for time point              2 / 30,    Execution time    0.0 s
 Computed Σ^c(iτ) for time point              3 / 30,    Execution time    0.0 s
 Computed Σ^c(iτ) for time point              4 / 30,    Execution time    0.0 s
 Computed Σ^c(iτ) for time point              5 / 30,    Execution time    0.0 s
 Computed Σ^c(iτ) for time point              6 / 30,    Execution time    0.0 s
 Computed Σ^c(iτ) for time point              7 / 30,    Execution time    0.0 s
 Computed Σ^c(iτ) for time point              8 / 30,    Execution time    0.0 s
 Computed Σ^c(iτ) for time point              9 / 30,    Execution time    0.0 s
 Computed Σ^c(iτ) for time point             10 / 30,    Execution time    0.0 s
 Computed Σ^c(iτ) for time point             11 / 30,    Execution time    0.0 s
 Computed Σ^c(iτ) for time point             12 / 30,    Execution time    0.0 s
 Computed Σ^c(iτ) for time point             13 / 30,    Execution time    0.0 s
 Computed Σ^c(iτ) for time point             14 / 30,    Execution time    0.0 s
 Computed Σ^c(iτ) for time point             15 / 30,    Execution time    0.0 s
 Computed Σ^c(iτ) for time point             16 / 30,    Execution time    0.0 s
 Computed Σ^c(iτ) for time point             17 / 30,    Execution time    0.0 s
 Computed Σ^c(iτ) for time point             18 / 30,    Execution time    0.0 s
 Computed Σ^c(iτ) for time point             19 / 30,    Execution time    0.0 s
 Computed Σ^c(iτ) for time point             20 / 30,    Execution time    0.0 s
 Computed Σ^c(iτ) for time point             21 / 30,    Execution time    0.0 s
 Computed Σ^c(iτ) for time point             22 / 30,    Execution time    0.0 s
 Computed Σ^c(iτ) for time point             23 / 30,    Execution time    0.0 s
 Computed Σ^c(iτ) for time point             24 / 30,    Execution time    0.0 s
 Computed Σ^c(iτ) for time point             25 / 30,    Execution time    0.0 s
 Computed Σ^c(iτ) for time point             26 / 30,    Execution time    0.0 s
 Computed Σ^c(iτ) for time point             27 / 30,    Execution time    0.0 s
 Computed Σ^c(iτ) for time point             28 / 30,    Execution time    0.0 s
 Computed Σ^c(iτ) for time point             29 / 30,    Execution time    0.0 s
 Computed Σ^c(iτ) for time point             30 / 30,    Execution time    0.0 s
 
 SCF valence band maximum (eV):                                           -8.343
 SCF conduction band minimum (eV):                                        -0.580
 SCF indirect band gap (eV):                                               7.763
 SCF direct band gap (eV):                                                 7.763
 
 G0W0 valence band maximum (eV):                                         -11.840
 G0W0 conduction band minimum (eV):                                        1.430
 G0W0 indirect band gap (eV):                                             13.270
 G0W0 direct band gap (eV):                                               13.270
 
 Hartree-Fock with SCF orbitals valence band maximum (eV):               -12.574
 Hartree-Fock with SCF orbitals conduction band minimum (eV)               2.213
 Hartree-Fock with SCF orbitals indirect band gap (eV):                   14.786
 Hartree-Fock with SCF orbitals direct band gap (eV):                     14.786

 ENERGY| Total FORCE_EVAL ( QS ) energy [hartree]             -6.241519803024581

 -------------------------------------------------------------------------------
 -                                                                             -
 -                                DBCSR STATISTICS                             -
 -                                                                             -
 -------------------------------------------------------------------------------
 COUNTER                                    TOTAL       BLAS       SMM       ACC
 flops     4 x     4 x     4                  128       0.0%    100.0%      0.0%     
 flops     4 x     4 x    29                 2784       0.0%    100.0%      0.0%     
 flops     4 x     4 x     9                 3456       0.0%    100.0%      0.0%     
 flops    29 x     4 x     4                 3712       0.0%    100.0%      0.0%     
 flops     9 x     4 x     4                 4608       0.0%    100.0%      0.0%     
 flops     9 x    29 x     4                 8352       0.0%    100.0%      0.0%     
 flops    29 x     9 x     4                 8352       0.0%    100.0%      0.0%     
 flops     9 x     9 x     4                12960       0.0%    100.0%      0.0%     
 flops    29 x    29 x     4                13456       0.0%    100.0%      0.0%     
 flops    29 x     4 x    29                53824       0.0%    100.0%      0.0%     
 flops    29 x     4 x     9                66816       0.0%    100.0%      0.0%     
 flops     9 x     4 x    29                66816       0.0%    100.0%      0.0%     
 flops     9 x     4 x     9                82944       0.0%    100.0%      0.0%     
 flops    29 x    29 x     8              2220240       0.0%    100.0%      0.0%     
 flops     8 x    44 x     8              2596352       0.0%    100.0%      0.0%     
 flops     8 x     8 x    44              2675200       0.0%    100.0%      0.0%     
 flops     9 x    29 x     8              2756160       0.0%    100.0%      0.0%     
 flops    29 x     9 x     8              2756160       0.0%    100.0%      0.0%     
 flops    44 x    44 x     8              2787840       0.0%    100.0%      0.0%     
 flops     8 x    44 x    44              2942720       0.0%    100.0%      0.0%     
 flops     8 x    51 x     8              3009408       0.0%    100.0%      0.0%     
 flops     8 x    29 x     8              3069824       0.0%    100.0%      0.0%     
 flops     8 x     8 x    51              3100800       0.0%    100.0%      0.0%     
 flops     8 x    53 x     8              3127424       0.0%    100.0%      0.0%     
 flops     8 x    54 x     8              3179520       0.0%    100.0%      0.0%     
 flops     8 x     8 x    53              3222400       0.0%    100.0%      0.0%     
 flops    44 x    51 x     8              3231360       0.0%    100.0%      0.0%     
 flops    51 x    44 x     8              3231360       0.0%    100.0%      0.0%     
 flops    53 x    44 x     8              3358080       0.0%    100.0%      0.0%     
 flops    44 x    53 x     8              3358080       0.0%    100.0%      0.0%     
 flops     8 x    51 x    44              3410880       0.0%    100.0%      0.0%     
 flops     8 x    44 x    51              3410880       0.0%    100.0%      0.0%     
 flops     8 x    58 x     8              3415040       0.0%    100.0%      0.0%     
 flops     9 x     9 x     8              3421440       0.0%    100.0%      0.0%     
 flops    44 x    54 x     8              3421440       0.0%    100.0%      0.0%     
 flops     8 x    53 x    44              3544640       0.0%    100.0%      0.0%     
 flops     8 x    44 x    53              3544640       0.0%    100.0%      0.0%     
 flops     8 x    54 x    44              3611520       0.0%    100.0%      0.0%     
 flops    44 x    58 x     8              3674880       0.0%    100.0%      0.0%     
 flops    51 x    51 x     8              3745440       0.0%    100.0%      0.0%     
 flops     8 x     9 x     8              3805056       0.0%    100.0%      0.0%     
 flops     8 x    58 x    44              3879040       0.0%    100.0%      0.0%     
 flops    53 x    51 x     8              3892320       0.0%    100.0%      0.0%     
 flops    51 x    53 x     8              3892320       0.0%    100.0%      0.0%     
 flops     8 x    51 x    51              3953520       0.0%    100.0%      0.0%     
 flops    51 x    54 x     8              3965760       0.0%    100.0%      0.0%     
 flops    53 x    53 x     8              4044960       0.0%    100.0%      0.0%     
 flops     8 x    53 x    51              4108560       0.0%    100.0%      0.0%     
 flops     8 x    51 x    53              4108560       0.0%    100.0%      0.0%     
 flops    53 x    54 x     8              4121280       0.0%    100.0%      0.0%     
 flops     8 x    54 x    51              4186080       0.0%    100.0%      0.0%     
 flops    51 x    58 x     8              4259520       0.0%    100.0%      0.0%     
 flops     8 x    53 x    53              4269680       0.0%    100.0%      0.0%     
 flops     8 x    54 x    53              4350240       0.0%    100.0%      0.0%     
 flops    53 x    58 x     8              4426560       0.0%    100.0%      0.0%     
 flops     8 x    58 x    51              4496160       0.0%    100.0%      0.0%     
 flops     8 x    58 x    53              4672480       0.0%    100.0%      0.0%     
 flops     8 x    29 x    29              5718800       0.0%    100.0%      0.0%     
 flops     8 x    29 x     9              7099200       0.0%    100.0%      0.0%     
 flops     8 x     9 x    29              7099200       0.0%    100.0%      0.0%     
 flops     8 x     8 x    29              7880576       0.0%    100.0%      0.0%     
 flops     8 x     9 x     9              8812800       0.0%    100.0%      0.0%     
 flops     8 x     8 x     9              9702144       0.0%    100.0%      0.0%     
 flops    29 x    29 x    32             26642880       0.0%    100.0%      0.0%     
 flops     8 x    44 x    32             31426560       0.0%    100.0%      0.0%     
 flops    32 x    44 x     8             31674368       0.0%    100.0%      0.0%     
 flops    32 x     8 x    44             32102400       0.0%    100.0%      0.0%     
 flops     8 x    32 x    44             32102400       0.0%    100.0%      0.0%     
 flops     9 x    29 x    32             33073920       0.0%    100.0%      0.0%     
 flops    29 x     9 x    32             33073920       0.0%    100.0%      0.0%     
 flops    44 x    44 x    32             33454080       0.0%    100.0%      0.0%     
 flops    32 x    44 x    44             35312640       0.0%    100.0%      0.0%     
 flops     8 x    51 x    32             36504576       0.0%    100.0%      0.0%     
 flops    32 x    51 x     8             36765696       0.0%    100.0%      0.0%     
 flops    32 x    29 x     8             36971520       0.0%    100.0%      0.0%     
 flops    32 x     8 x    51             37209600       0.0%    100.0%      0.0%     
 flops     8 x    32 x    51             37209600       0.0%    100.0%      0.0%     
 flops     8 x    29 x    32             37461504       0.0%    100.0%      0.0%     
 flops     8 x    53 x    32             37827584       0.0%    100.0%      0.0%     
 flops    32 x    53 x     8             38153216       0.0%    100.0%      0.0%     
 flops     8 x    54 x    32             38624256       0.0%    100.0%      0.0%     
 flops    32 x     8 x    53             38668800       0.0%    100.0%      0.0%     
 flops     8 x    32 x    53             38668800       0.0%    100.0%      0.0%     
 flops    44 x    51 x    32             38776320       0.0%    100.0%      0.0%     
 flops    51 x    44 x    32             38776320       0.0%    100.0%      0.0%     
 flops    32 x    54 x     8             38873088       0.0%    100.0%      0.0%     
 flops    53 x    44 x    32             40296960       0.0%    100.0%      0.0%     
 flops    44 x    53 x    32             40296960       0.0%    100.0%      0.0%     
 flops    32 x    51 x    44             40930560       0.0%    100.0%      0.0%     
 flops    32 x    44 x    51             40930560       0.0%    100.0%      0.0%     
 flops     9 x     9 x    32             41057280       0.0%    100.0%      0.0%     
 flops    44 x    54 x    32             41057280       0.0%    100.0%      0.0%     
 flops     8 x    58 x    32             41574400       0.0%    100.0%      0.0%     
 flops    32 x    58 x     8             41752576       0.0%    100.0%      0.0%     
 flops    32 x    53 x    44             42535680       0.0%    100.0%      0.0%     
 flops    32 x    44 x    53             42535680       0.0%    100.0%      0.0%     
 flops    32 x    54 x    44             43338240       0.0%    100.0%      0.0%     
 flops    44 x    58 x    32             44098560       0.0%    100.0%      0.0%     
 flops    51 x    51 x    32             44945280       0.0%    100.0%      0.0%     
 flops    32 x     9 x     8             45725184       0.0%    100.0%      0.0%     
 flops     8 x     9 x    32             45808128       0.0%    100.0%      0.0%     
 flops    32 x    58 x    44             46548480       0.0%    100.0%      0.0%     
 flops    53 x    51 x    32             46707840       0.0%    100.0%      0.0%     
 flops    51 x    53 x    32             46707840       0.0%    100.0%      0.0%     
 flops    32 x    51 x    51             47442240       0.0%    100.0%      0.0%     
 flops    51 x    54 x    32             47589120       0.0%    100.0%      0.0%     
 flops    53 x    53 x    32             48539520       0.0%    100.0%      0.0%     
 flops    32 x    53 x    51             49302720       0.0%    100.0%      0.0%     
 flops    32 x    51 x    53             49302720       0.0%    100.0%      0.0%     
 flops    53 x    54 x    32             49455360       0.0%    100.0%      0.0%     
 flops    32 x    54 x    51             50232960       0.0%    100.0%      0.0%     
 flops    51 x    58 x    32             51114240       0.0%    100.0%      0.0%     
 flops    32 x    53 x    53             51236160       0.0%    100.0%      0.0%     
 flops    32 x    54 x    53             52202880       0.0%    100.0%      0.0%     
 flops    53 x    58 x    32             53118720       0.0%    100.0%      0.0%     
 flops    32 x    58 x    51             53953920       0.0%    100.0%      0.0%     
 flops    32 x    58 x    53             56069760       0.0%    100.0%      0.0%     
 flops    32 x    29 x    29             68625600       0.0%    100.0%      0.0%     
 flops    32 x    29 x     9             85190400       0.0%    100.0%      0.0%     
 flops    32 x     9 x    29             85190400       0.0%    100.0%      0.0%     
 flops    32 x     8 x    29             94656000       0.0%    100.0%      0.0%     
 flops     8 x    32 x    29             94656000       0.0%    100.0%      0.0%     
 flops    32 x     9 x     9            105753600       0.0%    100.0%      0.0%     
 flops     8 x    32 x     9            117490176       0.0%    100.0%      0.0%     
 flops    32 x     8 x     9            117494784       0.0%    100.0%      0.0%     
 flops    32 x    32 x    44            385228800       0.0%    100.0%      0.0%     
 flops    32 x    44 x    32            385228800       0.0%    100.0%      0.0%     
 flops    32 x    32 x    51            446515200       0.0%    100.0%      0.0%     
 flops    32 x    51 x    32            446515200       0.0%    100.0%      0.0%     
 flops    32 x    29 x    32            451794944       0.0%    100.0%      0.0%     
 flops    32 x    32 x    53            464025600       0.0%    100.0%      0.0%     
 flops    32 x    53 x    32            464025600       0.0%    100.0%      0.0%     
 flops    32 x    54 x    32            472780800       0.0%    100.0%      0.0%     
 flops    32 x    58 x    32            507801600       0.0%    100.0%      0.0%     
 flops    32 x     9 x    32            551503872       0.0%    100.0%      0.0%     
 flops    32 x    32 x    29           1135872000       0.0%    100.0%      0.0%     
 flops    32 x    32 x     9           1410048000       0.0%    100.0%      0.0%     
 flops inhomo. stacks                  3280962560     100.0%      0.0%      0.0%
 flops total                        13.630019E+09      24.1%     75.9%      0.0%
 flops max/rank                      3.280113E+09      21.1%     78.9%      0.0%
 matmuls inhomo. stacks                     22980     100.0%      0.0%      0.0%
 matmuls total                             390290       5.9%     94.1%      0.0%
 number of processed stacks                133704       3.3%     96.7%      0.0%
 average stack size                                     5.3       2.8       0.0
 marketing flops                    20.063422E+09
 -------------------------------------------------------------------------------
 # multiplications                            505
 max memory usage/rank              19.077132E+09
 # max total images/rank                        5
 # max 3D layers                                1
 # MPI messages exchanged                   10100
 MPI messages size (bytes):
  total size                         1.190329E+09
  min size                           0.000000E+00
  max size                         432.640000E+03
  average size                     117.854352E+03
 MPI breakdown and total messages size (bytes):
             size <=      128                1632                      512
       128 < size <=     8192                 212                   673920
      8192 < size <=    32768                  32                   482560
     32768 < size <=   131072                5340                288787200
    131072 < size <=  4194304                2884                900384768
   4194304 < size <= 16777216                   0                        0
  16777216 < size                               0                        0
 -------------------------------------------------------------------------------

 *** WARNING in dbcsr_mm.F:301 :: Using a non-square number of MPI ranks ***
 *** might lead to poor performance. Used ranks: 5 Suggested: 4 9        ***

 -------------------------------------------------------------------------------
 -                                                                             -
 -                      DBCSR MESSAGE PASSING PERFORMANCE                      -
 -                                                                             -
 -------------------------------------------------------------------------------
 ROUTINE             CALLS      AVE VOLUME [Bytes]
 MP_Bcast              138                     12.
 MP_Allreduce         2392                     21.
 MP_Alltoall          3385                  15303.
 MP_ISend             7742                  35173.
 MP_IRecv             7702                  31180.
 -------------------------------------------------------------------------------

 -------------------------------------------------------------------------------
 -                                                                             -
 -                                GRID STATISTICS                              -
 -                                                                             -
 -------------------------------------------------------------------------------
 LP    KERNEL             BACKEND                              COUNT     PERCENT
 4     collocate ortho    CPU                                     76      38.58%
 4     integrate ortho    CPU                                     76      38.58%
 6     collocate ortho    CPU                                     20      10.15%
 6     integrate ortho    CPU                                     20      10.15%
 0     collocate general  CPU                                      5       2.54%
 -------------------------------------------------------------------------------

 -------------------------------------------------------------------------------
 -                                                                             -
 -                          OFFLOAD MEMPOOL STATISTICS                         -
 -                                                                             -
 -------------------------------------------------------------------------------
 Memory consumption                Number of allocations  Used [MiB]  Size [MiB]
 Host                                                  6         143    22244484
 -------------------------------------------------------------------------------

 MEMORY| Estimated peak process memory [MiB]                                3392

 -------------------------------------------------------------------------------
 -                                                                             -
 -                         MESSAGE PASSING PERFORMANCE                         -
 -                                                                             -
 -------------------------------------------------------------------------------

 ROUTINE             CALLS      AVE VOLUME [Bytes]
 MP_Group                5
 MP_Bcast              501                 315871.
 MP_Allreduce         1856                   3930.
 MP_Sync                11
 MP_Alltoall            44              133879042.
 MP_SendRecv            24                3758933.
 MP_ISendRecv           24                3758933.
 MP_Wait                69
 MP_comm_split          11
 MP_ISend               35               13371429.
 MP_IRecv               35               13371429.
 -------------------------------------------------------------------------------


 -------------------------------------------------------------------------------
 -                                                                             -
 -                           R E F E R E N C E S                               -
 -                                                                             -
 -------------------------------------------------------------------------------
 
 CP2K version 2026.2 (Development Version), the CP2K developers group (2026).
 CP2K is freely available from https://www.cp2k.org/ .
 
 M. Iannuzzi, J. Wilhelm, F. Stein, A. Bussy, H. Elgabarty, D. Golze, A. Hehn, 
 M. Graml, S. Marek, B. Sertcan Gökmen, C. Schran, H. Forbert, R. Z. 
 Khaliullin, A. Kozhevnikov, M. Taillefumier, R. Meli, V. V. Rybkin, M. Brehm, 
 R. Schade, O. Schütt, J. V. Pototschnig, H. Mirhosseini, A. Knüpfer, D. Marx, 
 M. Krack, J. Hutter, T. D. Kühne.
 J. Phys. Chem. B 130, 1237-1310 (2026).
 The CP2K Program Package Made Simple.
 https://doi.org/10.1021/acs.jpcb.5c05851

 M. Graml, K. Zollner, D. Hernangómez-Pérez, P. E. Faria Junior, J. Wilhelm.
 J. Chem. Theory Comput. 20, 2202-2208 (2024).
 Low-scaling GW algorithm applied to twisted transition-metal dichalcogenide 
 heterobilayers.
 https://doi.org/10.1021/acs.jctc.3c01230

 T. D. Kühne, M. Iannuzzi, M. Del Ben, V. V. Rybkin, P. Seewald, F. Stein, T. 
 Laino, R. Z. Khaliullin, O. Schütt, F. Schiffmann, D. Golze, J. Wilhelm, S. 
 Chulkov, M. H. Bani-Hashemian, V. Weber, U. Borstnik, M. Taillefumier, A. S. 
 Jakobovits, A. Lazzaro, H. Pabst, T. Müller, R. Schade, M. Guidon, S. 
 Andermatt, N. Holmberg, G. K. Schenter, A. Hehn, A. Bussy, F. Belleflamme, G. 
 Tabacchi, A. Glöß, M. Lass, I. Bethune, C. J. Mundy, C. Plessl, M. Watkins, 
 J. VandeVondele, M. Krack, J. Hutter.
 J. Chem. Phys. 152, 194103 (2020).
 CP2K: An electronic structure and molecular dynamics software package - 
 Quickstep: Efficient and accurate electronic structure calculations.
 https://doi.org/10.1063/5.0007045

 O. Schuett, P. Messmer, J. Hutter, J. VandeVondele.
 Electronic Structure Calculations on Graphics Processing Units, 173-190 (2016).
 GPU-Accelerated Sparse Matrix-Matrix Multiplication for Linear Scaling Density 
 Functional Theory.
 https://doi.org/10.1002/9781118670712.ch8

 U. Borstnik, J. VandeVondele, V. Weber, J. Hutter.
 Parallel Comput. 40, 47-58 (2014).
 Sparse matrix multiplication: The distributed block-compressed sparse row 
 library.
 https://doi.org/10.1016/j.parco.2014.03.012

 J. VandeVondele, J. Hutter.
 J. Chem. Phys. 127, 114105 (2007).
 Gaussian basis sets for accurate calculations on molecular systems in gas and 
 condensed phases.
 https://doi.org/10.1063/1.2770708

 J. VandeVondele, M. Krack, F. Mohamed, M. Parrinello, T. Chassaing, J. Hutter.
 Comput. Phys. Commun. 167, 103-128 (2005).
 QUICKSTEP: Fast and accurate density functional calculations using a mixed 
 Gaussian and plane waves approach.
 https://doi.org/10.1016/j.cpc.2004.12.014

 M. Krack.
 Theor. Chem. Acc. 114, 145-152 (2005).
 Pseudopotentials for H to Kr optimized for gradient-corrected 
 exchange-correlation functionals.
 https://doi.org/10.1007/s00214-005-0655-y

 M. Frigo, S. G. Johnson.
 Proc. IEEE 93, 216-231 (2005).
 The design and implementation of FFTW3.
 https://doi.org/10.1109/JPROC.2004.840301

 J. VandeVondele, J. Hutter.
 J. Chem. Phys. 118, 4365-4369 (2003).
 An efficient orbital transformation method for electronic structure 
 calculations.
 https://doi.org/10.1063/1.1543154

 C. Hartwigsen, S. Goedecker, J. Hutter.
 Phys. Rev. B 58, 3641-3662 (1998).
 Relativistic separable dual-space Gaussian pseudopotentials from H to Rn.
 https://doi.org/10.1103/PhysRevB.58.3641

 G. Lippert, J. Hutter, M. Parrinello.
 Mol. Phys. 92, 477-487 (1997).
 A hybrid Gaussian and plane wave density functional scheme.
 https://doi.org/10.1080/002689797170220

 S. Goedecker, M. Teter, J. Hutter.
 Phys. Rev. B 54, 1703-1710 (1996).
 Separable dual-space Gaussian pseudopotentials.
 https://doi.org/10.1103/PhysRevB.54.1703

 J. P. Perdew, K. Burke, M. Ernzerhof.
 Phys. Rev. Lett. 77, 3865-3868 (1996).
 Generalized gradient approximation made simple.
 https://doi.org/10.1103/PhysRevLett.77.3865

 P. E. Blöchl.
 J. Chem. Phys. 103, 7422-7428 (1995).
 Electrostatic decoupling of periodic images of plane‐wave‐expanded 
 densities and derived atomic point charges.
 https://doi.org/10.1063/1.470314

 R. H. Byrd, P. H. Lu, J. Nocedal, C. Y. Zhu.
 SIAM J. Sci. Comput. 16, 1190-1208 (1995).
 A Limited Memory Algorithm for Bound Constrained Optimization.
 https://doi.org/10.1137/0916069


 -------------------------------------------------------------------------------
 -                                                                             -
 -                                T I M I N G                                  -
 -                                                                             -
 -------------------------------------------------------------------------------
 SUBROUTINE                       CALLS  ASD         SELF TIME        TOTAL TIME MAXRANK
                                MAXIMUM       AVERAGE  MAXIMUM  AVERAGE  MAXIMUM
 CP2K                                 1  1.0    0.041    0.045   31.597   31.597       0
 qs_energies                          1  2.0    0.015    0.016   30.163   30.163       4
 qs_energies_properties               1  3.0    0.000    0.000   26.181   26.181       4
 post_scf_bandstructure               1  4.0    0.000    0.000   26.180   26.180       0
 run_gw                               1  5.0    0.000    0.000   26.156   26.166       2
 gw_calc_ri_rs_non_periodic           1  6.0    0.000    0.000   24.393   24.533       3
 optimize_ri_rs_grid                  1  7.0    0.000    0.000   23.614   23.754       0
 rirs_grid_LBFGS                      1  8.0    0.506    0.785   23.187   23.188       4
 evaluate_rirs_grid_cluster         301  9.0    1.836    2.278   15.859   22.360       4
 mp_sum_d                           758  4.5    6.852    9.051    6.852    9.051       0
 rirs_cluster_gradient_products     301 10.0    4.086    7.133    4.086    7.133       4
 rirs_cluster_gradient_coordina     301 10.0    4.514    4.571    4.514    4.571       2
 rirs_cluster_D_ll                  301 10.0    1.719    3.009    1.719    3.009       4
 scf_env_do_scf                       1  3.0    0.007    0.007    2.865    2.865       0
 qs_ks_build_kohn_sham_matrix         2  7.5    0.020    0.022    2.723    2.723       4
 fft_wrap_pw1pw2                     28 10.0    0.001    0.001    2.440    2.500       3
 fft_wrap_pw1pw2_300                 16 11.2    0.136    0.174    2.302    2.373       3
 rirs_cluster_residual              301 10.0    1.402    2.368    1.402    2.368       4
 init_scf_loop                        1  4.0    0.008    0.008    2.136    2.136       4
 qs_ks_update_qs_env                  2  5.0    0.000    0.000    2.096    2.096       3
 rebuild_ks_matrix                    1  6.0    0.000    0.000    2.095    2.095       4
 rirs_cluster_d_lP                  301 10.0    1.103    2.070    1.103    2.070       4
 create_and_init_bs_env_for_gw        1  6.0    0.010    0.016    1.762    1.991       4
 fft3d_ps                            28 12.0    1.023    1.145    1.739    1.890       2
 qs_rho_update_rho_low                2  5.0    0.000    0.000    1.460    1.460       1
 calculate_rho_elec                   2  6.0    0.040    0.040    1.460    1.460       3
 qs_vxc_create                        2  8.5    0.001    0.005    1.399    1.426       4
 xc_vxc_pw_create                     1  9.0    0.030    0.035    1.398    1.421       4
 rirs_cluster_AO_products           301 10.0    1.199    1.222    1.199    1.222       3
 xc_pw_derive                         6 11.0    0.000    0.000    1.045    1.104       3
 mp_alltoall_z22v                    28 14.0    0.463    1.096    0.463    1.096       4
 qs_init_subsys                       1  2.0    0.007    0.007    1.032    1.032       2
 qs_env_setup                         1  3.0    0.001    0.001    1.021    1.021       3
 qs_env_rebuild_pw_env                2  3.5    0.000    0.001    1.018    1.018       4
 pw_env_rebuild                       1  5.0    0.003    0.003    1.018    1.018       2
 pw_grid_setup                        5  5.2    0.001    0.001    1.010    1.010       0
 pw_grid_setup_internal               5  6.2    0.017    0.017    1.009    1.009       1
 pw_grid_sort                         5  7.2    0.606    0.614    0.887    0.898       0
 density_rs2pw                        2  7.0    0.007    0.007    0.822    0.832       4
 init_scf_run                         1  3.0    0.001    0.001    0.788    0.788       3
 scf_env_initial_rho_setup            1  4.0    0.007    0.007    0.787    0.787       0
 xc_pw_divergence                     1 10.0    0.000    0.000    0.699    0.755       3
 mp_bcast_dm                         18  9.3    0.511    0.731    0.511    0.731       4
 scf_env_do_scf_inner_loop            1  4.0    0.001    0.001    0.722    0.722       0
 generate_auto_ri_basis               1  7.0    0.000    0.000    0.717    0.717       1
 xc_rho_set_and_dset_create           1 10.0    0.025    0.036    0.651    0.703       2
 yz_to_x                             14 12.2    0.121    0.142    0.377    0.677       0
 compute_V_xc                         1  7.0    0.000    0.000    0.628    0.628       2
 grid_collocate_task_list             2  7.0    0.582    0.606    0.582    0.606       0
 setup_time_and_frequency_minim       1  7.0    0.000    0.000    0.370    0.601       0
 build_minimax_time_frequency_g       1  8.0    0.001    0.001    0.370    0.601       0
 fit_l_sq_weights                     3  9.0    0.369    0.599    0.369    0.599       3
 x_to_yz                             14 13.8    0.129    0.150    0.336    0.587       3
 sum_up_and_integrate                 2  8.5    0.000    0.000    0.541    0.568       4
 integrate_v_rspace                   2  9.5    0.000    0.000    0.534    0.562       4
 potential_pw2rs                      2 10.5    0.002    0.003    0.528    0.556       3
 dbcsr_multiply_generic             505  9.6    0.012    0.012    0.421    0.424       3
 compute_AA_optimized_RI_basis        1  8.0    0.000    0.000    0.421    0.421       1
 initialize_ri_rs_grid                1  8.0    0.042    0.082    0.264    0.404       0
 qs_ks_ddapc                          2  8.5    0.000    0.000    0.383    0.397       3
 initialize_auto_ri_integrals         2  9.0    0.072    0.360    0.360    0.361       0
 pw_poisson_solve                     2  8.5    0.001    0.006    0.330    0.345       4
 compute_Sigma_c_and_QP_energie       1  7.0    0.000    0.000    0.326    0.337       4
 compute_Sigma_c                      1  8.0    0.000    0.001    0.315    0.315       0
 qs_energies_init_hamiltonians        1  3.0    0.008    0.008    0.299    0.299       0
 sort_shells                          5  8.2    0.281    0.284    0.281    0.284       0
 create_qs_kind_set                   1  2.0    0.000    0.000    0.282    0.282       3
 read_qs_kind                         2  3.0    0.123    0.129    0.281    0.282       0
 contract_grid_panels_sigma_c        30  9.0    0.001    0.001    0.275    0.275       3
 qs_env_update_s_mstruct              1  4.0    0.001    0.001    0.275    0.275       2
 transfer_rs2pw                       9  7.8    0.000    0.000    0.209    0.244       2
 calculate_rho_core                   1  5.0    0.026    0.026    0.237    0.242       2
 pw_derive                           12 11.2    0.215    0.235    0.215    0.235       3
 pw_gather_p                         14 11.2    0.211    0.231    0.211    0.231       1
 pw_copy                             28 10.5    0.213    0.225    0.213    0.225       0
 pw_scatter_p                        14 12.8    0.209    0.224    0.209    0.224       3
 compute_W                            1  7.0    0.000    0.000    0.201    0.201       0
 transfer_rs2pw_300                   3  8.3    0.078    0.084    0.162    0.196       0
 multiply_cannon                    505 10.6    0.023    0.024    0.188    0.196       3
 pw_poisson_set                       3  8.3    0.000    0.000    0.181    0.196       3
 get_mat_chi_Gamma_tau                1  7.0    0.000    0.000    0.192    0.192       0
 contract_grid_panels                31  8.0    0.001    0.001    0.181    0.182       3
 transfer_pw2rs                       8 11.5    0.000    0.000    0.169    0.169       3
 rirs_grid_build_clusters             1  8.0    0.106    0.107    0.163    0.164       3
 parser_read_line                 72215  4.0    0.012    0.012    0.158    0.159       1
 fft_wrap_pw1pw2_100                  4 10.8    0.007    0.009    0.114    0.156       1
 make_m2s                          1010 10.6    0.007    0.007    0.150    0.153       3
 compute_AB_optimized_RI_basis        1  8.0    0.001    0.001    0.153    0.153       0
 compute_AB_optimized_RI_basis_       1  9.0    0.004    0.004    0.151    0.151       0
 parser_read_line_low                76  5.0    0.023    0.099    0.146    0.148       0
 pw_integral_ab_c1d_c1d_gs            4 10.0    0.134    0.139    0.140    0.147       1
 mp_waitany                          35 11.0    0.113    0.146    0.113    0.146       4
 broadcast_input_information         76  6.0    0.023    0.030    0.123    0.144       3
 compute_M_pq_inv_and_V_pq            1  8.0    0.000    0.000    0.143    0.143       0
 mp_sum_dm                           24 10.6    0.045    0.136    0.045    0.136       4
 multiply_cannon_loop               505 11.6    0.014    0.016    0.129    0.135       3
 compute_B_PQ_AB                      2 10.0    0.021    0.025    0.113    0.134       3
 make_images                       1010 11.6    0.026    0.029    0.129    0.131       3
 compute_contracted_RI_matrix         2  9.0    0.000    0.000    0.129    0.129       3
 cp_ddapc_apply_CD                    2  9.5    0.000    0.000    0.103    0.128       0
 transfer_pw2rs_300                   2 12.5    0.063    0.070    0.124    0.128       0
 compute_optimized_RI_matrix_bl       6 10.0    0.008    0.011    0.096    0.127       2
 compute_M_PQ_AB                    138 11.0    0.000    0.000    0.095    0.125       2
 compute_M_PQ                       138 12.0    0.000    0.000    0.095    0.125       2
 int_operators_r12_ab_os            138 13.0    0.000    0.000    0.095    0.125       2
 int_operator_ab_os_low             138 14.0    0.043    0.057    0.095    0.125       2
 xc_functional_eval                   1 11.0    0.000    0.000    0.083    0.123       4
 pbe_lda_eval                         1 12.0    0.083    0.123    0.083    0.123       2
 copy_dbcsr_to_fm                   104  9.5    0.001    0.001    0.064    0.115       3
 compute_fm_W_freq                   30  8.0    0.000    0.000    0.113    0.114       3
 parallel_gemm_fm_gemm              431  9.6    0.000    0.000    0.108    0.110       3
 cp_fm_gemm                         434 10.5    0.108    0.110    0.108    0.110       1
 cp_fm_get_submatrix                 20 10.0    0.000    0.000    0.023    0.108       4
 pw_axpy                             25  6.6    0.092    0.101    0.092    0.101       2
 mp_waitall_1                     20234 13.9    0.066    0.096    0.066    0.096       4
 dbcsr_desymmetrize_deep            104 10.5    0.001    0.001    0.041    0.093       3
 mp_alltoall_i22                    369 11.4    0.040    0.092    0.040    0.092       0
 contract_B_PQ                       10 11.8    0.065    0.084    0.071    0.092       0
 pw_copy_to_array                    14 11.2    0.087    0.091    0.087    0.091       0
 abc_contract_xsmm                 2883  9.2    0.076    0.088    0.076    0.088       0
 mp_bcast_i_src                     309  7.0    0.054    0.082    0.054    0.082       1
 pw_grid_assign                       5  7.2    0.077    0.079    0.079    0.079       1
 mp_bcast_am_src                     76  7.0    0.046    0.070    0.046    0.070       4
 dbcsr_finalize                    1972 10.8    0.010    0.011    0.062    0.070       3
 multiply_cannon_multrec           2525 12.6    0.061    0.065    0.064    0.067       4
 eval_pw_TabLR                        1  2.0    0.039    0.039    0.061    0.061       3
 pw_copy_from_array                  14 12.8    0.049    0.058    0.049    0.058       0
 get_ddapc                            2 10.5    0.000    0.000    0.032    0.058       0
 compute_B_PQ_transition              5 10.8    0.000    0.000    0.036    0.049       1
 compute_Z_lP                         1  7.0    0.000    0.000    0.049    0.049       4
 compute_Z_lP_auto_ri                 1  8.0    0.000    0.000    0.049    0.049       2
 compute_B_PQ_exchange                5 10.8    0.000    0.000    0.036    0.046       0
 transfer_rs2pw_100                   2  9.0    0.020    0.021    0.040    0.046       3
 transfer_pw2rs_100                   2 12.5    0.022    0.024    0.038    0.044       0
 compute_fm_chi_Gamma_freq           30  8.0    0.000    0.000    0.043    0.044       1
 compute_d_lp_auto_ri_batch           1  9.0    0.000    0.000    0.023    0.043       0
 compute_d_lp_auto_ri_atom            1 10.0    0.007    0.010    0.023    0.043       0
 dbcsr_complete_redistribute        265 10.4    0.010    0.010    0.038    0.039       3
 make_images_data                  1010 12.6    0.007    0.007    0.037    0.038       3
 pw_grid_remap                        4  8.0    0.011    0.011    0.024    0.038       1
 dbcsr_merge_all                   1703 11.8    0.022    0.024    0.034    0.037       3
 build_G_ao                         121  8.5    0.000    0.001    0.035    0.037       0
 operator2                        56454 15.0    0.028    0.036    0.028    0.036       2
 compute_B_PQ_AA                      5  9.0    0.001    0.006    0.033    0.036       0
 pw_zero                             25  4.7    0.030    0.035    0.030    0.035       2
 dbcsr_special_finalize            3030 12.6    0.007    0.008    0.031    0.035       3
 mp_sum_root_rm                       5 10.0    0.027    0.035    0.027    0.035       4
 cp_fm_cholesky_invert               31  9.0    0.031    0.033    0.031    0.033       3
 fft_wrap_pw1pw2_40                   4 10.8    0.001    0.001    0.019    0.032       3
 ab_contract                      57440 14.9    0.025    0.032    0.025    0.032       2
 dbcsr_add_d                        933  9.0    0.001    0.001    0.029    0.032       3
 -------------------------------------------------------------------------------

 The number of warnings for this run is : 1
 
 -------------------------------------------------------------------------------
  **** **** ******  **  PROGRAM ENDED AT                 2026-10-03 19:13:46.283
 ***** ** ***  *** **   PROGRAM RAN ON                                  n2cn0350
 **    ****   ******    PROGRAM RAN BY                                  eprop2d1
 ***** **    ** ** **   PROGRAM PROCESS ID                                917400
  **** **  *******  **  PROGRAM STOPPED IN /scratch/hpc-prf-metdyn/eprop2d1_Jan/
                                           53_benchmark_RI_opt/418_gw100_fig5_fu
                                           ll_epsfilter_1e12_20261002/calculatio
                                           ns/rc5p0/ri4_rs08/40_GeH4
