 DBCSR| CPU Multiplication driver                                           XSMM (U)
 DBCSR| Multrec recursion limit                                              512 (U)
 DBCSR| Multiplication stack size                                           1000 (D)
 DBCSR| Maximum elements for images                                    UNLIMITED (U)
 DBCSR| Multiplicative factor virtual images                                   1 (U)
 DBCSR| Use multiplication densification                                       T (D)
 DBCSR| Multiplication size stacks                                             3 (U)
 DBCSR| Use memory pool for CPU allocation                                     F (U)
 DBCSR| Number of 3D layers                                               SINGLE (U)
 DBCSR| Use MPI memory allocation                                              F (U)
 DBCSR| Use RMA algorithm                                                      F (U)
 DBCSR| Use Communication thread                                               T (U)
 DBCSR| Communication thread load                                             75 (D)
 DBCSR| MPI: My process id                                                     0
 DBCSR| MPI: Number of processes                                              32
 DBCSR| OMP: Current number of threads                                         4
 DBCSR| OMP: Max number of threads                                             4
 DBCSR| Split modifier for TAS multiplication algorithm                  1.0E+00 (U)


  **** **** ******  **  PROGRAM STARTED AT               2026-09-17 22:57:45.220
 ***** ** ***  *** **   PROGRAM STARTED ON                              n2cn0438
 **    ****   ******    PROGRAM STARTED BY                              eprop2d1
 ***** **    ** ** **   PROGRAM PROCESS ID                                146467
  **** **  *******  **  PROGRAM STARTED IN /scratch/hpc-prf-metdyn/eprop2d1_Jan/
                                           53_benchmark_RI_opt/129_GW100_Si293_A
                                           O_frontier_optimization_coopfst/follo
                                           wups/pbe_g0w0/gw100/76_H2O/szv_t2

 CP2K| version string:                 CP2K version 2026.2 (Development Version)
 CP2K| source code revision number:                                      d1dff42
 CP2K| cp2kflags: omp libint fftw3 libxc parallel scalapack openblas            
 CP2K| is freely available from                            https://www.cp2k.org/
 CP2K| Program compiled at                                   2026-09-17 17:57:35
 CP2K| Program compiled on                                              n2login6
 CP2K| Program compiled for                                               x86_64
 CP2K| Data directory path    /scratch/hpc-prf-metdyn/eprop2d1_Jan/53_benchmark_
 CP2K| Input file name        /scratch/hpc-prf-metdyn/eprop2d1_Jan/53_benchmark_

 GLOBAL| Force Environment number                                              1
 GLOBAL| Basis set file name            /scratch/hpc-prf-metdyn/eprop2d1_Jan/53_
 GLOBAL| Potential file name            /scratch/hpc-prf-metdyn/eprop2d1_Jan/53_
 GLOBAL| MM Potential file name                                     MM_POTENTIAL
 GLOBAL| Coordinate file name                                      __STD_INPUT__
 GLOBAL| Method name                                                        CP2K
 GLOBAL| Project name                                              gw129g_076_s2
 GLOBAL| Run type                                                         ENERGY
 GLOBAL| FFT library                                                       FFTW3
 GLOBAL| Diagonalization library                                       ScaLAPACK
 GLOBAL| Cholesky decomposition library                                ScaLAPACK
 GLOBAL| DGEMM library                                                      BLAS
 GLOBAL| Direct generalized diagonalization requested                          F
 GLOBAL| Orthonormality check for eigenvectors                          DISABLED
 GLOBAL| Matrix multiplication library                                 ScaLAPACK
 GLOBAL| All-to-all communication in single precision                          F
 GLOBAL| Grid backend                                                       AUTO
 GLOBAL| Global print level                                               MEDIUM
 GLOBAL| MPI I/O enabled                                                       T
 GLOBAL| Total number of message passing processes                            32
 GLOBAL| Number of distributed systems (nodes)                                 1
 GLOBAL| Number of threads for this process                                    4
 GLOBAL| This output is from process                                           0
 GLOBAL| OpenMP stack size per thread (OMP_STACKSIZE)                       512M
 GLOBAL| CPU model name                          AMD EPYC 7763 64-Core Processor

 MEMORY| system memory details [Kb]
 MEMORY|                        rank 0           min           max       average
 MEMORY| MemTotal            263897580     263897580     263897580     263897580
 MEMORY| MemFree             245223072     245223040     245223072     245223063
 MEMORY| Buffers                386132        386132        386132        386132
 MEMORY| Cached                8275660       8275660       8275660       8275660
 MEMORY| Slab                  1199456       1199456       1199456       1199456
 MEMORY| SReclaimable           229636        229636        229636        229636
 MEMORY| MemLikelyFree       254114500     254114468     254114500     254114491


 *** Fundamental physical constants (SI units) ***

 *** Literature: B. J. Mohr and B. N. Taylor,
 ***             CODATA recommended values of the fundamental physical
 ***             constants: 2006, Web Version 5.1
 ***             http://physics.nist.gov/constants

 Speed of light in vacuum [m/s]                             2.99792458000000E+08
 Magnetic constant or permeability of vacuum [N/A**2]       1.25663706143592E-06
 Electric constant or permittivity of vacuum [F/m]          8.85418781762039E-12
 Planck constant (h) [J*s]                                  6.62606896000000E-34
 Planck constant (h-bar) [J*s]                              1.05457162825177E-34
 Elementary charge [C]                                      1.60217648700000E-19
 Electron mass [kg]                                         9.10938215000000E-31
 Electron g factor [ ]                                     -2.00231930436220E+00
 Proton mass [kg]                                           1.67262163700000E-27
 Fine-structure constant                                    7.29735253760000E-03
 Rydberg constant [1/m]                                     1.09737315685270E+07
 Avogadro constant [1/mol]                                  6.02214179000000E+23
 Boltzmann constant [J/K]                                   1.38065040000000E-23
 Atomic mass unit [kg]                                      1.66053878200000E-27
 Bohr radius [m]                                            5.29177208590000E-11

 *** Conversion factors ***

 [u] -> [a.u.]                                              1.82288848426455E+03
 [Angstrom] -> [Bohr] = [a.u.]                              1.88972613288564E+00
 [a.u.] = [Bohr] -> [Angstrom]                              5.29177208590000E-01
 [a.u.] -> [s]                                              2.41888432650478E-17
 [a.u.] -> [fs]                                             2.41888432650478E-02
 [a.u.] -> [J]                                              4.35974393937059E-18
 [a.u.] -> [N]                                              8.23872205491840E-08
 [a.u.] -> [K]                                              3.15774647902944E+05
 [a.u.] -> [kJ/mol]                                         2.62549961709828E+03
 [a.u.] -> [kcal/mol]                                       6.27509468713739E+02
 [a.u.] -> [Pa]                                             2.94210107994716E+13
 [a.u.] -> [bar]                                            2.94210107994716E+08
 [a.u.] -> [atm]                                            2.90362800883016E+08
 [a.u.] -> [eV]                                             2.72113838565563E+01
 [a.u.] -> [Hz]                                             6.57968392072181E+15
 [a.u.] -> [1/cm] (wave numbers)                            2.19474631370540E+05
 [a.u./Bohr**2] -> [1/cm]                                   5.14048714338585E+03
 

 CELL| Volume [angstrom^3]:                                          8000.000000
 CELL| Vector a [angstrom]:      20.000     0.000     0.000   |a| =    20.000000
 CELL| Vector b [angstrom]:       0.000    20.000     0.000   |b| =    20.000000
 CELL| Vector c [angstrom]:       0.000     0.000    20.000   |c| =    20.000000
 CELL| Angle (b,c), alpha [degree]:                                    90.000000
 CELL| Angle (a,c), beta  [degree]:                                    90.000000
 CELL| Angle (a,b), gamma [degree]:                                    90.000000
 CELL| Numerically orthorhombic:                                             YES
 CELL| Periodicity                                                          NONE

 CELL_REF| Volume [angstrom^3]:                                      8000.000000
 CELL_REF| Vector a [angstrom    20.000     0.000     0.000   |a| =    20.000000
 CELL_REF| Vector b [angstrom     0.000    20.000     0.000   |b| =    20.000000
 CELL_REF| Vector c [angstrom     0.000     0.000    20.000   |c| =    20.000000
 CELL_REF| Angle (b,c), alpha [degree]:                                90.000000
 CELL_REF| Angle (a,c), beta  [degree]:                                90.000000
 CELL_REF| Angle (a,b), gamma [degree]:                                90.000000
 CELL_REF| Numerically orthorhombic:                                         YES
 CELL_REF| Periodicity                                                      NONE

 GENERATE|  Preliminary Number of Bonds generated:                             0
 GENERATE|  Achieved consistency in connectivity generation.

 PW_GRID| Information for grid number                                          1
 PW_GRID| Cutoff [a.u.]                                                      8.0
 PW_GRID| spherical cutoff:                                                   NO
 PW_GRID|   Bounds   1              0      49                Points:          50
 PW_GRID|   Bounds   2              0      49                Points:          50
 PW_GRID|   Bounds   3              0      49                Points:          50
 PW_GRID| Volume element (a.u.^3)  0.4319         Volume (a.u.^3)     53986.6767
 PW_GRID| Grid span                                                    HALFSPACE

 *******************************************************************************
 *******************************************************************************
 **                                                                           **
 **     #####                         ##              ##                      **
 **    ##   ##            ##          ##              ##                      **
 **   ##     ##                       ##            ######                    **
 **   ##     ##  ##   ##  ##   #####  ##  ##   ####   ##    #####    #####    **
 **   ##     ##  ##   ##  ##  ##      ## ##   ##      ##   ##   ##  ##   ##   **
 **   ##  ## ##  ##   ##  ##  ##      ####     ###    ##   ######   ######    **
 **    ##  ###   ##   ##  ##  ##      ## ##      ##   ##   ##       ##        **
 **     #######   #####   ##   #####  ##  ##  ####    ##    #####   ##        **
 **           ##                                                    ##        **
 **                                                                           **
 **                                                ... make the atoms dance   **
 **                                                                           **
 **            Copyright (C) by CP2K developers group (2000-2026)             **
 **                      J. Chem. Phys. 152, 194103 (2020)                    **
 **                                                                           **
 *******************************************************************************

 DFT| Spin restricted Kohn-Sham (RKS) calculation                            RKS
 DFT| Multiplicity                                                             1
 DFT| Number of spin states                                                    1
 DFT| Charge                                                                   0
 DFT| Self-interaction correction (SIC)                                       NO
 DFT| Cutoffs: density                                              1.000000E-10
 DFT|          gradient                                             1.000000E-10
 DFT|          tau                                                  1.000000E-10
 DFT|          cutoff_smoothing_range                               0.000000E+00
 DFT| XC density smoothing                                                  NONE
 DFT| XC derivatives                                                          PW

 FUNCTIONAL| PBE:
 FUNCTIONAL| J.P.Perdew, K.Burke, M.Ernzerhof, Phys. Rev. Letter, vol. 77, n 18,
 FUNCTIONAL|  pp. 3865-3868, (1996) {spin unpolarized}                          


 QS| Method:                                                                 GPW
 QS| Density plane wave grid type                        NON-SPHERICAL FULLSPACE
 QS| Number of grid levels:                                                    5
 QS| Density cutoff [a.u.]:                                                300.0
 QS| Multi grid cutoff [a.u.]: 1) grid level                               300.0
 QS|                           2) grid level                               100.0
 QS|                           3) grid level                                33.3
 QS|                           4) grid level                                11.1
 QS|                           5) grid level                                 3.7
 QS| Grid level progression factor:                                          3.0
 QS| Relative density cutoff [a.u.]:                                        30.0
 QS| Interaction thresholds: eps_pgf_orb:                                1.0E-12
 QS|                         eps_filter_matrix:                          0.0E+00
 QS|                         eps_core_charge:                            1.0E-14
 QS|                         eps_rho_gspace:                             1.0E-12
 QS|                         eps_rho_rspace:                             1.0E-12
 QS|                         eps_gvg_rspace:                             1.0E-06
 QS|                         eps_ppl:                                    1.0E-02
 QS|                         eps_ppnl:                                   1.0E-08


 ATOMIC KIND INFORMATION

  1. Atomic kind: O                                     Number of atoms:       1

     Orbital Basis Set                               AUG-SZV-MOLOPT-GTH-TIER-2_3

       Number of orbital shell sets:                                           1
       Number of orbital shells:                                               5
       Number of primitive Cartesian functions:                                6
       Number of Cartesian basis functions:                                   14
       Number of spherical basis functions:                                   13
       Norm type:                                                              2

       Normalised Cartesian orbitals:

                        Set   Shell   Orbital            Exponent    Coefficient

                          1       1    2s                0.090000       0.000000
                                                         0.162492      -0.033677
                                                         0.496955      -0.274061
                                                         1.388401      -0.301641
                                                         3.849621       0.208811
                                                        10.389228       0.396646

                          1       2    3s                0.090000      -0.042811
                                                         0.162492      -0.123103
                                                         0.496955      -0.069732
                                                         1.388401       0.531909
                                                         3.849621      -0.617846
                                                        10.389228      -0.227024

                          1       3    3px               0.090000       0.000000
                                                         0.162492      -0.035541
                                                         0.496955      -0.253695
                                                         1.388401      -0.761951
                                                         3.849621      -1.371928
                                                        10.389228      -1.530415
                          1       3    3py               0.090000       0.000000
                                                         0.162492      -0.035541
                                                         0.496955      -0.253695
                                                         1.388401      -0.761951
                                                         3.849621      -1.371928
                                                        10.389228      -1.530415
                          1       3    3pz               0.090000       0.000000
                                                         0.162492      -0.035541
                                                         0.496955      -0.253695
                                                         1.388401      -0.761951
                                                         3.849621      -1.371928
                                                        10.389228      -1.530415

                          1       4    4px               0.090000       0.010796
                                                         0.162492       0.002401
                                                         0.496955       0.438930
                                                         1.388401      -1.322496
                                                         3.849621      -4.006427
                                                        10.389228      -3.397477
                          1       4    4py               0.090000       0.010796
                                                         0.162492       0.002401
                                                         0.496955       0.438930
                                                         1.388401      -1.322496
                                                         3.849621      -4.006427
                                                        10.389228      -3.397477
                          1       4    4pz               0.090000       0.010796
                                                         0.162492       0.002401
                                                         0.496955       0.438930
                                                         1.388401      -1.322496
                                                         3.849621      -4.006427
                                                        10.389228      -3.397477

                          1       5    4dx2              0.090000       0.031893
                                                         0.162492      -0.028974
                                                         0.496955       0.068838
                                                         1.388401      -0.164338
                                                         3.849621       0.025716
                                                        10.389228       3.400164
                          1       5    4dxy              0.090000       0.055240
                                                         0.162492      -0.050184
                                                         0.496955       0.119231
                                                         1.388401      -0.284642
                                                         3.849621       0.044541
                                                        10.389228       5.889257
                          1       5    4dxz              0.090000       0.055240
                                                         0.162492      -0.050184
                                                         0.496955       0.119231
                                                         1.388401      -0.284642
                                                         3.849621       0.044541
                                                        10.389228       5.889257
                          1       5    4dy2              0.090000       0.031893
                                                         0.162492      -0.028974
                                                         0.496955       0.068838
                                                         1.388401      -0.164338
                                                         3.849621       0.025716
                                                        10.389228       3.400164
                          1       5    4dyz              0.090000       0.055240
                                                         0.162492      -0.050184
                                                         0.496955       0.119231
                                                         1.388401      -0.284642
                                                         3.849621       0.044541
                                                        10.389228       5.889257
                          1       5    4dz2              0.090000       0.031893
                                                         0.162492      -0.028974
                                                         0.496955       0.068838
                                                         1.388401      -0.164338
                                                         3.849621       0.025716
                                                        10.389228       3.400164

     RI Auxiliary Basis Set             RI_aug-SZV-MOLOPT-GTH-tier-2_N_RI_097_s_

       Number of orbital shell sets:                                          25
       Number of orbital shells:                                              25
       Number of primitive Cartesian functions:                               25
       Number of Cartesian basis functions:                                  121
       Number of spherical basis functions:                                   97
       Norm type:                                                              2

       Normalised Cartesian orbitals:

                        Set   Shell   Orbital            Exponent    Coefficient

                          1       1    1s                0.225000       0.232834

                          2       1    2s                0.464042       0.400708

                          3       1    3s                0.957045       0.689619

                          4       1    4s                1.973819       1.186836

                          5       1    5s                4.070823       2.042545

                          6       1    6s                8.395704       3.515223

                          7       1    7s               17.315380       6.049704

                          8       1    8px               0.225000       0.220886
                          8       1    8py               0.225000       0.220886
                          8       1    8pz               0.225000       0.220886

                          9       1    9px               0.536330       0.654230
                          9       1    9py               0.536330       0.654230
                          9       1    9pz               0.536330       0.654230

                         10       1   10px               1.278446       1.937729
                         10       1   10py               1.278446       1.937729
                         10       1   10pz               1.278446       1.937729

                         11       1   11px               3.047419       5.739253
                         11       1   11py               3.047419       5.739253
                         11       1   11pz               3.047419       5.739253

                         12       1   12px               7.264105      16.998780
                         12       1   12py               7.264105      16.998780
                         12       1   12pz               7.264105      16.998780

                         13       1   13px              17.315380      50.347756
                         13       1   13py              17.315380      50.347756
                         13       1   13pz              17.315380      50.347756

                         14       1   14dx2              0.225000       0.120984
                         14       1   14dxy              0.225000       0.209551
                         14       1   14dxz              0.225000       0.209551
                         14       1   14dy2              0.225000       0.120984
                         14       1   14dyz              0.225000       0.209551
                         14       1   14dz2              0.225000       0.120984

                         15       1   15dx2              0.536330       0.553243
                         15       1   15dxy              0.536330       0.958246
                         15       1   15dxz              0.536330       0.958246
                         15       1   15dy2              0.536330       0.553243
                         15       1   15dyz              0.536330       0.958246
                         15       1   15dz2              0.536330       0.553243

                         16       1   16dx2              1.278446       2.529901
                         16       1   16dxy              1.278446       4.381917
                         16       1   16dxz              1.278446       4.381917
                         16       1   16dy2              1.278446       2.529901
                         16       1   16dyz              1.278446       4.381917
                         16       1   16dz2              1.278446       2.529901

                         17       1   17dx2              3.047419      11.568868
                         17       1   17dxy              3.047419      20.037866
                         17       1   17dxz              3.047419      20.037866
                         17       1   17dy2              3.047419      11.568868
                         17       1   17dyz              3.047419      20.037866
                         17       1   17dz2              3.047419      11.568868

                         18       1   18dx2              7.264105      52.902741
                         18       1   18dxy              7.264105      91.630236
                         18       1   18dxz              7.264105      91.630236
                         18       1   18dy2              7.264105      52.902741
                         18       1   18dyz              7.264105      91.630236
                         18       1   18dz2              7.264105      52.902741

                         19       1   19dx2             17.315380     241.916508
                         19       1   19dxy             17.315380     419.011683
                         19       1   19dxz             17.315380     419.011683
                         19       1   19dy2             17.315380     241.916508
                         19       1   19dyz             17.315380     419.011683
                         19       1   19dz2             17.315380     241.916508

                         20       1   20fx3              0.225000       0.051329
                         20       1   20fx2y             0.225000       0.114776
                         20       1   20fx2z             0.225000       0.114776
                         20       1   20fxy2             0.225000       0.114776
                         20       1   20fxyz             0.225000       0.198797
                         20       1   20fxz2             0.225000       0.114776
                         20       1   20fy3              0.225000       0.051329
                         20       1   20fy2z             0.225000       0.114776
                         20       1   20fyz2             0.225000       0.114776
                         20       1   20fz3              0.225000       0.051329

                         21       1   21fx3              0.536330       0.362391
                         21       1   21fx2y             0.536330       0.810331
                         21       1   21fx2z             0.536330       0.810331
                         21       1   21fxy2             0.536330       0.810331
                         21       1   21fxyz             0.536330       1.403534
                         21       1   21fxz2             0.536330       0.810331
                         21       1   21fy3              0.536330       0.362391
                         21       1   21fy2z             0.536330       0.810331
                         21       1   21fyz2             0.536330       0.810331
                         21       1   21fz3              0.536330       0.362391

                         22       1   22fx3              1.278446       2.558525
                         22       1   22fx2y             1.278446       5.721036
                         22       1   22fx2z             1.278446       5.721036
                         22       1   22fxy2             1.278446       5.721036
                         22       1   22fxyz             1.278446       9.909125
                         22       1   22fxz2             1.278446       5.721036
                         22       1   22fy3              1.278446       2.558525
                         22       1   22fy2z             1.278446       5.721036
                         22       1   22fyz2             1.278446       5.721036
                         22       1   22fz3              1.278446       2.558525

                         23       1   23fx3              3.047419      18.063502
                         23       1   23fx2y             3.047419      40.391219
                         23       1   23fx2z             3.047419      40.391219
                         23       1   23fxy2             3.047419      40.391219
                         23       1   23fxyz             3.047419      69.959643
                         23       1   23fxz2             3.047419      40.391219
                         23       1   23fy3              3.047419      18.063502
                         23       1   23fy2z             3.047419      40.391219
                         23       1   23fyz2             3.047419      40.391219
                         23       1   23fz3              3.047419      18.063502

                         24       1   24fx3              7.264105     127.530550
                         24       1   24fx2y             7.264105     285.166979
                         24       1   24fx2z             7.264105     285.166979
                         24       1   24fxy2             7.264105     285.166979
                         24       1   24fxyz             7.264105     493.923696
                         24       1   24fxz2             7.264105     285.166979
                         24       1   24fy3              7.264105     127.530550
                         24       1   24fy2z             7.264105     285.166979
                         24       1   24fyz2             7.264105     285.166979
                         24       1   24fz3              7.264105     127.530550

                         25       1   25fx3             17.315380     900.381394
                         25       1   25fx2y            17.315380    2013.314003
                         25       1   25fx2z            17.315380    2013.314003
                         25       1   25fxy2            17.315380    2013.314003
                         25       1   25fxyz            17.315380    3487.162145
                         25       1   25fxz2            17.315380    2013.314003
                         25       1   25fy3             17.315380     900.381394
                         25       1   25fy2z            17.315380    2013.314003
                         25       1   25fyz2            17.315380    2013.314003
                         25       1   25fz3             17.315380     900.381394

       Atomic covalent radius [Angstrom]:                                  0.730

       Atomic van der Waals radius [Angstrom]:                             1.520

     GTH Potential information for                                       GTH-PBE

       Description:                       Goedecker-Teter-Hutter pseudopotential
                                           Goedecker et al., PRB 54, 1703 (1996)
                                          Hartwigsen et al., PRB 58, 3641 (1998)
                                                      Krack, TCA 114, 145 (2005)

       Gaussian exponent of the core charge distribution:               8.360253
       Electronic configuration (s p d ...):                               2   4

       Parameters of the local part of the GTH pseudopotential:

                          rloc        C1          C2          C3          C4
                        0.244554  -16.667215    2.487311

       Parameters of the non-local part of the GTH pseudopotential:

                   l      r(l)      h(i,j,l)

                   0    0.220956   18.337458
                   1    0.211332

  2. Atomic kind: H                                     Number of atoms:       2

     Orbital Basis Set                               AUG-SZV-MOLOPT-GTH-TIER-2_3

       Number of orbital shell sets:                                           1
       Number of orbital shells:                                               4
       Number of primitive Cartesian functions:                                7
       Number of Cartesian basis functions:                                    6
       Number of spherical basis functions:                                    6
       Norm type:                                                              2

       Normalised Cartesian orbitals:

                        Set   Shell   Orbital            Exponent    Coefficient

                          1       1    2s                0.050000       0.000000
                                                         0.082193      -0.014019
                                                         0.239116      -0.107525
                                                         0.450000       0.000000
                                                         0.791502      -0.258419
                                                         2.680223      -0.177618
                                                        10.068468      -0.133023

                          1       2    3s                0.050000       0.065088
                                                         0.082193       0.029185
                                                         0.239116      -0.008080
                                                         0.450000      -0.090954
                                                         0.791502      -0.026968
                                                         2.680223      -0.000812
                                                        10.068468      -0.000609

                          1       3    4s                0.050000      -0.064659
                                                         0.082193       0.227916
                                                         0.239116      -0.078216
                                                         0.450000      -0.273996
                                                         0.791502      -0.160749
                                                         2.680223      -0.111469
                                                        10.068468      -0.038000

                          1       4    3px               0.050000       0.070350
                                                         0.082193      -0.089879
                                                         0.239116       0.145397
                                                         0.450000      -0.345455
                                                         0.791502       0.352152
                                                         2.680223      -0.325096
                                                        10.068468       0.087955
                          1       4    3py               0.050000       0.070350
                                                         0.082193      -0.089879
                                                         0.239116       0.145397
                                                         0.450000      -0.345455
                                                         0.791502       0.352152
                                                         2.680223      -0.325096
                                                        10.068468       0.087955
                          1       4    3pz               0.050000       0.070350
                                                         0.082193      -0.089879
                                                         0.239116       0.145397
                                                         0.450000      -0.345455
                                                         0.791502       0.352152
                                                         2.680223      -0.325096
                                                        10.068468       0.087955

     RI Auxiliary Basis Set             RI_aug-SZV-MOLOPT-GTH-tier-2_N_RI_050_s_

       Number of orbital shell sets:                                          18
       Number of orbital shells:                                              18
       Number of primitive Cartesian functions:                               18
       Number of Cartesian basis functions:                                   55
       Number of spherical basis functions:                                   50
       Norm type:                                                              2

       Normalised Cartesian orbitals:

                        Set   Shell   Orbital            Exponent    Coefficient

                          1       1    1s                0.125000       0.149828

                          2       1    2s                0.282853       0.276427

                          3       1    3s                0.640045       0.509998

                          4       1    4s                1.448309       0.940927

                          5       1    5s                3.277264       1.735976

                          6       1    6s                7.415865       3.202812

                          7       1    7s               16.780780       5.909071

                          8       1    8px               0.125000       0.105944
                          8       1    8py               0.125000       0.105944
                          8       1    8pz               0.125000       0.105944

                          9       1    9px               0.333035       0.360623
                          9       1    9py               0.333035       0.360623
                          9       1    9pz               0.333035       0.360623

                         10       1   10px               0.887301       1.227520
                         10       1   10py               0.887301       1.227520
                         10       1   10pz               0.887301       1.227520

                         11       1   11px               2.364021       4.178344
                         11       1   11py               2.364021       4.178344
                         11       1   11pz               2.364021       4.178344

                         12       1   12px               6.298422      14.222625
                         12       1   12py               6.298422      14.222625
                         12       1   12pz               6.298422      14.222625

                         13       1   13px              16.780780      48.412251
                         13       1   13py              16.780780      48.412251
                         13       1   13pz              16.780780      48.412251

                         14       1   14dx2              0.125000       0.043252
                         14       1   14dxy              0.125000       0.074914
                         14       1   14dxz              0.125000       0.074914
                         14       1   14dy2              0.125000       0.043252
                         14       1   14dyz              0.125000       0.074914
                         14       1   14dz2              0.125000       0.043252

                         15       1   15dx2              0.425486       0.368943
                         15       1   15dxy              0.425486       0.639028
                         15       1   15dxz              0.425486       0.639028
                         15       1   15dy2              0.425486       0.368943
                         15       1   15dyz              0.425486       0.639028
                         15       1   15dz2              0.425486       0.368943

                         16       1   16dx2              1.448309       3.147142
                         16       1   16dxy              1.448309       5.451010
                         16       1   16dxz              1.448309       5.451010
                         16       1   16dy2              1.448309       3.147142
                         16       1   16dyz              1.448309       5.451010
                         16       1   16dz2              1.448309       3.147142

                         17       1   17dx2              4.929883      26.845626
                         17       1   17dxy              4.929883      46.497989
                         17       1   17dxz              4.929883      46.497989
                         17       1   17dy2              4.929883      26.845626
                         17       1   17dyz              4.929883      46.497989
                         17       1   17dz2              4.929883      26.845626

                         18       1   18dx2             16.780780     228.997491
                         18       1   18dxy             16.780780     396.635290
                         18       1   18dxz             16.780780     396.635290
                         18       1   18dy2             16.780780     228.997491
                         18       1   18dyz             16.780780     396.635290
                         18       1   18dz2             16.780780     228.997491

       Atomic covalent radius [Angstrom]:                                  0.320

       Atomic van der Waals radius [Angstrom]:                             1.090

     GTH Potential information for                                       GTH-PBE

       Description:                       Goedecker-Teter-Hutter pseudopotential
                                           Goedecker et al., PRB 54, 1703 (1996)
                                          Hartwigsen et al., PRB 58, 3641 (1998)
                                                      Krack, TCA 114, 145 (2005)

       Gaussian exponent of the core charge distribution:              12.500000
       Electronic configuration (s p d ...):                                   1

       Parameters of the local part of the GTH pseudopotential:

                          rloc        C1          C2          C3          C4
                        0.200000   -4.178900    0.724463


 MOLECULE KIND INFORMATION


 All atoms are their own molecule, skipping detailed information


 TOTAL NUMBERS AND MAXIMUM NUMBERS

  Total number of            - Atomic kinds:                                   2
                             - Atoms:                                          3
                             - Shell sets:                                     3
                             - Shells:                                        13
                             - Primitive Cartesian functions:                 20
                             - Cartesian basis functions:                     26
                             - Spherical basis functions:                     25

  Maximum angular momentum of- Orbital basis functions:                        2
                             - Local part of the GTH pseudopotential:          2
                             - Non-local part of the GTH pseudopotential:      0


 MODULE QUICKSTEP: ATOMIC COORDINATES IN ANGSTROM

   Atom Kind Element         X             Y             Z       Z(eff)     Mass
      1    1 O     8     10.000000     10.000000      9.706950   6.0000  15.9994
      2    2 H     1     10.757100     10.000000     10.293050   1.0000   1.0079
      3    2 H     1      9.242900     10.000000     10.293050   1.0000   1.0079



 SCF PARAMETERS         Density guess:                                    ATOMIC
                        --------------------------------------------------------
                        max_scf:                                             200
                        max_scf_history:                                       0
                        max_diis:                                              4
                        --------------------------------------------------------
                        eps_scf:                                        1.00E-07
                        eps_scf_history:                                0.00E+00
                        eps_diis:                                       1.00E-01
                        eps_eigval:                                     1.00E-05
                        --------------------------------------------------------
                        level_shift [a.u.]:                             0.000000
                        SCF update method:                                MIXING
                        added MOs                                        21    0
                        --------------------------------------------------------
                        Mixing method:                            BROYDEN_MIXING
                                                charge density mixing in g-space
                        --------------------------------------------------------
                        Outer loop SCF in use 
                        No variables optimised in outer loop
                        eps_scf                                         1.00E-07
                        max_scf                                               20
                        No outer loop optimization
                        step_size                                       5.00E-01

 PW_GRID| Information for grid number                                          2
 PW_GRID| Grid distributed over                                    32 processors
 PW_GRID| Real space group dimensions                                    32    1
 PW_GRID| the grid is blocked:                                                NO
 PW_GRID| Cutoff [a.u.]                                                    300.0
 PW_GRID| spherical cutoff:                                                   NO
 PW_GRID|   Bounds   1           -150     149                Points:         300
 PW_GRID|   Bounds   2           -150     149                Points:         300
 PW_GRID|   Bounds   3           -150     149                Points:         300
 PW_GRID| Volume element (a.u.^3)  0.2000E-02     Volume (a.u.^3)     53986.6767
 PW_GRID| Grid span                                                    FULLSPACE
 PW_GRID|   Distribution                         Average         Max         Min
 PW_GRID|   G-Vectors                           843750.0      843900      843600
 PW_GRID|   G-Rays                                2812.5        2813        2812
 PW_GRID|   Real Space Points                   843750.0      900000      810000

 PW_GRID| Information for grid number                                          3
 PW_GRID| Number of the reference grid                                         2
 PW_GRID| Grid distributed over                                    32 processors
 PW_GRID| Real space group dimensions                                    32    1
 PW_GRID| the grid is blocked:                                                NO
 PW_GRID| Cutoff [a.u.]                                                    100.0
 PW_GRID| spherical cutoff:                                                   NO
 PW_GRID|   Bounds   1            -90      89                Points:         180
 PW_GRID|   Bounds   2            -90      89                Points:         180
 PW_GRID|   Bounds   3            -90      89                Points:         180
 PW_GRID| Volume element (a.u.^3)  0.9257E-02     Volume (a.u.^3)     53986.6767
 PW_GRID| Grid span                                                    FULLSPACE
 PW_GRID|   Distribution                         Average         Max         Min
 PW_GRID|   G-Vectors                           182250.0      182520      181980
 PW_GRID|   G-Rays                                1012.5        1014        1011
 PW_GRID|   Real Space Points                   182250.0      194400      162000

 PW_GRID| Information for grid number                                          4
 PW_GRID| Number of the reference grid                                         2
 PW_GRID| Grid distributed over                                    32 processors
 PW_GRID| Real space group dimensions                                    32    1
 PW_GRID| the grid is blocked:                                                NO
 PW_GRID| Cutoff [a.u.]                                                     33.3
 PW_GRID| spherical cutoff:                                                   NO
 PW_GRID|   Bounds   1            -50      49                Points:         100
 PW_GRID|   Bounds   2            -50      49                Points:         100
 PW_GRID|   Bounds   3            -50      49                Points:         100
 PW_GRID| Volume element (a.u.^3)  0.5399E-01     Volume (a.u.^3)     53986.6767
 PW_GRID| Grid span                                                    FULLSPACE
 PW_GRID|   Distribution                         Average         Max         Min
 PW_GRID|   G-Vectors                            31250.0       31500       31000
 PW_GRID|   G-Rays                                 312.5         315         310
 PW_GRID|   Real Space Points                    31250.0       40000       30000

 PW_GRID| Information for grid number                                          5
 PW_GRID| Number of the reference grid                                         2
 PW_GRID| Grid distributed over                                    32 processors
 PW_GRID| Real space group dimensions                                    32    1
 PW_GRID| the grid is blocked:                                                NO
 PW_GRID| Cutoff [a.u.]                                                     11.1
 PW_GRID| spherical cutoff:                                                   NO
 PW_GRID|   Bounds   1            -30      29                Points:          60
 PW_GRID|   Bounds   2            -30      29                Points:          60
 PW_GRID|   Bounds   3            -30      29                Points:          60
 PW_GRID| Volume element (a.u.^3)  0.2499         Volume (a.u.^3)     53986.6767
 PW_GRID| Grid span                                                    FULLSPACE
 PW_GRID|   Distribution                         Average         Max         Min
 PW_GRID|   G-Vectors                             6750.0        6780        6720
 PW_GRID|   G-Rays                                 112.5         113         112
 PW_GRID|   Real Space Points                     6750.0        7200        3600

 PW_GRID| Information for grid number                                          6
 PW_GRID| Number of the reference grid                                         2
 PW_GRID| Grid distributed over                                    32 processors
 PW_GRID| Real space group dimensions                                    32    1
 PW_GRID| the grid is blocked:                                                NO
 PW_GRID| Cutoff [a.u.]                                                      3.7
 PW_GRID| spherical cutoff:                                                   NO
 PW_GRID|   Bounds   1            -18      17                Points:          36
 PW_GRID|   Bounds   2            -18      17                Points:          36
 PW_GRID|   Bounds   3            -18      17                Points:          36
 PW_GRID| Volume element (a.u.^3)   1.157         Volume (a.u.^3)     53986.6767
 PW_GRID| Grid span                                                    FULLSPACE
 PW_GRID|   Distribution                         Average         Max         Min
 PW_GRID|   G-Vectors                             1458.0        1548        1368
 PW_GRID|   G-Rays                                  40.5          43          38
 PW_GRID|   Real Space Points                     1458.0        2592        1296

 POISSON| Solver                                             MULTIPOLE (Bloechl)
 POISSON| Periodicity                                                       NONE

 RS_GRID| Information for grid number                                          2
 RS_GRID|   Bounds   1           -150     149                Points:         300
 RS_GRID|   Bounds   2           -150     149                Points:         300
 RS_GRID|   Bounds   3           -150     149                Points:         300
 RS_GRID| Real space distribution over                                  2 groups
 RS_GRID| Real space distribution along direction                              1
 RS_GRID| Border size                                                         26
 RS_GRID| Real space distribution over                                  4 groups
 RS_GRID| Real space distribution along direction                              2
 RS_GRID| Border size                                                         26
 RS_GRID| Real space distribution over                                  4 groups
 RS_GRID| Real space distribution along direction                              3
 RS_GRID| Border size                                                         26
 RS_GRID|   Distribution                         Average         Max         Min
 RS_GRID|   Planes                                 202.0         202         202
 RS_GRID|   Distribution                         Average         Max         Min
 RS_GRID|   Planes                                 127.0         127         127
 RS_GRID|   Distribution                         Average         Max         Min
 RS_GRID|   Planes                                 127.0         127         127

 RS_GRID| Information for grid number                                          3
 RS_GRID|   Bounds   1            -90      89                Points:         180
 RS_GRID|   Bounds   2            -90      89                Points:         180
 RS_GRID|   Bounds   3            -90      89                Points:         180
 RS_GRID| Real space distribution over                                  2 groups
 RS_GRID| Real space distribution along direction                              1
 RS_GRID| Border size                                                         27
 RS_GRID| Real space distribution over                                  4 groups
 RS_GRID| Real space distribution along direction                              2
 RS_GRID| Border size                                                         27
 RS_GRID| Real space distribution over                                  4 groups
 RS_GRID| Real space distribution along direction                              3
 RS_GRID| Border size                                                         27
 RS_GRID|   Distribution                         Average         Max         Min
 RS_GRID|   Planes                                 144.0         144         144
 RS_GRID|   Distribution                         Average         Max         Min
 RS_GRID|   Planes                                  99.0          99          99
 RS_GRID|   Distribution                         Average         Max         Min
 RS_GRID|   Planes                                  99.0          99          99

 RS_GRID| Information for grid number                                          4
 RS_GRID|   Bounds   1            -50      49                Points:         100
 RS_GRID|   Bounds   2            -50      49                Points:         100
 RS_GRID|   Bounds   3            -50      49                Points:         100
 RS_GRID| Real space fully replicated
 RS_GRID| Group size                                                           1

 RS_GRID| Information for grid number                                          5
 RS_GRID|   Bounds   1            -30      29                Points:          60
 RS_GRID|   Bounds   2            -30      29                Points:          60
 RS_GRID|   Bounds   3            -30      29                Points:          60
 RS_GRID| Real space fully replicated
 RS_GRID| Group size                                                           1

 RS_GRID| Information for grid number                                          6
 RS_GRID|   Bounds   1            -18      17                Points:          36
 RS_GRID|   Bounds   2            -18      17                Points:          36
 RS_GRID|   Bounds   3            -18      17                Points:          36
 RS_GRID| Real space fully replicated
 RS_GRID| Group size                                                           1

 Extrapolation method: initial_guess

 Atomic guess: The first density matrix is obtained in terms of atomic orbitals
               and electronic configurations assigned to each atomic kind

 Guess for atomic kind: O

 Electronic structure
    Total number of core electrons                                          2.00
    Total number of valence electrons                                       6.00
    Total number of electrons                                               8.00
    Multiplicity                                                   not specified
    S   [  2.00] 2.00
    P      4.00


 *******************************************************************************
                  Iteration          Convergence                     Energy [au]
 *******************************************************************************
                          1        0.553206                     -15.626275652130
                          2        0.354004                     -15.644345842758
                          3        0.104377E-02                 -15.655534473350
                          4        0.145105E-04                 -15.655534639201
                          5        0.764063E-05                 -15.655534639219
                          6        0.520711E-05                 -15.655534639222
                          7        0.326787E-07                 -15.655534639226

 Energy components [Hartree]           Total Energy ::          -15.655534639226
                                        Band Energy ::           -2.936519801454
                                     Kinetic Energy ::           11.817065134830
                                   Potential Energy ::          -27.472599774056
                                      Virial (-V/T) ::            2.324824265636
                                        Core Energy ::          -26.192206520500
                                          XC Energy ::           -3.168012296481
                                     Coulomb Energy ::           13.704684177756
                       Total Pseudopotential Energy ::          -38.043671773482
                       Local Pseudopotential Energy ::          -39.327709310527
                    Nonlocal Pseudopotential Energy ::            1.284037537045
                                        Confinement ::            0.344001181518

 Orbital energies  State     L     Occupation   Energy[a.u.]          Energy[eV]

                       1     0          2.000      -0.853652          -23.229053

                       1     1          4.000      -0.307304           -8.362166


 Total Electron Density at R=0:                                         0.000136

 Guess for atomic kind: H

 Electronic structure
    Total number of core electrons                                          0.00
    Total number of valence electrons                                       1.00
    Total number of electrons                                               1.00
    Multiplicity                                                   not specified
    S      1.00


 *******************************************************************************
                  Iteration          Convergence                     Energy [au]
 *******************************************************************************
                          1        0.231148E-02                  -0.407655370821
                          2        0.494672E-03                  -0.407674871626
                          3        0.636870E-04                  -0.407675340734
                          4        0.340877E-07                  -0.407675348286

 Energy components [Hartree]           Total Energy ::           -0.407675348286
                                        Band Energy ::           -0.183027179802
                                     Kinetic Energy ::            0.542561506793
                                   Potential Energy ::           -0.950236855079
                                      Virial (-V/T) ::            1.751390106342
                                        Core Energy ::           -0.460249101315
                                          XC Energy ::           -0.247291114152
                                     Coulomb Energy ::            0.299864867181
                       Total Pseudopotential Energy ::           -1.024494942544
                       Local Pseudopotential Energy ::           -1.024494942544
                    Nonlocal Pseudopotential Energy ::            0.000000000000
                                        Confinement ::            0.216843344359

 Orbital energies  State     L     Occupation   Energy[a.u.]          Energy[eV]

                       1     0          1.000      -0.183027           -4.980423


 Total Electron Density at R=0:                                         0.350672
 Re-scaling the density matrix to get the right number of electrons
                  # Electrons              Trace(P)               Scaling factor
                            8                 8.000                        1.000

 Number of electrons:                                                          8
 Number of occupied orbitals:                                                  4
 Number of molecular orbitals:                                                25

 Number of orbital functions:                                                 25
 Number of independent orbital functions:                                     25


 SCF WAVEFUNCTION OPTIMIZATION

  Step     Update method      Time    Convergence         Total energy    Change
  ------------------------------------------------------------------------------
     1 NoMix/Diag. 0.20E+00    0.6     0.81691780       -16.9972572927 -1.70E+01
     2 Broy./Diag. 0.20E+00    0.9     0.08970194       -15.4772446326  1.52E+00
     3 Broy./Diag. 0.20E+00    0.9     0.12434939       -16.4866681743 -1.01E+00
     4 Broy./Diag. 0.20E+00    1.0     0.01555387       -17.1392501132 -6.53E-01
     5 Broy./Diag. 0.20E+00    1.0     0.01673326       -17.1087936466  3.05E-02
     6 Broy./Diag. 0.20E+00    1.0     0.00053985       -17.1566330472 -4.78E-02
     7 Broy./Diag. 0.20E+00    1.0     0.00352863       -17.1620042631 -5.37E-03
     8 Broy./Diag. 0.20E+00    1.0     0.00090314       -17.1704645430 -8.46E-03
     9 Broy./Diag. 0.20E+00    1.0     0.00376345       -17.1684912841  1.97E-03
    10 Broy./Diag. 0.20E+00    1.0     0.00157824       -17.1694422122 -9.51E-04
    11 Broy./Diag. 0.20E+00    1.0     0.00435270       -17.1695483835 -1.06E-04
    12 Broy./Diag. 0.20E+00    1.0     0.00038001       -17.1677062830  1.84E-03
    13 Broy./Diag. 0.20E+00    1.0     0.00164251       -17.1679235492 -2.17E-04
    14 Broy./Diag. 0.20E+00    1.0     0.00034754       -17.1681114181 -1.88E-04
    15 Broy./Diag. 0.20E+00    1.0     0.00096002       -17.1684167257 -3.05E-04
    16 Broy./Diag. 0.20E+00    1.1     0.00005789       -17.1678514435  5.65E-04
    17 Broy./Diag. 0.20E+00    1.0     0.00039672       -17.1679264761 -7.50E-05
    18 Broy./Diag. 0.20E+00    1.0     0.00023320       -17.1680597800 -1.33E-04
    19 Broy./Diag. 0.20E+00    1.0     0.00004249       -17.1680026924  5.71E-05
    20 Broy./Diag. 0.20E+00    1.0     0.00012451       -17.1679421308  6.06E-05
    21 Broy./Diag. 0.20E+00    1.0     0.00003511       -17.1678242666  1.18E-04
    22 Broy./Diag. 0.20E+00    1.0     0.00010636       -17.1679302176 -1.06E-04
    23 Broy./Diag. 0.20E+00    1.0     0.00002096       -17.1680524183 -1.22E-04
    24 Broy./Diag. 0.20E+00    1.0     0.00000422       -17.1679521690  1.00E-04
    25 Broy./Diag. 0.20E+00    1.0     0.00003229       -17.1679361836  1.60E-05
    26 Broy./Diag. 0.20E+00    1.0     0.00000157       -17.1679289746  7.21E-06
    27 Broy./Diag. 0.20E+00    1.0     0.00001066       -17.1679289247  4.98E-08
    28 Broy./Diag. 0.20E+00    1.0     0.00000389       -17.1679343352 -5.41E-06
    29 Broy./Diag. 0.20E+00    1.0     0.00000043       -17.1679305652  3.77E-06
    30 Broy./Diag. 0.20E+00    1.0     0.00000255       -17.1679320458 -1.48E-06
    31 Broy./Diag. 0.20E+00    1.0     0.00000013       -17.1679323321 -2.86E-07
    32 Broy./Diag. 0.20E+00    1.0     0.00000049       -17.1679296449  2.69E-06
    33 Broy./Diag. 0.20E+00    1.0     0.00000074       -17.1679291158  5.29E-07
    34 Broy./Diag. 0.20E+00    1.0     0.00000026       -17.1679298715 -7.56E-07
    35 Broy./Diag. 0.20E+00    1.0     0.00000034       -17.1679302229 -3.51E-07
    36 Broy./Diag. 0.20E+00    1.0     0.00000096       -17.1679300458  1.77E-07
    37 Broy./Diag. 0.20E+00    1.0     0.00000023       -17.1679302690 -2.23E-07
    38 Broy./Diag. 0.20E+00    1.0     0.00000004       -17.1679300317  2.37E-07

  *** SCF run converged in    38 steps ***


  Electronic density on regular grids:         -8.0000000000        0.0000000000
  Core density on regular grids:                8.0000000000       -0.0000000000
  Total charge density on r-space grids:       -0.0000000000
  Total charge density g-space grids:          -0.0000000000

  Overlap energy of the core charge distribution:               0.00000006775252
  Self energy of the core charge distribution:                -44.34715499673765
  Core Hamiltonian energy:                                     12.94999159107585
  Hartree energy:                                              18.46510545408299
  Exchange-correlation energy:                                 -4.23587214788215

  Total energy:                                               -17.16793003170844

  outer SCF iter =    1 RMS gradient =   0.44E-07 energy =        -17.1679300317
  outer SCF loop converged in   1 iterations or   38 steps


 !-----------------------------------------------------------------------------!
                     Mulliken Population Analysis

 #  Atom  Element  Kind  Atomic population                           Net charge
       1     O        1          6.642198                             -0.642198
       2     H        2          0.678901                              0.321099
       3     H        2          0.678901                              0.321099
 # Total charge                              8.000000                  0.000000

 !-----------------------------------------------------------------------------!

 !-----------------------------------------------------------------------------!
                           Hirshfeld Charges

  #Atom  Element  Kind  Ref Charge     Population                    Net charge
      1       O      1       6.000          7.105                        -1.105
      2       H      2       1.000          0.441                         0.559
      3       H      2       1.000          0.441                         0.559

  Total Charge                                                            0.012
 !-----------------------------------------------------------------------------!
  
 -------------------------------------------------------------------------------
 -                                                                             -
 -                          BANDSTRUCTURE CALCULATION                          -
 -                                                                             -
 -------------------------------------------------------------------------------
  
 Number of occupied molecular orbitals (MOs) = Number of occupied bands        4
 Number of unoccupied (= virtual) MOs = Number of unoccupied bands            21
 Number of Gaussian basis functions for MOs                                   25
  
 -------------------------------------------------------------------------------
 -                                                                             -
 -                                GW CALCULATION                               -
 -                                                                             -
 -------------------------------------------------------------------------------
  
 Input: Number of time/freq. points                                           30
 Input: ω_max for fitting Σ(iω) (eV)                                        10.0
 Input: Filter threshold for sparse tensor operations                    1.0E-07
 Input: Apply Hedin shift                                                      F
 Detected: Available memory per MPI process                               7.0 GB
 
 Input: RI-RS Tikhonov regularization                                   1.00E-08
 Input: AO grid hard cutoff radius                                        8.00 Å
 Input: MPI ranks per atom in Z_lP solve                                      -1
 Input: Keep sparsity in χ/G/W panels                                          T
 Input: GW flavour                                                          G0W0
 
 Input: RI-RS grid optimization activated                                      T
 Input: RS points per AO function                                            7.0
 Input: Cutoff radius for atomic clusters                                  3.0 Å
 Input: Maximum grid optimization iterations                                 300
 
 Input: AUTO_RI basis optimization activated:                                  T
 Input: AUTO_RI number of RI functions per AO function:                      4.0
 Input: AUTO_RI frontier orbital window:                                  5.0 eV
 Input: AUTO_RI neighbor radius:                                           3.0 Å
 
 Cutoff radius for the truncated Coulomb operator in RI metric:            6.0 Å
 Regularization parameter of RI                                          0.0E+00
 Regularization parameter of minimax grids                               1.0E-06
 
 AUTO_RI| Number of automatic RI functions for χ, ε, W:                      100
 AUTO_RI| Total RI basis optimization time:                                0.3 s
 
 SCF direct band gap (eV)                                                   6.02
 Max. SCF eigval diff. (eV)                                               127.80
 E-Range for minimax grid                                                  21.24
 Number of Padé parameters for analytic continuation:                         16
 
 RI-RS basis radii (Å):
     Kind  Elem     r_AO (Å)     r_RI (Å)
        1    O         7.0817        4.4789
        2    H         9.5011        6.0090
 
 Started RI-RS grid optimization
 RI-RS grid initial normalized error                          1.376321386742E-03
 RI-RS grid optimization completed, execution time:                        0.9 s
 Normalized 3C error:                                                    2.0E-05
 Maximum absolute 3C error:                                              2.6E-02
 Optimized points outside molecular Voronoi cells:                            18 / 175
 Total grid points used for RI-RS:                                           175
 
 RI-RS grid row-blocks of ϕ_μ(r_l)                                             7
 RI-RS grid points per block (max)                                            32
 
 Percentage of non-zero matrix elements in ϕ_μ(r_l)                     100.00 %
 
 RI-RS memory estimate per MPI process:
   Available memory per process (system)                                 7.72 GB
   Required for Z_lP (dense upper bound; actual is sparser)              0.00 GB
   Required for χ, W, Σ panels (peak per panel step)                     0.00 GB
   Required for Z_lP solve peak (D_local+ϕ, worst-case atom)             0.00 GB
   Worst-case local-grid number of grid points:                              175
   Worst-case memory D_local:                                            0.00 GB
 
 Started computing Z_lP
 Computed Z_lP (MPI rank 0) for atom          1 /  1,    Execution time    0.0 s
 Computed Z_lP (all MPI ranks) for all atoms,            Execution time    0.0 s

 Memory per MPI process after computing Z_lP:
 Available memory per MPI process                                7.7 GB
 Used memory per MPI process                                     1.0 GB
 Number of batches for χ, Σ matrices                                           1
 
 Percentage of non-zero matrix elements in Z_lP                         100.00 %
 Percentage of non-zero matrix elements in G_ll', χ_ll', W_ll'          100.00 %
 Percentage of non-zero matrix elements in χ_PQ for time point 1        100.00 %
 
 Computed χ(iτ,k=0) for time point            1 / 30,    Execution time    0.0 s
 Computed χ(iτ,k=0) for time point            2 / 30,    Execution time    0.0 s
 Computed χ(iτ,k=0) for time point            3 / 30,    Execution time    0.0 s
 Computed χ(iτ,k=0) for time point            4 / 30,    Execution time    0.0 s
 Computed χ(iτ,k=0) for time point            5 / 30,    Execution time    0.0 s
 Computed χ(iτ,k=0) for time point            6 / 30,    Execution time    0.0 s
 Computed χ(iτ,k=0) for time point            7 / 30,    Execution time    0.0 s
 Computed χ(iτ,k=0) for time point            8 / 30,    Execution time    0.0 s
 Computed χ(iτ,k=0) for time point            9 / 30,    Execution time    0.0 s
 Computed χ(iτ,k=0) for time point           10 / 30,    Execution time    0.0 s
 Computed χ(iτ,k=0) for time point           11 / 30,    Execution time    0.0 s
 Computed χ(iτ,k=0) for time point           12 / 30,    Execution time    0.0 s
 Computed χ(iτ,k=0) for time point           13 / 30,    Execution time    0.0 s
 Computed χ(iτ,k=0) for time point           14 / 30,    Execution time    0.0 s
 Computed χ(iτ,k=0) for time point           15 / 30,    Execution time    0.0 s
 Computed χ(iτ,k=0) for time point           16 / 30,    Execution time    0.0 s
 Computed χ(iτ,k=0) for time point           17 / 30,    Execution time    0.0 s
 Computed χ(iτ,k=0) for time point           18 / 30,    Execution time    0.0 s
 Computed χ(iτ,k=0) for time point           19 / 30,    Execution time    0.0 s
 Computed χ(iτ,k=0) for time point           20 / 30,    Execution time    0.0 s
 Computed χ(iτ,k=0) for time point           21 / 30,    Execution time    0.0 s
 Computed χ(iτ,k=0) for time point           22 / 30,    Execution time    0.0 s
 Computed χ(iτ,k=0) for time point           23 / 30,    Execution time    0.0 s
 Computed χ(iτ,k=0) for time point           24 / 30,    Execution time    0.0 s
 Computed χ(iτ,k=0) for time point           25 / 30,    Execution time    0.0 s
 Computed χ(iτ,k=0) for time point           26 / 30,    Execution time    0.0 s
 Computed χ(iτ,k=0) for time point           27 / 30,    Execution time    0.0 s
 Computed χ(iτ,k=0) for time point           28 / 30,    Execution time    0.0 s
 Computed χ(iτ,k=0) for time point           29 / 30,    Execution time    0.0 s
 Computed χ(iτ,k=0) for time point           30 / 30,    Execution time    0.0 s
 
 Computed W(iτ),                                         Execution time    0.1 s
 
 Computed Σ^x(k=0),                                      Execution time    0.0 s
 
 Computed Σ^c(iτ) for time point              1 / 30,    Execution time    0.0 s
 Computed Σ^c(iτ) for time point              2 / 30,    Execution time    0.0 s
 Computed Σ^c(iτ) for time point              3 / 30,    Execution time    0.0 s
 Computed Σ^c(iτ) for time point              4 / 30,    Execution time    0.0 s
 Computed Σ^c(iτ) for time point              5 / 30,    Execution time    0.0 s
 Computed Σ^c(iτ) for time point              6 / 30,    Execution time    0.0 s
 Computed Σ^c(iτ) for time point              7 / 30,    Execution time    0.0 s
 Computed Σ^c(iτ) for time point              8 / 30,    Execution time    0.0 s
 Computed Σ^c(iτ) for time point              9 / 30,    Execution time    0.0 s
 Computed Σ^c(iτ) for time point             10 / 30,    Execution time    0.0 s
 Computed Σ^c(iτ) for time point             11 / 30,    Execution time    0.0 s
 Computed Σ^c(iτ) for time point             12 / 30,    Execution time    0.0 s
 Computed Σ^c(iτ) for time point             13 / 30,    Execution time    0.0 s
 Computed Σ^c(iτ) for time point             14 / 30,    Execution time    0.0 s
 Computed Σ^c(iτ) for time point             15 / 30,    Execution time    0.0 s
 Computed Σ^c(iτ) for time point             16 / 30,    Execution time    0.0 s
 Computed Σ^c(iτ) for time point             17 / 30,    Execution time    0.0 s
 Computed Σ^c(iτ) for time point             18 / 30,    Execution time    0.0 s
 Computed Σ^c(iτ) for time point             19 / 30,    Execution time    0.0 s
 Computed Σ^c(iτ) for time point             20 / 30,    Execution time    0.0 s
 Computed Σ^c(iτ) for time point             21 / 30,    Execution time    0.0 s
 Computed Σ^c(iτ) for time point             22 / 30,    Execution time    0.0 s
 Computed Σ^c(iτ) for time point             23 / 30,    Execution time    0.0 s
 Computed Σ^c(iτ) for time point             24 / 30,    Execution time    0.0 s
 Computed Σ^c(iτ) for time point             25 / 30,    Execution time    0.0 s
 Computed Σ^c(iτ) for time point             26 / 30,    Execution time    0.0 s
 Computed Σ^c(iτ) for time point             27 / 30,    Execution time    0.0 s
 Computed Σ^c(iτ) for time point             28 / 30,    Execution time    0.0 s
 Computed Σ^c(iτ) for time point             29 / 30,    Execution time    0.0 s
 Computed Σ^c(iτ) for time point             30 / 30,    Execution time    0.0 s
 
 SCF valence band maximum (eV):                                           -6.845
 SCF conduction band minimum (eV):                                        -0.827
 SCF indirect band gap (eV):                                               6.018
 SCF direct band gap (eV):                                                 6.018
 
 G0W0 valence band maximum (eV):                                         -10.859
 G0W0 conduction band minimum (eV):                                        1.554
 G0W0 indirect band gap (eV):                                             12.413
 G0W0 direct band gap (eV):                                               12.413
 
 Hartree-Fock with SCF orbitals valence band maximum (eV):               -14.068
 Hartree-Fock with SCF orbitals conduction band minimum (eV)               1.755
 Hartree-Fock with SCF orbitals indirect band gap (eV):                   15.823
 Hartree-Fock with SCF orbitals direct band gap (eV):                     15.823

 ENERGY| Total FORCE_EVAL ( QS ) energy [hartree]            -17.167930031708437

 -------------------------------------------------------------------------------
 -                                                                             -
 -                                DBCSR STATISTICS                             -
 -                                                                             -
 -------------------------------------------------------------------------------
 COUNTER                                    TOTAL       BLAS       SMM       ACC
 flops     6 x    13 x    25               148200       0.0%    100.0%      0.0%     
 flops    13 x     6 x    25               148200       0.0%    100.0%      0.0%     
 flops     6 x     6 x    10               155520       0.0%    100.0%      0.0%     
 flops     6 x    13 x    10               168480       0.0%    100.0%      0.0%     
 flops    13 x     6 x    10               168480       0.0%    100.0%      0.0%     
 flops    13 x    13 x    10               182520       0.0%    100.0%      0.0%     
 flops     6 x     6 x    25               205200       0.0%    100.0%      0.0%     
 flops     6 x     6 x    27               209952       0.0%    100.0%      0.0%     
 flops    13 x     6 x    27               227448       0.0%    100.0%      0.0%     
 flops     6 x    13 x    27               235872       0.0%    100.0%      0.0%     
 flops    13 x    13 x    27               255528       0.0%    100.0%      0.0%     
 flops    10 x     6 x    10               282000       0.0%    100.0%      0.0%     
 flops    10 x    13 x    10               301600       0.0%    100.0%      0.0%     
 flops    13 x    13 x    25               321100       0.0%    100.0%      0.0%     
 flops    27 x     6 x    10               375840       0.0%    100.0%      0.0%     
 flops    10 x     6 x    27               375840       0.0%    100.0%      0.0%     
 flops    27 x    13 x    10               407160       0.0%    100.0%      0.0%     
 flops    10 x    32 x    10               409600       0.0%    100.0%      0.0%     
 flops    10 x     6 x     6               420480       0.0%    100.0%      0.0%     
 flops    10 x    10 x    32               435200       0.0%    100.0%      0.0%     
 flops    10 x    13 x    27               435240       0.0%    100.0%      0.0%     
 flops    10 x    13 x     6               468000       0.0%    100.0%      0.0%     
 flops    10 x     6 x    13               468000       0.0%    100.0%      0.0%     
 flops    10 x    13 x    13               520520       0.0%    100.0%      0.0%     
 flops    27 x     6 x    27               524880       0.0%    100.0%      0.0%     
 flops    27 x     6 x     6               567648       0.0%    100.0%      0.0%     
 flops    10 x    32 x    27               587520       0.0%    100.0%      0.0%     
 flops    27 x    10 x    32               587520       0.0%    100.0%      0.0%     
 flops    10 x    27 x    32               587520       0.0%    100.0%      0.0%     
 flops    27 x    32 x    10               587520       0.0%    100.0%      0.0%     
 flops    27 x    13 x    27               587574       0.0%    100.0%      0.0%     
 flops    27 x     6 x    13               631800       0.0%    100.0%      0.0%     
 flops    27 x    13 x     6               631800       0.0%    100.0%      0.0%     
 flops    27 x    13 x    13               702702       0.0%    100.0%      0.0%     
 flops    10 x    10 x     6               710400       0.0%    100.0%      0.0%     
 flops    10 x    10 x    13               790400       0.0%    100.0%      0.0%     
 flops    27 x    27 x    32               793152       0.0%    100.0%      0.0%     
 flops    27 x    32 x    27               839808       0.0%    100.0%      0.0%     
 flops    10 x    34 x    10               870400       0.0%    100.0%      0.0%     
 flops    27 x    10 x     6               972000       0.0%    100.0%      0.0%     
 flops    10 x    27 x     6               972000       0.0%    100.0%      0.0%     
 flops    10 x    10 x    34               979200       0.0%    100.0%      0.0%     
 flops     6 x     6 x    32              1013760       0.0%    100.0%      0.0%     
 flops    27 x    10 x    13              1081080       0.0%    100.0%      0.0%     
 flops    10 x    27 x    13              1081080       0.0%    100.0%      0.0%     
 flops    13 x     6 x    32              1098240       0.0%    100.0%      0.0%     
 flops     6 x    13 x    32              1128192       0.0%    100.0%      0.0%     
 flops    13 x    13 x    32              1222208       0.0%    100.0%      0.0%     
 flops    27 x    34 x    10              1248480       0.0%    100.0%      0.0%     
 flops    10 x    34 x    27              1248480       0.0%    100.0%      0.0%     
 flops    34 x    32 x    10              1305600       0.0%    100.0%      0.0%     
 flops    27 x    27 x     6              1312200       0.0%    100.0%      0.0%     
 flops    27 x    10 x    34              1321920       0.0%    100.0%      0.0%     
 flops    10 x    27 x    34              1321920       0.0%    100.0%      0.0%     
 flops    27 x    27 x    13              1459458       0.0%    100.0%      0.0%     
 flops    27 x    34 x    27              1784592       0.0%    100.0%      0.0%     
 flops    27 x    27 x    34              1784592       0.0%    100.0%      0.0%     
 flops    32 x     6 x    10              1797120       0.0%    100.0%      0.0%     
 flops    10 x     6 x    32              1804800       0.0%    100.0%      0.0%     
 flops    34 x    32 x    27              1880064       0.0%    100.0%      0.0%     
 flops    32 x    13 x    10              1938560       0.0%    100.0%      0.0%     
 flops    10 x    13 x    32              2030080       0.0%    100.0%      0.0%     
 flops    32 x     6 x    27              2446848       0.0%    100.0%      0.0%     
 flops    27 x     6 x    32              2488320       0.0%    100.0%      0.0%     
 flops    32 x     6 x     6              2691072       0.0%    100.0%      0.0%     
 flops    27 x    13 x    32              2740608       0.0%    100.0%      0.0%     
 flops    34 x    34 x    10              2774400       0.0%    100.0%      0.0%     
 flops    32 x    10 x    32              2785280       0.0%    100.0%      0.0%     
 flops    32 x    13 x    27              2785536       0.0%    100.0%      0.0%     
 flops    32 x    13 x     6              2995200       0.0%    100.0%      0.0%     
 flops    32 x     6 x    13              2995200       0.0%    100.0%      0.0%     
 flops    32 x    32 x    10              3317760       0.0%    100.0%      0.0%     
 flops    10 x    34 x    34              3329280       0.0%    100.0%      0.0%     
 flops    32 x    13 x    13              3331328       0.0%    100.0%      0.0%     
 flops    32 x    27 x    32              3760128       0.0%    100.0%      0.0%     
 flops    34 x    34 x    27              3995136       0.0%    100.0%      0.0%     
 flops    27 x    34 x    34              4494528       0.0%    100.0%      0.0%     
 flops    10 x    32 x     6              4577280       0.0%    100.0%      0.0%     
 flops    32 x    10 x     6              4577280       0.0%    100.0%      0.0%     
 flops    32 x    32 x    27              4755456       0.0%    100.0%      0.0%     
 flops    10 x    32 x    13              5091840       0.0%    100.0%      0.0%     
 flops    32 x    10 x    13              5091840       0.0%    100.0%      0.0%     
 flops    10 x    32 x    32              6205440       0.0%    100.0%      0.0%     
 flops    32 x    27 x     6              6220800       0.0%    100.0%      0.0%     
 flops    27 x    32 x     6              6220800       0.0%    100.0%      0.0%     
 flops    32 x    10 x    34              6266880       0.0%    100.0%      0.0%     
 flops    32 x    27 x    13              6918912       0.0%    100.0%      0.0%     
 flops    27 x    32 x    13              6918912       0.0%    100.0%      0.0%     
 flops    32 x    34 x    10              7050240       0.0%    100.0%      0.0%     
 flops    10 x    34 x    32              7289600       0.0%    100.0%      0.0%     
 flops    10 x    32 x    34              7746560       0.0%    100.0%      0.0%     
 flops    32 x    27 x    34              8460288       0.0%    100.0%      0.0%     
 flops    27 x    32 x    32              8515584       0.0%    100.0%      0.0%     
 flops    34 x    32 x    32              8634368       0.0%    100.0%      0.0%     
 flops    32 x    34 x    27             10105344       0.0%    100.0%      0.0%     
 flops    27 x    34 x    32             10105344       0.0%    100.0%      0.0%     
 flops    27 x    32 x    34             10457856       0.0%    100.0%      0.0%     
 flops    32 x     6 x    32             11722752       0.0%    100.0%      0.0%     
 flops    32 x    13 x    32             13045760       0.0%    100.0%      0.0%     
 flops    34 x    34 x    32             18348032       0.0%    100.0%      0.0%     
 flops    32 x    34 x    34             21307392       0.0%    100.0%      0.0%     
 flops    32 x    32 x     6             29392896       0.0%    100.0%      0.0%     
 flops    32 x    32 x    13             32694272       0.0%    100.0%      0.0%     
 flops    32 x    32 x    32             44433408       0.0%    100.0%      0.0%     
 flops    32 x    32 x    34             49577984       0.0%    100.0%      0.0%     
 flops    32 x    34 x    32             56332288       0.0%    100.0%      0.0%     
 flops inhomo. stacks                           0       0.0%      0.0%      0.0%
 flops total                       514.108282E+06       0.0%    100.0%      0.0%
 flops max/rank                     53.164328E+06       0.0%    100.0%      0.0%
 matmuls inhomo. stacks                         0       0.0%      0.0%      0.0%
 matmuls total                              29248       0.0%    100.0%      0.0%
 number of processed stacks                 29248       0.0%    100.0%      0.0%
 average stack size                                     0.0       1.0       0.0
 marketing flops                   905.816128E+06
 -------------------------------------------------------------------------------
 # multiplications                            524
 max memory usage/rank              20.759093E+09
 # max total images/rank                        2
 # max 3D layers                                1
 # MPI messages exchanged                  217984
 MPI messages size (bytes):
  total size                       300.217536E+06
  min size                           0.000000E+00
  max size                          17.408000E+03
  average size                       1.377246E+03
 MPI breakdown and total messages size (bytes):
             size <=      128              155796                        0
       128 < size <=     8192               48718                143573136
      8192 < size <=    32768               13470                156644384
     32768 < size <=   131072                   0                        0
    131072 < size <=  4194304                   0                        0
   4194304 < size <= 16777216                   0                        0
  16777216 < size                               0                        0
 -------------------------------------------------------------------------------

 *** WARNING in dbcsr_mm.F:301 :: Using a non-square number of MPI ranks ***
 *** might lead to poor performance. Used ranks: 32 Suggested: 36 64     ***

 -------------------------------------------------------------------------------
 -                                                                             -
 -                      DBCSR MESSAGE PASSING PERFORMANCE                      -
 -                                                                             -
 -------------------------------------------------------------------------------
 ROUTINE             CALLS      AVE VOLUME [Bytes]
 MP_Bcast              107                     12.
 MP_Allreduce         2434                     10.
 MP_Alltoall          4264                   3207.
 MP_ISend            18802                   1223.
 MP_IRecv            15814                    866.
 -------------------------------------------------------------------------------

 -------------------------------------------------------------------------------
 -                                                                             -
 -                                GRID STATISTICS                              -
 -                                                                             -
 -------------------------------------------------------------------------------
 LP    KERNEL             BACKEND                              COUNT     PERCENT
 2     collocate ortho    CPU                                    273      31.49%
 2     integrate ortho    CPU                                    273      31.49%
 3     collocate ortho    CPU                                    156      17.99%
 3     integrate ortho    CPU                                    156      17.99%
 0     collocate general  CPU                                      6       0.69%
 0     integrate general  CPU                                      3       0.35%
 -------------------------------------------------------------------------------

 -------------------------------------------------------------------------------
 -                                                                             -
 -                          OFFLOAD MEMPOOL STATISTICS                         -
 -                                                                             -
 -------------------------------------------------------------------------------
 Memory consumption                Number of allocations  Used [MiB]  Size [MiB]
 Host                                                  7          45    22166639
 -------------------------------------------------------------------------------

 MEMORY| Estimated peak process memory [MiB]                                1083

 -------------------------------------------------------------------------------
 -                                                                             -
 -                         MESSAGE PASSING PERFORMANCE                         -
 -                                                                             -
 -------------------------------------------------------------------------------

 ROUTINE             CALLS      AVE VOLUME [Bytes]
 MP_Group                6
 MP_Bcast              233                 217798.
 MP_Allreduce         2541                   1379.
 MP_Sync                48
 MP_Alltoall           866               29424013.
 MP_SendRecv          3627                 132779.
 MP_ISendRecv         3627                 132779.
 MP_Wait              7761
 MP_comm_split          47
 MP_ISend             3498                 853314.
 MP_IRecv             3498                 853236.
 -------------------------------------------------------------------------------


 -------------------------------------------------------------------------------
 -                                                                             -
 -                           R E F E R E N C E S                               -
 -                                                                             -
 -------------------------------------------------------------------------------
 
 CP2K version 2026.2 (Development Version), the CP2K developers group (2026).
 CP2K is freely available from https://www.cp2k.org/ .
 
 M. Iannuzzi, J. Wilhelm, F. Stein, A. Bussy, H. Elgabarty, D. Golze, A. Hehn, 
 M. Graml, S. Marek, B. Sertcan Gökmen, C. Schran, H. Forbert, R. Z. 
 Khaliullin, A. Kozhevnikov, M. Taillefumier, R. Meli, V. V. Rybkin, M. Brehm, 
 R. Schade, O. Schütt, J. V. Pototschnig, H. Mirhosseini, A. Knüpfer, D. Marx, 
 M. Krack, J. Hutter, T. D. Kühne.
 J. Phys. Chem. B 130, 1237-1310 (2026).
 The CP2K Program Package Made Simple.
 https://doi.org/10.1021/acs.jpcb.5c05851

 M. Graml, K. Zollner, D. Hernangómez-Pérez, P. E. Faria Junior, J. Wilhelm.
 J. Chem. Theory Comput. 20, 2202-2208 (2024).
 Low-scaling GW algorithm applied to twisted transition-metal dichalcogenide 
 heterobilayers.
 https://doi.org/10.1021/acs.jctc.3c01230

 T. D. Kühne, M. Iannuzzi, M. Del Ben, V. V. Rybkin, P. Seewald, F. Stein, T. 
 Laino, R. Z. Khaliullin, O. Schütt, F. Schiffmann, D. Golze, J. Wilhelm, S. 
 Chulkov, M. H. Bani-Hashemian, V. Weber, U. Borstnik, M. Taillefumier, A. S. 
 Jakobovits, A. Lazzaro, H. Pabst, T. Müller, R. Schade, M. Guidon, S. 
 Andermatt, N. Holmberg, G. K. Schenter, A. Hehn, A. Bussy, F. Belleflamme, G. 
 Tabacchi, A. Glöß, M. Lass, I. Bethune, C. J. Mundy, C. Plessl, M. Watkins, 
 J. VandeVondele, M. Krack, J. Hutter.
 J. Chem. Phys. 152, 194103 (2020).
 CP2K: An electronic structure and molecular dynamics software package - 
 Quickstep: Efficient and accurate electronic structure calculations.
 https://doi.org/10.1063/5.0007045

 O. Schuett, P. Messmer, J. Hutter, J. VandeVondele.
 Electronic Structure Calculations on Graphics Processing Units, 173-190 (2016).
 GPU-Accelerated Sparse Matrix-Matrix Multiplication for Linear Scaling Density 
 Functional Theory.
 https://doi.org/10.1002/9781118670712.ch8

 U. Borstnik, J. VandeVondele, V. Weber, J. Hutter.
 Parallel Comput. 40, 47-58 (2014).
 Sparse matrix multiplication: The distributed block-compressed sparse row 
 library.
 https://doi.org/10.1016/j.parco.2014.03.012

 J. VandeVondele, J. Hutter.
 J. Chem. Phys. 127, 114105 (2007).
 Gaussian basis sets for accurate calculations on molecular systems in gas and 
 condensed phases.
 https://doi.org/10.1063/1.2770708

 J. VandeVondele, M. Krack, F. Mohamed, M. Parrinello, T. Chassaing, J. Hutter.
 Comput. Phys. Commun. 167, 103-128 (2005).
 QUICKSTEP: Fast and accurate density functional calculations using a mixed 
 Gaussian and plane waves approach.
 https://doi.org/10.1016/j.cpc.2004.12.014

 M. Krack.
 Theor. Chem. Acc. 114, 145-152 (2005).
 Pseudopotentials for H to Kr optimized for gradient-corrected 
 exchange-correlation functionals.
 https://doi.org/10.1007/s00214-005-0655-y

 M. Frigo, S. G. Johnson.
 Proc. IEEE 93, 216-231 (2005).
 The design and implementation of FFTW3.
 https://doi.org/10.1109/JPROC.2004.840301

 C. Hartwigsen, S. Goedecker, J. Hutter.
 Phys. Rev. B 58, 3641-3662 (1998).
 Relativistic separable dual-space Gaussian pseudopotentials from H to Rn.
 https://doi.org/10.1103/PhysRevB.58.3641

 G. Lippert, J. Hutter, M. Parrinello.
 Mol. Phys. 92, 477-487 (1997).
 A hybrid Gaussian and plane wave density functional scheme.
 https://doi.org/10.1080/002689797170220

 S. Goedecker, M. Teter, J. Hutter.
 Phys. Rev. B 54, 1703-1710 (1996).
 Separable dual-space Gaussian pseudopotentials.
 https://doi.org/10.1103/PhysRevB.54.1703

 J. P. Perdew, K. Burke, M. Ernzerhof.
 Phys. Rev. Lett. 77, 3865-3868 (1996).
 Generalized gradient approximation made simple.
 https://doi.org/10.1103/PhysRevLett.77.3865

 P. E. Blöchl.
 J. Chem. Phys. 103, 7422-7428 (1995).
 Electrostatic decoupling of periodic images of plane‐wave‐expanded 
 densities and derived atomic point charges.
 https://doi.org/10.1063/1.470314

 R. H. Byrd, P. H. Lu, J. Nocedal, C. Y. Zhu.
 SIAM J. Sci. Comput. 16, 1190-1208 (1995).
 A Limited Memory Algorithm for Bound Constrained Optimization.
 https://doi.org/10.1137/0916069

 C. G. Broyden.
 Math. Comput. 19, 577-593 (1965).
 A class of methods for solving nonlinear simultaneous equations.
 https://doi.org/10.1090/S0025-5718-1965-0198670-6


 -------------------------------------------------------------------------------
 -                                                                             -
 -                                T I M I N G                                  -
 -                                                                             -
 -------------------------------------------------------------------------------
 SUBROUTINE                       CALLS  ASD         SELF TIME        TOTAL TIME
                                MAXIMUM       AVERAGE  MAXIMUM  AVERAGE  MAXIMUM
 CP2K                                 1  1.0    0.028    0.037   41.732   41.733
 qs_energies                          1  2.0    0.001    0.001   41.384   41.385
 scf_env_do_scf                       1  3.0    0.000    0.001   38.677   38.684
 scf_env_do_scf_inner_loop           38  4.0    0.003    0.004   38.677   38.683
 qs_ks_build_kohn_sham_matrix        39  7.0    0.008    0.008   24.088   24.099
 qs_ks_update_qs_env                 38  5.0    0.000    0.000   23.887   23.896
 rebuild_ks_matrix                   38  6.0    0.000    0.001   23.884   23.894
 fft_wrap_pw1pw2                    772 10.0    0.015    0.017   19.305   19.605
 fft_wrap_pw1pw2_300                460 11.4    1.247    1.474   18.621   19.090
 qs_vxc_create                       39  8.0    0.001    0.001   16.004   16.117
 xc_vxc_pw_create                    38  9.0    0.209    0.261   16.002   16.116
 fft3d_ps                           772 12.0    7.716    8.118   13.723   14.089
 xc_pw_derive                       228 11.0    0.002    0.003   11.214   11.553
 qs_rho_update_rho_low               39  5.0    0.000    0.000    8.515    8.516
 calculate_rho_elec                  39  6.0    0.123    0.131    8.514    8.516
 xc_rho_set_and_dset_create          38 10.0    0.268    0.372    8.220    8.448
 density_rs2pw                       39  7.0    0.003    0.003    5.206    7.905
 xc_pw_divergence                    38 10.0    0.001    0.001    7.320    7.639
 gspace_mixing                       37  5.0    0.117    0.125    6.325    6.325
 mp_alltoall_z22v                   772 14.0    4.032    4.836    4.032    4.836
 broyden_mixing                      37  6.0    4.520    4.586    4.655    4.667
 transfer_rs2pw                     197  8.0    0.004    0.005    1.649    4.301
 mp_waitany                        3498 11.5    1.413    3.998    1.413    3.998
 x_to_yz                            423 13.4    1.248    1.794    3.419    3.875
 sum_up_and_integrate                39  8.0    0.001    0.002    3.849    3.862
 integrate_v_rspace                  39  9.0    0.001    0.001    3.778    3.793
 potential_pw2rs                     39 10.0    0.008    0.009    3.757    3.768
 transfer_rs2pw_300                  41  8.9    0.419    0.459    1.099    3.768
 grid_collocate_task_list            39  7.0    3.046    3.355    3.046    3.355
 yz_to_x                            349 12.6    0.706    0.771    2.567    3.245
 qs_energies_properties               1  3.0    0.000    0.000    2.188    2.189
 post_scf_bandstructure               1  4.0    0.000    0.000    2.187    2.188
 qs_ks_ddapc                         39  8.0    0.001    0.001    2.017    2.176
 run_gw                               1  5.0    0.000    0.000    2.159    2.170
 xc_functional_eval                  38 11.0    0.001    0.001    2.000    2.132
 pbe_lda_eval                        38 12.0    2.000    2.131    2.000    2.131
 pw_derive                          345 11.3    1.894    2.002    1.894    2.002
 pw_scatter_p                       423 12.4    1.801    1.895    1.801    1.895
 pw_poisson_solve                    39  8.0    0.001    0.001    1.878    1.894
 transfer_pw2rs                     196 11.0    0.002    0.003    1.850    1.853
 pw_copy                            659 10.6    1.687    1.747    1.687    1.747
 mp_sum_d                          1188  5.9    1.344    1.627    1.344    1.627
 pw_gather_p                        349 11.6    1.380    1.560    1.380    1.560
 gw_calc_ri_rs_non_periodic           1  6.0    0.001    0.002    1.385    1.398
 pw_poisson_set                      40  8.9    0.001    0.001    1.147    1.162
 transfer_pw2rs_300                  40 11.9    0.476    0.505    1.061    1.097
 optimize_ri_rs_grid                  1  7.0    0.000    0.000    0.943    0.956
 rirs_grid_LBFGS                      1  8.0    0.017    0.102    0.926    0.930
 -------------------------------------------------------------------------------

 The number of warnings for this run is : 1
 
 -------------------------------------------------------------------------------
  **** **** ******  **  PROGRAM ENDED AT                 2026-09-17 22:58:54.897
 ***** ** ***  *** **   PROGRAM RAN ON                                  n2cn0438
 **    ****   ******    PROGRAM RAN BY                                  eprop2d1
 ***** **    ** ** **   PROGRAM PROCESS ID                                146467
  **** **  *******  **  PROGRAM STOPPED IN /scratch/hpc-prf-metdyn/eprop2d1_Jan/
                                           53_benchmark_RI_opt/129_GW100_Si293_A
                                           O_frontier_optimization_coopfst/follo
                                           wups/pbe_g0w0/gw100/76_H2O/szv_t2
