 DBCSR| CPU Multiplication driver                                           XSMM (U)
 DBCSR| Multrec recursion limit                                              512 (U)
 DBCSR| Multiplication stack size                                           1000 (D)
 DBCSR| Maximum elements for images                                    UNLIMITED (U)
 DBCSR| Multiplicative factor virtual images                                   1 (U)
 DBCSR| Use multiplication densification                                       T (D)
 DBCSR| Multiplication size stacks                                             3 (U)
 DBCSR| Use memory pool for CPU allocation                                     F (U)
 DBCSR| Number of 3D layers                                               SINGLE (U)
 DBCSR| Use MPI memory allocation                                              F (U)
 DBCSR| Use RMA algorithm                                                      F (U)
 DBCSR| Use Communication thread                                               T (U)
 DBCSR| Communication thread load                                             68 (D)
 DBCSR| MPI: My process id                                                     0
 DBCSR| MPI: Number of processes                                              19
 DBCSR| OMP: Current number of threads                                         6
 DBCSR| OMP: Max number of threads                                             6
 DBCSR| Split modifier for TAS multiplication algorithm                  1.0E+00 (U)


  **** **** ******  **  PROGRAM STARTED AT               2026-10-03 12:02:10.102
 ***** ** ***  *** **   PROGRAM STARTED ON                              n2cn1001
 **    ****   ******    PROGRAM STARTED BY                              eprop2d1
 ***** **    ** ** **   PROGRAM PROCESS ID                               1205238
  **** **  *******  **  PROGRAM STARTED IN /scratch/hpc-prf-metdyn/eprop2d1_Jan/
                                           53_benchmark_RI_opt/418_gw100_fig5_fu
                                           ll_epsfilter_1e12_20261002/calculatio
                                           ns/rc5p0/ri5_rs03/71_C2H5OH

 CP2K| version string:                 CP2K version 2026.2 (Development Version)
 CP2K| source code revision number:                                   0671c5aa6c
 CP2K| cp2kflags: omp libint fftw3 libxc parallel scalapack openblas            
 CP2K| is freely available from                            https://www.cp2k.org/
 CP2K| Program compiled at                                   2026-09-20 09:25:26
 CP2K| Program compiled on                                              n2login5
 CP2K| Program compiled for                                               x86_64
 CP2K| Data directory path    /scratch/hpc-prf-metdyn/eprop2d1_Jan/53_benchmark_
 CP2K| Input file name                                                 input.inp
 
 eprop2d1@n2cn1001 has created rank and process                      0   1205238
 eprop2d1@n2cn1001 has created rank and process                      1   1205239
 eprop2d1@n2cn1001 has created rank and process                      2   1205240
 eprop2d1@n2cn1001 has created rank and process                      3   1205241
 eprop2d1@n2cn1001 has created rank and process                      4   1205242
 eprop2d1@n2cn1001 has created rank and process                      5   1205243
 eprop2d1@n2cn1001 has created rank and process                      6   1205244
 eprop2d1@n2cn1001 has created rank and process                      7   1205245
 eprop2d1@n2cn1001 has created rank and process                      8   1205246
 
 eprop2d1@n2cn1001 is running                                        9 processes

 GLOBAL| Force Environment number                                              1
 GLOBAL| Basis set file name            /scratch/hpc-prf-metdyn/eprop2d1_Jan/53_
 GLOBAL| Potential file name            /scratch/hpc-prf-metdyn/eprop2d1_Jan/53_
 GLOBAL| MM Potential file name                                     MM_POTENTIAL
 GLOBAL| Coordinate file name                                      __STD_INPUT__
 GLOBAL| Method name                                                        CP2K
 GLOBAL| Project name                                             g418_e503_m071
 GLOBAL| Run type                                                         ENERGY
 GLOBAL| FFT library                                                       FFTW3
 GLOBAL| Diagonalization library                                       ScaLAPACK
 GLOBAL| Cholesky decomposition library                                ScaLAPACK
 GLOBAL| DGEMM library                                                      BLAS
 GLOBAL| Direct generalized diagonalization requested                          F
 GLOBAL| Orthonormality check for eigenvectors                          DISABLED
 GLOBAL| Matrix multiplication library                                 ScaLAPACK
 GLOBAL| All-to-all communication in single precision                          F
 GLOBAL| Grid backend                                                       AUTO
 GLOBAL| Global print level                                                  LOW
 GLOBAL| MPI I/O enabled                                                       T
 GLOBAL| Total number of message passing processes                             9
 GLOBAL| Number of distributed systems (nodes)                                 1
 GLOBAL| Number of threads for this process                                    6
 GLOBAL| This output is from process                                           0
 GLOBAL| OpenMP stack size per thread (OMP_STACKSIZE)                       512M
 GLOBAL| CPU model name                          AMD EPYC 7763 64-Core Processor

 MEMORY| system memory details [Kb]
 MEMORY|                        rank 0           min           max       average
 MEMORY| MemTotal            263897580     263897580     263897580     263897580
 MEMORY| MemFree             233308716     233308716     233308716     233308716
 MEMORY| Buffers                238568        238568        238568        238568
 MEMORY| Cached                7869188       7869188       7869188       7869188
 MEMORY| Slab                  1682288       1682288       1682288       1682288
 MEMORY| SReclaimable           304080        304080        304080        304080
 MEMORY| MemLikelyFree       241720552     241720552     241720552     241720552


 GENERATE|  Preliminary Number of Bonds generated:                             0
 GENERATE|  Achieved consistency in connectivity generation.

 *******************************************************************************
 *******************************************************************************
 **                                                                           **
 **     #####                         ##              ##                      **
 **    ##   ##            ##          ##              ##                      **
 **   ##     ##                       ##            ######                    **
 **   ##     ##  ##   ##  ##   #####  ##  ##   ####   ##    #####    #####    **
 **   ##     ##  ##   ##  ##  ##      ## ##   ##      ##   ##   ##  ##   ##   **
 **   ##  ## ##  ##   ##  ##  ##      ####     ###    ##   ######   ######    **
 **    ##  ###   ##   ##  ##  ##      ## ##      ##   ##   ##       ##        **
 **     #######   #####   ##   #####  ##  ##  ####    ##    #####   ##        **
 **           ##                                                    ##        **
 **                                                                           **
 **                                                ... make the atoms dance   **
 **                                                                           **
 **            Copyright (C) by CP2K developers group (2000-2026)             **
 **                      J. Chem. Phys. 152, 194103 (2020)                    **
 **                                                                           **
 *******************************************************************************


 TOTAL NUMBERS AND MAXIMUM NUMBERS

  Total number of            - Atomic kinds:                                   3
                             - Atoms:                                          9
                             - Shell sets:                                     9
                             - Shells:                                        57
                             - Primitive Cartesian functions:                 57
                             - Cartesian basis functions:                    156
                             - Spherical basis functions:                    141

  Maximum angular momentum of- Orbital basis functions:                        3
                             - Local part of the GTH pseudopotential:          2
                             - Non-local part of the GTH pseudopotential:      0


 SCF PARAMETERS         Density guess:                                   RESTART
                        --------------------------------------------------------
                        max_scf:                                             500
                        max_scf_history:                                       0
                        max_diis:                                              4
                        --------------------------------------------------------
                        eps_scf:                                        1.00E-08
                        eps_scf_history:                                0.00E+00
                        eps_diis:                                       0.00E+00
                        eps_eigval:                                     1.00E-05
                        --------------------------------------------------------
                        level_shift [a.u.]:                             0.000000
                        --------------------------------------------------------
                        Outer loop SCF in use 
                        No variables optimised in outer loop
                        eps_scf                                         1.00E-08
                        max_scf                                               20
                        No outer loop optimization
                        step_size                                       5.00E-01

 Extrapolation method: initial_guess

 Number of electrons:                                                         20
 Number of occupied orbitals:                                                 10
 Number of molecular orbitals:                                                10

 Number of orbital functions:                                                141
 Number of independent orbital functions:                                    141


 SCF WAVEFUNCTION OPTIMIZATION

  ----------------------------------- OT ---------------------------------------
  Minimizer      : DIIS                : direct inversion
                                         in the iterative subspace
                                         using   7 DIIS vectors
                                         safer DIIS on
  Preconditioner : FULL_KINETIC        : inversion of T + eS
  Lattice FFT   : OFF
  Precond_solver : DEFAULT
  stepsize       :    0.15000000                  energy_gap     :    0.20000000
  eps_taylor     :   0.10000E-15                  max_taylor     :             4
  ----------------------------------- OT ---------------------------------------

  Step     Update method      Time    Convergence         Total energy    Change
  ------------------------------------------------------------------------------
  Decoupling Energy:                                               0.0000086385
     1 OT DIIS     0.15E+00    2.2     4.1194E-09       -30.9710518145 -3.10E+01

  *** SCF run converged in     1 steps ***


  Electronic density on regular grids:        -20.0000000000        0.0000000000
  Core density on regular grids:               20.0000000000       -0.0000000000
  Total charge density on r-space grids:       -0.0000000000
  Total charge density g-space grids:          -0.0000000000

  Overlap energy of the core charge distribution:               0.00000164591499
  Self energy of the core charge distribution:                -76.65906668574564
  Core Hamiltonian energy:                                     23.35270468874125
  Hartree energy:                                              31.52298762800813
  Exchange-correlation energy:                                 -9.18767909141801

  Total energy:                                               -30.97105181449929

  outer SCF iter =    1 RMS gradient =   0.41E-08 energy =        -30.9710518145
  outer SCF loop converged in   1 iterations or    1 steps

  
 -------------------------------------------------------------------------------
 -                                                                             -
 -                          BANDSTRUCTURE CALCULATION                          -
 -                                                                             -
 -------------------------------------------------------------------------------
  
 Number of occupied molecular orbitals (MOs) = Number of occupied bands       10
 Number of unoccupied (= virtual) MOs = Number of unoccupied bands           131
 Number of Gaussian basis functions for MOs                                  141
  
 -------------------------------------------------------------------------------
 -                                                                             -
 -                                GW CALCULATION                               -
 -                                                                             -
 -------------------------------------------------------------------------------
  
 Input: Number of time/freq. points                                           30
 Input: ω_max for fitting Σ(iω) (eV)                                        10.0
 Input: Filter threshold for sparse tensor operations                    1.0E-12
 Input: Apply Hedin shift                                                      F
 Detected: Available memory per MPI process                              23.3 GB
 
 Input: RI-RS Tikhonov regularization                                   1.00E-04
 Input: AO grid hard cutoff radius                                        8.00 Å
 Input: MPI ranks per atom in Z_lP solve                                      -1
 Input: Keep sparsity in χ/G/W panels                                          T
 Input: GW flavour                                                          G0W0
 
 Input: RI-RS grid optimization activated                                      T
 Input: RS points per AO function                                            3.0
 Input: Cutoff radius for atomic clusters                                  5.0 Å
 Input: Maximum grid optimization iterations                                 300
 
 Input: AUTO_RI basis optimization activated:                                  T
 Input: AUTO_RI number of RI functions per AO function:                      5.0
 Input: AUTO_RI frontier orbital window:                                  5.0 eV
 Input: AUTO_RI neighbor radius:                                           3.0 Å
 
 Cutoff radius for the truncated Coulomb operator in RI metric:            7.0 Å
 Regularization parameter of RI                                          0.0E+00
 Regularization parameter of minimax grids                               1.0E-06
 
 AUTO_RI| Number of automatic RI functions for χ, ε, W:                      671
 AUTO_RI| Total RI basis optimization time:                                1.8 s
  Decoupling Energy:                                               0.0000086385
 
 SCF direct band gap (eV)                                                   5.62
 Max. SCF eigval diff. (eV)                                               290.30
 E-Range for minimax grid                                                  51.69
 Number of Padé parameters for analytic continuation:                         16
 
 RI-RS basis radii (Å):
     Kind  Elem     r_AO (Å)     r_RI (Å)
        1    C        15.9835       10.1279
        2    O        12.8635        8.6829
        3    H        13.9082        8.7963
 
 Started RI-RS grid optimization
 RI-RS grid initial normalized error                          7.049944888580E-02
 RI-RS grid optimization completed, execution time:                       96.4 s
 Normalized 3C error:                                                    2.2E-05
 Maximum absolute 3C error:                                              4.1E-02
 Optimized points outside molecular Voronoi cells:                           113 / 423
 Total grid points used for RI-RS:                                           423
 
 RI-RS grid row-blocks of ϕ_μ(r_l)                                            15
 RI-RS grid points per block (max)                                            32
 
 Percentage of non-zero matrix elements in ϕ_μ(r_l)                     100.00 %
 
 RI-RS memory estimate per MPI process:
   Available memory per process (system)                                27.19 GB
   Required for Z_lP (dense upper bound; actual is sparser)              0.00 GB
   Required for χ, W, Σ panels (peak per panel step)                     0.00 GB
   Required for Z_lP solve peak (D_local+ϕ, worst-case atom)             0.00 GB
   Worst-case local-grid number of grid points:                              423
   Worst-case memory D_local:                                            0.00 GB
 
 Started computing Z_lP
 Computed Z_lP (MPI rank 0) for atom          1 /  1,    Execution time    0.2 s
 Computed Z_lP (all MPI ranks) for all atoms,            Execution time    0.2 s

 Memory per MPI process after computing Z_lP:
 Available memory per MPI process                               27.2 GB
 Used memory per MPI process                                     1.3 GB
 Number of batches for χ, Σ matrices                                           1
 
 Percentage of non-zero matrix elements in Z_lP                         100.00 %
 Percentage of non-zero matrix elements in G_ll', χ_ll', W_ll'          100.00 %
 Percentage of non-zero matrix elements in χ_PQ for time point 1        100.00 %
 
 Computed χ(iτ,k=0) for time point            1 / 30,    Execution time    0.0 s
 Computed χ(iτ,k=0) for time point            2 / 30,    Execution time    0.0 s
 Computed χ(iτ,k=0) for time point            3 / 30,    Execution time    0.0 s
 Computed χ(iτ,k=0) for time point            4 / 30,    Execution time    0.0 s
 Computed χ(iτ,k=0) for time point            5 / 30,    Execution time    0.0 s
 Computed χ(iτ,k=0) for time point            6 / 30,    Execution time    0.0 s
 Computed χ(iτ,k=0) for time point            7 / 30,    Execution time    0.0 s
 Computed χ(iτ,k=0) for time point            8 / 30,    Execution time    0.0 s
 Computed χ(iτ,k=0) for time point            9 / 30,    Execution time    0.0 s
 Computed χ(iτ,k=0) for time point           10 / 30,    Execution time    0.0 s
 Computed χ(iτ,k=0) for time point           11 / 30,    Execution time    0.0 s
 Computed χ(iτ,k=0) for time point           12 / 30,    Execution time    0.0 s
 Computed χ(iτ,k=0) for time point           13 / 30,    Execution time    0.0 s
 Computed χ(iτ,k=0) for time point           14 / 30,    Execution time    0.0 s
 Computed χ(iτ,k=0) for time point           15 / 30,    Execution time    0.0 s
 Computed χ(iτ,k=0) for time point           16 / 30,    Execution time    0.0 s
 Computed χ(iτ,k=0) for time point           17 / 30,    Execution time    0.0 s
 Computed χ(iτ,k=0) for time point           18 / 30,    Execution time    0.0 s
 Computed χ(iτ,k=0) for time point           19 / 30,    Execution time    0.0 s
 Computed χ(iτ,k=0) for time point           20 / 30,    Execution time    0.0 s
 Computed χ(iτ,k=0) for time point           21 / 30,    Execution time    0.0 s
 Computed χ(iτ,k=0) for time point           22 / 30,    Execution time    0.0 s
 Computed χ(iτ,k=0) for time point           23 / 30,    Execution time    0.0 s
 Computed χ(iτ,k=0) for time point           24 / 30,    Execution time    0.0 s
 Computed χ(iτ,k=0) for time point           25 / 30,    Execution time    0.0 s
 Computed χ(iτ,k=0) for time point           26 / 30,    Execution time    0.0 s
 Computed χ(iτ,k=0) for time point           27 / 30,    Execution time    0.0 s
 Computed χ(iτ,k=0) for time point           28 / 30,    Execution time    0.0 s
 Computed χ(iτ,k=0) for time point           29 / 30,    Execution time    0.0 s
 Computed χ(iτ,k=0) for time point           30 / 30,    Execution time    0.0 s
 
 Computed W(iτ),                                         Execution time    0.6 s
 
 Computed Σ^x(k=0),                                      Execution time    0.0 s
 
 Computed Σ^c(iτ) for time point              1 / 30,    Execution time    0.0 s
 Computed Σ^c(iτ) for time point              2 / 30,    Execution time    0.0 s
 Computed Σ^c(iτ) for time point              3 / 30,    Execution time    0.0 s
 Computed Σ^c(iτ) for time point              4 / 30,    Execution time    0.0 s
 Computed Σ^c(iτ) for time point              5 / 30,    Execution time    0.0 s
 Computed Σ^c(iτ) for time point              6 / 30,    Execution time    0.0 s
 Computed Σ^c(iτ) for time point              7 / 30,    Execution time    0.0 s
 Computed Σ^c(iτ) for time point              8 / 30,    Execution time    0.0 s
 Computed Σ^c(iτ) for time point              9 / 30,    Execution time    0.0 s
 Computed Σ^c(iτ) for time point             10 / 30,    Execution time    0.0 s
 Computed Σ^c(iτ) for time point             11 / 30,    Execution time    0.0 s
 Computed Σ^c(iτ) for time point             12 / 30,    Execution time    0.0 s
 Computed Σ^c(iτ) for time point             13 / 30,    Execution time    0.0 s
 Computed Σ^c(iτ) for time point             14 / 30,    Execution time    0.0 s
 Computed Σ^c(iτ) for time point             15 / 30,    Execution time    0.0 s
 Computed Σ^c(iτ) for time point             16 / 30,    Execution time    0.0 s
 Computed Σ^c(iτ) for time point             17 / 30,    Execution time    0.0 s
 Computed Σ^c(iτ) for time point             18 / 30,    Execution time    0.0 s
 Computed Σ^c(iτ) for time point             19 / 30,    Execution time    0.0 s
 Computed Σ^c(iτ) for time point             20 / 30,    Execution time    0.0 s
 Computed Σ^c(iτ) for time point             21 / 30,    Execution time    0.0 s
 Computed Σ^c(iτ) for time point             22 / 30,    Execution time    0.0 s
 Computed Σ^c(iτ) for time point             23 / 30,    Execution time    0.0 s
 Computed Σ^c(iτ) for time point             24 / 30,    Execution time    0.0 s
 Computed Σ^c(iτ) for time point             25 / 30,    Execution time    0.0 s
 Computed Σ^c(iτ) for time point             26 / 30,    Execution time    0.0 s
 Computed Σ^c(iτ) for time point             27 / 30,    Execution time    0.0 s
 Computed Σ^c(iτ) for time point             28 / 30,    Execution time    0.0 s
 Computed Σ^c(iτ) for time point             29 / 30,    Execution time    0.0 s
 Computed Σ^c(iτ) for time point             30 / 30,    Execution time    0.0 s
 
 SCF valence band maximum (eV):                                           -6.134
 SCF conduction band minimum (eV):                                        -0.517
 SCF indirect band gap (eV):                                               5.616
 SCF direct band gap (eV):                                                 5.616
 
 G0W0 valence band maximum (eV):                                          -9.618
 G0W0 conduction band minimum (eV):                                        1.378
 G0W0 indirect band gap (eV):                                             10.996
 G0W0 direct band gap (eV):                                               10.996
 
 Hartree-Fock with SCF orbitals valence band maximum (eV):               -12.001
 Hartree-Fock with SCF orbitals conduction band minimum (eV)               2.133
 Hartree-Fock with SCF orbitals indirect band gap (eV):                   14.134
 Hartree-Fock with SCF orbitals direct band gap (eV):                     14.134

 ENERGY| Total FORCE_EVAL ( QS ) energy [hartree]            -30.971051814499290

 -------------------------------------------------------------------------------
 -                                                                             -
 -                                DBCSR STATISTICS                             -
 -                                                                             -
 -------------------------------------------------------------------------------
 COUNTER                                    TOTAL       BLAS       SMM       ACC
 flops    10 x    10 x    10                 2000     100.0%      0.0%      0.0%     
 flops     9 x    10 x    10                43200     100.0%      0.0%      0.0%     
 flops     9 x     9 x    10                68040     100.0%      0.0%      0.0%     
 flops    29 x    10 x    10                69600     100.0%      0.0%      0.0%     
 flops    10 x    10 x    47                84600     100.0%      0.0%      0.0%     
 flops     9 x    29 x    10                93960     100.0%      0.0%      0.0%     
 flops    29 x     9 x    10                93960     100.0%      0.0%      0.0%     
 flops    29 x    29 x    10               201840     100.0%      0.0%      0.0%     
 flops     9 x    10 x    47               304560     100.0%      0.0%      0.0%     
 flops     9 x    10 x     9               349920     100.0%      0.0%      0.0%     
 flops    23 x    23 x    72               457056     100.0%      0.0%      0.0%     
 flops    29 x    10 x    47               490680     100.0%      0.0%      0.0%     
 flops    29 x    10 x     9               563760     100.0%      0.0%      0.0%     
 flops     9 x    10 x    29               563760     100.0%      0.0%      0.0%     
 flops    29 x    10 x    29               908280     100.0%      0.0%      0.0%     
 flops    23 x    27 x    72              1073088     100.0%      0.0%      0.0%     
 flops    32 x    23 x    72              1271808     100.0%      0.0%      0.0%     
 flops    23 x    32 x    72              1271808     100.0%      0.0%      0.0%     
 flops    32 x    27 x    72              2985984     100.0%      0.0%      0.0%     
 flops    27 x    23 x    72              3219264     100.0%      0.0%      0.0%     
 flops    32 x    32 x    72              3538944     100.0%      0.0%      0.0%     
 flops    27 x    27 x    72              7558272     100.0%      0.0%      0.0%     
 flops    27 x    32 x    72              8957952     100.0%      0.0%      0.0%     
 flops    62 x    62 x    23             10963088     100.0%      0.0%      0.0%     
 flops    65 x    62 x    23             11493560     100.0%      0.0%      0.0%     
 flops    62 x    65 x    23             11493560     100.0%      0.0%      0.0%     
 flops    62 x    67 x    23             11656124     100.0%      0.0%      0.0%     
 flops    23 x    62 x    62             11670384     100.0%      0.0%      0.0%     
 flops    67 x    62 x    23             11847208     100.0%      0.0%      0.0%     
 flops    65 x    65 x    23             12049700     100.0%      0.0%      0.0%     
 flops    69 x    62 x    23             12200856     100.0%      0.0%      0.0%     
 flops    62 x    69 x    23             12200856     100.0%      0.0%      0.0%     
 flops    65 x    67 x    23             12220130     100.0%      0.0%      0.0%     
 flops    23 x    62 x    65             12235080     100.0%      0.0%      0.0%     
 flops    23 x    65 x    62             12235080     100.0%      0.0%      0.0%     
 flops    67 x    65 x    23             12420460     100.0%      0.0%      0.0%     
 flops    23 x    62 x    23             12594432     100.0%      0.0%      0.0%     
 flops    67 x    67 x    23             12596134     100.0%      0.0%      0.0%     
 flops    23 x    67 x    62             12611544     100.0%      0.0%      0.0%     
 flops    69 x    65 x    23             12791220     100.0%      0.0%      0.0%     
 flops    65 x    69 x    23             12791220     100.0%      0.0%      0.0%     
 flops    23 x    65 x    65             12827100     100.0%      0.0%      0.0%     
 flops    69 x    67 x    23             12972138     100.0%      0.0%      0.0%     
 flops    23 x    69 x    62             12988008     100.0%      0.0%      0.0%     
 flops    67 x    69 x    23             13184796     100.0%      0.0%      0.0%     
 flops    23 x    65 x    23             13203840     100.0%      0.0%      0.0%     
 flops    23 x    67 x    65             13221780     100.0%      0.0%      0.0%     
 flops    69 x    69 x    23             13578372     100.0%      0.0%      0.0%     
 flops    23 x    67 x    23             13610112     100.0%      0.0%      0.0%     
 flops    23 x    69 x    65             13616460     100.0%      0.0%      0.0%     
 flops    23 x    69 x    23             14016384     100.0%      0.0%      0.0%     
 flops    81 x    62 x    23             14322744     100.0%      0.0%      0.0%     
 flops    62 x    81 x    23             14322744     100.0%      0.0%      0.0%     
 flops     9 x     9 x    23             14956164     100.0%      0.0%      0.0%     
 flops    81 x    65 x    23             15015780     100.0%      0.0%      0.0%     
 flops    65 x    81 x    23             15015780     100.0%      0.0%      0.0%     
 flops    81 x    67 x    23             15228162     100.0%      0.0%      0.0%     
 flops    23 x    81 x    62             15246792     100.0%      0.0%      0.0%     
 flops    67 x    81 x    23             15477804     100.0%      0.0%      0.0%     
 flops    81 x    69 x    23             15939828     100.0%      0.0%      0.0%     
 flops    69 x    81 x    23             15939828     100.0%      0.0%      0.0%     
 flops    23 x    81 x    65             15984540     100.0%      0.0%      0.0%     
 flops    91 x    62 x    23             16090984     100.0%      0.0%      0.0%     
 flops    62 x    91 x    23             16090984     100.0%      0.0%      0.0%     
 flops    92 x    62 x    23             16267808     100.0%      0.0%      0.0%     
 flops    62 x    92 x    23             16267808     100.0%      0.0%      0.0%     
 flops    23 x    81 x    23             16454016     100.0%      0.0%      0.0%     
 flops    65 x    91 x    23             16869580     100.0%      0.0%      0.0%     
 flops    91 x    65 x    23             16869580     100.0%      0.0%      0.0%     
 flops    92 x    65 x    23             17054960     100.0%      0.0%      0.0%     
 flops    65 x    92 x    23             17054960     100.0%      0.0%      0.0%     
 flops    91 x    67 x    23             17108182     100.0%      0.0%      0.0%     
 flops    23 x    91 x    62             17129112     100.0%      0.0%      0.0%     
 flops    92 x    67 x    23             17296184     100.0%      0.0%      0.0%     
 flops    23 x    92 x    62             17317344     100.0%      0.0%      0.0%     
 flops    67 x    91 x    23             17388644     100.0%      0.0%      0.0%     
 flops    67 x    92 x    23             17579728     100.0%      0.0%      0.0%     
 flops    69 x    91 x    23             17907708     100.0%      0.0%      0.0%     
 flops    91 x    69 x    23             17907708     100.0%      0.0%      0.0%     
 flops    23 x    91 x    65             17957940     100.0%      0.0%      0.0%     
 flops    92 x    69 x    23             18104496     100.0%      0.0%      0.0%     
 flops    69 x    92 x    23             18104496     100.0%      0.0%      0.0%     
 flops    23 x    92 x    65             18155280     100.0%      0.0%      0.0%     
 flops    23 x    91 x    23             18485376     100.0%      0.0%      0.0%     
 flops    23 x    92 x    23             18688512     100.0%      0.0%      0.0%     
 flops    81 x    81 x    23             18711972     100.0%      0.0%      0.0%     
 flops    23 x     9 x    23             19520100     100.0%      0.0%      0.0%     
 flops    81 x    91 x    23             21022092     100.0%      0.0%      0.0%     
 flops    91 x    81 x    23             21022092     100.0%      0.0%      0.0%     
 flops    81 x    92 x    23             21253104     100.0%      0.0%      0.0%     
 flops    92 x    81 x    23             21253104     100.0%      0.0%      0.0%     
 flops    91 x    91 x    23             23617412     100.0%      0.0%      0.0%     
 flops    92 x    91 x    23             23876944     100.0%      0.0%      0.0%     
 flops    91 x    92 x    23             23876944     100.0%      0.0%      0.0%     
 flops    29 x     9 x    23             24096042     100.0%      0.0%      0.0%     
 flops    92 x    92 x    23             24139328     100.0%      0.0%      0.0%     
 flops     9 x    29 x    23             24204096     100.0%      0.0%      0.0%     
 flops    62 x    72 x    23             25462656     100.0%      0.0%      0.0%     
 flops    72 x    62 x    23             25462656     100.0%      0.0%      0.0%     
 flops    62 x    62 x    27             25531848     100.0%      0.0%      0.0%     
 flops    62 x    65 x    27             26332020     100.0%      0.0%      0.0%     
 flops    72 x    65 x    23             26694720     100.0%      0.0%      0.0%     
 flops    65 x    72 x    23             26694720     100.0%      0.0%      0.0%     
 flops    65 x    62 x    27             26767260     100.0%      0.0%      0.0%     
 flops    72 x    67 x    23             27072288     100.0%      0.0%      0.0%     
 flops    23 x    62 x    72             27105408     100.0%      0.0%      0.0%     
 flops    23 x    72 x    62             27105408     100.0%      0.0%      0.0%     
 flops    62 x    67 x    27             27142236     100.0%      0.0%      0.0%     
 flops    27 x    62 x    62             27400032     100.0%      0.0%      0.0%     
 flops    67 x    72 x    23             27516096     100.0%      0.0%      0.0%     
 flops    67 x    62 x    27             27590868     100.0%      0.0%      0.0%     
 flops    65 x    65 x    27             27606150     100.0%      0.0%      0.0%     
 flops    62 x    69 x    27             27952452     100.0%      0.0%      0.0%     
 flops    72 x    69 x    23             28337472     100.0%      0.0%      0.0%     
 flops    69 x    72 x    23             28337472     100.0%      0.0%      0.0%     
 flops    69 x    62 x    27             28414476     100.0%      0.0%      0.0%     
 flops    23 x    65 x    72             28416960     100.0%      0.0%      0.0%     
 flops    23 x    72 x    65             28416960     100.0%      0.0%      0.0%     
 flops    67 x    65 x    27             28455570     100.0%      0.0%      0.0%     
 flops    65 x    67 x    27             28455570     100.0%      0.0%      0.0%     
 flops    27 x    62 x    65             28725840     100.0%      0.0%      0.0%     
 flops    27 x    65 x    62             28725840     100.0%      0.0%      0.0%     
 flops    23 x    72 x    23             29251584     100.0%      0.0%      0.0%     
 flops    69 x    65 x    27             29304990     100.0%      0.0%      0.0%     
 flops    65 x    69 x    27             29304990     100.0%      0.0%      0.0%     
 flops    67 x    67 x    27             29331126     100.0%      0.0%      0.0%     
 flops    27 x    62 x    23             29338524     100.0%      0.0%      0.0%     
 flops    23 x    62 x    27             29492532     100.0%      0.0%      0.0%     
 flops    27 x    67 x    62             29609712     100.0%      0.0%      0.0%     
 flops    27 x    65 x    65             30115800     100.0%      0.0%      0.0%     
 flops    67 x    69 x    27             30206682     100.0%      0.0%      0.0%     
 flops    69 x    67 x    27             30206682     100.0%      0.0%      0.0%     
 flops    27 x    69 x    62             30493584     100.0%      0.0%      0.0%     
 flops    62 x    62 x    32             30505984     100.0%      0.0%      0.0%     
 flops    23 x    67 x    72             30622752     100.0%      0.0%      0.0%     
 flops    27 x    65 x    23             30758130     100.0%      0.0%      0.0%     
 flops    23 x    69 x    72             30851280     100.0%      0.0%      0.0%     
 flops    23 x    23 x    47             30879846     100.0%      0.0%      0.0%     
 flops    23 x    65 x    27             30919590     100.0%      0.0%      0.0%     
 flops    27 x    67 x    65             31042440     100.0%      0.0%      0.0%     
 flops    69 x    69 x    27             31108374     100.0%      0.0%      0.0%     
 flops    27 x    67 x    23             31454892     100.0%      0.0%      0.0%     
 flops    23 x    67 x    27             31787748     100.0%      0.0%      0.0%     
 flops    23 x    29 x    23             31878598     100.0%      0.0%      0.0%     
 flops    27 x    69 x    65             31969080     100.0%      0.0%      0.0%     
 flops    65 x    62 x    32             31982080     100.0%      0.0%      0.0%     
 flops    62 x    65 x    32             31982080     100.0%      0.0%      0.0%     
 flops    62 x    67 x    32             32434432     100.0%      0.0%      0.0%     
 flops    32 x    62 x    62             32474112     100.0%      0.0%      0.0%     
 flops    27 x    69 x    23             32565240     100.0%      0.0%      0.0%     
 flops    62 x    81 x    27             32813748     100.0%      0.0%      0.0%     
 flops    23 x    69 x    27             32822334     100.0%      0.0%      0.0%     
 flops    67 x    62 x    32             32966144     100.0%      0.0%      0.0%     
 flops    81 x    72 x    23             33265728     100.0%      0.0%      0.0%     
 flops    72 x    81 x    23             33265728     100.0%      0.0%      0.0%     
 flops    81 x    62 x    27             33356124     100.0%      0.0%      0.0%     
 flops    65 x    65 x    32             33529600     100.0%      0.0%      0.0%     
 flops    69 x    62 x    32             33950208     100.0%      0.0%      0.0%     
 flops    62 x    69 x    32             33950208     100.0%      0.0%      0.0%     
 flops    65 x    67 x    32             34003840     100.0%      0.0%      0.0%     
 flops    32 x    62 x    65             34045440     100.0%      0.0%      0.0%     
 flops    32 x    65 x    62             34045440     100.0%      0.0%      0.0%     
 flops    81 x    65 x    27             34401510     100.0%      0.0%      0.0%     
 flops    65 x    81 x    27             34401510     100.0%      0.0%      0.0%     
 flops    67 x    65 x    32             34561280     100.0%      0.0%      0.0%     
 flops    23 x    62 x    32             35045376     100.0%      0.0%      0.0%     
 flops    67 x    67 x    32             35050112     100.0%      0.0%      0.0%     
 flops    32 x    67 x    62             35092992     100.0%      0.0%      0.0%     
 flops    32 x    62 x    23             35136640     100.0%      0.0%      0.0%     
 flops     9 x     9 x    27             35188830     100.0%      0.0%      0.0%     
 flops    23 x    81 x    72             35411904     100.0%      0.0%      0.0%     
 flops    81 x    67 x    27             35460018     100.0%      0.0%      0.0%     
 flops    67 x    81 x    27             35460018     100.0%      0.0%      0.0%     
 flops    69 x    65 x    32             35592960     100.0%      0.0%      0.0%     
 flops    65 x    69 x    32             35592960     100.0%      0.0%      0.0%     
 flops    32 x    65 x    65             35692800     100.0%      0.0%      0.0%     
 flops    27 x    81 x    62             35796816     100.0%      0.0%      0.0%     
 flops    69 x    67 x    32             36096384     100.0%      0.0%      0.0%     
 flops    32 x    69 x    62             36140544     100.0%      0.0%      0.0%     
 flops    81 x    69 x    27             36518526     100.0%      0.0%      0.0%     
 flops    69 x    81 x    27             36518526     100.0%      0.0%      0.0%     
 flops    67 x    69 x    32             36688128     100.0%      0.0%      0.0%     
 flops    32 x    65 x    23             36741120     100.0%      0.0%      0.0%     
 flops    32 x    67 x    65             36791040     100.0%      0.0%      0.0%     
 flops    23 x    65 x    32             36836800     100.0%      0.0%      0.0%     
 flops    23 x    23 x     9             36878706     100.0%      0.0%      0.0%     
 flops    91 x    72 x    23             37372608     100.0%      0.0%      0.0%     
 flops    72 x    91 x    23             37372608     100.0%      0.0%      0.0%     
 flops    91 x    62 x    27             37474164     100.0%      0.0%      0.0%     
 flops    62 x    91 x    27             37474164     100.0%      0.0%      0.0%     
 flops    27 x    81 x    65             37528920     100.0%      0.0%      0.0%     
 flops    72 x    92 x    23             37783296     100.0%      0.0%      0.0%     
 flops    92 x    72 x    23             37783296     100.0%      0.0%      0.0%     
 flops    69 x    69 x    32             37783296     100.0%      0.0%      0.0%     
 flops    23 x     9 x     9             37848708     100.0%      0.0%      0.0%     
 flops    32 x    67 x    23             37871616     100.0%      0.0%      0.0%     
 flops    23 x    67 x    32             37871616     100.0%      0.0%      0.0%     
 flops    92 x    62 x    27             37885968     100.0%      0.0%      0.0%     
 flops    62 x    92 x    27             37885968     100.0%      0.0%      0.0%     
 flops    32 x    69 x    65             37889280     100.0%      0.0%      0.0%     
 flops    27 x    81 x    23             38329362     100.0%      0.0%      0.0%     
 flops    91 x    65 x    27             38648610     100.0%      0.0%      0.0%     
 flops    23 x    81 x    27             38932974     100.0%      0.0%      0.0%     
 flops    29 x    29 x    23             38995488     100.0%      0.0%      0.0%     
 flops    32 x    69 x    23             39002112     100.0%      0.0%      0.0%     
 flops    23 x    69 x    32             39002112     100.0%      0.0%      0.0%     
 flops    92 x    65 x    27             39073320     100.0%      0.0%      0.0%     
 flops    65 x    91 x    27             39287430     100.0%      0.0%      0.0%     
 flops    65 x    92 x    27             39719160     100.0%      0.0%      0.0%     
 flops    23 x    91 x    72             39783744     100.0%      0.0%      0.0%     
 flops    91 x    67 x    27             39837798     100.0%      0.0%      0.0%     
 flops    81 x    62 x    32             39854592     100.0%      0.0%      0.0%     
 flops    62 x    81 x    32             39854592     100.0%      0.0%      0.0%     
 flops    27 x    91 x    62             40216176     100.0%      0.0%      0.0%     
 flops    23 x    92 x    72             40220928     100.0%      0.0%      0.0%     
 flops    92 x    67 x    27             40275576     100.0%      0.0%      0.0%     
 flops    67 x    91 x    27             40496274     100.0%      0.0%      0.0%     
 flops    27 x    92 x    62             40658112     100.0%      0.0%      0.0%     
 flops    67 x    92 x    27             40941288     100.0%      0.0%      0.0%     
 flops    91 x    69 x    27             41026986     100.0%      0.0%      0.0%     
 flops    92 x    69 x    27             41477832     100.0%      0.0%      0.0%     
 flops     9 x     9 x    32             41523840     100.0%      0.0%      0.0%     
 flops    69 x    91 x    27             41705118     100.0%      0.0%      0.0%     
 flops    81 x    65 x    32             41783040     100.0%      0.0%      0.0%     
 flops    65 x    81 x    32             41783040     100.0%      0.0%      0.0%     
 flops    27 x    91 x    65             42162120     100.0%      0.0%      0.0%     
 flops    69 x    92 x    27             42163416     100.0%      0.0%      0.0%     
 flops    81 x    67 x    32             42374016     100.0%      0.0%      0.0%     
 flops    32 x    81 x    62             42425856     100.0%      0.0%      0.0%     
 flops    27 x    92 x    65             42625440     100.0%      0.0%      0.0%     
 flops    81 x    81 x    27             42869574     100.0%      0.0%      0.0%     
 flops    27 x    91 x    23             43061382     100.0%      0.0%      0.0%     
 flops    67 x    81 x    32             43068672     100.0%      0.0%      0.0%     
 flops    23 x    91 x    27             43287426     100.0%      0.0%      0.0%     
 flops    27 x    92 x    23             43534584     100.0%      0.0%      0.0%     
 flops    23 x    92 x    27             44105904     100.0%      0.0%      0.0%     
 flops    81 x    69 x    32             44354304     100.0%      0.0%      0.0%     
 flops    69 x    81 x    32             44354304     100.0%      0.0%      0.0%     
 flops    23 x    23 x   212             44410608     100.0%      0.0%      0.0%     
 flops    32 x    81 x    65             44478720     100.0%      0.0%      0.0%     
 flops    91 x    62 x    32             44774912     100.0%      0.0%      0.0%     
 flops    62 x    91 x    32             44774912     100.0%      0.0%      0.0%     
 flops    92 x    62 x    32             45266944     100.0%      0.0%      0.0%     
 flops    62 x    92 x    32             45266944     100.0%      0.0%      0.0%     
 flops    32 x    81 x    23             45904320     100.0%      0.0%      0.0%     
 flops    23 x    81 x    32             45904320     100.0%      0.0%      0.0%     
 flops    23 x     9 x    27             45919224     100.0%      0.0%      0.0%     
 flops    27 x     9 x    23             46299276     100.0%      0.0%      0.0%     
 flops    65 x    91 x    32             46941440     100.0%      0.0%      0.0%     
 flops    91 x    65 x    32             46941440     100.0%      0.0%      0.0%     
 flops    92 x    65 x    32             47457280     100.0%      0.0%      0.0%     
 flops    65 x    92 x    32             47457280     100.0%      0.0%      0.0%     
 flops    91 x    67 x    32             47605376     100.0%      0.0%      0.0%     
 flops    32 x    91 x    62             47663616     100.0%      0.0%      0.0%     
 flops    23 x    23 x   228             47762352     100.0%      0.0%      0.0%     
 flops    92 x    67 x    32             48128512     100.0%      0.0%      0.0%     
 flops    91 x    81 x    27             48162114     100.0%      0.0%      0.0%     
 flops    32 x    92 x    62             48187392     100.0%      0.0%      0.0%     
 flops    67 x    91 x    32             48385792     100.0%      0.0%      0.0%     
 flops    23 x    23 x   231             48390804     100.0%      0.0%      0.0%     
 flops    92 x    81 x    27             48691368     100.0%      0.0%      0.0%     
 flops    67 x    92 x    32             48917504     100.0%      0.0%      0.0%     
 flops    81 x    91 x    27             48958182     100.0%      0.0%      0.0%     
 flops    81 x    92 x    27             49496184     100.0%      0.0%      0.0%     
 flops    69 x    91 x    32             49830144     100.0%      0.0%      0.0%     
 flops    91 x    69 x    32             49830144     100.0%      0.0%      0.0%     
 flops    32 x    91 x    65             49969920     100.0%      0.0%      0.0%     
 flops    92 x    69 x    32             50377728     100.0%      0.0%      0.0%     
 flops    69 x    92 x    32             50377728     100.0%      0.0%      0.0%     
 flops    32 x    92 x    65             50519040     100.0%      0.0%      0.0%     
 flops    23 x    91 x    32             51571520     100.0%      0.0%      0.0%     
 flops    32 x    91 x    23             51571520     100.0%      0.0%      0.0%     
 flops    81 x    81 x    32             52068096     100.0%      0.0%      0.0%     
 flops    32 x    92 x    23             52138240     100.0%      0.0%      0.0%     
 flops    23 x    92 x    32             52138240     100.0%      0.0%      0.0%     
 flops    32 x     9 x    23             54210816     100.0%      0.0%      0.0%     
 flops    23 x     9 x    32             54422784     100.0%      0.0%      0.0%     
 flops    91 x    91 x    27             55002402     100.0%      0.0%      0.0%     
 flops    92 x    91 x    27             55606824     100.0%      0.0%      0.0%     
 flops    91 x    92 x    27             55606824     100.0%      0.0%      0.0%     
 flops    92 x    92 x    27             56217888     100.0%      0.0%      0.0%     
 flops    29 x     9 x    27             56700162     100.0%      0.0%      0.0%     
 flops     9 x    29 x    27             57757212     100.0%      0.0%      0.0%     
 flops    62 x    72 x    27             58335552     100.0%      0.0%      0.0%     
 flops    81 x    91 x    32             58496256     100.0%      0.0%      0.0%     
 flops    91 x    81 x    32             58496256     100.0%      0.0%      0.0%     
 flops    72 x    72 x    23             59139072     100.0%      0.0%      0.0%     
 flops    81 x    92 x    32             59139072     100.0%      0.0%      0.0%     
 flops    92 x    81 x    32             59139072     100.0%      0.0%      0.0%     
 flops    72 x    62 x    27             59299776     100.0%      0.0%      0.0%     
 flops    23 x    23 x    29             60412858     100.0%      0.0%      0.0%     
 flops    72 x    65 x    27             61158240     100.0%      0.0%      0.0%     
 flops    65 x    72 x    27             61158240     100.0%      0.0%      0.0%     
 flops    23 x     9 x    29             62095032     100.0%      0.0%      0.0%     
 flops    23 x    29 x     9             62095032     100.0%      0.0%      0.0%     
 flops    72 x    67 x    27             63040032     100.0%      0.0%      0.0%     
 flops    67 x    72 x    27             63040032     100.0%      0.0%      0.0%     
 flops    27 x    62 x    72             63638784     100.0%      0.0%      0.0%     
 flops    27 x    72 x    62             63638784     100.0%      0.0%      0.0%     
 flops    72 x    69 x    27             64921824     100.0%      0.0%      0.0%     
 flops    69 x    72 x    27             64921824     100.0%      0.0%      0.0%     
 flops    91 x    91 x    32             65718016     100.0%      0.0%      0.0%     
 flops    23 x    72 x    72             65816064     100.0%      0.0%      0.0%     
 flops    92 x    91 x    32             66440192     100.0%      0.0%      0.0%     
 flops    91 x    92 x    32             66440192     100.0%      0.0%      0.0%     
 flops    27 x    65 x    72             66718080     100.0%      0.0%      0.0%     
 flops    27 x    72 x    65             66718080     100.0%      0.0%      0.0%     
 flops    29 x     9 x    32             66899520     100.0%      0.0%      0.0%     
 flops    92 x    92 x    32             67170304     100.0%      0.0%      0.0%     
 flops     9 x    29 x    32             67651200     100.0%      0.0%      0.0%     
 flops    27 x    72 x    23             68141088     100.0%      0.0%      0.0%     
 flops    23 x    72 x    27             68498784     100.0%      0.0%      0.0%     
 flops    27 x    62 x    27             68610564     100.0%      0.0%      0.0%     
 flops    62 x    72 x    32             70852608     100.0%      0.0%      0.0%     
 flops    72 x    62 x    32             70852608     100.0%      0.0%      0.0%     
 flops    27 x    67 x    72             71896896     100.0%      0.0%      0.0%     
 flops    27 x    65 x    27             72025200     100.0%      0.0%      0.0%     
 flops    27 x    69 x    72             72433440     100.0%      0.0%      0.0%     
 flops    27 x    23 x    47             72500508     100.0%      0.0%      0.0%     
 flops    23 x    27 x    47             72500508     100.0%      0.0%      0.0%     
 flops    27 x    67 x    27             74241360     100.0%      0.0%      0.0%     
 flops    72 x    65 x    32             74280960     100.0%      0.0%      0.0%     
 flops    65 x    72 x    32             74280960     100.0%      0.0%      0.0%     
 flops    23 x    29 x    27             74521242     100.0%      0.0%      0.0%     
 flops    27 x    29 x    23             74953458     100.0%      0.0%      0.0%     
 flops    72 x    67 x    32             75331584     100.0%      0.0%      0.0%     
 flops    32 x    62 x    72             75423744     100.0%      0.0%      0.0%     
 flops    32 x    72 x    62             75423744     100.0%      0.0%      0.0%     
 flops    81 x    72 x    27             76212576     100.0%      0.0%      0.0%     
 flops    72 x    81 x    27             76212576     100.0%      0.0%      0.0%     
 flops    27 x    69 x    27             76457520     100.0%      0.0%      0.0%     
 flops    67 x    72 x    32             76566528     100.0%      0.0%      0.0%     
 flops    72 x    69 x    32             78852096     100.0%      0.0%      0.0%     
 flops    69 x    72 x    32             78852096     100.0%      0.0%      0.0%     
 flops    32 x    65 x    72             79073280     100.0%      0.0%      0.0%     
 flops    32 x    72 x    65             79073280     100.0%      0.0%      0.0%     
 flops    32 x    72 x    23             81395712     100.0%      0.0%      0.0%     
 flops    23 x    72 x    32             81501696     100.0%      0.0%      0.0%     
 flops    27 x    62 x    32             81744768     100.0%      0.0%      0.0%     
 flops    32 x    62 x    27             82280448     100.0%      0.0%      0.0%     
 flops    27 x    81 x    72             83140992     100.0%      0.0%      0.0%     
 flops    32 x    67 x    72             85211136     100.0%      0.0%      0.0%     
 flops    27 x    23 x     9             85511700     100.0%      0.0%      0.0%     
 flops    91 x    72 x    27             85621536     100.0%      0.0%      0.0%     
 flops    27 x    65 x    32             85700160     100.0%      0.0%      0.0%     
 flops    32 x    69 x    72             85847040     100.0%      0.0%      0.0%     
 flops    32 x    23 x    47             85926528     100.0%      0.0%      0.0%     
 flops    23 x    32 x    47             85926528     100.0%      0.0%      0.0%     
 flops    32 x    65 x    27             86374080     100.0%      0.0%      0.0%     
 flops    23 x    27 x     9             86383584     100.0%      0.0%      0.0%     
 flops    92 x    72 x    27             86562432     100.0%      0.0%      0.0%     
 flops    72 x    91 x    27             87036768     100.0%      0.0%      0.0%     
 flops    72 x    92 x    27             87993216     100.0%      0.0%      0.0%     
 flops    27 x    67 x    32             88221312     100.0%      0.0%      0.0%     
 flops    32 x    29 x    23             88449536     100.0%      0.0%      0.0%     
 flops    23 x    29 x    32             88748352     100.0%      0.0%      0.0%     
 flops    27 x     9 x     9             88800948     100.0%      0.0%      0.0%     
 flops    32 x    67 x    27             89263296     100.0%      0.0%      0.0%     
 flops    27 x    81 x    27             90108774     100.0%      0.0%      0.0%     
 flops    27 x    69 x    32             90974016     100.0%      0.0%      0.0%     
 flops    32 x    69 x    27             91808640     100.0%      0.0%      0.0%     
 flops    81 x    72 x    32             92565504     100.0%      0.0%      0.0%     
 flops    72 x    81 x    32             92565504     100.0%      0.0%      0.0%     
 flops    29 x    29 x    27             93053286     100.0%      0.0%      0.0%     
 flops    27 x    91 x    72             93405312     100.0%      0.0%      0.0%     
 flops    27 x    92 x    72             94431744     100.0%      0.0%      0.0%     
 flops    32 x    62 x    32             97898496     100.0%      0.0%      0.0%     
 flops    32 x    81 x    72             98537472     100.0%      0.0%      0.0%     
 flops    23 x    29 x    29            100622286     100.0%      0.0%      0.0%     
 flops    27 x    91 x    27            100967958     100.0%      0.0%      0.0%     
 flops    27 x    92 x    27            102211632     100.0%      0.0%      0.0%     
 flops    23 x    32 x     9            102619008     100.0%      0.0%      0.0%     
 flops    32 x    65 x    32            102635520     100.0%      0.0%      0.0%     
 flops    32 x    23 x     9            102751488     100.0%      0.0%      0.0%     
 flops    91 x    72 x    32            103993344     100.0%      0.0%      0.0%     
 flops    72 x    91 x    32            103993344     100.0%      0.0%      0.0%     
 flops    27 x    23 x   212            104268384     100.0%      0.0%      0.0%     
 flops    23 x    27 x   212            104268384     100.0%      0.0%      0.0%     
 flops    72 x    92 x    32            105136128     100.0%      0.0%      0.0%     
 flops    92 x    72 x    32            105136128     100.0%      0.0%      0.0%     
 flops    32 x     9 x     9            105318144     100.0%      0.0%      0.0%     
 flops    32 x    67 x    32            105656320     100.0%      0.0%      0.0%     
 flops    27 x    81 x    32            106935552     100.0%      0.0%      0.0%     
 flops    27 x     9 x    27            108243378     100.0%      0.0%      0.0%     
 flops    32 x    81 x    27            108335232     100.0%      0.0%      0.0%     
 flops    32 x    69 x    32            108951552     100.0%      0.0%      0.0%     
 flops    29 x    29 x    32            108993600     100.0%      0.0%      0.0%     
 flops    32 x    91 x    72            110702592     100.0%      0.0%      0.0%     
 flops    32 x    92 x    72            111919104     100.0%      0.0%      0.0%     
 flops    27 x    23 x   228            112137696     100.0%      0.0%      0.0%     
 flops    23 x    27 x   228            112137696     100.0%      0.0%      0.0%     
 flops    27 x    23 x   231            113613192     100.0%      0.0%      0.0%     
 flops    23 x    27 x   231            113613192     100.0%      0.0%      0.0%     
 flops    27 x    91 x    32            119980224     100.0%      0.0%      0.0%     
 flops    32 x    91 x    27            121395456     100.0%      0.0%      0.0%     
 flops    27 x    92 x    32            121457664     100.0%      0.0%      0.0%     
 flops    32 x    92 x    27            123047424     100.0%      0.0%      0.0%     
 flops    32 x    23 x   212            123577344     100.0%      0.0%      0.0%     
 flops    23 x    32 x   212            123577344     100.0%      0.0%      0.0%     
 flops    32 x     9 x    27            127697472     100.0%      0.0%      0.0%     
 flops    32 x    81 x    32            128231424     100.0%      0.0%      0.0%     
 flops    27 x     9 x    32            128786112     100.0%      0.0%      0.0%     
 flops    32 x    23 x   228            132903936     100.0%      0.0%      0.0%     
 flops    23 x    32 x   228            132903936     100.0%      0.0%      0.0%     
 flops    32 x    23 x   231            134652672     100.0%      0.0%      0.0%     
 flops    23 x    32 x   231            134652672     100.0%      0.0%      0.0%     
 flops    72 x    72 x    27            135489024     100.0%      0.0%      0.0%     
 flops    27 x    23 x    29            140001966     100.0%      0.0%      0.0%     
 flops    23 x    27 x    29            141190560     100.0%      0.0%      0.0%     
 flops    32 x    91 x    32            143689728     100.0%      0.0%      0.0%     
 flops    32 x    92 x    32            145457152     100.0%      0.0%      0.0%     
 flops    27 x     9 x    29            145788336     100.0%      0.0%      0.0%     
 flops    27 x    29 x     9            145788336     100.0%      0.0%      0.0%     
 flops    32 x     9 x    32            151363584     100.0%      0.0%      0.0%     
 flops    27 x    72 x    72            154524672     100.0%      0.0%      0.0%     
 flops    27 x    72 x    27            159353568     100.0%      0.0%      0.0%     
 flops    72 x    72 x    32            164560896     100.0%      0.0%      0.0%     
 flops    32 x    23 x    29            168105344     100.0%      0.0%      0.0%     
 flops    23 x    32 x    29            168105344     100.0%      0.0%      0.0%     
 flops    27 x    27 x    47            170013006     100.0%      0.0%      0.0%     
 flops    32 x     9 x    29            172786176     100.0%      0.0%      0.0%     
 flops    32 x    29 x     9            172786176     100.0%      0.0%      0.0%     
 flops    27 x    29 x    27            174920634     100.0%      0.0%      0.0%     
 flops    32 x    72 x    72            183140352     100.0%      0.0%      0.0%     
 flops    27 x    72 x    32            189858816     100.0%      0.0%      0.0%     
 flops    32 x    72 x    27            191725056     100.0%      0.0%      0.0%     
 flops    27 x    27 x     9            200556648     100.0%      0.0%      0.0%     
 flops    32 x    27 x    47            201740544     100.0%      0.0%      0.0%     
 flops    27 x    32 x    47            201740544     100.0%      0.0%      0.0%     
 flops    32 x    29 x    27            206962560     100.0%      0.0%      0.0%     
 flops    27 x    29 x    32            208866816     100.0%      0.0%      0.0%     
 flops    32 x    72 x    32            227377152     100.0%      0.0%      0.0%     
 flops    27 x    29 x    29            236243628     100.0%      0.0%      0.0%     
 flops    27 x    32 x     9            237945600     100.0%      0.0%      0.0%     
 flops    32 x    32 x    47            239099904     100.0%      0.0%      0.0%     
 flops    32 x    27 x     9            240807168     100.0%      0.0%      0.0%     
 flops    27 x    27 x   212            244804032     100.0%      0.0%      0.0%     
 flops    32 x    29 x    32            246417408     100.0%      0.0%      0.0%     
 flops    27 x    27 x   228            263279808     100.0%      0.0%      0.0%     
 flops    27 x    27 x   231            266744016     100.0%      0.0%      0.0%     
 flops    32 x    29 x    29            279992448     100.0%      0.0%      0.0%     
 flops    32 x    32 x     9            285917184     100.0%      0.0%      0.0%     
 flops    32 x    27 x   212            290138112     100.0%      0.0%      0.0%     
 flops    27 x    32 x   212            290138112     100.0%      0.0%      0.0%     
 flops    32 x    27 x   228            312035328     100.0%      0.0%      0.0%     
 flops    27 x    32 x   228            312035328     100.0%      0.0%      0.0%     
 flops    32 x    27 x   231            316141056     100.0%      0.0%      0.0%     
 flops    27 x    32 x   231            316141056     100.0%      0.0%      0.0%     
 flops    27 x    27 x    29            327431808     100.0%      0.0%      0.0%     
 flops    32 x    32 x   212            343867392     100.0%      0.0%      0.0%     
 flops    32 x    32 x   228            369819648     100.0%      0.0%      0.0%     
 flops    32 x    32 x   231            374685696     100.0%      0.0%      0.0%     
 flops    27 x    32 x    29            389771136     100.0%      0.0%      0.0%     
 flops    32 x    27 x    29            392878080     100.0%      0.0%      0.0%     
 flops    32 x    32 x    29            467890176     100.0%      0.0%      0.0%     
 flops inhomo. stacks                  7804661760     100.0%      0.0%      0.0%
 flops total                        38.428669E+09     100.0%      0.0%      0.0%
 flops max/rank                      4.600756E+09     100.0%      0.0%      0.0%
 matmuls inhomo. stacks                     15300     100.0%      0.0%      0.0%
 matmuls total                             510068     100.0%      0.0%      0.0%
 number of processed stacks                215417     100.0%      0.0%      0.0%
 average stack size                                     2.4       0.0       0.0
 marketing flops                    50.131214E+09
 -------------------------------------------------------------------------------
 # multiplications                           4042
 max memory usage/rank              24.211071E+09
 # max total images/rank                        1
 # max 3D layers                                1
 # MPI messages exchanged                   18180
 MPI messages size (bytes):
  total size                         1.620007E+09
  min size                           0.000000E+00
  max size                         426.888000E+03
  average size                      89.109281E+03
 MPI breakdown and total messages size (bytes):
             size <=      128                2450                        0
       128 < size <=     8192                 152                   541216
      8192 < size <=    32768                1926                 33923744
     32768 < size <=   131072                9034                480392560
    131072 < size <=  4194304                4618               1105149184
   4194304 < size <= 16777216                   0                        0
  16777216 < size                               0                        0
 -------------------------------------------------------------------------------
 -                                                                             -
 -                      DBCSR MESSAGE PASSING PERFORMANCE                      -
 -                                                                             -
 -------------------------------------------------------------------------------
 ROUTINE             CALLS      AVE VOLUME [Bytes]
 MP_Bcast              456                     12.
 MP_Allreduce         3033                     16.
 MP_Alltoall          3385                  36831.
 MP_ISend             7634                  28458.
 MP_IRecv             7640                  26342.
 -------------------------------------------------------------------------------

 -------------------------------------------------------------------------------
 -                                                                             -
 -                                GRID STATISTICS                              -
 -                                                                             -
 -------------------------------------------------------------------------------
 LP    KERNEL             BACKEND                              COUNT     PERCENT
 4     collocate ortho    CPU                                  11408      20.65%
 4     integrate ortho    CPU                                  11408      20.65%
 2     collocate ortho    CPU                                  11264      20.39%
 2     integrate ortho    CPU                                  11264      20.39%
 6     collocate ortho    CPU                                   4624       8.37%
 6     integrate ortho    CPU                                   4624       8.37%
 0     collocate general  CPU                                    648       1.17%
 -------------------------------------------------------------------------------

 -------------------------------------------------------------------------------
 -                                                                             -
 -                          OFFLOAD MEMPOOL STATISTICS                         -
 -                                                                             -
 -------------------------------------------------------------------------------
 Memory consumption                Number of allocations  Used [MiB]  Size [MiB]
 Host                                                  6          95    22301885
 -------------------------------------------------------------------------------

 MEMORY| Estimated peak process memory [MiB]                                2389

 -------------------------------------------------------------------------------
 -                                                                             -
 -                         MESSAGE PASSING PERFORMANCE                         -
 -                                                                             -
 -------------------------------------------------------------------------------

 ROUTINE             CALLS      AVE VOLUME [Bytes]
 MP_Group                5
 MP_Bcast              367                 275277.
 MP_Allreduce         1899                   5145.
 MP_Sync                10
 MP_Alltoall            46               86089565.
 MP_SendRecv            32                 660672.
 MP_ISendRecv           32                 660672.
 MP_Wait               176
 MP_comm_split          10
 MP_ISend              117                3595290.
 MP_IRecv              117                3596844.
 -------------------------------------------------------------------------------


 -------------------------------------------------------------------------------
 -                                                                             -
 -                           R E F E R E N C E S                               -
 -                                                                             -
 -------------------------------------------------------------------------------
 
 CP2K version 2026.2 (Development Version), the CP2K developers group (2026).
 CP2K is freely available from https://www.cp2k.org/ .
 
 M. Iannuzzi, J. Wilhelm, F. Stein, A. Bussy, H. Elgabarty, D. Golze, A. Hehn, 
 M. Graml, S. Marek, B. Sertcan Gökmen, C. Schran, H. Forbert, R. Z. 
 Khaliullin, A. Kozhevnikov, M. Taillefumier, R. Meli, V. V. Rybkin, M. Brehm, 
 R. Schade, O. Schütt, J. V. Pototschnig, H. Mirhosseini, A. Knüpfer, D. Marx, 
 M. Krack, J. Hutter, T. D. Kühne.
 J. Phys. Chem. B 130, 1237-1310 (2026).
 The CP2K Program Package Made Simple.
 https://doi.org/10.1021/acs.jpcb.5c05851

 M. Graml, K. Zollner, D. Hernangómez-Pérez, P. E. Faria Junior, J. Wilhelm.
 J. Chem. Theory Comput. 20, 2202-2208 (2024).
 Low-scaling GW algorithm applied to twisted transition-metal dichalcogenide 
 heterobilayers.
 https://doi.org/10.1021/acs.jctc.3c01230

 T. D. Kühne, M. Iannuzzi, M. Del Ben, V. V. Rybkin, P. Seewald, F. Stein, T. 
 Laino, R. Z. Khaliullin, O. Schütt, F. Schiffmann, D. Golze, J. Wilhelm, S. 
 Chulkov, M. H. Bani-Hashemian, V. Weber, U. Borstnik, M. Taillefumier, A. S. 
 Jakobovits, A. Lazzaro, H. Pabst, T. Müller, R. Schade, M. Guidon, S. 
 Andermatt, N. Holmberg, G. K. Schenter, A. Hehn, A. Bussy, F. Belleflamme, G. 
 Tabacchi, A. Glöß, M. Lass, I. Bethune, C. J. Mundy, C. Plessl, M. Watkins, 
 J. VandeVondele, M. Krack, J. Hutter.
 J. Chem. Phys. 152, 194103 (2020).
 CP2K: An electronic structure and molecular dynamics software package - 
 Quickstep: Efficient and accurate electronic structure calculations.
 https://doi.org/10.1063/5.0007045

 O. Schuett, P. Messmer, J. Hutter, J. VandeVondele.
 Electronic Structure Calculations on Graphics Processing Units, 173-190 (2016).
 GPU-Accelerated Sparse Matrix-Matrix Multiplication for Linear Scaling Density 
 Functional Theory.
 https://doi.org/10.1002/9781118670712.ch8

 U. Borstnik, J. VandeVondele, V. Weber, J. Hutter.
 Parallel Comput. 40, 47-58 (2014).
 Sparse matrix multiplication: The distributed block-compressed sparse row 
 library.
 https://doi.org/10.1016/j.parco.2014.03.012

 J. VandeVondele, J. Hutter.
 J. Chem. Phys. 127, 114105 (2007).
 Gaussian basis sets for accurate calculations on molecular systems in gas and 
 condensed phases.
 https://doi.org/10.1063/1.2770708

 J. VandeVondele, M. Krack, F. Mohamed, M. Parrinello, T. Chassaing, J. Hutter.
 Comput. Phys. Commun. 167, 103-128 (2005).
 QUICKSTEP: Fast and accurate density functional calculations using a mixed 
 Gaussian and plane waves approach.
 https://doi.org/10.1016/j.cpc.2004.12.014

 M. Krack.
 Theor. Chem. Acc. 114, 145-152 (2005).
 Pseudopotentials for H to Kr optimized for gradient-corrected 
 exchange-correlation functionals.
 https://doi.org/10.1007/s00214-005-0655-y

 M. Frigo, S. G. Johnson.
 Proc. IEEE 93, 216-231 (2005).
 The design and implementation of FFTW3.
 https://doi.org/10.1109/JPROC.2004.840301

 J. VandeVondele, J. Hutter.
 J. Chem. Phys. 118, 4365-4369 (2003).
 An efficient orbital transformation method for electronic structure 
 calculations.
 https://doi.org/10.1063/1.1543154

 C. Hartwigsen, S. Goedecker, J. Hutter.
 Phys. Rev. B 58, 3641-3662 (1998).
 Relativistic separable dual-space Gaussian pseudopotentials from H to Rn.
 https://doi.org/10.1103/PhysRevB.58.3641

 G. Lippert, J. Hutter, M. Parrinello.
 Mol. Phys. 92, 477-487 (1997).
 A hybrid Gaussian and plane wave density functional scheme.
 https://doi.org/10.1080/002689797170220

 S. Goedecker, M. Teter, J. Hutter.
 Phys. Rev. B 54, 1703-1710 (1996).
 Separable dual-space Gaussian pseudopotentials.
 https://doi.org/10.1103/PhysRevB.54.1703

 J. P. Perdew, K. Burke, M. Ernzerhof.
 Phys. Rev. Lett. 77, 3865-3868 (1996).
 Generalized gradient approximation made simple.
 https://doi.org/10.1103/PhysRevLett.77.3865

 P. E. Blöchl.
 J. Chem. Phys. 103, 7422-7428 (1995).
 Electrostatic decoupling of periodic images of plane‐wave‐expanded 
 densities and derived atomic point charges.
 https://doi.org/10.1063/1.470314

 R. H. Byrd, P. H. Lu, J. Nocedal, C. Y. Zhu.
 SIAM J. Sci. Comput. 16, 1190-1208 (1995).
 A Limited Memory Algorithm for Bound Constrained Optimization.
 https://doi.org/10.1137/0916069


 -------------------------------------------------------------------------------
 -                                                                             -
 -                                T I M I N G                                  -
 -                                                                             -
 -------------------------------------------------------------------------------
 SUBROUTINE                       CALLS  ASD         SELF TIME        TOTAL TIME MAXRANK
                                MAXIMUM       AVERAGE  MAXIMUM  AVERAGE  MAXIMUM
 CP2K                                 1  1.0    0.010    0.022  108.276  108.276       0
 qs_energies                          1  2.0    0.000    0.000  107.303  107.303       2
 qs_energies_properties               1  3.0    0.000    0.000  103.625  103.625       8
 post_scf_bandstructure               1  4.0    0.000    0.000  103.624  103.625       5
 run_gw                               1  5.0    0.000    0.000  103.589  103.607       2
 gw_calc_ri_rs_non_periodic           1  6.0    0.000    0.000  100.813  100.936       1
 optimize_ri_rs_grid                  1  7.0    0.000    0.000   99.430   99.538       0
 rirs_grid_LBFGS                      1  8.0    1.620    1.655   96.436   96.461       5
 evaluate_rirs_grid_cluster         301  9.0    5.074    5.743   92.294   94.731       4
 rirs_cluster_gradient_products     301 10.0   27.464   27.822   27.464   27.822       4
 rirs_cluster_gradient_coordina     301 10.0   18.829   19.137   18.829   19.137       8
 rirs_cluster_residual              301 10.0   13.855   14.687   13.855   14.687       4
 rirs_cluster_AO_products           301 10.0   11.218   12.799   11.218   12.799       4
 rirs_cluster_d_lP                  301 10.0    9.033    9.109    9.033    9.109       1
 rirs_cluster_D_ll                  301 10.0    6.820    7.357    6.820    7.357       5
 mp_sum_d                           724  4.7    2.594    5.774    2.594    5.774       7
 create_and_init_bs_env_for_gw        1  6.0    0.003    0.005    2.776    2.972       6
 qs_ks_build_kohn_sham_matrix         2  7.5    0.001    0.001    2.803    2.803       2
 scf_env_do_scf                       1  3.0    0.000    0.000    2.789    2.789       0
 rirs_grid_build_clusters             1  8.0    1.694    1.717    2.663    2.695       0
 fft_wrap_pw1pw2                     28 10.0    0.001    0.001    2.565    2.682       1
 fft_wrap_pw1pw2_300                 16 11.2    0.133    0.202    2.452    2.576       5
 fft3d_ps                            28 12.0    0.992    1.192    1.912    2.288       4
 init_scf_loop                        1  4.0    0.000    0.000    2.173    2.173       2
 qs_ks_update_qs_env                  2  5.0    0.000    0.000    2.170    2.170       2
 rebuild_ks_matrix                    1  6.0    0.000    0.000    2.170    2.170       7
 generate_auto_ri_basis               1  7.0    0.000    0.000    1.830    1.830       8
 qs_vxc_create                        2  8.5    0.000    0.000    1.497    1.525       6
 xc_vxc_pw_create                     1  9.0    0.022    0.027    1.497    1.525       4
 mp_alltoall_z22v                    28 14.0    0.568    1.494    0.568    1.494       8
 qs_rho_update_rho_low                2  5.0    0.000    0.000    1.239    1.239       3
 calculate_rho_elec                   2  6.0    0.027    0.028    1.239    1.239       6
 xc_pw_derive                         6 11.0    0.000    0.000    1.119    1.221       6
 abc_contract_xsmm                16225  9.1    1.070    1.179    1.070    1.179       1
 compute_AB_optimized_RI_basis        1  8.0    0.000    0.000    1.029    1.029       8
 compute_AB_optimized_RI_basis_       1  9.0    0.000    0.000    1.012    1.028       1
 density_rs2pw                        2  7.0    0.000    0.000    0.826    0.975       5
 yz_to_x                             14 12.2    0.143    0.202    0.468    0.934       2
 compute_B_PQ_AB                      4 10.0    0.123    0.233    0.488    0.893       0
 mp_sum_dm                           62 10.9    0.616    0.862    0.616    0.862       3
 xc_pw_divergence                     1 10.0    0.000    0.000    0.745    0.831       5
 xc_rho_set_and_dset_create           1 10.0    0.020    0.039    0.706    0.763       4
 x_to_yz                             14 13.8    0.206    0.256    0.449    0.745       1
 qs_init_subsys                       1  2.0    0.001    0.001    0.700    0.702       0
 qs_env_setup                         1  3.0    0.000    0.000    0.699    0.700       8
 qs_env_rebuild_pw_env                2  3.5    0.000    0.000    0.698    0.700       8
 pw_env_rebuild                       1  5.0    0.000    0.000    0.698    0.700       8
 pw_grid_setup                        5  5.2    0.000    0.000    0.687    0.688       8
 pw_grid_setup_internal               5  6.2    0.012    0.012    0.687    0.688       6
 cp_fm_get_submatrix                 58 10.0    0.000    0.000    0.492    0.681       0
 compute_M_pq_inv_and_V_pq            1  8.0    0.000    0.000    0.651    0.651       8
 init_scf_run                         1  3.0    0.000    0.000    0.642    0.642       1
 scf_env_initial_rho_setup            1  4.0    0.000    0.000    0.642    0.642       0
 compute_W                            1  7.0    0.000    0.000    0.641    0.641       1
 compute_V_xc                         1  7.0    0.000    0.000    0.634    0.634       0
 scf_env_do_scf_inner_loop            1  4.0    0.000    0.000    0.616    0.616       0
 pw_grid_sort                         5  7.2    0.399    0.417    0.581    0.598       5
 compute_contracted_RI_matrix         2  9.0    0.000    0.000    0.593    0.593       8
 compute_optimized_RI_matrix_bl      10 10.0    0.058    0.083    0.420    0.590       7
 sum_up_and_integrate                 2  8.5    0.000    0.000    0.530    0.556       5
 integrate_v_rspace                   2  9.5    0.000    0.000    0.523    0.553       5
 potential_pw2rs                      2 10.5    0.001    0.001    0.510    0.540       5
 compute_M_PQ_AB                    416 11.0    0.000    0.001    0.378    0.525       7
 compute_M_PQ                       416 12.0    0.000    0.001    0.378    0.524       7
 int_operators_r12_ab_os            416 13.0    0.000    0.000    0.377    0.524       7
 int_operator_ab_os_low             416 14.0    0.157    0.220    0.377    0.524       7
 contract_B_PQ                       18 11.9    0.255    0.473    0.277    0.511       0
 setup_time_and_frequency_minim       1  7.0    0.000    0.000    0.271    0.468       0
 build_minimax_time_frequency_g       1  8.0    0.000    0.000    0.271    0.468       1
 fit_l_sq_weights                     3  9.0    0.271    0.468    0.271    0.468       5
 compute_fm_W_freq                   30  8.0    0.000    0.000    0.436    0.443       8
 initialize_ri_rs_grid                1  8.0    0.117    0.184    0.330    0.438       0
 qs_ks_ddapc                          2  8.5    0.000    0.000    0.393    0.438       2
 cp_fm_gemm                         434 10.5    0.413    0.432    0.413    0.432       4
 parallel_gemm_fm_gemm              431  9.6    0.000    0.000    0.413    0.432       2
 transfer_rs2pw                       9  7.8    0.000    0.000    0.198    0.394       5
 grid_collocate_task_list             2  7.0    0.359    0.392    0.359    0.392       0
 mp_waitany                         117 11.3    0.145    0.374    0.145    0.374       8
 copy_dbcsr_to_fm                   104  9.5    0.224    0.366    0.227    0.369       0
 transfer_rs2pw_300                   3  8.3    0.069    0.082    0.166    0.356       1
 pw_poisson_solve                     2  8.5    0.000    0.000    0.330    0.349       2
 mp_bcast_dm                         40  9.1    0.214    0.330    0.214    0.330       3
 compute_Sigma_c_and_QP_energie       1  7.0    0.000    0.000    0.313    0.330       8
 compute_Sigma_c                      1  8.0    0.002    0.003    0.290    0.290       5
 compute_B_PQ_transition              9 10.9    0.000    0.000    0.138    0.256       0
 compute_B_PQ_exchange                9 10.9    0.000    0.000    0.139    0.256       1
 qs_energies_init_hamiltonians        1  3.0    0.000    0.000    0.247    0.247       3
 qs_env_update_s_mstruct              1  4.0    0.000    0.000    0.245    0.246       0
 pw_derive                           12 11.2    0.217    0.246    0.217    0.246       5
 pw_copy                             28 10.5    0.222    0.245    0.222    0.245       0
 create_qs_kind_set                   1  2.0    0.000    0.000    0.237    0.239       8
 read_qs_kind                         3  3.0    0.078    0.082    0.237    0.239       0
 compute_Z_lP                         1  7.0    0.000    0.000    0.235    0.235       2
 compute_Z_lP_auto_ri                 1  8.0    0.000    0.000    0.235    0.235       8
 contract_grid_panels_sigma_c        30  9.0    0.213    0.214    0.233    0.233       3
 compute_d_lp_auto_ri_batch           1  9.0    0.000    0.000    0.120    0.226       1
 calculate_rho_core                   1  5.0    0.014    0.015    0.221    0.226       4
 compute_d_lp_auto_ri_atom            1 10.0    0.062    0.203    0.120    0.226       0
 pw_gather_p                         14 11.2    0.199    0.218    0.199    0.218       2
 pw_scatter_p                        14 12.8    0.182    0.212    0.182    0.212       5
 pw_poisson_set                       3  8.3    0.000    0.000    0.192    0.210       1
 cp_ddapc_apply_CD                    2  9.5    0.000    0.000    0.095    0.194       0
 sort_shells                          5  8.2    0.182    0.184    0.182    0.184       8
 get_mat_chi_Gamma_tau                1  7.0    0.000    0.001    0.179    0.179       0
 operator2                       199856 15.0    0.130    0.177    0.130    0.177       7
 contract_grid_panels                31  8.0    0.146    0.151    0.160    0.165       1
 parser_read_line                 42904  4.0    0.008    0.008    0.159    0.162       8
 fft_wrap_pw1pw2_100                  4 10.8    0.005    0.006    0.089    0.161       2
 parser_read_line_low                49  5.0    0.009    0.060    0.152    0.154       0
 pw_integral_ab_c1d_c1d_gs            4 10.0    0.097    0.106    0.113    0.154       4
 broadcast_input_information         49  6.0    0.009    0.017    0.143    0.151       0
 xc_functional_eval                   1 11.0    0.000    0.000    0.104    0.150       6
 pbe_lda_eval                         1 12.0    0.104    0.150    0.104    0.150       5
 compute_AA_optimized_RI_basis        1  8.0    0.001    0.001    0.149    0.149       4
 transfer_pw2rs                       8 11.5    0.000    0.000    0.149    0.149       2
 get_ddapc                            2 10.5    0.000    0.000    0.040    0.139       6
 ab_contract                     201571 14.9    0.091    0.128    0.091    0.128       7
 transfer_pw2rs_300                   2 12.5    0.050    0.060    0.108    0.115       4
 -------------------------------------------------------------------------------

 The number of warnings for this run is : 0
 
 -------------------------------------------------------------------------------
  **** **** ******  **  PROGRAM ENDED AT                 2026-10-03 12:03:58.412
 ***** ** ***  *** **   PROGRAM RAN ON                                  n2cn1001
 **    ****   ******    PROGRAM RAN BY                                  eprop2d1
 ***** **    ** ** **   PROGRAM PROCESS ID                               1205238
  **** **  *******  **  PROGRAM STOPPED IN /scratch/hpc-prf-metdyn/eprop2d1_Jan/
                                           53_benchmark_RI_opt/418_gw100_fig5_fu
                                           ll_epsfilter_1e12_20261002/calculatio
                                           ns/rc5p0/ri5_rs03/71_C2H5OH
