 DBCSR| CPU Multiplication driver                                           XSMM (U)
 DBCSR| Multrec recursion limit                                              512 (U)
 DBCSR| Multiplication stack size                                           1000 (D)
 DBCSR| Maximum elements for images                                    UNLIMITED (U)
 DBCSR| Multiplicative factor virtual images                                   1 (U)
 DBCSR| Use multiplication densification                                       T (D)
 DBCSR| Multiplication size stacks                                             3 (U)
 DBCSR| Use memory pool for CPU allocation                                     F (U)
 DBCSR| Number of 3D layers                                               SINGLE (U)
 DBCSR| Use MPI memory allocation                                              F (U)
 DBCSR| Use RMA algorithm                                                      F (U)
 DBCSR| Use Communication thread                                               T (U)
 DBCSR| Communication thread load                                             64 (D)
 DBCSR| MPI: My process id                                                     0
 DBCSR| MPI: Number of processes                                              17
 DBCSR| OMP: Current number of threads                                         7
 DBCSR| OMP: Max number of threads                                             7
 DBCSR| Split modifier for TAS multiplication algorithm                  1.0E+00 (U)


  **** **** ******  **  PROGRAM STARTED AT               2026-10-03 11:49:12.799
 ***** ** ***  *** **   PROGRAM STARTED ON                              n2cn0933
 **    ****   ******    PROGRAM STARTED BY                              eprop2d1
 ***** **    ** ** **   PROGRAM PROCESS ID                               1019679
  **** **  *******  **  PROGRAM STARTED IN /scratch/hpc-prf-metdyn/eprop2d1_Jan/
                                           53_benchmark_RI_opt/418_gw100_fig5_fu
                                           ll_epsfilter_1e12_20261002/calculatio
                                           ns/rc0p5/ri4_rs04/21_C2H6

 CP2K| version string:                 CP2K version 2026.2 (Development Version)
 CP2K| source code revision number:                                   0671c5aa6c
 CP2K| cp2kflags: omp libint fftw3 libxc parallel scalapack openblas            
 CP2K| is freely available from                            https://www.cp2k.org/
 CP2K| Program compiled at                                   2026-09-20 09:25:26
 CP2K| Program compiled on                                              n2login5
 CP2K| Program compiled for                                               x86_64
 CP2K| Data directory path    /scratch/hpc-prf-metdyn/eprop2d1_Jan/53_benchmark_
 CP2K| Input file name                                                 input.inp
 
 eprop2d1@n2cn0933 has created rank and process                      0   1019679
 eprop2d1@n2cn0933 has created rank and process                      1   1019680
 eprop2d1@n2cn0933 has created rank and process                      2   1019681
 eprop2d1@n2cn0933 has created rank and process                      3   1019682
 eprop2d1@n2cn0933 has created rank and process                      4   1019683
 eprop2d1@n2cn0933 has created rank and process                      5   1019684
 eprop2d1@n2cn0933 has created rank and process                      6   1019685
 eprop2d1@n2cn0933 has created rank and process                      7   1019686
 
 eprop2d1@n2cn0933 is running                                        8 processes

 GLOBAL| Force Environment number                                              1
 GLOBAL| Basis set file name            /scratch/hpc-prf-metdyn/eprop2d1_Jan/53_
 GLOBAL| Potential file name            /scratch/hpc-prf-metdyn/eprop2d1_Jan/53_
 GLOBAL| MM Potential file name                                     MM_POTENTIAL
 GLOBAL| Coordinate file name                                      __STD_INPUT__
 GLOBAL| Method name                                                        CP2K
 GLOBAL| Project name                                             g418_a404_m021
 GLOBAL| Run type                                                         ENERGY
 GLOBAL| FFT library                                                       FFTW3
 GLOBAL| Diagonalization library                                       ScaLAPACK
 GLOBAL| Cholesky decomposition library                                ScaLAPACK
 GLOBAL| DGEMM library                                                      BLAS
 GLOBAL| Direct generalized diagonalization requested                          F
 GLOBAL| Orthonormality check for eigenvectors                          DISABLED
 GLOBAL| Matrix multiplication library                                 ScaLAPACK
 GLOBAL| All-to-all communication in single precision                          F
 GLOBAL| Grid backend                                                       AUTO
 GLOBAL| Global print level                                                  LOW
 GLOBAL| MPI I/O enabled                                                       T
 GLOBAL| Total number of message passing processes                             8
 GLOBAL| Number of distributed systems (nodes)                                 1
 GLOBAL| Number of threads for this process                                    7
 GLOBAL| This output is from process                                           0
 GLOBAL| OpenMP stack size per thread (OMP_STACKSIZE)                       512M
 GLOBAL| CPU model name                          AMD EPYC 7763 64-Core Processor

 MEMORY| system memory details [Kb]
 MEMORY|                        rank 0           min           max       average
 MEMORY| MemTotal            263897604     263897604     263897604     263897604
 MEMORY| MemFree             237305084     237305084     237305084     237305084
 MEMORY| Buffers                205280        205280        205280        205280
 MEMORY| Cached                7597104       7597104       7597104       7597104
 MEMORY| Slab                  1604236       1604236       1604236       1604236
 MEMORY| SReclaimable           282828        282828        282828        282828
 MEMORY| MemLikelyFree       245390296     245390296     245390296     245390296


 GENERATE|  Preliminary Number of Bonds generated:                             0
 GENERATE|  Achieved consistency in connectivity generation.

 *******************************************************************************
 *******************************************************************************
 **                                                                           **
 **     #####                         ##              ##                      **
 **    ##   ##            ##          ##              ##                      **
 **   ##     ##                       ##            ######                    **
 **   ##     ##  ##   ##  ##   #####  ##  ##   ####   ##    #####    #####    **
 **   ##     ##  ##   ##  ##  ##      ## ##   ##      ##   ##   ##  ##   ##   **
 **   ##  ## ##  ##   ##  ##  ##      ####     ###    ##   ######   ######    **
 **    ##  ###   ##   ##  ##  ##      ## ##      ##   ##   ##       ##        **
 **     #######   #####   ##   #####  ##  ##  ####    ##    #####   ##        **
 **           ##                                                    ##        **
 **                                                                           **
 **                                                ... make the atoms dance   **
 **                                                                           **
 **            Copyright (C) by CP2K developers group (2000-2026)             **
 **                      J. Chem. Phys. 152, 194103 (2020)                    **
 **                                                                           **
 *******************************************************************************


 TOTAL NUMBERS AND MAXIMUM NUMBERS

  Total number of            - Atomic kinds:                                   2
                             - Atoms:                                          8
                             - Shell sets:                                     8
                             - Shells:                                        48
                             - Primitive Cartesian functions:                 50
                             - Cartesian basis functions:                    122
                             - Spherical basis functions:                    112

  Maximum angular momentum of- Orbital basis functions:                        3
                             - Local part of the GTH pseudopotential:          2
                             - Non-local part of the GTH pseudopotential:      0


 SCF PARAMETERS         Density guess:                                   RESTART
                        --------------------------------------------------------
                        max_scf:                                             500
                        max_scf_history:                                       0
                        max_diis:                                              4
                        --------------------------------------------------------
                        eps_scf:                                        1.00E-08
                        eps_scf_history:                                0.00E+00
                        eps_diis:                                       0.00E+00
                        eps_eigval:                                     1.00E-05
                        --------------------------------------------------------
                        level_shift [a.u.]:                             0.000000
                        --------------------------------------------------------
                        Outer loop SCF in use 
                        No variables optimised in outer loop
                        eps_scf                                         1.00E-08
                        max_scf                                               20
                        No outer loop optimization
                        step_size                                       5.00E-01

 Extrapolation method: initial_guess

 Number of electrons:                                                         14
 Number of occupied orbitals:                                                  7
 Number of molecular orbitals:                                                 7

 Number of orbital functions:                                                112
 Number of independent orbital functions:                                    112


 SCF WAVEFUNCTION OPTIMIZATION

  ----------------------------------- OT ---------------------------------------
  Minimizer      : DIIS                : direct inversion
                                         in the iterative subspace
                                         using   7 DIIS vectors
                                         safer DIIS on
  Preconditioner : FULL_KINETIC        : inversion of T + eS
  Lattice FFT   : OFF
  Precond_solver : DEFAULT
  stepsize       :    0.15000000                  energy_gap     :    0.20000000
  eps_taylor     :   0.10000E-15                  max_taylor     :             4
  ----------------------------------- OT ---------------------------------------

  Step     Update method      Time    Convergence         Total energy    Change
  ------------------------------------------------------------------------------
  Decoupling Energy:                                              -0.0000000071
     1 OT DIIS     0.15E+00    1.8     0.00000001       -14.9567504163 -1.50E+01
  Decoupling Energy:                                              -0.0000000071
     2 OT DIIS     0.15E+00    2.4     0.00000001       -14.9567504163 -1.78E-14
  Decoupling Energy:                                              -0.0000000071
     3 OT DIIS     0.15E+00    2.4     0.00000001       -14.9567504163 -2.66E-14
  Decoupling Energy:                                              -0.0000000071
     4 OT DIIS     0.15E+00    2.4     7.8402E-09       -14.9567504163  3.55E-15

  *** SCF run converged in     4 steps ***


  Electronic density on regular grids:        -14.0000000000        0.0000000000
  Core density on regular grids:               14.0000000000       -0.0000000000
  Total charge density on r-space grids:       -0.0000000000
  Total charge density g-space grids:          -0.0000000000

  Overlap energy of the core charge distribution:               0.00000169333833
  Self energy of the core charge distribution:                -35.13285960674677
  Core Hamiltonian energy:                                     11.41502065842774
  Hartree energy:                                              14.42064200071886
  Exchange-correlation energy:                                 -5.65955516203301

  Total energy:                                               -14.95675041629486

  outer SCF iter =    1 RMS gradient =   0.78E-08 energy =        -14.9567504163
  outer SCF loop converged in   1 iterations or    4 steps

  
 -------------------------------------------------------------------------------
 -                                                                             -
 -                          BANDSTRUCTURE CALCULATION                          -
 -                                                                             -
 -------------------------------------------------------------------------------
  
 Number of occupied molecular orbitals (MOs) = Number of occupied bands        7
 Number of unoccupied (= virtual) MOs = Number of unoccupied bands           105
 Number of Gaussian basis functions for MOs                                  112
  
 -------------------------------------------------------------------------------
 -                                                                             -
 -                                GW CALCULATION                               -
 -                                                                             -
 -------------------------------------------------------------------------------
  
 Input: Number of time/freq. points                                           30
 Input: ω_max for fitting Σ(iω) (eV)                                        10.0
 Input: Filter threshold for sparse tensor operations                    1.0E-12
 Input: Apply Hedin shift                                                      F
 Detected: Available memory per MPI process                              26.3 GB
 
 Input: RI-RS Tikhonov regularization                                   1.00E-04
 Input: AO grid hard cutoff radius                                        8.00 Å
 Input: MPI ranks per atom in Z_lP solve                                      -1
 Input: Keep sparsity in χ/G/W panels                                          T
 Input: GW flavour                                                          G0W0
 
 Input: RI-RS grid optimization activated                                      T
 Input: RS points per AO function                                            4.0
 Input: Cutoff radius for atomic clusters                                  0.5 Å
 Input: Maximum grid optimization iterations                                 300
 
 Input: AUTO_RI basis optimization activated:                                  T
 Input: AUTO_RI number of RI functions per AO function:                      4.0
 Input: AUTO_RI frontier orbital window:                                  5.0 eV
 Input: AUTO_RI neighbor radius:                                           3.0 Å
 
 Cutoff radius for the truncated Coulomb operator in RI metric:            7.0 Å
 Regularization parameter of RI                                          0.0E+00
 Regularization parameter of minimax grids                               1.0E-06
 
 AUTO_RI| Number of automatic RI functions for χ, ε, W:                      448
 AUTO_RI| Total RI basis optimization time:                                1.3 s
  Decoupling Energy:                                              -0.0000000071
 
 SCF direct band gap (eV)                                                   7.90
 Max. SCF eigval diff. (eV)                                               256.87
 E-Range for minimax grid                                                  32.49
 Number of Padé parameters for analytic continuation:                         16
 
 RI-RS basis radii (Å):
     Kind  Elem     r_AO (Å)     r_RI (Å)
        1    C        15.9835       10.1279
        2    H        13.9082        8.7963
 
 Started RI-RS grid optimization
 RI-RS grid initial normalized error                          8.160251937874E-02
 RI-RS grid optimization completed, execution time:                        0.7 s
 Normalized 3C error:                                                    7.6E-04
 Maximum absolute 3C error:                                              4.2E-01
 Optimized points outside molecular Voronoi cells:                           174 / 448
 Total grid points used for RI-RS:                                           448
 
 RI-RS grid row-blocks of ϕ_μ(r_l)                                            20
 RI-RS grid points per block (max)                                            32
 
 Percentage of non-zero matrix elements in ϕ_μ(r_l)                     100.00 %
 
 RI-RS memory estimate per MPI process:
   Available memory per process (system)                                31.11 GB
   Required for Z_lP (dense upper bound; actual is sparser)              0.00 GB
   Required for χ, W, Σ panels (peak per panel step)                     0.00 GB
   Required for Z_lP solve peak (D_local+ϕ, worst-case atom)             0.00 GB
   Worst-case local-grid number of grid points:                              448
   Worst-case memory D_local:                                            0.00 GB
 
 Started computing Z_lP
 Computed Z_lP (MPI rank 0) for atom          1 /  1,    Execution time    0.1 s
 Computed Z_lP (all MPI ranks) for all atoms,            Execution time    0.1 s

 Memory per MPI process after computing Z_lP:
 Available memory per MPI process                               31.1 GB
 Used memory per MPI process                                     1.3 GB
 Number of batches for χ, Σ matrices                                           1
 
 Percentage of non-zero matrix elements in Z_lP                         100.00 %
 Percentage of non-zero matrix elements in G_ll', χ_ll', W_ll'          100.00 %
 Percentage of non-zero matrix elements in χ_PQ for time point 1        100.00 %
 
 Computed χ(iτ,k=0) for time point            1 / 30,    Execution time    0.0 s
 Computed χ(iτ,k=0) for time point            2 / 30,    Execution time    0.0 s
 Computed χ(iτ,k=0) for time point            3 / 30,    Execution time    0.0 s
 Computed χ(iτ,k=0) for time point            4 / 30,    Execution time    0.0 s
 Computed χ(iτ,k=0) for time point            5 / 30,    Execution time    0.0 s
 Computed χ(iτ,k=0) for time point            6 / 30,    Execution time    0.0 s
 Computed χ(iτ,k=0) for time point            7 / 30,    Execution time    0.0 s
 Computed χ(iτ,k=0) for time point            8 / 30,    Execution time    0.0 s
 Computed χ(iτ,k=0) for time point            9 / 30,    Execution time    0.0 s
 Computed χ(iτ,k=0) for time point           10 / 30,    Execution time    0.0 s
 Computed χ(iτ,k=0) for time point           11 / 30,    Execution time    0.0 s
 Computed χ(iτ,k=0) for time point           12 / 30,    Execution time    0.0 s
 Computed χ(iτ,k=0) for time point           13 / 30,    Execution time    0.0 s
 Computed χ(iτ,k=0) for time point           14 / 30,    Execution time    0.0 s
 Computed χ(iτ,k=0) for time point           15 / 30,    Execution time    0.0 s
 Computed χ(iτ,k=0) for time point           16 / 30,    Execution time    0.0 s
 Computed χ(iτ,k=0) for time point           17 / 30,    Execution time    0.0 s
 Computed χ(iτ,k=0) for time point           18 / 30,    Execution time    0.0 s
 Computed χ(iτ,k=0) for time point           19 / 30,    Execution time    0.0 s
 Computed χ(iτ,k=0) for time point           20 / 30,    Execution time    0.0 s
 Computed χ(iτ,k=0) for time point           21 / 30,    Execution time    0.0 s
 Computed χ(iτ,k=0) for time point           22 / 30,    Execution time    0.0 s
 Computed χ(iτ,k=0) for time point           23 / 30,    Execution time    0.0 s
 Computed χ(iτ,k=0) for time point           24 / 30,    Execution time    0.0 s
 Computed χ(iτ,k=0) for time point           25 / 30,    Execution time    0.0 s
 Computed χ(iτ,k=0) for time point           26 / 30,    Execution time    0.0 s
 Computed χ(iτ,k=0) for time point           27 / 30,    Execution time    0.0 s
 Computed χ(iτ,k=0) for time point           28 / 30,    Execution time    0.0 s
 Computed χ(iτ,k=0) for time point           29 / 30,    Execution time    0.0 s
 Computed χ(iτ,k=0) for time point           30 / 30,    Execution time    0.0 s
 
 Computed W(iτ),                                         Execution time    0.4 s
 
 Computed Σ^x(k=0),                                      Execution time    0.0 s
 
 Computed Σ^c(iτ) for time point              1 / 30,    Execution time    0.0 s
 Computed Σ^c(iτ) for time point              2 / 30,    Execution time    0.0 s
 Computed Σ^c(iτ) for time point              3 / 30,    Execution time    0.0 s
 Computed Σ^c(iτ) for time point              4 / 30,    Execution time    0.0 s
 Computed Σ^c(iτ) for time point              5 / 30,    Execution time    0.0 s
 Computed Σ^c(iτ) for time point              6 / 30,    Execution time    0.0 s
 Computed Σ^c(iτ) for time point              7 / 30,    Execution time    0.0 s
 Computed Σ^c(iτ) for time point              8 / 30,    Execution time    0.0 s
 Computed Σ^c(iτ) for time point              9 / 30,    Execution time    0.0 s
 Computed Σ^c(iτ) for time point             10 / 30,    Execution time    0.0 s
 Computed Σ^c(iτ) for time point             11 / 30,    Execution time    0.0 s
 Computed Σ^c(iτ) for time point             12 / 30,    Execution time    0.0 s
 Computed Σ^c(iτ) for time point             13 / 30,    Execution time    0.0 s
 Computed Σ^c(iτ) for time point             14 / 30,    Execution time    0.0 s
 Computed Σ^c(iτ) for time point             15 / 30,    Execution time    0.0 s
 Computed Σ^c(iτ) for time point             16 / 30,    Execution time    0.0 s
 Computed Σ^c(iτ) for time point             17 / 30,    Execution time    0.0 s
 Computed Σ^c(iτ) for time point             18 / 30,    Execution time    0.0 s
 Computed Σ^c(iτ) for time point             19 / 30,    Execution time    0.0 s
 Computed Σ^c(iτ) for time point             20 / 30,    Execution time    0.0 s
 Computed Σ^c(iτ) for time point             21 / 30,    Execution time    0.0 s
 Computed Σ^c(iτ) for time point             22 / 30,    Execution time    0.0 s
 Computed Σ^c(iτ) for time point             23 / 30,    Execution time    0.0 s
 Computed Σ^c(iτ) for time point             24 / 30,    Execution time    0.0 s
 Computed Σ^c(iτ) for time point             25 / 30,    Execution time    0.0 s
 Computed Σ^c(iτ) for time point             26 / 30,    Execution time    0.0 s
 Computed Σ^c(iτ) for time point             27 / 30,    Execution time    0.0 s
 Computed Σ^c(iτ) for time point             28 / 30,    Execution time    0.0 s
 Computed Σ^c(iτ) for time point             29 / 30,    Execution time    0.0 s
 Computed Σ^c(iτ) for time point             30 / 30,    Execution time    0.0 s

 *** WARNING in post_scf_bandstructure_utils.F:3139 :: G0W0 reorders the   ***
 *** occupied levels: the SCF valence band maximum (SCF HOMO) is level 7,  ***
 *** whereas the G0W0 valence band maximum (G0W0 HOMO) is level 6. The SCF ***
 *** and G0W0 band edges printed below therefore belong to different       ***
 *** orbitals; see the eigenvalues in the file bandstructure_SCF_and_G0W0. ***

 
 SCF valence band maximum (eV):                                           -8.151
 SCF conduction band minimum (eV):                                        -0.246
 SCF indirect band gap (eV):                                               7.905
 SCF direct band gap (eV):                                                 7.905
 
 G0W0 valence band maximum (eV):                                         -12.033
 G0W0 conduction band minimum (eV):                                        1.362
 G0W0 indirect band gap (eV):                                             13.395
 G0W0 direct band gap (eV):                                               13.395
 
 Hartree-Fock with SCF orbitals valence band maximum (eV):               -12.990
 Hartree-Fock with SCF orbitals conduction band minimum (eV)               1.978
 Hartree-Fock with SCF orbitals indirect band gap (eV):                   14.968
 Hartree-Fock with SCF orbitals direct band gap (eV):                     14.968

 ENERGY| Total FORCE_EVAL ( QS ) energy [hartree]            -14.956750416294861

 -------------------------------------------------------------------------------
 -                                                                             -
 -                                DBCSR STATISTICS                             -
 -                                                                             -
 -------------------------------------------------------------------------------
 COUNTER                                    TOTAL       BLAS       SMM       ACC
 flops     7 x     7 x     7                 2744     100.0%      0.0%      0.0%     
 flops     9 x     7 x     7                31752     100.0%      0.0%      0.0%     
 flops    18 x     7 x     7                63504     100.0%      0.0%      0.0%     
 flops     9 x     7 x    27                68040     100.0%      0.0%      0.0%     
 flops     7 x     7 x    27                68796     100.0%      0.0%      0.0%     
 flops     7 x     7 x    29                73892     100.0%      0.0%      0.0%     
 flops    29 x     7 x     7               102312     100.0%      0.0%      0.0%     
 flops     9 x    29 x     7               109620     100.0%      0.0%      0.0%     
 flops    29 x     9 x     7               109620     100.0%      0.0%      0.0%     
 flops     9 x     9 x     7               119070     100.0%      0.0%      0.0%     
 flops    18 x     7 x    27               136080     100.0%      0.0%      0.0%     
 flops    18 x     7 x    29               146160     100.0%      0.0%      0.0%     
 flops    29 x    29 x     7               176610     100.0%      0.0%      0.0%     
 flops    29 x     7 x    27               219240     100.0%      0.0%      0.0%     
 flops     9 x     7 x     9               489888     100.0%      0.0%      0.0%     
 flops    29 x     7 x     9               526176     100.0%      0.0%      0.0%     
 flops     9 x     7 x    29               599256     100.0%      0.0%      0.0%     
 flops    29 x     7 x    29               800632     100.0%      0.0%      0.0%     
 flops     4 x     4 x    18               912384     100.0%      0.0%      0.0%     
 flops     4 x    42 x     4               952896     100.0%      0.0%      0.0%     
 flops     4 x    47 x     4              1067840     100.0%      0.0%      0.0%     
 flops     4 x    49 x     4              1111712     100.0%      0.0%      0.0%     
 flops     4 x    55 x     4              1249600     100.0%      0.0%      0.0%     
 flops     4 x    57 x     4              1295040     100.0%      0.0%      0.0%     
 flops     4 x    58 x     4              1321472     100.0%      0.0%      0.0%     
 flops    20 x     4 x    18              1520640     100.0%      0.0%      0.0%     
 flops     4 x    20 x    18              1520640     100.0%      0.0%      0.0%     
 flops    42 x    42 x     4              1608768     100.0%      0.0%      0.0%     
 flops     4 x    42 x    20              1612800     100.0%      0.0%      0.0%     
 flops    20 x    42 x     4              1639680     100.0%      0.0%      0.0%     
 flops     4 x    42 x    42              1778112     100.0%      0.0%      0.0%     
 flops    42 x    47 x     4              1800288     100.0%      0.0%      0.0%     
 flops    47 x    42 x     4              1800288     100.0%      0.0%      0.0%     
 flops     4 x    47 x    20              1804800     100.0%      0.0%      0.0%     
 flops    20 x    47 x     4              1834880     100.0%      0.0%      0.0%     
 flops    42 x    49 x     4              1876896     100.0%      0.0%      0.0%     
 flops    49 x    42 x     4              1876896     100.0%      0.0%      0.0%     
 flops     4 x    49 x    20              1881600     100.0%      0.0%      0.0%     
 flops    20 x    49 x     4              1912960     100.0%      0.0%      0.0%     
 flops     4 x     4 x    38              1926144     100.0%      0.0%      0.0%     
 flops     4 x    47 x    42              1989792     100.0%      0.0%      0.0%     
 flops     4 x    42 x    47              1989792     100.0%      0.0%      0.0%     
 flops    47 x    47 x     4              2014608     100.0%      0.0%      0.0%     
 flops     4 x    49 x    42              2074464     100.0%      0.0%      0.0%     
 flops    49 x    47 x     4              2100336     100.0%      0.0%      0.0%     
 flops    47 x    49 x     4              2100336     100.0%      0.0%      0.0%     
 flops    42 x    55 x     4              2106720     100.0%      0.0%      0.0%     
 flops     4 x    55 x    20              2112000     100.0%      0.0%      0.0%     
 flops    20 x    55 x     4              2147200     100.0%      0.0%      0.0%     
 flops    42 x    57 x     4              2183328     100.0%      0.0%      0.0%     
 flops     4 x    57 x    20              2188800     100.0%      0.0%      0.0%     
 flops    49 x    49 x     4              2189712     100.0%      0.0%      0.0%     
 flops     4 x     9 x     4              2202048     100.0%      0.0%      0.0%     
 flops    42 x    58 x     4              2221632     100.0%      0.0%      0.0%     
 flops    20 x    57 x     4              2225280     100.0%      0.0%      0.0%     
 flops     4 x    47 x    47              2226672     100.0%      0.0%      0.0%     
 flops     4 x    58 x    20              2227200     100.0%      0.0%      0.0%     
 flops    20 x    58 x     4              2264320     100.0%      0.0%      0.0%     
 flops     4 x    49 x    47              2321424     100.0%      0.0%      0.0%     
 flops     4 x    55 x    42              2328480     100.0%      0.0%      0.0%     
 flops    47 x    55 x     4              2357520     100.0%      0.0%      0.0%     
 flops     4 x    29 x     4              2390528     100.0%      0.0%      0.0%     
 flops     4 x    57 x    42              2413152     100.0%      0.0%      0.0%     
 flops     4 x     4 x   100              2419200     100.0%      0.0%      0.0%     
 flops    47 x    57 x     4              2443248     100.0%      0.0%      0.0%     
 flops     4 x    58 x    42              2455488     100.0%      0.0%      0.0%     
 flops    49 x    55 x     4              2457840     100.0%      0.0%      0.0%     
 flops    47 x    58 x     4              2486112     100.0%      0.0%      0.0%     
 flops     4 x     4 x   104              2515968     100.0%      0.0%      0.0%     
 flops    20 x    20 x    18              2534400     100.0%      0.0%      0.0%     
 flops    49 x    57 x     4              2547216     100.0%      0.0%      0.0%     
 flops    49 x    58 x     4              2591904     100.0%      0.0%      0.0%     
 flops     4 x    55 x    47              2605680     100.0%      0.0%      0.0%     
 flops    42 x    42 x    20              2681280     100.0%      0.0%      0.0%     
 flops    20 x    42 x    20              2688000     100.0%      0.0%      0.0%     
 flops     4 x    57 x    47              2700432     100.0%      0.0%      0.0%     
 flops     4 x    58 x    47              2747808     100.0%      0.0%      0.0%     
 flops     4 x     4 x   119              2878848     100.0%      0.0%      0.0%     
 flops    20 x    42 x    42              2963520     100.0%      0.0%      0.0%     
 flops    42 x    47 x    20              3000480     100.0%      0.0%      0.0%     
 flops    47 x    42 x    20              3000480     100.0%      0.0%      0.0%     
 flops    20 x    47 x    20              3008000     100.0%      0.0%      0.0%     
 flops    42 x    49 x    20              3128160     100.0%      0.0%      0.0%     
 flops    49 x    42 x    20              3128160     100.0%      0.0%      0.0%     
 flops    20 x    49 x    20              3136000     100.0%      0.0%      0.0%     
 flops     4 x    70 x     4              3194240     100.0%      0.0%      0.0%     
 flops    20 x     4 x    38              3210240     100.0%      0.0%      0.0%     
 flops     4 x    20 x    38              3210240     100.0%      0.0%      0.0%     
 flops    20 x    47 x    42              3316320     100.0%      0.0%      0.0%     
 flops    20 x    42 x    47              3316320     100.0%      0.0%      0.0%     
 flops    47 x    47 x    20              3357680     100.0%      0.0%      0.0%     
 flops    20 x    49 x    42              3457440     100.0%      0.0%      0.0%     
 flops    49 x    47 x    20              3500560     100.0%      0.0%      0.0%     
 flops    47 x    49 x    20              3500560     100.0%      0.0%      0.0%     
 flops    42 x    55 x    20              3511200     100.0%      0.0%      0.0%     
 flops    20 x    55 x    20              3520000     100.0%      0.0%      0.0%     
 flops    42 x    57 x    20              3638880     100.0%      0.0%      0.0%     
 flops    20 x    57 x    20              3648000     100.0%      0.0%      0.0%     
 flops    49 x    49 x    20              3649520     100.0%      0.0%      0.0%     
 flops    20 x     9 x     4              3666240     100.0%      0.0%      0.0%     
 flops    42 x    58 x    20              3702720     100.0%      0.0%      0.0%     
 flops    20 x    47 x    47              3711120     100.0%      0.0%      0.0%     
 flops    20 x    58 x    20              3712000     100.0%      0.0%      0.0%     
 flops     4 x     9 x    20              3742560     100.0%      0.0%      0.0%     
 flops    20 x    49 x    47              3869040     100.0%      0.0%      0.0%     
 flops    20 x    55 x    42              3880800     100.0%      0.0%      0.0%     
 flops    47 x    55 x    20              3929200     100.0%      0.0%      0.0%     
 flops    20 x    29 x     4              3981120     100.0%      0.0%      0.0%     
 flops    20 x    57 x    42              4021920     100.0%      0.0%      0.0%     
 flops    20 x     4 x   100              4032000     100.0%      0.0%      0.0%     
 flops     4 x    20 x   100              4032000     100.0%      0.0%      0.0%     
 flops    47 x    57 x    20              4072080     100.0%      0.0%      0.0%     
 flops     4 x    29 x    20              4073920     100.0%      0.0%      0.0%     
 flops    20 x    58 x    42              4092480     100.0%      0.0%      0.0%     
 flops    49 x    55 x    20              4096400     100.0%      0.0%      0.0%     
 flops    47 x    58 x    20              4143520     100.0%      0.0%      0.0%     
 flops     4 x     4 x     9              4160160     100.0%      0.0%      0.0%     
 flops    20 x     4 x   104              4193280     100.0%      0.0%      0.0%     
 flops     4 x    20 x   104              4193280     100.0%      0.0%      0.0%     
 flops    49 x    57 x    20              4245360     100.0%      0.0%      0.0%     
 flops    49 x    58 x    20              4319840     100.0%      0.0%      0.0%     
 flops    20 x    55 x    47              4342800     100.0%      0.0%      0.0%     
 flops     4 x     4 x    29              4476672     100.0%      0.0%      0.0%     
 flops    20 x    57 x    47              4500720     100.0%      0.0%      0.0%     
 flops    20 x    58 x    47              4579680     100.0%      0.0%      0.0%     
 flops    20 x     4 x   119              4798080     100.0%      0.0%      0.0%     
 flops     4 x    20 x   119              4798080     100.0%      0.0%      0.0%     
 flops     9 x     9 x     4              4902120     100.0%      0.0%      0.0%     
 flops    29 x     9 x     4              5265936     100.0%      0.0%      0.0%     
 flops     9 x    29 x     4              5282640     100.0%      0.0%      0.0%     
 flops    20 x    20 x    38              5350400     100.0%      0.0%      0.0%     
 flops    42 x    70 x     4              5362560     100.0%      0.0%      0.0%     
 flops    70 x    42 x     4              5362560     100.0%      0.0%      0.0%     
 flops     4 x    70 x    20              5376000     100.0%      0.0%      0.0%     
 flops    20 x    70 x     4              5465600     100.0%      0.0%      0.0%     
 flops    29 x    29 x     4              5678432     100.0%      0.0%      0.0%     
 flops     4 x    42 x    70              5927040     100.0%      0.0%      0.0%     
 flops     4 x    70 x    42              5927040     100.0%      0.0%      0.0%     
 flops    47 x    70 x     4              6000960     100.0%      0.0%      0.0%     
 flops    70 x    47 x     4              6000960     100.0%      0.0%      0.0%     
 flops    49 x    70 x     4              6256320     100.0%      0.0%      0.0%     
 flops    70 x    49 x     4              6256320     100.0%      0.0%      0.0%     
 flops    20 x     9 x    20              6328800     100.0%      0.0%      0.0%     
 flops     4 x    47 x    70              6632640     100.0%      0.0%      0.0%     
 flops     4 x    70 x    47              6632640     100.0%      0.0%      0.0%     
 flops    20 x    20 x   100              6720000     100.0%      0.0%      0.0%     
 flops    20 x    29 x    20              6867200     100.0%      0.0%      0.0%     
 flops     4 x    49 x    70              6914880     100.0%      0.0%      0.0%     
 flops    20 x     4 x     9              6946560     100.0%      0.0%      0.0%     
 flops     4 x    20 x     9              6946560     100.0%      0.0%      0.0%     
 flops    20 x    20 x   104              6988800     100.0%      0.0%      0.0%     
 flops    70 x    55 x     4              7022400     100.0%      0.0%      0.0%     
 flops    70 x    57 x     4              7277760     100.0%      0.0%      0.0%     
 flops    70 x    58 x     4              7405440     100.0%      0.0%      0.0%     
 flops    20 x     4 x    29              7461120     100.0%      0.0%      0.0%     
 flops     4 x    20 x    29              7461120     100.0%      0.0%      0.0%     
 flops     4 x    55 x    70              7761600     100.0%      0.0%      0.0%     
 flops    20 x    20 x   119              7996800     100.0%      0.0%      0.0%     
 flops     4 x    57 x    70              8043840     100.0%      0.0%      0.0%     
 flops     9 x     9 x    20              8164800     100.0%      0.0%      0.0%     
 flops     4 x    58 x    70              8184960     100.0%      0.0%      0.0%     
 flops     9 x    29 x    20              8769600     100.0%      0.0%      0.0%     
 flops    29 x     9 x    20              8769600     100.0%      0.0%      0.0%     
 flops    42 x    70 x    20              8937600     100.0%      0.0%      0.0%     
 flops    70 x    42 x    20              8937600     100.0%      0.0%      0.0%     
 flops    20 x    70 x    20              8960000     100.0%      0.0%      0.0%     
 flops    29 x    29 x    20              9419200     100.0%      0.0%      0.0%     
 flops    20 x    42 x    70              9878400     100.0%      0.0%      0.0%     
 flops    20 x    70 x    42              9878400     100.0%      0.0%      0.0%     
 flops    47 x    70 x    20             10001600     100.0%      0.0%      0.0%     
 flops    70 x    47 x    20             10001600     100.0%      0.0%      0.0%     
 flops    49 x    70 x    20             10427200     100.0%      0.0%      0.0%     
 flops    70 x    49 x    20             10427200     100.0%      0.0%      0.0%     
 flops    20 x    47 x    70             11054400     100.0%      0.0%      0.0%     
 flops    20 x    70 x    47             11054400     100.0%      0.0%      0.0%     
 flops    20 x    49 x    70             11524800     100.0%      0.0%      0.0%     
 flops    20 x    20 x     9             11577600     100.0%      0.0%      0.0%     
 flops    70 x    55 x    20             11704000     100.0%      0.0%      0.0%     
 flops    70 x    57 x    20             12129600     100.0%      0.0%      0.0%     
 flops    70 x    58 x    20             12342400     100.0%      0.0%      0.0%     
 flops    20 x    20 x    29             12435200     100.0%      0.0%      0.0%     
 flops     4 x     9 x     9             12457152     100.0%      0.0%      0.0%     
 flops    20 x    55 x    70             12936000     100.0%      0.0%      0.0%     
 flops     4 x     9 x    29             13379904     100.0%      0.0%      0.0%     
 flops     4 x    29 x     9             13379904     100.0%      0.0%      0.0%     
 flops    20 x    57 x    70             13406400     100.0%      0.0%      0.0%     
 flops    20 x    58 x    70             13641600     100.0%      0.0%      0.0%     
 flops     4 x    29 x    29             14371008     100.0%      0.0%      0.0%     
 flops     4 x    32 x    18             14598144     100.0%      0.0%      0.0%     
 flops    32 x     4 x    18             14598144     100.0%      0.0%      0.0%     
 flops     4 x    42 x    32             15418368     100.0%      0.0%      0.0%     
 flops    32 x    42 x     4             15644160     100.0%      0.0%      0.0%     
 flops     4 x    47 x    32             17253888     100.0%      0.0%      0.0%     
 flops    32 x    47 x     4             17518592     100.0%      0.0%      0.0%     
 flops    70 x    70 x     4             17875200     100.0%      0.0%      0.0%     
 flops     4 x    49 x    32             18000640     100.0%      0.0%      0.0%     
 flops    32 x    49 x     4             18314240     100.0%      0.0%      0.0%     
 flops     4 x    70 x    70             19756800     100.0%      0.0%      0.0%     
 flops     4 x    55 x    32             20204800     100.0%      0.0%      0.0%     
 flops    32 x    55 x     4             20486400     100.0%      0.0%      0.0%     
 flops    20 x     9 x     9             20761920     100.0%      0.0%      0.0%     
 flops     4 x    57 x    32             20939520     100.0%      0.0%      0.0%     
 flops    32 x    57 x     4             21187584     100.0%      0.0%      0.0%     
 flops     4 x    58 x    32             21306880     100.0%      0.0%      0.0%     
 flops    32 x    58 x     4             21588992     100.0%      0.0%      0.0%     
 flops    20 x     9 x    29             22299840     100.0%      0.0%      0.0%     
 flops    20 x    29 x     9             22299840     100.0%      0.0%      0.0%     
 flops    20 x    29 x    29             23951680     100.0%      0.0%      0.0%     
 flops    20 x    32 x    18             24330240     100.0%      0.0%      0.0%     
 flops    32 x    20 x    18             24330240     100.0%      0.0%      0.0%     
 flops    42 x    42 x    32             25740288     100.0%      0.0%      0.0%     
 flops    32 x    42 x    20             25804800     100.0%      0.0%      0.0%     
 flops    20 x    42 x    32             25804800     100.0%      0.0%      0.0%     
 flops    32 x    42 x    42             28449792     100.0%      0.0%      0.0%     
 flops    42 x    47 x    32             28804608     100.0%      0.0%      0.0%     
 flops    47 x    42 x    32             28804608     100.0%      0.0%      0.0%     
 flops    32 x    47 x    20             28876800     100.0%      0.0%      0.0%     
 flops    20 x    47 x    32             28876800     100.0%      0.0%      0.0%     
 flops    70 x    70 x    20             29792000     100.0%      0.0%      0.0%     
 flops    42 x    49 x    32             30030336     100.0%      0.0%      0.0%     
 flops    49 x    42 x    32             30030336     100.0%      0.0%      0.0%     
 flops    32 x    49 x    20             30105600     100.0%      0.0%      0.0%     
 flops    20 x    49 x    32             30105600     100.0%      0.0%      0.0%     
 flops     4 x    32 x    38             30818304     100.0%      0.0%      0.0%     
 flops    32 x     4 x    38             30818304     100.0%      0.0%      0.0%     
 flops    32 x    47 x    42             31836672     100.0%      0.0%      0.0%     
 flops    32 x    42 x    47             31836672     100.0%      0.0%      0.0%     
 flops    47 x    47 x    32             32233728     100.0%      0.0%      0.0%     
 flops    20 x    70 x    70             32928000     100.0%      0.0%      0.0%     
 flops    32 x    49 x    42             33191424     100.0%      0.0%      0.0%     
 flops    49 x    47 x    32             33605376     100.0%      0.0%      0.0%     
 flops    47 x    49 x    32             33605376     100.0%      0.0%      0.0%     
 flops    42 x    55 x    32             33707520     100.0%      0.0%      0.0%     
 flops    32 x    55 x    20             33792000     100.0%      0.0%      0.0%     
 flops    20 x    55 x    32             33792000     100.0%      0.0%      0.0%     
 flops    42 x    57 x    32             34933248     100.0%      0.0%      0.0%     
 flops    32 x    57 x    20             35020800     100.0%      0.0%      0.0%     
 flops    20 x    57 x    32             35020800     100.0%      0.0%      0.0%     
 flops    49 x    49 x    32             35035392     100.0%      0.0%      0.0%     
 flops    32 x     9 x     4             35377920     100.0%      0.0%      0.0%     
 flops    42 x    58 x    32             35546112     100.0%      0.0%      0.0%     
 flops    32 x    47 x    47             35626752     100.0%      0.0%      0.0%     
 flops    32 x    58 x    20             35635200     100.0%      0.0%      0.0%     
 flops    20 x    58 x    32             35635200     100.0%      0.0%      0.0%     
 flops     4 x     9 x    32             36089856     100.0%      0.0%      0.0%     
 flops    32 x    49 x    47             37142784     100.0%      0.0%      0.0%     
 flops    32 x    55 x    42             37255680     100.0%      0.0%      0.0%     
 flops    47 x    55 x    32             37720320     100.0%      0.0%      0.0%     
 flops    32 x    29 x     4             38352384     100.0%      0.0%      0.0%     
 flops    32 x    57 x    42             38610432     100.0%      0.0%      0.0%     
 flops     4 x    32 x   100             38707200     100.0%      0.0%      0.0%     
 flops    32 x     4 x   100             38707200     100.0%      0.0%      0.0%     
 flops    47 x    57 x    32             39091968     100.0%      0.0%      0.0%     
 flops     4 x    29 x    32             39265536     100.0%      0.0%      0.0%     
 flops    32 x    58 x    42             39287808     100.0%      0.0%      0.0%     
 flops    49 x    55 x    32             39325440     100.0%      0.0%      0.0%     
 flops    47 x    58 x    32             39777792     100.0%      0.0%      0.0%     
 flops     4 x    32 x   104             40255488     100.0%      0.0%      0.0%     
 flops    32 x     4 x   104             40255488     100.0%      0.0%      0.0%     
 flops    49 x    57 x    32             40755456     100.0%      0.0%      0.0%     
 flops    49 x    58 x    32             41470464     100.0%      0.0%      0.0%     
 flops    32 x    55 x    47             41690880     100.0%      0.0%      0.0%     
 flops    32 x    57 x    47             43206912     100.0%      0.0%      0.0%     
 flops    32 x    58 x    47             43964928     100.0%      0.0%      0.0%     
 flops     4 x    32 x   119             46061568     100.0%      0.0%      0.0%     
 flops    32 x     4 x   119             46061568     100.0%      0.0%      0.0%     
 flops    20 x    32 x    38             51363840     100.0%      0.0%      0.0%     
 flops    32 x    20 x    38             51363840     100.0%      0.0%      0.0%     
 flops     4 x    70 x    32             51537920     100.0%      0.0%      0.0%     
 flops    32 x    70 x     4             52380160     100.0%      0.0%      0.0%     
 flops    32 x     9 x    20             60952320     100.0%      0.0%      0.0%     
 flops    20 x     9 x    32             61009920     100.0%      0.0%      0.0%     
 flops    20 x    32 x   100             64512000     100.0%      0.0%      0.0%     
 flops    32 x    20 x   100             64512000     100.0%      0.0%      0.0%     
 flops    32 x    29 x    20             65925120     100.0%      0.0%      0.0%     
 flops    20 x    29 x    32             65925120     100.0%      0.0%      0.0%     
 flops     4 x    32 x     9             66686976     100.0%      0.0%      0.0%     
 flops    32 x     4 x     9             66686976     100.0%      0.0%      0.0%     
 flops    20 x    32 x   104             67092480     100.0%      0.0%      0.0%     
 flops    32 x    20 x   104             67092480     100.0%      0.0%      0.0%     
 flops     4 x    32 x    29             71626752     100.0%      0.0%      0.0%     
 flops    32 x     4 x    29             71626752     100.0%      0.0%      0.0%     
 flops    20 x    32 x   119             76769280     100.0%      0.0%      0.0%     
 flops    32 x    20 x   119             76769280     100.0%      0.0%      0.0%     
 flops     9 x     9 x    32             78382080     100.0%      0.0%      0.0%     
 flops     9 x    29 x    32             84188160     100.0%      0.0%      0.0%     
 flops    29 x     9 x    32             84188160     100.0%      0.0%      0.0%     
 flops    42 x    70 x    32             85800960     100.0%      0.0%      0.0%     
 flops    70 x    42 x    32             85800960     100.0%      0.0%      0.0%     
 flops    32 x    70 x    20             86016000     100.0%      0.0%      0.0%     
 flops    20 x    70 x    32             86016000     100.0%      0.0%      0.0%     
 flops    29 x    29 x    32             90424320     100.0%      0.0%      0.0%     
 flops    32 x    70 x    42             94832640     100.0%      0.0%      0.0%     
 flops    32 x    42 x    70             94832640     100.0%      0.0%      0.0%     
 flops    47 x    70 x    32             96015360     100.0%      0.0%      0.0%     
 flops    70 x    47 x    32             96015360     100.0%      0.0%      0.0%     
 flops    49 x    70 x    32            100101120     100.0%      0.0%      0.0%     
 flops    70 x    49 x    32            100101120     100.0%      0.0%      0.0%     
 flops    32 x    70 x    47            106122240     100.0%      0.0%      0.0%     
 flops    32 x    47 x    70            106122240     100.0%      0.0%      0.0%     
 flops    32 x    49 x    70            110638080     100.0%      0.0%      0.0%     
 flops    20 x    32 x     9            111144960     100.0%      0.0%      0.0%     
 flops    32 x    20 x     9            111144960     100.0%      0.0%      0.0%     
 flops    70 x    55 x    32            112358400     100.0%      0.0%      0.0%     
 flops    70 x    57 x    32            116444160     100.0%      0.0%      0.0%     
 flops    70 x    58 x    32            118487040     100.0%      0.0%      0.0%     
 flops    20 x    32 x    29            119377920     100.0%      0.0%      0.0%     
 flops    32 x    20 x    29            119377920     100.0%      0.0%      0.0%     
 flops    32 x    55 x    70            124185600     100.0%      0.0%      0.0%     
 flops    32 x    57 x    70            128701440     100.0%      0.0%      0.0%     
 flops    32 x    58 x    70            130959360     100.0%      0.0%      0.0%     
 flops    32 x     9 x     9            199314432     100.0%      0.0%      0.0%     
 flops    32 x     9 x    29            214078464     100.0%      0.0%      0.0%     
 flops    32 x    29 x     9            214078464     100.0%      0.0%      0.0%     
 flops    32 x    29 x    29            229936128     100.0%      0.0%      0.0%     
 flops    32 x    32 x    18            233570304     100.0%      0.0%      0.0%     
 flops    32 x    42 x    32            247726080     100.0%      0.0%      0.0%     
 flops    32 x    47 x    32            277217280     100.0%      0.0%      0.0%     
 flops    70 x    70 x    32            286003200     100.0%      0.0%      0.0%     
 flops    32 x    49 x    32            289013760     100.0%      0.0%      0.0%     
 flops    32 x    70 x    70            316108800     100.0%      0.0%      0.0%     
 flops    32 x    55 x    32            324403200     100.0%      0.0%      0.0%     
 flops    32 x    57 x    32            336199680     100.0%      0.0%      0.0%     
 flops    32 x    58 x    32            342097920     100.0%      0.0%      0.0%     
 flops    32 x    32 x    38            493092864     100.0%      0.0%      0.0%     
 flops    32 x     9 x    32            587390976     100.0%      0.0%      0.0%     
 flops    32 x    32 x   100            619315200     100.0%      0.0%      0.0%     
 flops    32 x    29 x    32            632881152     100.0%      0.0%      0.0%     
 flops    32 x    32 x   104            644087808     100.0%      0.0%      0.0%     
 flops    32 x    32 x   119            736985088     100.0%      0.0%      0.0%     
 flops    32 x    70 x    32            825753600     100.0%      0.0%      0.0%     
 flops    32 x    32 x     9           1066991616     100.0%      0.0%      0.0%     
 flops    32 x    32 x    29           1146028032     100.0%      0.0%      0.0%     
 flops inhomo. stacks                  7839628800     100.0%      0.0%      0.0%
 flops total                        25.266478E+09     100.0%      0.0%      0.0%
 flops max/rank                      4.426078E+09     100.0%      0.0%      0.0%
 matmuls inhomo. stacks                     30960     100.0%      0.0%      0.0%
 matmuls total                             674818     100.0%      0.0%      0.0%
 number of processed stacks                139539     100.0%      0.0%      0.0%
 average stack size                                     4.8       0.0       0.0
 marketing flops                    32.171450E+09
 -------------------------------------------------------------------------------
 # multiplications                           2176
 max memory usage/rank              22.362644E+09
 # max total images/rank                        2
 # max 3D layers                                1
 # MPI messages exchanged                   21760
 MPI messages size (bytes):
  total size                         1.308240E+09
  min size                           0.000000E+00
  max size                         409.600000E+03
  average size                      60.121316E+03
 MPI breakdown and total messages size (bytes):
             size <=      128                4289                        0
       128 < size <=     8192                1903                  8456816
      8192 < size <=    32768                4528                 81022464
     32768 < size <=   131072                8321                554483840
    131072 < size <=  4194304                2719                664276736
   4194304 < size <= 16777216                   0                        0
  16777216 < size                               0                        0
 -------------------------------------------------------------------------------

 *** WARNING in dbcsr_mm.F:301 :: Using a non-square number of MPI ranks ***
 *** might lead to poor performance. Used ranks: 8 Suggested: 9 16       ***

 -------------------------------------------------------------------------------
 -                                                                             -
 -                      DBCSR MESSAGE PASSING PERFORMANCE                      -
 -                                                                             -
 -------------------------------------------------------------------------------
 ROUTINE             CALLS      AVE VOLUME [Bytes]
 MP_Bcast              334                     12.
 MP_Allreduce         2970                     17.
 MP_Alltoall          3491                  14994.
 MP_ISend             9380                  28993.
 MP_IRecv             8656                  24114.
 -------------------------------------------------------------------------------

 -------------------------------------------------------------------------------
 -                                                                             -
 -                                GRID STATISTICS                              -
 -                                                                             -
 -------------------------------------------------------------------------------
 LP    KERNEL             BACKEND                              COUNT     PERCENT
 2     collocate ortho    CPU                                  14280      26.38%
 2     integrate ortho    CPU                                  14280      26.38%
 4     collocate ortho    CPU                                   9720      17.95%
 4     integrate ortho    CPU                                   9720      17.95%
 6     collocate ortho    CPU                                   2940       5.43%
 6     integrate ortho    CPU                                   2940       5.43%
 0     collocate general  CPU                                    256       0.47%
 -------------------------------------------------------------------------------

 -------------------------------------------------------------------------------
 -                                                                             -
 -                          OFFLOAD MEMPOOL STATISTICS                         -
 -                                                                             -
 -------------------------------------------------------------------------------
 Memory consumption                Number of allocations  Used [MiB]  Size [MiB]
 Host                                                  6         114    22216198
 -------------------------------------------------------------------------------

 MEMORY| Estimated peak process memory [MiB]                                2341

 -------------------------------------------------------------------------------
 -                                                                             -
 -                         MESSAGE PASSING PERFORMANCE                         -
 -                                                                             -
 -------------------------------------------------------------------------------

 ROUTINE             CALLS      AVE VOLUME [Bytes]
 MP_Group                5
 MP_Bcast              238                 234153.
 MP_Allreduce         1952                   4233.
 MP_Sync                10
 MP_Alltoall           101              111150029.
 MP_SendRecv           105                2410667.
 MP_ISendRecv          105                2410667.
 MP_Wait               270
 MP_comm_split          10
 MP_ISend              132                5276836.
 MP_IRecv              132                5279564.
 -------------------------------------------------------------------------------


 -------------------------------------------------------------------------------
 -                                                                             -
 -                           R E F E R E N C E S                               -
 -                                                                             -
 -------------------------------------------------------------------------------
 
 CP2K version 2026.2 (Development Version), the CP2K developers group (2026).
 CP2K is freely available from https://www.cp2k.org/ .
 
 M. Iannuzzi, J. Wilhelm, F. Stein, A. Bussy, H. Elgabarty, D. Golze, A. Hehn, 
 M. Graml, S. Marek, B. Sertcan Gökmen, C. Schran, H. Forbert, R. Z. 
 Khaliullin, A. Kozhevnikov, M. Taillefumier, R. Meli, V. V. Rybkin, M. Brehm, 
 R. Schade, O. Schütt, J. V. Pototschnig, H. Mirhosseini, A. Knüpfer, D. Marx, 
 M. Krack, J. Hutter, T. D. Kühne.
 J. Phys. Chem. B 130, 1237-1310 (2026).
 The CP2K Program Package Made Simple.
 https://doi.org/10.1021/acs.jpcb.5c05851

 M. Graml, K. Zollner, D. Hernangómez-Pérez, P. E. Faria Junior, J. Wilhelm.
 J. Chem. Theory Comput. 20, 2202-2208 (2024).
 Low-scaling GW algorithm applied to twisted transition-metal dichalcogenide 
 heterobilayers.
 https://doi.org/10.1021/acs.jctc.3c01230

 T. D. Kühne, M. Iannuzzi, M. Del Ben, V. V. Rybkin, P. Seewald, F. Stein, T. 
 Laino, R. Z. Khaliullin, O. Schütt, F. Schiffmann, D. Golze, J. Wilhelm, S. 
 Chulkov, M. H. Bani-Hashemian, V. Weber, U. Borstnik, M. Taillefumier, A. S. 
 Jakobovits, A. Lazzaro, H. Pabst, T. Müller, R. Schade, M. Guidon, S. 
 Andermatt, N. Holmberg, G. K. Schenter, A. Hehn, A. Bussy, F. Belleflamme, G. 
 Tabacchi, A. Glöß, M. Lass, I. Bethune, C. J. Mundy, C. Plessl, M. Watkins, 
 J. VandeVondele, M. Krack, J. Hutter.
 J. Chem. Phys. 152, 194103 (2020).
 CP2K: An electronic structure and molecular dynamics software package - 
 Quickstep: Efficient and accurate electronic structure calculations.
 https://doi.org/10.1063/5.0007045

 O. Schuett, P. Messmer, J. Hutter, J. VandeVondele.
 Electronic Structure Calculations on Graphics Processing Units, 173-190 (2016).
 GPU-Accelerated Sparse Matrix-Matrix Multiplication for Linear Scaling Density 
 Functional Theory.
 https://doi.org/10.1002/9781118670712.ch8

 U. Borstnik, J. VandeVondele, V. Weber, J. Hutter.
 Parallel Comput. 40, 47-58 (2014).
 Sparse matrix multiplication: The distributed block-compressed sparse row 
 library.
 https://doi.org/10.1016/j.parco.2014.03.012

 J. VandeVondele, J. Hutter.
 J. Chem. Phys. 127, 114105 (2007).
 Gaussian basis sets for accurate calculations on molecular systems in gas and 
 condensed phases.
 https://doi.org/10.1063/1.2770708

 J. VandeVondele, M. Krack, F. Mohamed, M. Parrinello, T. Chassaing, J. Hutter.
 Comput. Phys. Commun. 167, 103-128 (2005).
 QUICKSTEP: Fast and accurate density functional calculations using a mixed 
 Gaussian and plane waves approach.
 https://doi.org/10.1016/j.cpc.2004.12.014

 M. Krack.
 Theor. Chem. Acc. 114, 145-152 (2005).
 Pseudopotentials for H to Kr optimized for gradient-corrected 
 exchange-correlation functionals.
 https://doi.org/10.1007/s00214-005-0655-y

 M. Frigo, S. G. Johnson.
 Proc. IEEE 93, 216-231 (2005).
 The design and implementation of FFTW3.
 https://doi.org/10.1109/JPROC.2004.840301

 J. VandeVondele, J. Hutter.
 J. Chem. Phys. 118, 4365-4369 (2003).
 An efficient orbital transformation method for electronic structure 
 calculations.
 https://doi.org/10.1063/1.1543154

 C. Hartwigsen, S. Goedecker, J. Hutter.
 Phys. Rev. B 58, 3641-3662 (1998).
 Relativistic separable dual-space Gaussian pseudopotentials from H to Rn.
 https://doi.org/10.1103/PhysRevB.58.3641

 G. Lippert, J. Hutter, M. Parrinello.
 Mol. Phys. 92, 477-487 (1997).
 A hybrid Gaussian and plane wave density functional scheme.
 https://doi.org/10.1080/002689797170220

 S. Goedecker, M. Teter, J. Hutter.
 Phys. Rev. B 54, 1703-1710 (1996).
 Separable dual-space Gaussian pseudopotentials.
 https://doi.org/10.1103/PhysRevB.54.1703

 J. P. Perdew, K. Burke, M. Ernzerhof.
 Phys. Rev. Lett. 77, 3865-3868 (1996).
 Generalized gradient approximation made simple.
 https://doi.org/10.1103/PhysRevLett.77.3865

 P. E. Blöchl.
 J. Chem. Phys. 103, 7422-7428 (1995).
 Electrostatic decoupling of periodic images of plane‐wave‐expanded 
 densities and derived atomic point charges.
 https://doi.org/10.1063/1.470314

 R. H. Byrd, P. H. Lu, J. Nocedal, C. Y. Zhu.
 SIAM J. Sci. Comput. 16, 1190-1208 (1995).
 A Limited Memory Algorithm for Bound Constrained Optimization.
 https://doi.org/10.1137/0916069


 -------------------------------------------------------------------------------
 -                                                                             -
 -                                T I M I N G                                  -
 -                                                                             -
 -------------------------------------------------------------------------------
 SUBROUTINE                       CALLS  ASD         SELF TIME        TOTAL TIME MAXRANK
                                MAXIMUM       AVERAGE  MAXIMUM  AVERAGE  MAXIMUM
 CP2K                                 1  1.0    0.009    0.019   15.517   15.517       0
 qs_energies                          1  2.0    0.000    0.000   14.685   14.685       2
 scf_env_do_scf                       1  3.0    0.000    0.000    9.637    9.637       0
 scf_env_do_scf_inner_loop            4  4.0    0.000    0.000    7.801    7.801       0
 qs_ks_build_kohn_sham_matrix         5  7.2    0.010    0.013    7.761    7.761       3
 qs_ks_update_qs_env                  5  5.0    0.000    0.000    7.214    7.214       2
 rebuild_ks_matrix                    4  6.0    0.000    0.000    7.214    7.214       2
 fft_wrap_pw1pw2                     79 10.2    0.002    0.003    6.658    7.010       2
 fft_wrap_pw1pw2_300                 49 11.6    0.328    0.404    6.360    6.720       3
 fft3d_ps                            79 12.2    2.388    3.082    5.009    5.947       1
 qs_vxc_create                        5  8.2    0.000    0.000    5.004    5.109       1
 xc_vxc_pw_create                     4  9.0    0.081    0.093    5.004    5.109       4
 qs_energies_properties               1  3.0    0.000    0.000    4.203    4.203       4
 post_scf_bandstructure               1  4.0    0.000    0.000    4.203    4.203       2
 run_gw                               1  5.0    0.000    0.000    4.180    4.191       1
 mp_alltoall_z22v                    79 14.2    1.767    4.120    1.767    4.120       7
 xc_pw_derive                        24 11.0    0.000    0.000    3.719    4.089       2
 qs_rho_update_rho_low                5  5.0    0.000    0.000    3.015    3.015       2
 calculate_rho_elec                   5  6.0    0.063    0.064    3.015    3.015       2
 xc_pw_divergence                     4 10.0    0.000    0.000    2.415    2.713       1
 xc_rho_set_and_dset_create           4 10.0    0.065    0.100    2.408    2.584       2
 create_and_init_bs_env_for_gw        1  6.0    0.003    0.005    2.240    2.437       5
 yz_to_x                             38 12.6    0.332    0.449    1.239    2.394       2
 density_rs2pw                        5  7.0    0.000    0.000    1.819    2.211       2
 x_to_yz                             41 13.8    0.519    0.675    1.378    2.185       0
 gw_calc_ri_rs_non_periodic           1  6.0    0.000    0.000    1.940    2.154       7
 init_scf_loop                        1  4.0    0.000    0.000    1.835    1.835       4
 mp_sum_d                           781  5.1    0.748    1.429    0.748    1.429       7
 generate_auto_ri_basis               1  7.0    0.000    0.000    1.281    1.281       2
 sum_up_and_integrate                 5  8.2    0.000    0.000    1.209    1.234       2
 integrate_v_rspace                   5  9.2    0.000    0.000    1.184    1.220       2
 potential_pw2rs                      5 10.2    0.004    0.005    1.150    1.188       3
 grid_collocate_task_list             5  7.0    1.055    1.169    1.055    1.169       0
 optimize_ri_rs_grid                  1  7.0    0.000    0.000    0.936    1.139       0
 transfer_rs2pw                      21  7.9    0.000    0.001    0.434    0.944       2
 qs_ks_ddapc                          5  8.2    0.000    0.000    0.812    0.853       3
 transfer_rs2pw_300                   6  8.7    0.099    0.122    0.317    0.824       2
 mp_waitany                         132 11.3    0.260    0.807    0.260    0.807       7
 compute_AB_optimized_RI_basis        1  8.0    0.000    0.000    0.792    0.792       0
 compute_AB_optimized_RI_basis_       1  9.0    0.000    0.000    0.774    0.790       0
 compute_B_PQ_AB                      4 10.0    0.081    0.194    0.315    0.742       0
 rirs_grid_LBFGS                      1  8.0    0.049    0.102    0.731    0.739       1
 mp_sum_dm                           54 10.8    0.518    0.688    0.518    0.688       7
 qs_init_subsys                       1  2.0    0.000    0.001    0.665    0.667       0
 qs_env_setup                         1  3.0    0.000    0.000    0.664    0.666       5
 qs_env_rebuild_pw_env                2  3.5    0.000    0.000    0.664    0.666       4
 pw_env_rebuild                       1  5.0    0.000    0.000    0.664    0.666       5
 pw_poisson_solve                     5  8.2    0.000    0.000    0.627    0.661       2
 pw_grid_setup                        5  5.2    0.000    0.000    0.657    0.659       4
 pw_grid_setup_internal               5  6.2    0.011    0.011    0.657    0.659       2
 init_scf_run                         1  3.0    0.000    0.000    0.634    0.634       3
 scf_env_initial_rho_setup            1  4.0    0.000    0.000    0.634    0.634       0
 pw_derive                           39 11.3    0.544    0.622    0.544    0.622       0
 pw_grid_sort                         5  7.2    0.385    0.407    0.564    0.586       1
 cp_fm_get_submatrix                 50 10.0    0.000    0.000    0.436    0.579       7
 pw_scatter_p                        41 12.8    0.491    0.569    0.491    0.569       0
 setup_time_and_frequency_minim       1  7.0    0.000    0.000    0.367    0.565       0
 build_minimax_time_frequency_g       1  8.0    0.000    0.000    0.367    0.565       5
 fit_l_sq_weights                     3  9.0    0.367    0.564    0.367    0.564       2
 pw_gather_p                         38 11.6    0.474    0.555    0.474    0.555       6
 evaluate_rirs_grid_cluster         301  9.0    0.028    0.094    0.148    0.550       1
 compute_V_xc                         1  7.0    0.000    0.000    0.548    0.548       4
 pw_copy                             76 10.5    0.477    0.532    0.477    0.532       1
 xc_functional_eval                   4 11.0    0.000    0.000    0.352    0.505       1
 pbe_lda_eval                         4 12.0    0.352    0.505    0.352    0.505       3
 contract_B_PQ                       18 11.9    0.159    0.394    0.173    0.426       0
 compute_M_pq_inv_and_V_pq            1  8.0    0.000    0.000    0.414    0.414       0
 initialize_ri_rs_grid                1  8.0    0.002    0.008    0.197    0.400       1
 pw_poisson_set                       6  8.7    0.000    0.000    0.363    0.397       2
 mp_bcast_dm                         38  9.3    0.195    0.396    0.195    0.396       7
 compute_contracted_RI_matrix         2  9.0    0.000    0.000    0.386    0.386       2
 compute_optimized_RI_matrix_bl      10 10.0    0.028    0.038    0.308    0.384       2
 compute_W                            1  7.0    0.000    0.000    0.360    0.360       0
 compute_M_PQ_AB                    342 11.0    0.000    0.000    0.293    0.360       2
 compute_M_PQ                       342 12.0    0.000    0.000    0.293    0.359       1
 int_operators_r12_ab_os            342 13.0    0.000    0.000    0.292    0.359       2
 int_operator_ab_os_low             342 14.0    0.125    0.156    0.292    0.359       1
 transfer_pw2rs                      20 11.2    0.000    0.000    0.355    0.356       2
 cp_ddapc_apply_CD                    5  9.2    0.000    0.000    0.197    0.355       0
 fft_wrap_pw1pw2_100                 10 10.6    0.015    0.025    0.242    0.355       1
 compute_Sigma_c_and_QP_energie       1  7.0    0.000    0.000    0.305    0.317       1
 pw_integral_ab_c1d_c1d_gs           10  9.7    0.212    0.228    0.241    0.295       1
 compute_Sigma_c                      1  8.0    0.002    0.002    0.289    0.289       4
 pw_axpy                             55  8.1    0.218    0.261    0.218    0.261       1
 parallel_gemm_fm_gemm              431  9.6    0.000    0.000    0.250    0.254       3
 cp_fm_gemm                         434 10.5    0.250    0.254    0.250    0.254       5
 contract_grid_panels_sigma_c        30  9.0    0.224    0.227    0.244    0.244       7
 compute_fm_W_freq                   30  8.0    0.000    0.000    0.240    0.241       2
 get_ddapc                            5 10.2    0.000    0.000    0.079    0.237       2
 transfer_pw2rs_300                   5 12.2    0.101    0.121    0.218    0.235       0
 pw_copy_to_array                    38 11.6    0.196    0.221    0.196    0.221       0
 compute_B_PQ_exchange                9 10.9    0.000    0.000    0.086    0.213       0
 compute_B_PQ_transition              9 10.9    0.000    0.000    0.086    0.213       0
 qs_energies_init_hamiltonians        1  3.0    0.000    0.000    0.211    0.211       3
 qs_env_update_s_mstruct              1  4.0    0.000    0.000    0.210    0.210       0
 pw_copy_from_array                  41 12.8    0.140    0.195    0.140    0.195       3
 get_mat_chi_Gamma_tau                1  7.0    0.002    0.013    0.190    0.190       0
 calculate_rho_core                   1  5.0    0.013    0.013    0.187    0.190       2
 copy_dbcsr_to_fm                   104  9.5    0.112    0.186    0.114    0.189       5
 rirs_cluster_gradient_coordina     301 10.0    0.050    0.186    0.050    0.186       1
 sort_shells                          5  8.2    0.179    0.181    0.179    0.181       4
 mp_waitall_1                       138 12.7    0.113    0.171    0.113    0.171       7
 abc_contract_xsmm                  753 11.0    0.072    0.169    0.072    0.169       0
 contract_grid_panels                31  8.0    0.148    0.155    0.163    0.169       7
 compute_Z_lP                         1  7.0    0.000    0.000    0.137    0.137       1
 compute_Z_lP_auto_ri                 1  8.0    0.000    0.000    0.137    0.137       2
 create_qs_kind_set                   1  2.0    0.000    0.000    0.133    0.135       3
 read_qs_kind                         2  3.0    0.043    0.045    0.133    0.135       0
 transfer_pw2rs_100                   5 12.2    0.053    0.070    0.112    0.129       2
 compute_d_lp_auto_ri_batch           1  9.0    0.000    0.000    0.066    0.128       1
 compute_d_lp_auto_ri_atom            1 10.0    0.017    0.041    0.066    0.128       7
 operator2                       149526 15.0    0.094    0.114    0.094    0.114       2
 transfer_rs2pw_100                   5  9.0    0.042    0.050    0.094    0.104       0
 rirs_cluster_gradient_products     301 10.0    0.027    0.095    0.027    0.095       1
 parser_read_line                 22513  4.0    0.004    0.004    0.091    0.093       2
 ab_contract                     150512 15.0    0.073    0.091    0.073    0.091       1
 parser_read_line_low                27  5.0    0.006    0.038    0.087    0.089       0
 broadcast_input_information         27  6.0    0.004    0.010    0.081    0.088       0
 pw_zero                             40  6.8    0.073    0.086    0.073    0.086       2
 mp_sendrecv_dv                     105 10.0    0.066    0.080    0.066    0.080       3
 compute_AA_optimized_RI_basis        1  8.0    0.000    0.000    0.076    0.076       5
 fft_wrap_pw1pw2_40                  10 10.6    0.002    0.005    0.043    0.076       2
 mp_bcast_i_src                     113  7.0    0.049    0.065    0.049    0.065       1
 build_G_ao                         121  8.5    0.004    0.004    0.051    0.058       1
 build_3c_integral_block_auto_r      48 11.0    0.027    0.056    0.027    0.056       0
 rirs_cluster_AO_products           301 10.0    0.012    0.054    0.012    0.054       1
 cp_fm_cholesky_invert               31  9.0    0.050    0.052    0.050    0.052       5
 build_3c_integral_block_auto_r      48 11.0    0.000    0.000    0.022    0.050       1
 rirs_cluster_residual              301 10.0    0.014    0.050    0.014    0.050       1
 compute_B_PQ_AA                      8  9.0    0.000    0.000    0.042    0.049       1
 mp_sum_root_rm                       8 10.0    0.038    0.048    0.038    0.048       7
 pw_multiply_with                     5  9.2    0.042    0.048    0.042    0.048       1
 pw_grid_assign                       5  7.2    0.038    0.046    0.046    0.047       1
 pw_grid_remap                        4  8.0    0.008    0.008    0.031    0.045       4
 compute_fm_chi_Gamma_freq           30  8.0    0.022    0.024    0.044    0.045       2
 rs_grid_zero                         6 12.0    0.040    0.044    0.040    0.044       1
 grid_integrate_task_list             5 10.2    0.026    0.040    0.026    0.040       0
 check_for_restart_files              1  7.0    0.038    0.040    0.038    0.040       3
 pw_scale                            17  9.8    0.030    0.039    0.030    0.039       4
 mp_sum_im3                           5  9.0    0.024    0.038    0.024    0.038       7
 solve_AB_eigenproblem                4 10.0    0.014    0.026    0.023    0.038       0
 G_occ_vir                          121  9.5    0.002    0.002    0.032    0.038       4
 cp_fm_cholesky_decompose            35  9.0    0.032    0.038    0.032    0.038       7
 rirs_cluster_D_ll                  301 10.0    0.009    0.037    0.009    0.037       1
 rirs_grid_build_clusters             1  8.0    0.005    0.021    0.009    0.035       1
 rirs_cluster_d_lP                  301 10.0    0.009    0.034    0.009    0.034       1
 copy_fm_to_dbcsr                   161  9.3    0.026    0.027    0.030    0.033       1
 local_gemm                        5288 12.9    0.014    0.032    0.014    0.032       0
 compute_int_3c                       2  9.0    0.021    0.023    0.029    0.032       1
 mp_bcast_am_src                     27  7.0    0.028    0.031    0.028    0.031       4
 transfer_pw2rs_40                    5 12.2    0.008    0.009    0.021    0.030       1
 cp_fm_syevd                          5  9.0    0.000    0.000    0.030    0.030       2
 cp_fm_geeig                          2  9.5    0.000    0.000    0.029    0.029       2
 cp_fm_redistribute_end               5 10.0    0.015    0.028    0.015    0.028       6
 compute_M_pq_inv                     1  9.0    0.000    0.000    0.027    0.028       0
 cp_fm_uplo_to_full                  63  9.0    0.021    0.028    0.021    0.028       3
 cp_fm_syevd_base                     5 10.0    0.014    0.027    0.014    0.027       3
 eval_pw_TabLR                        1  2.0    0.009    0.011    0.022    0.025       2
 qs_scf_new_mos                       4  5.0    0.000    0.000    0.024    0.024       6
 qs_scf_loop_do_ot                    4  6.0    0.000    0.000    0.024    0.024       4
 transfer_rs2pw_40                    5  9.0    0.007    0.008    0.019    0.023       0
 ot_scf_mini                          4  7.0    0.001    0.002    0.022    0.022       4
 diamat_all                          20 11.4    0.014    0.019    0.014    0.019       0
 mp_sum_iv                          142 10.0    0.015    0.019    0.015    0.019       4
 eval_bandstructure_properties        1  5.0    0.000    0.000    0.017    0.018       4
 mp_alltoall_d11v                    10  9.6    0.008    0.018    0.008    0.018       7
 rs_gather_matrices                   5 10.2    0.000    0.000    0.008    0.018       1
 xc_pw_smooth                         4 10.0    0.000    0.000    0.013    0.018       1
 cp_ddapc_init                        1  5.0    0.000    0.000    0.018    0.018       2
 cp_ddapc_create                      1  6.0    0.000    0.000    0.018    0.018       2
 cp_cfm_geeig                         1  6.0    0.000    0.000    0.016    0.018       2
 ddapc_eval_gfunc                     1  7.0    0.014    0.017    0.014    0.017       0
 compute_QP_energies                  1  8.0    0.000    0.000    0.015    0.017       3
 mp_sum_l                            21  4.2    0.010    0.016    0.010    0.016       6
 -------------------------------------------------------------------------------

 The number of warnings for this run is : 2
 
 -------------------------------------------------------------------------------
  **** **** ******  **  PROGRAM ENDED AT                 2026-10-03 11:49:28.349
 ***** ** ***  *** **   PROGRAM RAN ON                                  n2cn0933
 **    ****   ******    PROGRAM RAN BY                                  eprop2d1
 ***** **    ** ** **   PROGRAM PROCESS ID                               1019679
  **** **  *******  **  PROGRAM STOPPED IN /scratch/hpc-prf-metdyn/eprop2d1_Jan/
                                           53_benchmark_RI_opt/418_gw100_fig5_fu
                                           ll_epsfilter_1e12_20261002/calculatio
                                           ns/rc0p5/ri4_rs04/21_C2H6
