 DBCSR| CPU Multiplication driver                                           XSMM (U)
 DBCSR| Multrec recursion limit                                              512 (U)
 DBCSR| Multiplication stack size                                           1000 (D)
 DBCSR| Maximum elements for images                                    UNLIMITED (U)
 DBCSR| Multiplicative factor virtual images                                   1 (U)
 DBCSR| Use multiplication densification                                       T (D)
 DBCSR| Multiplication size stacks                                             3 (U)
 DBCSR| Use memory pool for CPU allocation                                     F (U)
 DBCSR| Number of 3D layers                                               SINGLE (U)
 DBCSR| Use MPI memory allocation                                              F (U)
 DBCSR| Use RMA algorithm                                                      F (U)
 DBCSR| Use Communication thread                                               T (U)
 DBCSR| Communication thread load                                             30 (D)
 DBCSR| MPI: My process id                                                     0
 DBCSR| MPI: Number of processes                                               8
 DBCSR| OMP: Current number of threads                                        16
 DBCSR| OMP: Max number of threads                                            16
 DBCSR| Split modifier for TAS multiplication algorithm                  1.0E+00 (U)


  **** **** ******  **  PROGRAM STARTED AT               2026-09-17 10:26:12.533
 ***** ** ***  *** **   PROGRAM STARTED ON                              n2cn0708
 **    ****   ******    PROGRAM STARTED BY                              eprop2d1
 ***** **    ** ** **   PROGRAM PROCESS ID                                297269
  **** **  *******  **  PROGRAM STARTED IN /scratch/hpc-prf-metdyn/eprop2d1_Jan/
                                           53_benchmark_RI_opt/106_GW100_GTH_RIR
                                           S_riao5_7_c7/calculations/88_C6F6/ria
                                           o3/leb_r09

 CP2K| version string:                 CP2K version 2026.2 (Development Version)
 CP2K| source code revision number:                                      unknown
 CP2K| cp2kflags: omp libint fftw3 libxc parallel scalapack openblas            
 CP2K| is freely available from                            https://www.cp2k.org/
 CP2K| Program compiled at                                   2026-09-15 17:57:52
 CP2K| Program compiled on                                              n2login6
 CP2K| Program compiled for                                               x86_64
 CP2K| Data directory path    /scratch/hpc-prf-metdyn/eprop2d1_Jan/53_benchmark_
 CP2K| Input file name        /scratch/hpc-prf-metdyn/eprop2d1_Jan/53_benchmark_
 
 eprop2d1@n2cn0708 has created rank and process                      0    297269
 eprop2d1@n2cn0708 has created rank and process                      1    297270
 eprop2d1@n2cn0708 has created rank and process                      2    297271
 eprop2d1@n2cn0708 has created rank and process                      3    297272
 eprop2d1@n2cn0708 has created rank and process                      4    297273
 eprop2d1@n2cn0708 has created rank and process                      5    297274
 eprop2d1@n2cn0708 has created rank and process                      6    297275
 eprop2d1@n2cn0708 has created rank and process                      7    297276
 
 eprop2d1@n2cn0708 is running                                        8 processes

 GLOBAL| Force Environment number                                              1
 GLOBAL| Basis set file name            /scratch/hpc-prf-metdyn/eprop2d1_Jan/53_
 GLOBAL| Potential file name            /scratch/hpc-prf-metdyn/eprop2d1_Jan/53_
 GLOBAL| MM Potential file name                                     MM_POTENTIAL
 GLOBAL| Coordinate file name                                      __STD_INPUT__
 GLOBAL| Method name                                                        CP2K
 GLOBAL| Project name                               gw100_106_88_C6F6_a3_leb_r09
 GLOBAL| Run type                                                         ENERGY
 GLOBAL| FFT library                                                       FFTW3
 GLOBAL| Diagonalization library                                       ScaLAPACK
 GLOBAL| Cholesky decomposition library                                ScaLAPACK
 GLOBAL| DGEMM library                                                      BLAS
 GLOBAL| Direct generalized diagonalization requested                          F
 GLOBAL| Orthonormality check for eigenvectors                          DISABLED
 GLOBAL| Matrix multiplication library                                 ScaLAPACK
 GLOBAL| All-to-all communication in single precision                          F
 GLOBAL| Grid backend                                                       AUTO
 GLOBAL| Global print level                                                  LOW
 GLOBAL| MPI I/O enabled                                                       T
 GLOBAL| Total number of message passing processes                             8
 GLOBAL| Number of distributed systems (nodes)                                 1
 GLOBAL| Number of threads for this process                                   16
 GLOBAL| This output is from process                                           0
 GLOBAL| OpenMP stack size per thread (OMP_STACKSIZE)                       128M
 GLOBAL| CPU model name                          AMD EPYC 7763 64-Core Processor

 MEMORY| system memory details [Kb]
 MEMORY|                        rank 0           min           max       average
 MEMORY| MemTotal            263897600     263897600     263897600     263897600
 MEMORY| MemFree             250077396     250077396     250077396     250077396
 MEMORY| Buffers                283460        283460        283460        283460
 MEMORY| Cached                6521928       6521928       6521928       6521928
 MEMORY| Slab                  1498428       1498428       1498428       1498428
 MEMORY| SReclaimable           300108        300108        300108        300108
 MEMORY| MemLikelyFree       257182892     257182892     257182892     257182892


 GENERATE|  Preliminary Number of Bonds generated:                             0
 GENERATE|  Achieved consistency in connectivity generation.

 *******************************************************************************
 *******************************************************************************
 **                                                                           **
 **     #####                         ##              ##                      **
 **    ##   ##            ##          ##              ##                      **
 **   ##     ##                       ##            ######                    **
 **   ##     ##  ##   ##  ##   #####  ##  ##   ####   ##    #####    #####    **
 **   ##     ##  ##   ##  ##  ##      ## ##   ##      ##   ##   ##  ##   ##   **
 **   ##  ## ##  ##   ##  ##  ##      ####     ###    ##   ######   ######    **
 **    ##  ###   ##   ##  ##  ##      ## ##      ##   ##   ##       ##        **
 **     #######   #####   ##   #####  ##  ##  ####    ##    #####   ##        **
 **           ##                                                    ##        **
 **                                                                           **
 **                                                ... make the atoms dance   **
 **                                                                           **
 **            Copyright (C) by CP2K developers group (2000-2026)             **
 **                      J. Chem. Phys. 152, 194103 (2020)                    **
 **                                                                           **
 *******************************************************************************


 TOTAL NUMBERS AND MAXIMUM NUMBERS

  Total number of            - Atomic kinds:                                   2
                             - Atoms:                                         12
                             - Shell sets:                                    12
                             - Shells:                                        60
                             - Primitive Cartesian functions:                 78
                             - Cartesian basis functions:                    168
                             - Spherical basis functions:                    156

  Maximum angular momentum of- Orbital basis functions:                        2
                             - Local part of the GTH pseudopotential:          2
                             - Non-local part of the GTH pseudopotential:      0


 SCF PARAMETERS         Density guess:                                   RESTART
                        --------------------------------------------------------
                        max_scf:                                             500
                        max_scf_history:                                       0
                        max_diis:                                              4
                        --------------------------------------------------------
                        eps_scf:                                        1.00E-08
                        eps_scf_history:                                0.00E+00
                        eps_diis:                                       0.00E+00
                        eps_eigval:                                     1.00E-05
                        --------------------------------------------------------
                        level_shift [a.u.]:                             0.000000
                        --------------------------------------------------------
                        Outer loop SCF in use 
                        No variables optimised in outer loop
                        eps_scf                                         1.00E-08
                        max_scf                                               20
                        No outer loop optimization
                        step_size                                       5.00E-01

 Extrapolation method: initial_guess

 Number of electrons:                                                         66
 Number of occupied orbitals:                                                 33
 Number of molecular orbitals:                                                33

 Number of orbital functions:                                                156
 Number of independent orbital functions:                                    156


 SCF WAVEFUNCTION OPTIMIZATION

  ----------------------------------- OT ---------------------------------------
  Minimizer      : DIIS                : direct inversion
                                         in the iterative subspace
                                         using   7 DIIS vectors
                                         safer DIIS on
  Preconditioner : FULL_KINETIC        : inversion of T + eS
  Lattice FFT   : OFF
  Precond_solver : DEFAULT
  stepsize       :    0.15000000                  energy_gap     :    0.20000000
  eps_taylor     :   0.10000E-15                  max_taylor     :             4
  ----------------------------------- OT ---------------------------------------

  Step     Update method      Time    Convergence         Total energy    Change
  ------------------------------------------------------------------------------
  Decoupling Energy:                                              -0.0000018485
     1 OT DIIS     0.15E+00    1.7     0.00000057      -179.4680595790 -1.79E+02
  Decoupling Energy:                                              -0.0000018485
     2 OT DIIS     0.15E+00    1.9     0.00000043      -179.4680595792 -2.12E-10
  Decoupling Energy:                                              -0.0000018485
     3 OT DIIS     0.15E+00    1.9     0.00000035      -179.4680595794 -2.03E-10
  Decoupling Energy:                                              -0.0000018485
     4 OT DIIS     0.15E+00    1.9     0.00000028      -179.4680595795 -1.19E-10
  Decoupling Energy:                                              -0.0000018485
     5 OT DIIS     0.15E+00    1.9     0.00000021      -179.4680595796 -1.44E-10
  Decoupling Energy:                                              -0.0000018484
     6 OT DIIS     0.15E+00    1.9     0.00000015      -179.4680595798 -1.17E-10
  Decoupling Energy:                                              -0.0000018484
     7 OT DIIS     0.15E+00    1.9     0.00000011      -179.4680595798 -5.75E-11
  Decoupling Energy:                                              -0.0000018484
     8 OT DIIS     0.15E+00    1.9     0.00000008      -179.4680595798 -3.03E-11
  Decoupling Energy:                                              -0.0000018484
     9 OT DIIS     0.15E+00    1.9     0.00000006      -179.4680595799 -1.51E-11
  Decoupling Energy:                                              -0.0000018484
    10 OT DIIS     0.15E+00    1.9     0.00000005      -179.4680595799 -7.45E-12
  Decoupling Energy:                                              -0.0000018484
    11 OT DIIS     0.15E+00    1.9     0.00000004      -179.4680595799 -4.52E-12
  Decoupling Energy:                                              -0.0000018484
    12 OT DIIS     0.15E+00    2.0     0.00000003      -179.4680595799 -3.92E-12
  Decoupling Energy:                                              -0.0000018484
    13 OT DIIS     0.15E+00    2.0     0.00000003      -179.4680595799 -2.36E-12
  Decoupling Energy:                                              -0.0000018484
    14 OT DIIS     0.15E+00    1.9     0.00000002      -179.4680595799 -1.71E-12
  Decoupling Energy:                                              -0.0000018484
    15 OT DIIS     0.15E+00    1.9     0.00000002      -179.4680595799 -1.08E-12
  Decoupling Energy:                                              -0.0000018484
    16 OT DIIS     0.15E+00    2.0     0.00000001      -179.4680595799 -6.82E-13
  Decoupling Energy:                                              -0.0000018484
    17 OT DIIS     0.15E+00    1.9     0.00000001      -179.4680595799 -5.12E-13
  Decoupling Energy:                                              -0.0000018484
    18 OT DIIS     0.15E+00    1.9     0.00000001      -179.4680595799 -5.40E-13
  Decoupling Energy:                                              -0.0000018484
    19 OT DIIS     0.15E+00    2.0     8.3506E-09      -179.4680595799 -5.68E-14

  *** SCF run converged in    19 steps ***


  Electronic density on regular grids:        -65.9999999999        0.0000000001
  Core density on regular grids:               66.0000000000       -0.0000000000
  Total charge density on r-space grids:        0.0000000000
  Total charge density g-space grids:           0.0000000000

  Overlap energy of the core charge distribution:               0.00000120202408
  Self energy of the core charge distribution:               -465.88464389476843
  Core Hamiltonian energy:                                    133.64477418376879
  Hartree energy:                                             191.08907758336005
  Exchange-correlation energy:                                -38.31726865426698

  Total energy:                                              -179.46805957988249

  outer SCF iter =    1 RMS gradient =   0.84E-08 energy =       -179.4680595799
  outer SCF loop converged in   1 iterations or   19 steps

  
 -------------------------------------------------------------------------------
 -                                                                             -
 -                          BANDSTRUCTURE CALCULATION                          -
 -                                                                             -
 -------------------------------------------------------------------------------
  
 Number of occupied molecular orbitals (MOs) = Number of occupied bands       33
 Number of unoccupied (= virtual) MOs = Number of unoccupied bands           123
 Number of Gaussian basis functions for MOs                                  156
  
 -------------------------------------------------------------------------------
 -                                                                             -
 -                                GW CALCULATION                               -
 -                                                                             -
 -------------------------------------------------------------------------------
  
 Input: Number of time/freq. points                                           30
 Input: ω_max for fitting Σ(iω) (eV)                                        10.0
 Input: Filter threshold for sparse tensor operations                    1.0E-07
 Input: Apply Hedin shift                                                      F
 Input: Available memory per MPI process                                  2.0 GB
 
 Input: RI-RS Tikhonov regularization                                   1.00E-04
 Input: AO grid hard cutoff radius                                        8.00 Å
 Input: MPI ranks per atom in Z_lP solve                                      -1
 Input: Keep sparsity in χ/G/W panels                                          T
 Input: GW flavour                                                          G0W0
 
 Input: RI-RS grid optimization activated                                      T
 Input: Initial RI-RS grid                                              CHOLESKY
 Input: RS points per AO function                                         9.0000
 Input: Initial RS candidates per AO function                            30.0000
 Input: Additional Lebedev degree                                              2
 Input: Cholesky selection matrix                                        D_PRIME
 Input: Cholesky candidate domain                                      FULL_ATOM
 Input: Initial radial quadrature                                       GAPW_LOG
 Input: Cutoff radius for atomic clusters                                  5.0 Å
 Input: Maximum grid optimization iterations                                 300
 Input: L-BFGS history size                                                    7
 Input: L-BFGS relative-function factor                              0.00000E+00
 Input: L-BFGS projected-gradient tolerance                          1.00000E-09
 
 Input: AUTO_RI basis optimization activated:                                  T
 Input: AUTO_RI requested RI/AO ratio:                                       3.0
 Input: AUTO_RI frontier orbital window:                                  5.0 eV
 Input: AUTO_RI neighbor radius:                                           3.0 Å
 
 Cutoff radius for the truncated Coulomb operator in RI metric:            7.0 Å
 Regularization parameter of RI                                          0.0E+00
 Regularization parameter of minimax grids                               1.0E-06
 
 AUTO_RI| Number of automatic RI functions for χ, ε, W:                      468
 AUTO_RI| Total RI basis optimization time:                                2.9 s
  Decoupling Energy:                                              -0.0000018484
 
 SCF direct band gap (eV)                                                   4.60
 Max. SCF eigval diff. (eV)                                               223.99
 E-Range for minimax grid                                                  48.68
 Number of Padé parameters for analytic continuation:                         16
 
 RI-RS basis radii (Å):
     Kind  Elem     r_AO (Å)     r_RI (Å)
        1    C         8.0299        5.0785
        2    F         9.6839        6.1246
 
 RI-RS initialization: atomic kind                                             1
 RI-RS initialization: Lebedev degree                                         11
 RI-RS initialization: radial shells                                           8
 RI-RS initialization: candidates per atom                                   400
 RI-RS initialization: retained points per atom                              117
 RI-RS initialization: atomic kind                                             2
 RI-RS initialization: Lebedev degree                                          9
 RI-RS initialization: radial shells                                          11
 RI-RS initialization: candidates per atom                                   418
 RI-RS initialization: retained points per atom                              117
 RI-RS initialization: largest cluster candidate count                      4908
 RI-RS initialization: most pivots in one cluster                           2063
 RI-RS initialization: most stored AO values in one cluster               757458
 RI-RS initialization: wall time [s]                                       1.428
 Started RI-RS grid optimization
 RI-RS grid initial normalized error                          5.294921530276E-05
 RI-RS grid optimization completed, execution time:                      567.7 s
 Normalized 3C error:                                                    2.0E-08
 Maximum absolute 3C error:                                              2.2E-03
 Optimized points outside molecular Voronoi cells:                           243 / 1404
 Total grid points used for RI-RS:                                          1404
 
 RI-RS grid row-blocks of Φ_μ(r_l)                                            48
 RI-RS grid points per block (max)                                            32
 
 Percentage of non-zero matrix elements in Φ_μ(r_l)                     100.00 %
 
 RI-RS memory estimate per MPI process:
   Available memory per process (system)                                32.41 GB
   Required for Z_lP (dense upper bound; actual is sparser)              0.00 GB
   Required for χ, W, Σ panels (peak per panel step)                     0.01 GB
   Required for Z_lP solve peak (D_local+φ, worst-case atom)             0.03 GB
   Worst-case local-grid number of grid points:                             1404
   Worst-case memory D_local:                                            0.02 GB
 
 Started computing Z_lP
 Computed Z_lP (MPI rank 0) for atom          1 /  2,    Execution time    0.2 s
 Computed Z_lP (MPI rank 0) for atom          2 /  2,    Execution time    0.1 s
 Computed Z_lP (all MPI ranks) for all atoms,            Execution time    0.3 s

 Number of batches for χ, Σ matrices                                           1
 
 Percentage of non-zero matrix elements in Z_lP                         100.00 %
 Percentage of non-zero matrix elements in G_ll', χ_ll', W_ll'          100.00 %
 Percentage of non-zero matrix elements in χ_PQ for time point 1        100.00 %
 
 Computed χ(iτ,k=0) for time point            1 / 30,    Execution time    0.1 s
 Computed χ(iτ,k=0) for time point            2 / 30,    Execution time    0.0 s
 Computed χ(iτ,k=0) for time point            3 / 30,    Execution time    0.0 s
 Computed χ(iτ,k=0) for time point            4 / 30,    Execution time    0.0 s
 Computed χ(iτ,k=0) for time point            5 / 30,    Execution time    0.0 s
 Computed χ(iτ,k=0) for time point            6 / 30,    Execution time    0.0 s
 Computed χ(iτ,k=0) for time point            7 / 30,    Execution time    0.0 s
 Computed χ(iτ,k=0) for time point            8 / 30,    Execution time    0.0 s
 Computed χ(iτ,k=0) for time point            9 / 30,    Execution time    0.0 s
 Computed χ(iτ,k=0) for time point           10 / 30,    Execution time    0.0 s
 Computed χ(iτ,k=0) for time point           11 / 30,    Execution time    0.0 s
 Computed χ(iτ,k=0) for time point           12 / 30,    Execution time    0.0 s
 Computed χ(iτ,k=0) for time point           13 / 30,    Execution time    0.0 s
 Computed χ(iτ,k=0) for time point           14 / 30,    Execution time    0.0 s
 Computed χ(iτ,k=0) for time point           15 / 30,    Execution time    0.0 s
 Computed χ(iτ,k=0) for time point           16 / 30,    Execution time    0.0 s
 Computed χ(iτ,k=0) for time point           17 / 30,    Execution time    0.0 s
 Computed χ(iτ,k=0) for time point           18 / 30,    Execution time    0.0 s
 Computed χ(iτ,k=0) for time point           19 / 30,    Execution time    0.0 s
 Computed χ(iτ,k=0) for time point           20 / 30,    Execution time    0.0 s
 Computed χ(iτ,k=0) for time point           21 / 30,    Execution time    0.0 s
 Computed χ(iτ,k=0) for time point           22 / 30,    Execution time    0.0 s
 Computed χ(iτ,k=0) for time point           23 / 30,    Execution time    0.0 s
 Computed χ(iτ,k=0) for time point           24 / 30,    Execution time    0.0 s
 Computed χ(iτ,k=0) for time point           25 / 30,    Execution time    0.0 s
 Computed χ(iτ,k=0) for time point           26 / 30,    Execution time    0.0 s
 Computed χ(iτ,k=0) for time point           27 / 30,    Execution time    0.0 s
 Computed χ(iτ,k=0) for time point           28 / 30,    Execution time    0.0 s
 Computed χ(iτ,k=0) for time point           29 / 30,    Execution time    0.0 s
 Computed χ(iτ,k=0) for time point           30 / 30,    Execution time    0.0 s
 
 Computed W(iτ),                                         Execution time    0.4 s
 
 Computed Σ^x(k=0),                                      Execution time    0.0 s
 
 Computed Σ^c(iτ) for time point              1 / 30,    Execution time    0.0 s
 Computed Σ^c(iτ) for time point              2 / 30,    Execution time    0.0 s
 Computed Σ^c(iτ) for time point              3 / 30,    Execution time    0.0 s
 Computed Σ^c(iτ) for time point              4 / 30,    Execution time    0.0 s
 Computed Σ^c(iτ) for time point              5 / 30,    Execution time    0.0 s
 Computed Σ^c(iτ) for time point              6 / 30,    Execution time    0.0 s
 Computed Σ^c(iτ) for time point              7 / 30,    Execution time    0.0 s
 Computed Σ^c(iτ) for time point              8 / 30,    Execution time    0.0 s
 Computed Σ^c(iτ) for time point              9 / 30,    Execution time    0.0 s
 Computed Σ^c(iτ) for time point             10 / 30,    Execution time    0.0 s
 Computed Σ^c(iτ) for time point             11 / 30,    Execution time    0.0 s
 Computed Σ^c(iτ) for time point             12 / 30,    Execution time    0.0 s
 Computed Σ^c(iτ) for time point             13 / 30,    Execution time    0.0 s
 Computed Σ^c(iτ) for time point             14 / 30,    Execution time    0.0 s
 Computed Σ^c(iτ) for time point             15 / 30,    Execution time    0.0 s
 Computed Σ^c(iτ) for time point             16 / 30,    Execution time    0.0 s
 Computed Σ^c(iτ) for time point             17 / 30,    Execution time    0.0 s
 Computed Σ^c(iτ) for time point             18 / 30,    Execution time    0.0 s
 Computed Σ^c(iτ) for time point             19 / 30,    Execution time    0.0 s
 Computed Σ^c(iτ) for time point             20 / 30,    Execution time    0.0 s
 Computed Σ^c(iτ) for time point             21 / 30,    Execution time    0.0 s
 Computed Σ^c(iτ) for time point             22 / 30,    Execution time    0.0 s
 Computed Σ^c(iτ) for time point             23 / 30,    Execution time    0.0 s
 Computed Σ^c(iτ) for time point             24 / 30,    Execution time    0.0 s
 Computed Σ^c(iτ) for time point             25 / 30,    Execution time    0.0 s
 Computed Σ^c(iτ) for time point             26 / 30,    Execution time    0.0 s
 Computed Σ^c(iτ) for time point             27 / 30,    Execution time    0.0 s
 Computed Σ^c(iτ) for time point             28 / 30,    Execution time    0.0 s
 Computed Σ^c(iτ) for time point             29 / 30,    Execution time    0.0 s
 Computed Σ^c(iτ) for time point             30 / 30,    Execution time    0.0 s
 
 SCF valence band maximum (eV):                                           -6.839
 SCF conduction band minimum (eV):                                        -2.238
 SCF indirect band gap (eV):                                               4.601
 SCF direct band gap (eV):                                                 4.601
 
 G0W0 valence band maximum (eV):                                          -8.809
 G0W0 conduction band minimum (eV):                                        1.049
 G0W0 indirect band gap (eV):                                              9.858
 G0W0 direct band gap (eV):                                                9.858
 
 Hartree-Fock with SCF orbitals valence band maximum (eV):               -10.222
 Hartree-Fock with SCF orbitals conduction band minimum (eV)               2.971
 Hartree-Fock with SCF orbitals indirect band gap (eV):                   13.193
 Hartree-Fock with SCF orbitals direct band gap (eV):                     13.193

 ENERGY| Total FORCE_EVAL ( QS ) energy [hartree]           -179.468059579882492

 -------------------------------------------------------------------------------
 -                                                                             -
 -                                DBCSR STATISTICS                             -
 -                                                                             -
 -------------------------------------------------------------------------------
 COUNTER                                    TOTAL       BLAS       SMM       ACC
 flops    32 x     1 x     1                 1216       0.0%    100.0%      0.0%     
 flops    13 x     1 x     1                29328       0.0%    100.0%      0.0%     
 flops    32 x    32 x     1                38912       0.0%    100.0%      0.0%     
 flops    32 x     1 x    32                38912       0.0%    100.0%      0.0%     
 flops    13 x    13 x     1               527280       0.0%    100.0%      0.0%     
 flops    32 x     1 x    39               748800       0.0%    100.0%      0.0%     
 flops    13 x    32 x     1               928512       0.0%    100.0%      0.0%     
 flops    13 x     1 x    32               928512       0.0%    100.0%      0.0%     
 flops    13 x     1 x    39               973440       0.0%    100.0%      0.0%     
 flops    32 x    32 x    32              1245184       0.0%    100.0%      0.0%     
 flops    13 x     1 x    13              2044224       0.0%    100.0%      0.0%     
 flops    27 x    27 x    21              6950286       0.0%    100.0%      0.0%     
 flops    21 x    27 x    27              7715736       0.0%    100.0%      0.0%     
 flops    33 x    27 x    21              8494794       0.0%    100.0%      0.0%     
 flops    27 x    33 x    21              8532216       0.0%    100.0%      0.0%     
 flops    21 x    33 x    27              9430344       0.0%    100.0%      0.0%     
 flops    38 x    27 x    21              9781884       0.0%    100.0%      0.0%     
 flops    27 x    38 x    21              9781884       0.0%    100.0%      0.0%     
 flops    39 x    27 x    21             10039302       0.0%    100.0%      0.0%     
 flops    27 x    39 x    21             10039302       0.0%    100.0%      0.0%     
 flops    27 x    40 x    21             10342080       0.0%    100.0%      0.0%     
 flops    33 x    33 x    21             10428264       0.0%    100.0%      0.0%     
 flops    27 x    43 x    21             10678878       0.0%    100.0%      0.0%     
 flops    21 x    38 x    27             10859184       0.0%    100.0%      0.0%     
 flops    21 x    39 x    27             11144952       0.0%    100.0%      0.0%     
 flops    21 x    40 x    27             11430720       0.0%    100.0%      0.0%     
 flops    33 x    38 x    21             11955636       0.0%    100.0%      0.0%     
 flops    38 x    33 x    21             12008304       0.0%    100.0%      0.0%     
 flops    33 x    39 x    21             12270258       0.0%    100.0%      0.0%     
 flops    21 x    43 x    27             12288024       0.0%    100.0%      0.0%     
 flops    39 x    33 x    21             12324312       0.0%    100.0%      0.0%     
 flops    33 x    40 x    21             12640320       0.0%    100.0%      0.0%     
 flops    33 x    43 x    21             13051962       0.0%    100.0%      0.0%     
 flops    38 x    38 x    21             13767096       0.0%    100.0%      0.0%     
 flops    39 x    38 x    21             14129388       0.0%    100.0%      0.0%     
 flops    38 x    39 x    21             14129388       0.0%    100.0%      0.0%     
 flops    39 x    39 x    21             14501214       0.0%    100.0%      0.0%     
 flops    38 x    40 x    21             14555520       0.0%    100.0%      0.0%     
 flops    39 x    40 x    21             14938560       0.0%    100.0%      0.0%     
 flops    38 x    43 x    21             15029532       0.0%    100.0%      0.0%     
 flops    39 x    43 x    21             15425046       0.0%    100.0%      0.0%     
 flops    27 x    42 x    21             21003948       0.0%    100.0%      0.0%     
 flops    21 x    42 x    27             24004512       0.0%    100.0%      0.0%     
 flops    21 x    27 x    42             24004512       0.0%    100.0%      0.0%     
 flops    33 x    42 x    21             25671492       0.0%    100.0%      0.0%     
 flops    21 x    33 x    42             29338848       0.0%    100.0%      0.0%     
 flops    38 x    42 x    21             29561112       0.0%    100.0%      0.0%     
 flops    13 x    32 x    32             30031872       0.0%    100.0%      0.0%     
 flops    39 x    42 x    21             30339036       0.0%    100.0%      0.0%     
 flops    13 x    32 x    39             31150080       0.0%    100.0%      0.0%     
 flops    27 x    27 x    32             31866048       0.0%    100.0%      0.0%     
 flops    21 x    38 x    42             33784128       0.0%    100.0%      0.0%     
 flops    21 x    39 x    42             34673184       0.0%    100.0%      0.0%     
 flops    32 x    27 x    27             35271936       0.0%    100.0%      0.0%     
 flops    21 x    40 x    42             35562240       0.0%    100.0%      0.0%     
 flops    21 x    43 x    42             38229408       0.0%    100.0%      0.0%     
 flops    33 x    27 x    32             38947392       0.0%    100.0%      0.0%     
 flops    27 x    33 x    32             38947392       0.0%    100.0%      0.0%     
 flops    27 x    41 x    21             41193684       0.0%    100.0%      0.0%     
 flops    41 x    27 x    21             42216552       0.0%    100.0%      0.0%     
 flops    32 x    33 x    27             43110144       0.0%    100.0%      0.0%     
 flops    38 x    27 x    32             44848512       0.0%    100.0%      0.0%     
 flops    27 x    38 x    32             44848512       0.0%    100.0%      0.0%     
 flops    39 x    27 x    32             46028736       0.0%    100.0%      0.0%     
 flops    27 x    39 x    32             46028736       0.0%    100.0%      0.0%     
 flops    21 x    41 x    27             46865952       0.0%    100.0%      0.0%     
 flops    21 x    27 x    41             46865952       0.0%    100.0%      0.0%     
 flops    27 x    40 x    32             47208960       0.0%    100.0%      0.0%     
 flops    33 x    33 x    32             47602368       0.0%    100.0%      0.0%     
 flops    32 x    38 x    27             49641984       0.0%    100.0%      0.0%     
 flops    27 x    43 x    32             49709376       0.0%    100.0%      0.0%     
 flops    33 x    41 x    21             50347836       0.0%    100.0%      0.0%     
 flops    32 x    39 x    27             50948352       0.0%    100.0%      0.0%     
 flops    41 x    33 x    21             51825312       0.0%    100.0%      0.0%     
 flops    32 x    40 x    27             52254720       0.0%    100.0%      0.0%     
 flops    33 x    38 x    32             54814848       0.0%    100.0%      0.0%     
 flops    38 x    33 x    32             54814848       0.0%    100.0%      0.0%     
 flops    32 x    43 x    27             56173824       0.0%    100.0%      0.0%     
 flops    33 x    39 x    32             56257344       0.0%    100.0%      0.0%     
 flops    39 x    33 x    32             56257344       0.0%    100.0%      0.0%     
 flops    21 x    33 x    41             57280608       0.0%    100.0%      0.0%     
 flops    33 x    40 x    32             57699840       0.0%    100.0%      0.0%     
 flops    38 x    41 x    21             57976296       0.0%    100.0%      0.0%     
 flops    41 x    38 x    21             59415888       0.0%    100.0%      0.0%     
 flops    39 x    41 x    21             59501988       0.0%    100.0%      0.0%     
 flops    33 x    43 x    32             60755904       0.0%    100.0%      0.0%     
 flops    41 x    39 x    21             60979464       0.0%    100.0%      0.0%     
 flops    41 x    40 x    21             62818560       0.0%    100.0%      0.0%     
 flops    38 x    38 x    32             63120128       0.0%    100.0%      0.0%     
 flops    39 x    38 x    32             64781184       0.0%    100.0%      0.0%     
 flops    38 x    39 x    32             64781184       0.0%    100.0%      0.0%     
 flops    41 x    43 x    21             64864296       0.0%    100.0%      0.0%     
 flops    13 x    32 x    13             65415168       0.0%    100.0%      0.0%     
 flops    21 x    38 x    41             65959488       0.0%    100.0%      0.0%     
 flops    38 x    40 x    32             66442240       0.0%    100.0%      0.0%     
 flops    39 x    39 x    32             66485952       0.0%    100.0%      0.0%     
 flops    21 x    39 x    41             67695264       0.0%    100.0%      0.0%     
 flops    39 x    40 x    32             68190720       0.0%    100.0%      0.0%     
 flops    21 x    40 x    41             69431040       0.0%    100.0%      0.0%     
 flops    21 x    27 x    21             69917904       0.0%    100.0%      0.0%     
 flops    38 x    43 x    32             69961344       0.0%    100.0%      0.0%     
 flops    39 x    43 x    32             71802432       0.0%    100.0%      0.0%     
 flops    21 x    43 x    41             74638368       0.0%    100.0%      0.0%     
 flops    21 x    42 x    42             74680704       0.0%    100.0%      0.0%     
 flops    21 x    33 x    21             85484322       0.0%    100.0%      0.0%     
 flops    27 x    42 x    32             96888960       0.0%    100.0%      0.0%     
 flops    21 x    38 x    21             98201880       0.0%    100.0%      0.0%     
 flops    21 x    39 x    21            100786140       0.0%    100.0%      0.0%     
 flops    21 x    40 x    21            103264560       0.0%    100.0%      0.0%     
 flops    32 x    27 x    42            109734912       0.0%    100.0%      0.0%     
 flops    32 x    42 x    27            109734912       0.0%    100.0%      0.0%     
 flops    21 x    43 x    21            110516364       0.0%    100.0%      0.0%     
 flops    33 x    42 x    32            118419840       0.0%    100.0%      0.0%     
 flops    41 x    42 x    21            127579536       0.0%    100.0%      0.0%     
 flops    32 x    33 x    42            134120448       0.0%    100.0%      0.0%     
 flops    38 x    42 x    32            136362240       0.0%    100.0%      0.0%     
 flops    39 x    42 x    32            139950720       0.0%    100.0%      0.0%     
 flops    21 x    42 x    41            145805184       0.0%    100.0%      0.0%     
 flops    21 x    41 x    42            145805184       0.0%    100.0%      0.0%     
 flops    32 x    38 x    42            154441728       0.0%    100.0%      0.0%     
 flops    32 x    39 x    42            158505984       0.0%    100.0%      0.0%     
 flops    32 x    40 x    42            162570240       0.0%    100.0%      0.0%     
 flops    32 x    43 x    42            174763008       0.0%    100.0%      0.0%     
 flops    27 x    41 x    32            190226880       0.0%    100.0%      0.0%     
 flops    41 x    27 x    32            193556736       0.0%    100.0%      0.0%     
 flops    32 x    41 x    27            214244352       0.0%    100.0%      0.0%     
 flops    32 x    27 x    41            214244352       0.0%    100.0%      0.0%     
 flops    21 x    42 x    21            216225828       0.0%    100.0%      0.0%     
 flops    33 x    41 x    32            232499520       0.0%    100.0%      0.0%     
 flops    41 x    33 x    32            236569344       0.0%    100.0%      0.0%     
 flops    41 x    41 x    21            250213488       0.0%    100.0%      0.0%     
 flops    32 x    33 x    41            261854208       0.0%    100.0%      0.0%     
 flops    38 x    41 x    32            267726720       0.0%    100.0%      0.0%     
 flops    41 x    38 x    32            272413184       0.0%    100.0%      0.0%     
 flops    39 x    41 x    32            274772160       0.0%    100.0%      0.0%     
 flops    41 x    39 x    32            279581952       0.0%    100.0%      0.0%     
 flops    21 x    41 x    41            284667264       0.0%    100.0%      0.0%     
 flops    41 x    40 x    32            286750720       0.0%    100.0%      0.0%     
 flops    21 x    21 x   108            288054144       0.0%    100.0%      0.0%     
 flops    32 x    38 x    41            301529088       0.0%    100.0%      0.0%     
 flops    41 x    43 x    32            301938432       0.0%    100.0%      0.0%     
 flops    21 x    21 x   116            309391488       0.0%    100.0%      0.0%     
 flops    32 x    39 x    41            309464064       0.0%    100.0%      0.0%     
 flops    32 x    40 x    41            317399040       0.0%    100.0%      0.0%     
 flops    32 x    27 x    21            320785920       0.0%    100.0%      0.0%     
 flops    21 x    27 x    32            322491456       0.0%    100.0%      0.0%     
 flops    32 x    43 x    41            341203968       0.0%    100.0%      0.0%     
 flops    32 x    42 x    42            341397504       0.0%    100.0%      0.0%     
 flops    13 x    13 x    21            377549718       0.0%    100.0%      0.0%     
 flops    32 x    33 x    21            391849920       0.0%    100.0%      0.0%     
 flops    21 x    33 x    32            394200576       0.0%    100.0%      0.0%     
 flops    21 x    21 x    39            416078208       0.0%    100.0%      0.0%     
 flops    21 x    41 x    21            423457020       0.0%    100.0%      0.0%     
 flops    32 x    38 x    21            450608256       0.0%    100.0%      0.0%     
 flops    21 x    38 x    32            453927936       0.0%    100.0%      0.0%     
 flops    32 x    39 x    21            462413952       0.0%    100.0%      0.0%     
 flops    21 x    39 x    32            465716160       0.0%    100.0%      0.0%     
 flops    32 x    40 x    21            474485760       0.0%    100.0%      0.0%     
 flops    21 x    40 x    32            476958720       0.0%    100.0%      0.0%     
 flops    32 x    43 x    21            507182592       0.0%    100.0%      0.0%     
 flops    21 x    43 x    32            511574784       0.0%    100.0%      0.0%     
 flops    41 x    42 x    32            588510720       0.0%    100.0%      0.0%     
 flops    21 x    13 x    21            621399870       0.0%    100.0%      0.0%     
 flops    21 x    21 x   122            650788992       0.0%    100.0%      0.0%     
 flops    32 x    41 x    42            666537984       0.0%    100.0%      0.0%     
 flops    32 x    42 x    41            666537984       0.0%    100.0%      0.0%     
 flops    32 x    42 x    21            991960704       0.0%    100.0%      0.0%     
 flops    21 x    42 x    32            999976320       0.0%    100.0%      0.0%     
 flops    21 x    13 x    13           1046955000       0.0%    100.0%      0.0%     
 flops    41 x    41 x    32           1155452160       0.0%    100.0%      0.0%     
 flops    21 x    21 x    13           1268288658       0.0%    100.0%      0.0%     
 flops    32 x    41 x    41           1301336064       0.0%    100.0%      0.0%     
 flops    32 x    21 x   108           1316818944       0.0%    100.0%      0.0%     
 flops    21 x    32 x   108           1316818944       0.0%    100.0%      0.0%     
 flops    32 x    21 x   116           1414361088       0.0%    100.0%      0.0%     
 flops    21 x    32 x   116           1414361088       0.0%    100.0%      0.0%     
 flops    32 x    27 x    32           1477564416       0.0%    100.0%      0.0%     
 flops    13 x    13 x    32           1755090688       0.0%    100.0%      0.0%     
 flops    32 x    33 x    32           1806587904       0.0%    100.0%      0.0%     
 flops    32 x    21 x    39           1902071808       0.0%    100.0%      0.0%     
 flops    21 x    32 x    39           1902071808       0.0%    100.0%      0.0%     
 flops    32 x    41 x    21           1943297664       0.0%    100.0%      0.0%     
 flops    21 x    41 x    32           1955475648       0.0%    100.0%      0.0%     
 flops    32 x    38 x    32           2080235520       0.0%    100.0%      0.0%     
 flops    32 x    39 x    32           2134738944       0.0%    100.0%      0.0%     
 flops    32 x    40 x    32           2188492800       0.0%    100.0%      0.0%     
 flops    32 x    43 x    32           2348490752       0.0%    100.0%      0.0%     
 flops    32 x    13 x    21           2864813952       0.0%    100.0%      0.0%     
 flops    21 x    13 x    32           2880958080       0.0%    100.0%      0.0%     
 flops    32 x    21 x   122           2975035392       0.0%    100.0%      0.0%     
 flops    21 x    32 x   122           2975035392       0.0%    100.0%      0.0%     
 flops    32 x    42 x    32           4587491328       0.0%    100.0%      0.0%     
 flops    32 x    13 x    13           4786642432       0.0%    100.0%      0.0%     
 flops    21 x    32 x    13           5798729664       0.0%    100.0%      0.0%     
 flops    32 x    21 x    13           5808251904       0.0%    100.0%      0.0%     
 flops    32 x    32 x   108           6019743744       0.0%    100.0%      0.0%     
 flops    32 x    32 x   116           6465650688       0.0%    100.0%      0.0%     
 flops    32 x    32 x    39           8719147008       0.0%    100.0%      0.0%     
 flops    32 x    41 x    32           8968454144       0.0%    100.0%      0.0%     
 flops    32 x    13 x    32          13263863808       0.0%    100.0%      0.0%     
 flops    32 x    32 x   122          13600161792       0.0%    100.0%      0.0%     
 flops    32 x    32 x    13          26560688128       0.0%    100.0%      0.0%     
 flops inhomo. stacks                 11920622056     100.0%      0.0%      0.0%
 flops total                       183.690669E+09       6.5%     93.5%      0.0%
 flops max/rank                     26.263172E+09       5.7%     94.3%      0.0%
 matmuls inhomo. stacks                    104304     100.0%      0.0%      0.0%
 matmuls total                            4710181       2.2%     97.8%      0.0%
 number of processed stacks                262023       4.3%     95.7%      0.0%
 average stack size                                     9.2      18.4       0.0
 marketing flops                   274.626871E+09
 -------------------------------------------------------------------------------
 # multiplications                            757
 max memory usage/rank              27.870302E+09
 # max total images/rank                        2
 # max 3D layers                                1
 # MPI messages exchanged                   30280
 MPI messages size (bytes):
  total size                         6.645317E+09
  min size                           0.000000E+00
  max size                           2.359296E+06
  average size                     219.462234E+03
 MPI breakdown and total messages size (bytes):
             size <=      128                7407                     1360
       128 < size <=     8192                2764                  2537576
      8192 < size <=    32768                5113                 82600640
     32768 < size <=   131072                3788                412482000
    131072 < size <=  4194304               11208               6147708024
   4194304 < size <= 16777216                   0                        0
  16777216 < size                               0                        0
 -------------------------------------------------------------------------------

 *** WARNING in dbcsr_mm.F:301 :: Using a non-square number of MPI ranks ***
 *** might lead to poor performance. Used ranks: 8 Suggested: 9 16       ***

 -------------------------------------------------------------------------------
 -                                                                             -
 -                      DBCSR MESSAGE PASSING PERFORMANCE                      -
 -                                                                             -
 -------------------------------------------------------------------------------
 ROUTINE             CALLS      AVE VOLUME [Bytes]
 MP_Bcast              203                     12.
 MP_Allreduce         3712                     19.
 MP_Alltoall          4141                  18206.
 MP_ISend            13098                  80868.
 MP_IRecv            12478                  77765.
 -------------------------------------------------------------------------------

 -------------------------------------------------------------------------------
 -                                                                             -
 -                                GRID STATISTICS                              -
 -                                                                             -
 -------------------------------------------------------------------------------
 LP    KERNEL             BACKEND                              COUNT     PERCENT
 4     collocate ortho    CPU                                   8320      49.96%
 4     integrate ortho    CPU                                   8320      49.96%
 0     collocate general  CPU                                     12       0.07%
 -------------------------------------------------------------------------------

 -------------------------------------------------------------------------------
 -                                                                             -
 -                          OFFLOAD MEMPOOL STATISTICS                         -
 -                                                                             -
 -------------------------------------------------------------------------------
 Memory consumption                Number of allocations  Used [MiB]  Size [MiB]
 Host                                                  6         135    21575086
 -------------------------------------------------------------------------------

 MEMORY| Estimated peak process memory [MiB]                                4203

 -------------------------------------------------------------------------------
 -                                                                             -
 -                         MESSAGE PASSING PERFORMANCE                         -
 -                                                                             -
 -------------------------------------------------------------------------------

 ROUTINE             CALLS      AVE VOLUME [Bytes]
 MP_Group                5
 MP_Bcast              422                 200222.
 MP_Allreduce         2372                   8729.
 MP_Sync                10
 MP_Alltoall           388              213356941.
 MP_SendRecv           280                 995072.
 MP_ISendRecv          280                 995072.
 MP_Wait              1495
 MP_comm_split           7
 MP_ISend              972                5278285.
 MP_IRecv              972                5278285.
 -------------------------------------------------------------------------------


 -------------------------------------------------------------------------------
 -                                                                             -
 -                           R E F E R E N C E S                               -
 -                                                                             -
 -------------------------------------------------------------------------------
 
 CP2K version 2026.2 (Development Version), the CP2K developers group (2026).
 CP2K is freely available from https://www.cp2k.org/ .
 
 M. Iannuzzi, J. Wilhelm, F. Stein, A. Bussy, H. Elgabarty, D. Golze, A. Hehn, 
 M. Graml, S. Marek, B. Sertcan Gökmen, C. Schran, H. Forbert, R. Z. 
 Khaliullin, A. Kozhevnikov, M. Taillefumier, R. Meli, V. V. Rybkin, M. Brehm, 
 R. Schade, O. Schütt, J. V. Pototschnig, H. Mirhosseini, A. Knüpfer, D. Marx, 
 M. Krack, J. Hutter, T. D. Kühne.
 J. Phys. Chem. B 130, 1237-1310 (2026).
 The CP2K Program Package Made Simple.
 https://doi.org/10.1021/acs.jpcb.5c05851

 M. Graml, K. Zollner, D. Hernangómez-Pérez, P. E. Faria Junior, J. Wilhelm.
 J. Chem. Theory Comput. 20, 2202-2208 (2024).
 Low-scaling GW algorithm applied to twisted transition-metal dichalcogenide 
 heterobilayers.
 https://doi.org/10.1021/acs.jctc.3c01230

 T. D. Kühne, M. Iannuzzi, M. Del Ben, V. V. Rybkin, P. Seewald, F. Stein, T. 
 Laino, R. Z. Khaliullin, O. Schütt, F. Schiffmann, D. Golze, J. Wilhelm, S. 
 Chulkov, M. H. Bani-Hashemian, V. Weber, U. Borstnik, M. Taillefumier, A. S. 
 Jakobovits, A. Lazzaro, H. Pabst, T. Müller, R. Schade, M. Guidon, S. 
 Andermatt, N. Holmberg, G. K. Schenter, A. Hehn, A. Bussy, F. Belleflamme, G. 
 Tabacchi, A. Glöß, M. Lass, I. Bethune, C. J. Mundy, C. Plessl, M. Watkins, 
 J. VandeVondele, M. Krack, J. Hutter.
 J. Chem. Phys. 152, 194103 (2020).
 CP2K: An electronic structure and molecular dynamics software package - 
 Quickstep: Efficient and accurate electronic structure calculations.
 https://doi.org/10.1063/5.0007045

 O. Schuett, P. Messmer, J. Hutter, J. VandeVondele.
 Electronic Structure Calculations on Graphics Processing Units, 173-190 (2016).
 GPU-Accelerated Sparse Matrix-Matrix Multiplication for Linear Scaling Density 
 Functional Theory.
 https://doi.org/10.1002/9781118670712.ch8

 U. Borstnik, J. VandeVondele, V. Weber, J. Hutter.
 Parallel Comput. 40, 47-58 (2014).
 Sparse matrix multiplication: The distributed block-compressed sparse row 
 library.
 https://doi.org/10.1016/j.parco.2014.03.012

 J. VandeVondele, J. Hutter.
 J. Chem. Phys. 127, 114105 (2007).
 Gaussian basis sets for accurate calculations on molecular systems in gas and 
 condensed phases.
 https://doi.org/10.1063/1.2770708

 J. VandeVondele, M. Krack, F. Mohamed, M. Parrinello, T. Chassaing, J. Hutter.
 Comput. Phys. Commun. 167, 103-128 (2005).
 QUICKSTEP: Fast and accurate density functional calculations using a mixed 
 Gaussian and plane waves approach.
 https://doi.org/10.1016/j.cpc.2004.12.014

 M. Krack.
 Theor. Chem. Acc. 114, 145-152 (2005).
 Pseudopotentials for H to Kr optimized for gradient-corrected 
 exchange-correlation functionals.
 https://doi.org/10.1007/s00214-005-0655-y

 M. Frigo, S. G. Johnson.
 Proc. IEEE 93, 216-231 (2005).
 The design and implementation of FFTW3.
 https://doi.org/10.1109/JPROC.2004.840301

 J. VandeVondele, J. Hutter.
 J. Chem. Phys. 118, 4365-4369 (2003).
 An efficient orbital transformation method for electronic structure 
 calculations.
 https://doi.org/10.1063/1.1543154

 C. Hartwigsen, S. Goedecker, J. Hutter.
 Phys. Rev. B 58, 3641-3662 (1998).
 Relativistic separable dual-space Gaussian pseudopotentials from H to Rn.
 https://doi.org/10.1103/PhysRevB.58.3641

 G. Lippert, J. Hutter, M. Parrinello.
 Mol. Phys. 92, 477-487 (1997).
 A hybrid Gaussian and plane wave density functional scheme.
 https://doi.org/10.1080/002689797170220

 S. Goedecker, M. Teter, J. Hutter.
 Phys. Rev. B 54, 1703-1710 (1996).
 Separable dual-space Gaussian pseudopotentials.
 https://doi.org/10.1103/PhysRevB.54.1703

 J. P. Perdew, K. Burke, M. Ernzerhof.
 Phys. Rev. Lett. 77, 3865-3868 (1996).
 Generalized gradient approximation made simple.
 https://doi.org/10.1103/PhysRevLett.77.3865

 P. E. Blöchl.
 J. Chem. Phys. 103, 7422-7428 (1995).
 Electrostatic decoupling of periodic images of plane‐wave‐expanded 
 densities and derived atomic point charges.
 https://doi.org/10.1063/1.470314

 R. H. Byrd, P. H. Lu, J. Nocedal, C. Y. Zhu.
 SIAM J. Sci. Comput. 16, 1190-1208 (1995).
 A Limited Memory Algorithm for Bound Constrained Optimization.
 https://doi.org/10.1137/0916069


 -------------------------------------------------------------------------------
 -                                                                             -
 -                                T I M I N G                                  -
 -                                                                             -
 -------------------------------------------------------------------------------
 SUBROUTINE                       CALLS  ASD         SELF TIME        TOTAL TIME MAXRANK
                                MAXIMUM       AVERAGE  MAXIMUM  AVERAGE  MAXIMUM
 CP2K                                 1  1.0    0.297    0.302  617.194  617.195       0
 qs_energies                          1  2.0    0.023    0.023  615.347  615.347       2
 qs_energies_properties               1  3.0    0.002    0.002  576.583  576.583       6
 post_scf_bandstructure               1  4.0    0.003    0.003  576.581  576.581       1
 gw                                   1  5.0    0.002    0.002  576.207  576.421       4
 gw_calc_non_periodic_ri_rs           1  6.0    0.010    0.021  571.571  571.966       0
 ri_rs_grid_assembler                 1  7.0    0.031    0.036  568.965  569.143       1
 optimize_ri_rs_grid                  1  8.0    0.004    0.016  567.682  567.694       0
 rirs_grid_LBFGS                      1  9.0    3.177    4.490  558.175  562.180       1
 evaluate_rirs_grid_cluster         602 10.0   33.068   46.017  410.144  550.365       0
 mp_sum_d                          1157  6.9  144.888  314.958  144.888  314.958       6
 rirs_cluster_gradient_products     602 11.0  119.570  164.010  119.570  164.010       1
 rirs_cluster_gradient_coordina     602 11.0   89.894  120.000   89.894  120.000       2
 rirs_cluster_residual              602 11.0   49.103   66.460   49.103   66.460       2
 rirs_cluster_D_ll                  602 11.0   42.394   57.305   42.394   57.305       1
 rirs_cluster_AO_products           602 11.0   38.566   51.866   38.566   51.866       0
 rirs_cluster_d_lP                  602 11.0   37.549   50.587   37.549   50.587       2
 scf_env_do_scf                       1  3.0    0.000    0.000   37.541   37.542       0
 scf_env_do_scf_inner_loop           19  4.0    0.003    0.005   35.900   35.913       0
 qs_ks_build_kohn_sham_matrix        20  7.0    0.047    0.048   26.989   26.990       4
 qs_ks_update_qs_env                 20  5.0    0.000    0.000   26.540   26.541       5
 rebuild_ks_matrix                   19  6.0    0.001    0.001   26.538   26.538       1
 fft_wrap_pw1pw2                    334 10.3    0.008    0.009   20.856   21.730       1
 fft_wrap_pw1pw2_300                214 11.8    1.135    1.154   20.170   21.056       1
 qs_vxc_create                       20  8.1    0.003    0.003   17.736   17.741       7
 xc_vxc_pw_create                    19  9.0    0.595    0.600   17.732   17.738       0
 fft3d_ps                           334 12.3    8.734    8.767   14.628   15.485       3
 xc_pw_derive                       114 11.0    0.001    0.001   12.704   13.574       1
 rirs_grid_build_clusters             1  9.0    6.183    8.256    9.504   12.674       1
 qs_rho_update_rho_low               20  5.0    0.006    0.006   11.045   11.046       0
 calculate_rho_elec                  20  6.0    0.436    0.436   11.039   11.040       2
 xc_pw_divergence                    19 10.0    0.001    0.001    8.650    9.526       0
 xc_rho_set_and_dset_create          19 10.0    0.366    0.372    8.288    8.836       7
 density_rs2pw                       20  7.0    0.001    0.001    5.473    5.489       1
 grid_collocate_task_list            20  7.0    5.102    5.124    5.102    5.124       1
 create_and_init_bs_env_for_gw        1  6.0    0.007    0.012    4.634    4.792       0
 mp_alltoall_z22v                   334 14.3    3.683    4.547    3.683    4.547       0
 abc_contract_xsmm                80779 10.0    3.400    4.516    3.400    4.516       3
 sum_up_and_integrate                20  8.1    0.007    0.008    3.933    3.934       4
 integrate_v_rspace                  20  9.1    0.002    0.002    3.828    3.829       7
 yz_to_x                            158 12.8    1.052    1.056    2.905    3.754       3
 potential_pw2rs                     20 10.1    0.013    0.014    3.749    3.751       7
 x_to_yz                            176 13.8    1.139    1.154    2.969    3.004       1
 generate_auto_ri_basis               1  7.0    0.001    0.001    2.851    2.851       2
 qs_ks_ddapc                         20  8.1    0.000    0.000    2.754    2.760       7
 pw_poisson_solve                    20  8.1    0.000    0.000    2.226    2.229       4
 pw_scatter_p                       176 12.8    2.002    2.041    2.002    2.041       3
 pw_derive                          174 11.3    2.002    2.006    2.002    2.006       2
 xc_functional_eval                  19 11.0    0.005    0.006    1.331    1.878       0
 pbe_lda_eval                        19 12.0    1.326    1.873    1.326    1.873       4
 pw_gather_p                        158 11.8    1.687    1.735    1.687    1.735       0
 compute_M_pq_inv_and_V_pq            1  8.0    0.000    0.000    1.676    1.676       3
 compute_contracted_RI_matrix         2  9.0    0.006    0.006    1.632    1.632       1
 init_scf_loop                        1  4.0    0.011    0.011    1.628    1.629       4
 pw_copy                            316 10.6    1.618    1.622    1.618    1.622       7
 compute_optimized_RI_matrix_bl      20 10.0    0.099    0.108    1.521    1.620       1
 compute_M_PQ_AB                    824 11.0    0.002    0.002    1.469    1.565       2
 compute_M_PQ                       824 12.0    0.002    0.002    1.468    1.563       1
 int_operators_r12_ab_os            824 13.0    0.003    0.003    1.466    1.562       1
 int_operator_ab_os_low             824 14.0    0.588    0.627    1.463    1.559       2
 transfer_pw2rs                      80 11.1    0.001    0.001    1.498    1.499       2
 build_grid_cache                     1  8.0    0.000    0.000    1.250    1.429       0
 initialize_cholesky_rirs_grids       1  9.0    0.802    1.113    1.250    1.428       2
 pw_integral_ab_c1d_c1d_gs           40  9.6    1.337    1.343    1.356    1.357       2
 transfer_rs2pw                      81  8.0    0.001    0.002    1.334    1.349       0
 mp_bcast_dm                         72 10.0    0.653    1.298    0.653    1.298       7
 mp_waitany                         972 11.5    1.203    1.255    1.203    1.255       3
 check_for_restart_files              1  7.0    0.980    1.142    0.980    1.142       5
 pw_poisson_set                      21  8.9    0.000    0.000    1.116    1.119       0
 dbcsr_multiply_generic             757  9.7    0.027    0.027    1.099    1.108       5
 transfer_pw2rs_300                  20 12.1    0.500    0.509    1.040    1.050       5
 qs_init_subsys                       1  2.0    0.039    0.040    1.042    1.042       0
 compute_Sigma_c_and_QP_energie       1  7.0    0.001    0.001    0.776    0.994       3
 qs_env_setup                         1  3.0    0.004    0.004    0.985    0.986       2
 qs_env_rebuild_pw_env                2  3.5    0.002    0.002    0.973    0.973       7
 pw_env_rebuild                       1  5.0    0.014    0.014    0.970    0.970       1
 pw_grid_setup                        5  5.2    0.001    0.001    0.956    0.957       6
 pw_grid_setup_internal               5  6.2    0.019    0.020    0.955    0.955       0
 transfer_rs2pw_300                  21  8.9    0.472    0.491    0.930    0.950       4
 pw_axpy                            205  9.0    0.862    0.875    0.862    0.875       4
 cp_ddapc_apply_CD                   20  9.1    0.003    0.003    0.858    0.863       0
 pw_grid_sort                         5  7.2    0.561    0.563    0.829    0.833       3
 pw_copy_to_array                   158 11.8    0.807    0.815    0.807    0.815       2
 init_scf_run                         1  3.0    0.000    0.001    0.769    0.775       4
 compute_Z_lP                         1  7.0    0.002    0.002    0.772    0.773       1
 compute_Z_lP_auto_ri                 1  8.0    0.062    0.064    0.771    0.771       5
 scf_env_initial_rho_setup            1  4.0    0.002    0.002    0.767    0.767       0
 compute_AB_optimized_RI_basis        1  8.0    0.005    0.005    0.732    0.732       7
 compute_AB_optimized_RI_basis_       1  9.0    0.000    0.000    0.689    0.718       2
 compute_Sigma_c                      1  8.0    0.001    0.001    0.650    0.650       0
 -------------------------------------------------------------------------------

 The number of warnings for this run is : 1
 
 -------------------------------------------------------------------------------
  **** **** ******  **  PROGRAM ENDED AT                 2026-09-17 10:36:32.721
 ***** ** ***  *** **   PROGRAM RAN ON                                  n2cn0708
 **    ****   ******    PROGRAM RAN BY                                  eprop2d1
 ***** **    ** ** **   PROGRAM PROCESS ID                                297269
  **** **  *******  **  PROGRAM STOPPED IN /scratch/hpc-prf-metdyn/eprop2d1_Jan/
                                           53_benchmark_RI_opt/106_GW100_GTH_RIR
                                           S_riao5_7_c7/calculations/88_C6F6/ria
                                           o3/leb_r09
