 DBCSR| CPU Multiplication driver                                           XSMM (U)
 DBCSR| Multrec recursion limit                                              512 (U)
 DBCSR| Multiplication stack size                                           1000 (D)
 DBCSR| Maximum elements for images                                    UNLIMITED (U)
 DBCSR| Multiplicative factor virtual images                                   1 (U)
 DBCSR| Use multiplication densification                                       T (D)
 DBCSR| Multiplication size stacks                                             3 (U)
 DBCSR| Use memory pool for CPU allocation                                     F (U)
 DBCSR| Number of 3D layers                                               SINGLE (U)
 DBCSR| Use MPI memory allocation                                              F (U)
 DBCSR| Use RMA algorithm                                                      F (U)
 DBCSR| Use Communication thread                                               T (U)
 DBCSR| Communication thread load                                             57 (D)
 DBCSR| MPI: My process id                                                     0
 DBCSR| MPI: Number of processes                                              25
 DBCSR| OMP: Current number of threads                                         9
 DBCSR| OMP: Max number of threads                                             9
 DBCSR| Split modifier for TAS multiplication algorithm                  1.0E+00 (U)


  **** **** ******  **  PROGRAM STARTED AT               2026-10-03 11:11:57.534
 ***** ** ***  *** **   PROGRAM STARTED ON                              n2cn0325
 **    ****   ******    PROGRAM STARTED BY                              eprop2d1
 ***** **    ** ** **   PROGRAM PROCESS ID                               1547425
  **** **  *******  **  PROGRAM STARTED IN /scratch/hpc-prf-metdyn/eprop2d1_Jan/
                                           53_benchmark_RI_opt/418_gw100_fig5_fu
                                           ll_epsfilter_1e12_20261002/calculatio
                                           ns/rc0p5/ri3_rs09/88_C6F6

 CP2K| version string:                 CP2K version 2026.2 (Development Version)
 CP2K| source code revision number:                                   0671c5aa6c
 CP2K| cp2kflags: omp libint fftw3 libxc parallel scalapack openblas            
 CP2K| is freely available from                            https://www.cp2k.org/
 CP2K| Program compiled at                                   2026-09-20 09:25:26
 CP2K| Program compiled on                                              n2login5
 CP2K| Program compiled for                                               x86_64
 CP2K| Data directory path    /scratch/hpc-prf-metdyn/eprop2d1_Jan/53_benchmark_
 CP2K| Input file name                                                 input.inp
 
 eprop2d1@n2cn0325 has created rank and process                      0   1547425
 eprop2d1@n2cn0325 has created rank and process                      1   1547426
 eprop2d1@n2cn0325 has created rank and process                      2   1547427
 eprop2d1@n2cn0325 has created rank and process                      3   1547428
 eprop2d1@n2cn0325 has created rank and process                      4   1547429
 eprop2d1@n2cn0325 has created rank and process                      5   1547430
 eprop2d1@n2cn0325 has created rank and process                      6   1547431
 eprop2d1@n2cn0325 has created rank and process                      7   1547432
 eprop2d1@n2cn0325 has created rank and process                      8   1547433
 eprop2d1@n2cn0325 has created rank and process                      9   1547434
 eprop2d1@n2cn0325 has created rank and process                     10   1547435
 eprop2d1@n2cn0325 has created rank and process                     11   1547436
 
 eprop2d1@n2cn0325 is running                                       12 processes

 GLOBAL| Force Environment number                                              1
 GLOBAL| Basis set file name            /scratch/hpc-prf-metdyn/eprop2d1_Jan/53_
 GLOBAL| Potential file name            /scratch/hpc-prf-metdyn/eprop2d1_Jan/53_
 GLOBAL| MM Potential file name                                     MM_POTENTIAL
 GLOBAL| Coordinate file name                                      __STD_INPUT__
 GLOBAL| Method name                                                        CP2K
 GLOBAL| Project name                                             g418_a309_m088
 GLOBAL| Run type                                                         ENERGY
 GLOBAL| FFT library                                                       FFTW3
 GLOBAL| Diagonalization library                                       ScaLAPACK
 GLOBAL| Cholesky decomposition library                                ScaLAPACK
 GLOBAL| DGEMM library                                                      BLAS
 GLOBAL| Direct generalized diagonalization requested                          F
 GLOBAL| Orthonormality check for eigenvectors                          DISABLED
 GLOBAL| Matrix multiplication library                                 ScaLAPACK
 GLOBAL| All-to-all communication in single precision                          F
 GLOBAL| Grid backend                                                       AUTO
 GLOBAL| Global print level                                                  LOW
 GLOBAL| MPI I/O enabled                                                       T
 GLOBAL| Total number of message passing processes                            12
 GLOBAL| Number of distributed systems (nodes)                                 1
 GLOBAL| Number of threads for this process                                    9
 GLOBAL| This output is from process                                           0
 GLOBAL| OpenMP stack size per thread (OMP_STACKSIZE)                       512M
 GLOBAL| CPU model name                          AMD EPYC 7763 64-Core Processor

 MEMORY| system memory details [Kb]
 MEMORY|                        rank 0           min           max       average
 MEMORY| MemTotal            263897588     263897588     263897588     263897588
 MEMORY| MemFree             247954348     247954348     247954348     247954348
 MEMORY| Buffers                196964        196964        196964        196964
 MEMORY| Cached                7550120       7550120       7550120       7550120
 MEMORY| Slab                  1633736       1633736       1633736       1633736
 MEMORY| SReclaimable           297564        297564        297564        297564
 MEMORY| MemLikelyFree       255998996     255998996     255998996     255998996


 GENERATE|  Preliminary Number of Bonds generated:                             0
 GENERATE|  Achieved consistency in connectivity generation.

 *******************************************************************************
 *******************************************************************************
 **                                                                           **
 **     #####                         ##              ##                      **
 **    ##   ##            ##          ##              ##                      **
 **   ##     ##                       ##            ######                    **
 **   ##     ##  ##   ##  ##   #####  ##  ##   ####   ##    #####    #####    **
 **   ##     ##  ##   ##  ##  ##      ## ##   ##      ##   ##   ##  ##   ##   **
 **   ##  ## ##  ##   ##  ##  ##      ####     ###    ##   ######   ######    **
 **    ##  ###   ##   ##  ##  ##      ## ##      ##   ##   ##       ##        **
 **     #######   #####   ##   #####  ##  ##  ####    ##    #####   ##        **
 **           ##                                                    ##        **
 **                                                                           **
 **                                                ... make the atoms dance   **
 **                                                                           **
 **            Copyright (C) by CP2K developers group (2000-2026)             **
 **                      J. Chem. Phys. 152, 194103 (2020)                    **
 **                                                                           **
 *******************************************************************************


 TOTAL NUMBERS AND MAXIMUM NUMBERS

  Total number of            - Atomic kinds:                                   2
                             - Atoms:                                         12
                             - Shell sets:                                    12
                             - Shells:                                       108
                             - Primitive Cartesian functions:                 84
                             - Cartesian basis functions:                    408
                             - Spherical basis functions:                    348

  Maximum angular momentum of- Orbital basis functions:                        3
                             - Local part of the GTH pseudopotential:          2
                             - Non-local part of the GTH pseudopotential:      0


 SCF PARAMETERS         Density guess:                                   RESTART
                        --------------------------------------------------------
                        max_scf:                                             500
                        max_scf_history:                                       0
                        max_diis:                                              4
                        --------------------------------------------------------
                        eps_scf:                                        1.00E-08
                        eps_scf_history:                                0.00E+00
                        eps_diis:                                       0.00E+00
                        eps_eigval:                                     1.00E-05
                        --------------------------------------------------------
                        level_shift [a.u.]:                             0.000000
                        --------------------------------------------------------
                        Outer loop SCF in use 
                        No variables optimised in outer loop
                        eps_scf                                         1.00E-08
                        max_scf                                               20
                        No outer loop optimization
                        step_size                                       5.00E-01

 Extrapolation method: initial_guess

 Number of electrons:                                                         66
 Number of occupied orbitals:                                                 33
 Number of molecular orbitals:                                                33

 Number of orbital functions:                                                348
 Number of independent orbital functions:                                    348


 SCF WAVEFUNCTION OPTIMIZATION

  ----------------------------------- OT ---------------------------------------
  Minimizer      : DIIS                : direct inversion
                                         in the iterative subspace
                                         using   7 DIIS vectors
                                         safer DIIS on
  Preconditioner : FULL_KINETIC        : inversion of T + eS
  Lattice FFT   : OFF
  Precond_solver : DEFAULT
  stepsize       :    0.15000000                  energy_gap     :    0.20000000
  eps_taylor     :   0.10000E-15                  max_taylor     :             4
  ----------------------------------- OT ---------------------------------------

  Step     Update method      Time    Convergence         Total energy    Change
  ------------------------------------------------------------------------------
  Decoupling Energy:                                              -0.0000018622
     1 OT DIIS     0.15E+00    1.8     8.6998E-09      -179.5414528866 -1.80E+02

  *** SCF run converged in     1 steps ***


  Electronic density on regular grids:        -65.9999999999        0.0000000001
  Core density on regular grids:               66.0000000000       -0.0000000000
  Total charge density on r-space grids:        0.0000000000
  Total charge density g-space grids:           0.0000000000

  Overlap energy of the core charge distribution:               0.00000120202408
  Self energy of the core charge distribution:               -465.88464389476843
  Core Hamiltonian energy:                                    133.72738489460050
  Hartree energy:                                             190.99739112677474
  Exchange-correlation energy:                                -38.38158621523188

  Total energy:                                              -179.54145288660101

  outer SCF iter =    1 RMS gradient =   0.87E-08 energy =       -179.5414528866
  outer SCF loop converged in   1 iterations or    1 steps

  
 -------------------------------------------------------------------------------
 -                                                                             -
 -                          BANDSTRUCTURE CALCULATION                          -
 -                                                                             -
 -------------------------------------------------------------------------------
  
 Number of occupied molecular orbitals (MOs) = Number of occupied bands       33
 Number of unoccupied (= virtual) MOs = Number of unoccupied bands           315
 Number of Gaussian basis functions for MOs                                  348
  
 -------------------------------------------------------------------------------
 -                                                                             -
 -                                GW CALCULATION                               -
 -                                                                             -
 -------------------------------------------------------------------------------
  
 Input: Number of time/freq. points                                           30
 Input: ω_max for fitting Σ(iω) (eV)                                        10.0
 Input: Filter threshold for sparse tensor operations                    1.0E-12
 Input: Apply Hedin shift                                                      F
 Detected: Available memory per MPI process                              18.2 GB
 
 Input: RI-RS Tikhonov regularization                                   1.00E-04
 Input: AO grid hard cutoff radius                                        8.00 Å
 Input: MPI ranks per atom in Z_lP solve                                      -1
 Input: Keep sparsity in χ/G/W panels                                          T
 Input: GW flavour                                                          G0W0
 
 Input: RI-RS grid optimization activated                                      T
 Input: RS points per AO function                                            9.0
 Input: Cutoff radius for atomic clusters                                  0.5 Å
 Input: Maximum grid optimization iterations                                 300
 
 Input: AUTO_RI basis optimization activated:                                  T
 Input: AUTO_RI number of RI functions per AO function:                      3.0
 Input: AUTO_RI frontier orbital window:                                  5.0 eV
 Input: AUTO_RI neighbor radius:                                           3.0 Å
 
 Cutoff radius for the truncated Coulomb operator in RI metric:            7.0 Å
 Regularization parameter of RI                                          0.0E+00
 Regularization parameter of minimax grids                               1.0E-06
 
 AUTO_RI| Number of automatic RI functions for χ, ε, W:                     1044
 AUTO_RI| Total RI basis optimization time:                                4.2 s
  Decoupling Energy:                                              -0.0000018622
 
 SCF direct band gap (eV)                                                   4.43
 Max. SCF eigval diff. (eV)                                               416.03
 E-Range for minimax grid                                                  93.98
 Number of Padé parameters for analytic continuation:                         16
 
 RI-RS basis radii (Å):
     Kind  Elem     r_AO (Å)     r_RI (Å)
        1    C        15.9835       10.1279
        2    F        12.6792        8.0227
 
 Started RI-RS grid optimization
 RI-RS grid initial normalized error                          4.872536045180E-02
 RI-RS grid optimization completed, execution time:                        1.8 s
 Normalized 3C error:                                                    2.2E-08
 Maximum absolute 3C error:                                              9.2E-04
 Optimized points outside molecular Voronoi cells:                          1311 / 3132
 Total grid points used for RI-RS:                                          3132
 
 RI-RS grid row-blocks of ϕ_μ(r_l)                                           108
 RI-RS grid points per block (max)                                            32
 
 Percentage of non-zero matrix elements in ϕ_μ(r_l)                     100.00 %
 
 RI-RS memory estimate per MPI process:
   Available memory per process (system)                                21.18 GB
   Required for Z_lP (dense upper bound; actual is sparser)              0.00 GB
   Required for χ, W, Σ panels (peak per panel step)                     0.02 GB
   Required for Z_lP solve peak (D_local+ϕ, worst-case atom)             0.11 GB
   Worst-case local-grid number of grid points:                             3119
   Worst-case memory D_local:                                            0.08 GB
 
 Started computing Z_lP
 Computed Z_lP (MPI rank 0) for atom          1 /  1,    Execution time    1.3 s
 Computed Z_lP (all MPI ranks) for all atoms,            Execution time    1.5 s

 Memory per MPI process after computing Z_lP:
 Available memory per MPI process                               21.0 GB
 Used memory per MPI process                                     1.2 GB
 Number of batches for χ, Σ matrices                                           1
 
 Percentage of non-zero matrix elements in Z_lP                         100.00 %
 Percentage of non-zero matrix elements in G_ll', χ_ll', W_ll'          100.00 %
 Percentage of non-zero matrix elements in χ_PQ for time point 1        100.00 %
 
 Computed χ(iτ,k=0) for time point            1 / 30,    Execution time    0.1 s
 Computed χ(iτ,k=0) for time point            2 / 30,    Execution time    0.1 s
 Computed χ(iτ,k=0) for time point            3 / 30,    Execution time    0.1 s
 Computed χ(iτ,k=0) for time point            4 / 30,    Execution time    0.1 s
 Computed χ(iτ,k=0) for time point            5 / 30,    Execution time    0.1 s
 Computed χ(iτ,k=0) for time point            6 / 30,    Execution time    0.1 s
 Computed χ(iτ,k=0) for time point            7 / 30,    Execution time    0.1 s
 Computed χ(iτ,k=0) for time point            8 / 30,    Execution time    0.1 s
 Computed χ(iτ,k=0) for time point            9 / 30,    Execution time    0.1 s
 Computed χ(iτ,k=0) for time point           10 / 30,    Execution time    0.1 s
 Computed χ(iτ,k=0) for time point           11 / 30,    Execution time    0.1 s
 Computed χ(iτ,k=0) for time point           12 / 30,    Execution time    0.1 s
 Computed χ(iτ,k=0) for time point           13 / 30,    Execution time    0.1 s
 Computed χ(iτ,k=0) for time point           14 / 30,    Execution time    0.1 s
 Computed χ(iτ,k=0) for time point           15 / 30,    Execution time    0.1 s
 Computed χ(iτ,k=0) for time point           16 / 30,    Execution time    0.1 s
 Computed χ(iτ,k=0) for time point           17 / 30,    Execution time    0.1 s
 Computed χ(iτ,k=0) for time point           18 / 30,    Execution time    0.1 s
 Computed χ(iτ,k=0) for time point           19 / 30,    Execution time    0.1 s
 Computed χ(iτ,k=0) for time point           20 / 30,    Execution time    0.1 s
 Computed χ(iτ,k=0) for time point           21 / 30,    Execution time    0.1 s
 Computed χ(iτ,k=0) for time point           22 / 30,    Execution time    0.1 s
 Computed χ(iτ,k=0) for time point           23 / 30,    Execution time    0.1 s
 Computed χ(iτ,k=0) for time point           24 / 30,    Execution time    0.1 s
 Computed χ(iτ,k=0) for time point           25 / 30,    Execution time    0.1 s
 Computed χ(iτ,k=0) for time point           26 / 30,    Execution time    0.1 s
 Computed χ(iτ,k=0) for time point           27 / 30,    Execution time    0.0 s
 Computed χ(iτ,k=0) for time point           28 / 30,    Execution time    0.0 s
 Computed χ(iτ,k=0) for time point           29 / 30,    Execution time    0.0 s
 Computed χ(iτ,k=0) for time point           30 / 30,    Execution time    0.0 s
 
 Computed W(iτ),                                         Execution time    1.8 s
 
 Computed Σ^x(k=0),                                      Execution time    0.1 s
 
 Computed Σ^c(iτ) for time point              1 / 30,    Execution time    0.1 s
 Computed Σ^c(iτ) for time point              2 / 30,    Execution time    0.1 s
 Computed Σ^c(iτ) for time point              3 / 30,    Execution time    0.1 s
 Computed Σ^c(iτ) for time point              4 / 30,    Execution time    0.1 s
 Computed Σ^c(iτ) for time point              5 / 30,    Execution time    0.1 s
 Computed Σ^c(iτ) for time point              6 / 30,    Execution time    0.1 s
 Computed Σ^c(iτ) for time point              7 / 30,    Execution time    0.1 s
 Computed Σ^c(iτ) for time point              8 / 30,    Execution time    0.1 s
 Computed Σ^c(iτ) for time point              9 / 30,    Execution time    0.1 s
 Computed Σ^c(iτ) for time point             10 / 30,    Execution time    0.1 s
 Computed Σ^c(iτ) for time point             11 / 30,    Execution time    0.1 s
 Computed Σ^c(iτ) for time point             12 / 30,    Execution time    0.1 s
 Computed Σ^c(iτ) for time point             13 / 30,    Execution time    0.1 s
 Computed Σ^c(iτ) for time point             14 / 30,    Execution time    0.1 s
 Computed Σ^c(iτ) for time point             15 / 30,    Execution time    0.1 s
 Computed Σ^c(iτ) for time point             16 / 30,    Execution time    0.1 s
 Computed Σ^c(iτ) for time point             17 / 30,    Execution time    0.1 s
 Computed Σ^c(iτ) for time point             18 / 30,    Execution time    0.1 s
 Computed Σ^c(iτ) for time point             19 / 30,    Execution time    0.1 s
 Computed Σ^c(iτ) for time point             20 / 30,    Execution time    0.1 s
 Computed Σ^c(iτ) for time point             21 / 30,    Execution time    0.1 s
 Computed Σ^c(iτ) for time point             22 / 30,    Execution time    0.1 s
 Computed Σ^c(iτ) for time point             23 / 30,    Execution time    0.1 s
 Computed Σ^c(iτ) for time point             24 / 30,    Execution time    0.1 s
 Computed Σ^c(iτ) for time point             25 / 30,    Execution time    0.1 s
 Computed Σ^c(iτ) for time point             26 / 30,    Execution time    0.1 s
 Computed Σ^c(iτ) for time point             27 / 30,    Execution time    0.0 s
 Computed Σ^c(iτ) for time point             28 / 30,    Execution time    0.0 s
 Computed Σ^c(iτ) for time point             29 / 30,    Execution time    0.0 s
 Computed Σ^c(iτ) for time point             30 / 30,    Execution time    0.0 s
 
 SCF valence band maximum (eV):                                           -6.645
 SCF conduction band minimum (eV):                                        -2.218
 SCF indirect band gap (eV):                                               4.427
 SCF direct band gap (eV):                                                 4.427
 
 G0W0 valence band maximum (eV):                                          -9.080
 G0W0 conduction band minimum (eV):                                        0.609
 G0W0 indirect band gap (eV):                                              9.688
 G0W0 direct band gap (eV):                                                9.688
 
 Hartree-Fock with SCF orbitals valence band maximum (eV):                -9.999
 Hartree-Fock with SCF orbitals conduction band minimum (eV)               2.043
 Hartree-Fock with SCF orbitals indirect band gap (eV):                   12.042
 Hartree-Fock with SCF orbitals direct band gap (eV):                     12.042

 ENERGY| Total FORCE_EVAL ( QS ) energy [hartree]           -179.541452886601007

 -------------------------------------------------------------------------------
 -                                                                             -
 -                                DBCSR STATISTICS                             -
 -                                                                             -
 -------------------------------------------------------------------------------
 COUNTER                                    TOTAL       BLAS       SMM       ACC
 flops    32 x     1 x     1                   64     100.0%      0.0%      0.0%     
 flops    58 x     1 x     1                 1044     100.0%      0.0%      0.0%     
 flops    29 x     1 x     1                 1740     100.0%      0.0%      0.0%     
 flops    32 x    32 x     1                 2048     100.0%      0.0%      0.0%     
 flops    32 x     1 x    32                 2048     100.0%      0.0%      0.0%     
 flops    58 x    32 x     1                33408     100.0%      0.0%      0.0%     
 flops    29 x    32 x     1                33408     100.0%      0.0%      0.0%     
 flops    29 x     1 x    32                33408     100.0%      0.0%      0.0%     
 flops    58 x     1 x    32                33408     100.0%      0.0%      0.0%     
 flops    32 x    32 x    32                65536     100.0%      0.0%      0.0%     
 flops    32 x     1 x    58                66816     100.0%      0.0%      0.0%     
 flops    29 x     1 x    58               242208     100.0%      0.0%      0.0%     
 flops    58 x     1 x    58               242208     100.0%      0.0%      0.0%     
 flops    29 x    29 x     1               262392     100.0%      0.0%      0.0%     
 flops    58 x    32 x    32              1069056     100.0%      0.0%      0.0%     
 flops    29 x     1 x    29              1453248     100.0%      0.0%      0.0%     
 flops     5 x    79 x   179              1696920     100.0%      0.0%      0.0%     
 flops     5 x    82 x   179              1761360     100.0%      0.0%      0.0%     
 flops    29 x    32 x    32              1781760     100.0%      0.0%      0.0%     
 flops     5 x    94 x   179              2019120     100.0%      0.0%      0.0%     
 flops     5 x    77 x    81              2245320     100.0%      0.0%      0.0%     
 flops     5 x   105 x   179              2255400     100.0%      0.0%      0.0%     
 flops     5 x    79 x    81              2303640     100.0%      0.0%      0.0%     
 flops     5 x   113 x   179              2427240     100.0%      0.0%      0.0%     
 flops     5 x   114 x   179              2448720     100.0%      0.0%      0.0%     
 flops     5 x    77 x   180              3326400     100.0%      0.0%      0.0%     
 flops     5 x    78 x   179              3350880     100.0%      0.0%      0.0%     
 flops     5 x    79 x   180              3412800     100.0%      0.0%      0.0%     
 flops     5 x    68 x   180              5875200     100.0%      0.0%      0.0%     
 flops     5 x    82 x   180              7084800     100.0%      0.0%      0.0%     
 flops    58 x    32 x    58              7750656     100.0%      0.0%      0.0%     
 flops    29 x    32 x    58              7750656     100.0%      0.0%      0.0%     
 flops     5 x    94 x   180              8121600     100.0%      0.0%      0.0%     
 flops     5 x   105 x   180              9072000     100.0%      0.0%      0.0%     
 flops     5 x    78 x    81              9097920     100.0%      0.0%      0.0%     
 flops     5 x   113 x   180              9763200     100.0%      0.0%      0.0%     
 flops     5 x   114 x   180              9849600     100.0%      0.0%      0.0%     
 flops     5 x    68 x     5             10866400     100.0%      0.0%      0.0%     
 flops    32 x     5 x    68             10967040     100.0%      0.0%      0.0%     
 flops    32 x     5 x    77             12122880     100.0%      0.0%      0.0%     
 flops     5 x    77 x     5             12254550     100.0%      0.0%      0.0%     
 flops    68 x    68 x     5             12438560     100.0%      0.0%      0.0%     
 flops     5 x    79 x     5             12564950     100.0%      0.0%      0.0%     
 flops     5 x    82 x     5             13111800     100.0%      0.0%      0.0%     
 flops     5 x    78 x   180             13478400     100.0%      0.0%      0.0%     
 flops     5 x    68 x    68             13872000     100.0%      0.0%      0.0%     
 flops    68 x    77 x     5             13875400     100.0%      0.0%      0.0%     
 flops    77 x    68 x     5             14084840     100.0%      0.0%      0.0%     
 flops    68 x    79 x     5             14235800     100.0%      0.0%      0.0%     
 flops    79 x    68 x     5             14450680     100.0%      0.0%      0.0%     
 flops    68 x    82 x     5             14999440     100.0%      0.0%      0.0%     
 flops     5 x    94 x     5             15044700     100.0%      0.0%      0.0%     
 flops     5 x    68 x    77             15708000     100.0%      0.0%      0.0%     
 flops     5 x    77 x    68             15708000     100.0%      0.0%      0.0%     
 flops    77 x    77 x     5             15711850     100.0%      0.0%      0.0%     
 flops     5 x    79 x    68             16116000     100.0%      0.0%      0.0%     
 flops    79 x    77 x     5             16119950     100.0%      0.0%      0.0%     
 flops    77 x    79 x     5             16119950     100.0%      0.0%      0.0%     
 flops    79 x    79 x     5             16538650     100.0%      0.0%      0.0%     
 flops     5 x    82 x    68             16728000     100.0%      0.0%      0.0%     
 flops     5 x   105 x     5             16800000     100.0%      0.0%      0.0%     
 flops    77 x    82 x     5             16984660     100.0%      0.0%      0.0%     
 flops    68 x    94 x     5             17194480     100.0%      0.0%      0.0%     
 flops    79 x    82 x     5             17425820     100.0%      0.0%      0.0%     
 flops     5 x    77 x    77             17787000     100.0%      0.0%      0.0%     
 flops     5 x   113 x     5             18080000     100.0%      0.0%      0.0%     
 flops     5 x   114 x     5             18240000     100.0%      0.0%      0.0%     
 flops     5 x    79 x    77             18249000     100.0%      0.0%      0.0%     
 flops     5 x    82 x    77             18942000     100.0%      0.0%      0.0%     
 flops     5 x    94 x    68             19176000     100.0%      0.0%      0.0%     
 flops    68 x   105 x     5             19206600     100.0%      0.0%      0.0%     
 flops    77 x    94 x     5             19470220     100.0%      0.0%      0.0%     
 flops    79 x    94 x     5             19975940     100.0%      0.0%      0.0%     
 flops    68 x   113 x     5             20669960     100.0%      0.0%      0.0%     
 flops   113 x    68 x     5             20669960     100.0%      0.0%      0.0%     
 flops    68 x   114 x     5             20852880     100.0%      0.0%      0.0%     
 flops     5 x   105 x    68             21420000     100.0%      0.0%      0.0%     
 flops     5 x    94 x    77             21714000     100.0%      0.0%      0.0%     
 flops    77 x   105 x     5             21748650     100.0%      0.0%      0.0%     
 flops    79 x   105 x     5             22313550     100.0%      0.0%      0.0%     
 flops     5 x   113 x    68             23052000     100.0%      0.0%      0.0%     
 flops   113 x    77 x     5             23057650     100.0%      0.0%      0.0%     
 flops     5 x   114 x    68             23256000     100.0%      0.0%      0.0%     
 flops    77 x   113 x     5             23405690     100.0%      0.0%      0.0%     
 flops    77 x   114 x     5             23612820     100.0%      0.0%      0.0%     
 flops   113 x    79 x     5             23656550     100.0%      0.0%      0.0%     
 flops    79 x   113 x     5             24013630     100.0%      0.0%      0.0%     
 flops    79 x   114 x     5             24226140     100.0%      0.0%      0.0%     
 flops     5 x   105 x    77             24255000     100.0%      0.0%      0.0%     
 flops   113 x    82 x     5             24925540     100.0%      0.0%      0.0%     
 flops     5 x     5 x   146             25228800     100.0%      0.0%      0.0%     
 flops     5 x   113 x    77             26103000     100.0%      0.0%      0.0%     
 flops     5 x   114 x    77             26334000     100.0%      0.0%      0.0%     
 flops     5 x     5 x   159             27475200     100.0%      0.0%      0.0%     
 flops   113 x    94 x     5             28573180     100.0%      0.0%      0.0%     
 flops     5 x     5 x   172             29721600     100.0%      0.0%      0.0%     
 flops   113 x   105 x     5             31916850     100.0%      0.0%      0.0%     
 flops   113 x   113 x     5             34348610     100.0%      0.0%      0.0%     
 flops   113 x   114 x     5             34652580     100.0%      0.0%      0.0%     
 flops    32 x     5 x    78             37739520     100.0%      0.0%      0.0%     
 flops    29 x    32 x    29             46503936     100.0%      0.0%      0.0%     
 flops     5 x    78 x     5             49670400     100.0%      0.0%      0.0%     
 flops    68 x    78 x     5             56434560     100.0%      0.0%      0.0%     
 flops    78 x    68 x     5             57071040     100.0%      0.0%      0.0%     
 flops     5 x     5 x    58             61822200     100.0%      0.0%      0.0%     
 flops     5 x    78 x    68             63648000     100.0%      0.0%      0.0%     
 flops     5 x    68 x    78             63648000     100.0%      0.0%      0.0%     
 flops    78 x    77 x     5             63663600     100.0%      0.0%      0.0%     
 flops    77 x    78 x     5             63903840     100.0%      0.0%      0.0%     
 flops    78 x    79 x     5             65317200     100.0%      0.0%      0.0%     
 flops    79 x    78 x     5             65563680     100.0%      0.0%      0.0%     
 flops    78 x    82 x     5             68820960     100.0%      0.0%      0.0%     
 flops     5 x    78 x    77             72072000     100.0%      0.0%      0.0%     
 flops     5 x    77 x    78             72072000     100.0%      0.0%      0.0%     
 flops     5 x    79 x    78             73944000     100.0%      0.0%      0.0%     
 flops     5 x    82 x    78             76752000     100.0%      0.0%      0.0%     
 flops    78 x    94 x     5             78892320     100.0%      0.0%      0.0%     
 flops    32 x    79 x   179             86882304     100.0%      0.0%      0.0%     
 flops     5 x    94 x    78             87984000     100.0%      0.0%      0.0%     
 flops    78 x   105 x     5             88124400     100.0%      0.0%      0.0%     
 flops    32 x    82 x   179             90181632     100.0%      0.0%      0.0%     
 flops   113 x    78 x     5             93780960     100.0%      0.0%      0.0%     
 flops    78 x   113 x     5             94838640     100.0%      0.0%      0.0%     
 flops    78 x   114 x     5             95677920     100.0%      0.0%      0.0%     
 flops     5 x   105 x    78             98280000     100.0%      0.0%      0.0%     
 flops     5 x    29 x     5            101649350     100.0%      0.0%      0.0%     
 flops    32 x    94 x   179            103378944     100.0%      0.0%      0.0%     
 flops     5 x   113 x    78            105768000     100.0%      0.0%      0.0%     
 flops     5 x   114 x    78            106704000     100.0%      0.0%      0.0%     
 flops    32 x    77 x    81            114960384     100.0%      0.0%      0.0%     
 flops    32 x   105 x   179            115476480     100.0%      0.0%      0.0%     
 flops    32 x    79 x    81            117946368     100.0%      0.0%      0.0%     
 flops    32 x   113 x   179            124274688     100.0%      0.0%      0.0%     
 flops    32 x   114 x   179            125374464     100.0%      0.0%      0.0%     
 flops    32 x    77 x   180            170311680     100.0%      0.0%      0.0%     
 flops    32 x    78 x   179            171565056     100.0%      0.0%      0.0%     
 flops    32 x    79 x   180            174735360     100.0%      0.0%      0.0%     
 flops     5 x     5 x    29            191998850     100.0%      0.0%      0.0%     
 flops    78 x    78 x     5            258935040     100.0%      0.0%      0.0%     
 flops     5 x    78 x    78            292032000     100.0%      0.0%      0.0%     
 flops    32 x    68 x   180            300810240     100.0%      0.0%      0.0%     
 flops    32 x    82 x   180            362741760     100.0%      0.0%      0.0%     
 flops    32 x    94 x   180            415825920     100.0%      0.0%      0.0%     
 flops    32 x   105 x   180            464486400     100.0%      0.0%      0.0%     
 flops    32 x    78 x    81            465813504     100.0%      0.0%      0.0%     
 flops    32 x   113 x   180            499875840     100.0%      0.0%      0.0%     
 flops    32 x   114 x   180            504299520     100.0%      0.0%      0.0%     
 flops    32 x    32 x    68            561512448     100.0%      0.0%      0.0%     
 flops    32 x    68 x     5            572462080     100.0%      0.0%      0.0%     
 flops     5 x    68 x    32            582036480     100.0%      0.0%      0.0%     
 flops    29 x    29 x     5            593527340     100.0%      0.0%      0.0%     
 flops    32 x    32 x    77            620691456     100.0%      0.0%      0.0%     
 flops    32 x    77 x     5            644607040     100.0%      0.0%      0.0%     
 flops    68 x    68 x    32            649579520     100.0%      0.0%      0.0%     
 flops     5 x    77 x    32            655842880     100.0%      0.0%      0.0%     
 flops    32 x    79 x     5            662538240     100.0%      0.0%      0.0%     
 flops     5 x    79 x    32            672574400     100.0%      0.0%      0.0%     
 flops    32 x    82 x     5            690059520     100.0%      0.0%      0.0%     
 flops    32 x    78 x   180            690094080     100.0%      0.0%      0.0%     
 flops     5 x    82 x    32            701683840     100.0%      0.0%      0.0%     
 flops    32 x    68 x    68            710246400     100.0%      0.0%      0.0%     
 flops    68 x    77 x    32            735218176     100.0%      0.0%      0.0%     
 flops    77 x    68 x    32            735553280     100.0%      0.0%      0.0%     
 flops    68 x    79 x    32            754314752     100.0%      0.0%      0.0%     
 flops    79 x    68 x    32            754658560     100.0%      0.0%      0.0%     
 flops    68 x    82 x    32            783673344     100.0%      0.0%      0.0%     
 flops    32 x    94 x     5            791434880     100.0%      0.0%      0.0%     
 flops     5 x    94 x    32            804098560     100.0%      0.0%      0.0%     
 flops    32 x    68 x    77            804249600     100.0%      0.0%      0.0%     
 flops    32 x    77 x    68            804249600     100.0%      0.0%      0.0%     
 flops    32 x    79 x    68            825139200     100.0%      0.0%      0.0%     
 flops    77 x    77 x    32            832526464     100.0%      0.0%      0.0%     
 flops    79 x    77 x    32            854150528     100.0%      0.0%      0.0%     
 flops    77 x    79 x    32            854150528     100.0%      0.0%      0.0%     
 flops    32 x    82 x    68            856473600     100.0%      0.0%      0.0%     
 flops    79 x    79 x    32            876336256     100.0%      0.0%      0.0%     
 flops    32 x   105 x     5            884620800     100.0%      0.0%      0.0%     
 flops    77 x    82 x    32            887394816     100.0%      0.0%      0.0%     
 flops    68 x    94 x    32            898357248     100.0%      0.0%      0.0%     
 flops     5 x   105 x    32            898531200     100.0%      0.0%      0.0%     
 flops    79 x    82 x    32            910444032     100.0%      0.0%      0.0%     
 flops    32 x    77 x    77            910694400     100.0%      0.0%      0.0%     
 flops    32 x    79 x    77            934348800     100.0%      0.0%      0.0%     
 flops    32 x   113 x     5            951912000     100.0%      0.0%      0.0%     
 flops    32 x   114 x     5            960007680     100.0%      0.0%      0.0%     
 flops     5 x   113 x    32            967135360     100.0%      0.0%      0.0%     
 flops    32 x    82 x    77            969830400     100.0%      0.0%      0.0%     
 flops     5 x   114 x    32            975548160     100.0%      0.0%      0.0%     
 flops    32 x    94 x    68            981811200     100.0%      0.0%      0.0%     
 flops    68 x   105 x    32           1003027200     100.0%      0.0%      0.0%     
 flops    77 x    94 x    32           1017257472     100.0%      0.0%      0.0%     
 flops    79 x    94 x    32           1043679744     100.0%      0.0%      0.0%     
 flops   113 x    68 x    32           1079448320     100.0%      0.0%      0.0%     
 flops    68 x   113 x    32           1079940096     100.0%      0.0%      0.0%     
 flops    68 x   114 x    32           1089497088     100.0%      0.0%      0.0%     
 flops    32 x   105 x    68           1096704000     100.0%      0.0%      0.0%     
 flops    32 x    94 x    77           1111756800     100.0%      0.0%      0.0%     
 flops    77 x   105 x    32           1135780800     100.0%      0.0%      0.0%     
 flops    79 x   105 x    32           1165281600     100.0%      0.0%      0.0%     
 flops    32 x   113 x    68           1180262400     100.0%      0.0%      0.0%     
 flops    32 x   114 x    68           1190707200     100.0%      0.0%      0.0%     
 flops   113 x    77 x    32           1221759616     100.0%      0.0%      0.0%     
 flops    77 x   113 x    32           1222873344     100.0%      0.0%      0.0%     
 flops    77 x   114 x    32           1233695232     100.0%      0.0%      0.0%     
 flops    32 x   105 x    77           1241856000     100.0%      0.0%      0.0%     
 flops   113 x    79 x    32           1253493632     100.0%      0.0%      0.0%     
 flops    79 x   113 x    32           1254636288     100.0%      0.0%      0.0%     
 flops    79 x   114 x    32           1265739264     100.0%      0.0%      0.0%     
 flops     5 x    32 x   146           1291714560     100.0%      0.0%      0.0%     
 flops    32 x     5 x   146           1291714560     100.0%      0.0%      0.0%     
 flops   113 x    82 x    32           1302280704     100.0%      0.0%      0.0%     
 flops    32 x   113 x    77           1336473600     100.0%      0.0%      0.0%     
 flops    32 x   114 x    77           1348300800     100.0%      0.0%      0.0%     
 flops     5 x    32 x   159           1406730240     100.0%      0.0%      0.0%     
 flops    32 x     5 x   159           1406730240     100.0%      0.0%      0.0%     
 flops   113 x    94 x    32           1492858368     100.0%      0.0%      0.0%     
 flops     5 x    29 x    29           1519417880     100.0%      0.0%      0.0%     
 flops     5 x    32 x   172           1521745920     100.0%      0.0%      0.0%     
 flops    32 x     5 x   172           1521745920     100.0%      0.0%      0.0%     
 flops   113 x   105 x    32           1666795200     100.0%      0.0%      0.0%     
 flops   113 x   113 x    32           1794606336     100.0%      0.0%      0.0%     
 flops   113 x   114 x    32           1810487808     100.0%      0.0%      0.0%     
 flops    32 x    32 x    78           1932263424     100.0%      0.0%      0.0%     
 flops    32 x    78 x     5           2614285440     100.0%      0.0%      0.0%     
 flops     5 x    78 x    32           2657191680     100.0%      0.0%      0.0%     
 flops    68 x    78 x    32           2980084224     100.0%      0.0%      0.0%     
 flops    78 x    68 x    32           2980423680     100.0%      0.0%      0.0%     
 flops     5 x    32 x    58           3198593280     100.0%      0.0%      0.0%     
 flops    32 x     5 x    58           3198593280     100.0%      0.0%      0.0%     
 flops    32 x    78 x    68           3258777600     100.0%      0.0%      0.0%     
 flops    32 x    68 x    78           3258777600     100.0%      0.0%      0.0%     
 flops    78 x    77 x    32           3373353984     100.0%      0.0%      0.0%     
 flops    77 x    78 x    32           3374507136     100.0%      0.0%      0.0%     
 flops    78 x    79 x    32           3460973568     100.0%      0.0%      0.0%     
 flops    79 x    78 x    32           3462156672     100.0%      0.0%      0.0%     
 flops    78 x    82 x    32           3595677696     100.0%      0.0%      0.0%     
 flops    32 x    78 x    77           3690086400     100.0%      0.0%      0.0%     
 flops    32 x    77 x    78           3690086400     100.0%      0.0%      0.0%     
 flops    32 x    79 x    78           3785932800     100.0%      0.0%      0.0%     
 flops    32 x    82 x    78           3929702400     100.0%      0.0%      0.0%     
 flops    78 x    94 x    32           4121874432     100.0%      0.0%      0.0%     
 flops    32 x    94 x    78           4504780800     100.0%      0.0%      0.0%     
 flops    78 x   105 x    32           4602124800     100.0%      0.0%      0.0%     
 flops   113 x    78 x    32           4952198784     100.0%      0.0%      0.0%     
 flops    78 x   113 x    32           4955019264     100.0%      0.0%      0.0%     
 flops    78 x   114 x    32           4998868992     100.0%      0.0%      0.0%     
 flops    32 x   105 x    78           5031936000     100.0%      0.0%      0.0%     
 flops    32 x    29 x     5           5266251520     100.0%      0.0%      0.0%     
 flops     5 x    29 x    32           5357241920     100.0%      0.0%      0.0%     
 flops    32 x   113 x    78           5415321600     100.0%      0.0%      0.0%     
 flops    32 x   114 x    78           5463244800     100.0%      0.0%      0.0%     
 flops     5 x    32 x    29           9907624960     100.0%      0.0%      0.0%     
 flops    32 x     5 x    29          10074869120     100.0%      0.0%      0.0%     
 flops    78 x    78 x    32          13673327616     100.0%      0.0%      0.0%     
 flops    32 x    78 x    78          14952038400     100.0%      0.0%      0.0%     
 flops    32 x    68 x    32          30496169984     100.0%      0.0%      0.0%     
 flops    29 x    29 x    32          30545981184     100.0%      0.0%      0.0%     
 flops    32 x    77 x    32          34361800704     100.0%      0.0%      0.0%     
 flops    32 x    79 x    32          35254800384     100.0%      0.0%      0.0%     
 flops    32 x    82 x    32          36769083392     100.0%      0.0%      0.0%     
 flops    32 x    94 x    32          42145882112     100.0%      0.0%      0.0%     
 flops    32 x   105 x    32          47080857600     100.0%      0.0%      0.0%     
 flops    32 x   113 x    32          50684633088     100.0%      0.0%      0.0%     
 flops    32 x   114 x    32          51126632448     100.0%      0.0%      0.0%     
 flops    32 x    32 x   146          66135785472     100.0%      0.0%      0.0%     
 flops    32 x    32 x   159          72024588288     100.0%      0.0%      0.0%     
 flops    32 x    32 x   172          77913391104     100.0%      0.0%      0.0%     
 flops    32 x    29 x    29          78055564800     100.0%      0.0%      0.0%     
 flops    32 x    78 x    32         139223605248     100.0%      0.0%      0.0%     
 flops    32 x    32 x    58         164126466048     100.0%      0.0%      0.0%     
 flops    32 x    29 x    32         277603850240     100.0%      0.0%      0.0%     
 flops    32 x    32 x    29         520745373696     100.0%      0.0%      0.0%     
 flops inhomo. stacks                557477220456     100.0%      0.0%      0.0%
 flops total                         2.557778E+12     100.0%      0.0%      0.0%
 flops max/rank                    227.570271E+09     100.0%      0.0%      0.0%
 matmuls inhomo. stacks                   1182036     100.0%      0.0%      0.0%
 matmuls total                           26737993     100.0%      0.0%      0.0%
 number of processed stacks                497180     100.0%      0.0%      0.0%
 average stack size                                    53.8       0.0       0.0
 marketing flops                     3.056841E+12
 -------------------------------------------------------------------------------
 # multiplications                            506
 max memory usage/rank              25.541378E+09
 # max total images/rank                        3
 # max 3D layers                                1
 # MPI messages exchanged                   48576
 MPI messages size (bytes):
  total size                        59.020616E+09
  min size                           0.000000E+00
  max size                           7.216128E+06
  average size                       1.215016E+06
 MPI breakdown and total messages size (bytes):
             size <=      128                4624                       80
       128 < size <=     8192                 289                   492992
      8192 < size <=    32768                3956                104355456
     32768 < size <=   131072                 545                 41975888
    131072 < size <=  4194304               34472              28409252904
   4194304 < size <= 16777216                4690              30464853920
  16777216 < size                               0                        0
 -------------------------------------------------------------------------------

 *** WARNING in dbcsr_mm.F:301 :: Using a non-square number of MPI ranks ***
 *** might lead to poor performance. Used ranks: 12 Suggested: 9 25      ***

 -------------------------------------------------------------------------------
 -                                                                             -
 -                      DBCSR MESSAGE PASSING PERFORMANCE                      -
 -                                                                             -
 -------------------------------------------------------------------------------
 ROUTINE             CALLS      AVE VOLUME [Bytes]
 MP_Bcast              273                     12.
 MP_Allreduce         2675                     39.
 MP_Alltoall          3387                  72851.
 MP_ISend            13312                 408976.
 MP_IRecv            13032                 411511.
 -------------------------------------------------------------------------------

 -------------------------------------------------------------------------------
 -                                                                             -
 -                                GRID STATISTICS                              -
 -                                                                             -
 -------------------------------------------------------------------------------
 LP    KERNEL             BACKEND                              COUNT     PERCENT
 6     collocate ortho    CPU                                   6696      49.47%
 6     integrate ortho    CPU                                   6696      49.47%
 0     collocate general  CPU                                    144       1.06%
 -------------------------------------------------------------------------------

 -------------------------------------------------------------------------------
 -                                                                             -
 -                          OFFLOAD MEMPOOL STATISTICS                         -
 -                                                                             -
 -------------------------------------------------------------------------------
 Memory consumption                Number of allocations  Used [MiB]  Size [MiB]
 Host                                                  6         110    22364411
 -------------------------------------------------------------------------------

 MEMORY| Estimated peak process memory [MiB]                                2707

 -------------------------------------------------------------------------------
 -                                                                             -
 -                         MESSAGE PASSING PERFORMANCE                         -
 -                                                                             -
 -------------------------------------------------------------------------------

 ROUTINE             CALLS      AVE VOLUME [Bytes]
 MP_Group                5
 MP_Bcast              356                 245304.
 MP_Allreduce         1922                  19432.
 MP_Sync                10
 MP_Alltoall            46               90815122.
 MP_SendRecv            44                 674304.
 MP_ISendRecv           44                 674304.
 MP_Wait               215
 MP_comm_split          12
 MP_ISend              144                3271392.
 MP_IRecv              144                3271392.
 -------------------------------------------------------------------------------


 -------------------------------------------------------------------------------
 -                                                                             -
 -                           R E F E R E N C E S                               -
 -                                                                             -
 -------------------------------------------------------------------------------
 
 CP2K version 2026.2 (Development Version), the CP2K developers group (2026).
 CP2K is freely available from https://www.cp2k.org/ .
 
 M. Iannuzzi, J. Wilhelm, F. Stein, A. Bussy, H. Elgabarty, D. Golze, A. Hehn, 
 M. Graml, S. Marek, B. Sertcan Gökmen, C. Schran, H. Forbert, R. Z. 
 Khaliullin, A. Kozhevnikov, M. Taillefumier, R. Meli, V. V. Rybkin, M. Brehm, 
 R. Schade, O. Schütt, J. V. Pototschnig, H. Mirhosseini, A. Knüpfer, D. Marx, 
 M. Krack, J. Hutter, T. D. Kühne.
 J. Phys. Chem. B 130, 1237-1310 (2026).
 The CP2K Program Package Made Simple.
 https://doi.org/10.1021/acs.jpcb.5c05851

 M. Graml, K. Zollner, D. Hernangómez-Pérez, P. E. Faria Junior, J. Wilhelm.
 J. Chem. Theory Comput. 20, 2202-2208 (2024).
 Low-scaling GW algorithm applied to twisted transition-metal dichalcogenide 
 heterobilayers.
 https://doi.org/10.1021/acs.jctc.3c01230

 T. D. Kühne, M. Iannuzzi, M. Del Ben, V. V. Rybkin, P. Seewald, F. Stein, T. 
 Laino, R. Z. Khaliullin, O. Schütt, F. Schiffmann, D. Golze, J. Wilhelm, S. 
 Chulkov, M. H. Bani-Hashemian, V. Weber, U. Borstnik, M. Taillefumier, A. S. 
 Jakobovits, A. Lazzaro, H. Pabst, T. Müller, R. Schade, M. Guidon, S. 
 Andermatt, N. Holmberg, G. K. Schenter, A. Hehn, A. Bussy, F. Belleflamme, G. 
 Tabacchi, A. Glöß, M. Lass, I. Bethune, C. J. Mundy, C. Plessl, M. Watkins, 
 J. VandeVondele, M. Krack, J. Hutter.
 J. Chem. Phys. 152, 194103 (2020).
 CP2K: An electronic structure and molecular dynamics software package - 
 Quickstep: Efficient and accurate electronic structure calculations.
 https://doi.org/10.1063/5.0007045

 O. Schuett, P. Messmer, J. Hutter, J. VandeVondele.
 Electronic Structure Calculations on Graphics Processing Units, 173-190 (2016).
 GPU-Accelerated Sparse Matrix-Matrix Multiplication for Linear Scaling Density 
 Functional Theory.
 https://doi.org/10.1002/9781118670712.ch8

 U. Borstnik, J. VandeVondele, V. Weber, J. Hutter.
 Parallel Comput. 40, 47-58 (2014).
 Sparse matrix multiplication: The distributed block-compressed sparse row 
 library.
 https://doi.org/10.1016/j.parco.2014.03.012

 J. VandeVondele, J. Hutter.
 J. Chem. Phys. 127, 114105 (2007).
 Gaussian basis sets for accurate calculations on molecular systems in gas and 
 condensed phases.
 https://doi.org/10.1063/1.2770708

 J. VandeVondele, M. Krack, F. Mohamed, M. Parrinello, T. Chassaing, J. Hutter.
 Comput. Phys. Commun. 167, 103-128 (2005).
 QUICKSTEP: Fast and accurate density functional calculations using a mixed 
 Gaussian and plane waves approach.
 https://doi.org/10.1016/j.cpc.2004.12.014

 M. Krack.
 Theor. Chem. Acc. 114, 145-152 (2005).
 Pseudopotentials for H to Kr optimized for gradient-corrected 
 exchange-correlation functionals.
 https://doi.org/10.1007/s00214-005-0655-y

 M. Frigo, S. G. Johnson.
 Proc. IEEE 93, 216-231 (2005).
 The design and implementation of FFTW3.
 https://doi.org/10.1109/JPROC.2004.840301

 J. VandeVondele, J. Hutter.
 J. Chem. Phys. 118, 4365-4369 (2003).
 An efficient orbital transformation method for electronic structure 
 calculations.
 https://doi.org/10.1063/1.1543154

 C. Hartwigsen, S. Goedecker, J. Hutter.
 Phys. Rev. B 58, 3641-3662 (1998).
 Relativistic separable dual-space Gaussian pseudopotentials from H to Rn.
 https://doi.org/10.1103/PhysRevB.58.3641

 G. Lippert, J. Hutter, M. Parrinello.
 Mol. Phys. 92, 477-487 (1997).
 A hybrid Gaussian and plane wave density functional scheme.
 https://doi.org/10.1080/002689797170220

 S. Goedecker, M. Teter, J. Hutter.
 Phys. Rev. B 54, 1703-1710 (1996).
 Separable dual-space Gaussian pseudopotentials.
 https://doi.org/10.1103/PhysRevB.54.1703

 J. P. Perdew, K. Burke, M. Ernzerhof.
 Phys. Rev. Lett. 77, 3865-3868 (1996).
 Generalized gradient approximation made simple.
 https://doi.org/10.1103/PhysRevLett.77.3865

 P. E. Blöchl.
 J. Chem. Phys. 103, 7422-7428 (1995).
 Electrostatic decoupling of periodic images of plane‐wave‐expanded 
 densities and derived atomic point charges.
 https://doi.org/10.1063/1.470314

 R. H. Byrd, P. H. Lu, J. Nocedal, C. Y. Zhu.
 SIAM J. Sci. Comput. 16, 1190-1208 (1995).
 A Limited Memory Algorithm for Bound Constrained Optimization.
 https://doi.org/10.1137/0916069


 -------------------------------------------------------------------------------
 -                                                                             -
 -                                T I M I N G                                  -
 -                                                                             -
 -------------------------------------------------------------------------------
 SUBROUTINE                       CALLS  ASD         SELF TIME        TOTAL TIME MAXRANK
                                MAXIMUM       AVERAGE  MAXIMUM  AVERAGE  MAXIMUM
 CP2K                                 1  1.0    0.043    0.049   20.227   20.228       0
 qs_energies                          1  2.0    0.011    0.011   19.149   19.149      10
 qs_energies_properties               1  3.0    0.000    0.000   15.699   15.699       0
 post_scf_bandstructure               1  4.0    0.005    0.005   15.699   15.699       2
 run_gw                               1  5.0    0.000    0.000   15.559   15.569      10
 gw_calc_ri_rs_non_periodic           1  6.0    0.001    0.001   10.359   10.548       1
 create_and_init_bs_env_for_gw        1  6.0    0.005    0.005    5.200    5.381      11
 generate_auto_ri_basis               1  7.0    0.001    0.001    4.243    4.243       7
 compute_Sigma_c_and_QP_energie       1  7.0    0.000    0.000    3.041    3.051       9
 compute_Sigma_c                      1  8.0    0.003    0.004    2.938    2.938       0
 contract_grid_panels_sigma_c        30  9.0    2.590    2.615    2.795    2.801       8
 scf_env_do_scf                       1  3.0    0.000    0.000    2.421    2.421       1
 qs_ks_build_kohn_sham_matrix         2  7.5    0.014    0.021    2.255    2.255       6
 compute_AB_optimized_RI_basis        1  8.0    0.001    0.001    2.204    2.204       2
 compute_AB_optimized_RI_basis_       1  9.0    0.000    0.000    1.886    2.200       5
 optimize_ri_rs_grid                  1  7.0    0.000    0.000    1.971    2.151       0
 fft_wrap_pw1pw2                     28 10.0    0.001    0.001    1.995    2.060       5
 compute_B_PQ_AB                      4 10.0    0.439    0.540    1.643    2.029       2
 fft_wrap_pw1pw2_300                 16 11.2    0.103    0.117    1.891    1.956       5
 get_mat_chi_Gamma_tau                1  7.0    0.001    0.001    1.937    1.938       0
 contract_grid_panels                31  8.0    1.767    1.790    1.909    1.931       5
 init_scf_loop                        1  4.0    0.014    0.014    1.829    1.829       5
 compute_W                            1  7.0    0.000    0.000    1.776    1.776       0
 rirs_grid_LBFGS                      1  8.0    0.275    0.295    1.753    1.756       6
 qs_ks_update_qs_env                  2  5.0    0.000    0.000    1.738    1.738       3
 rebuild_ks_matrix                    1  6.0    0.000    0.000    1.737    1.737       1
 fft3d_ps                            28 12.0    0.775    0.853    1.461    1.536       3
 compute_Z_lP                         1  7.0    0.001    0.001    1.521    1.522       3
 compute_Z_lP_auto_ri                 1  8.0    0.000    0.000    1.521    1.521       0
 evaluate_rirs_grid_cluster         301  9.0    0.297    0.335    1.326    1.405       6
 parallel_gemm_fm_gemm              431  9.6    0.006    0.007    1.336    1.377       1
 cp_fm_gemm                         434 10.5    1.331    1.373    1.331    1.373       2
 compute_auto_ri_d_lp                 1  9.0    0.000    0.000    1.341    1.342       8
 compute_auto_ri_d_lp_AB_d_lp         1 10.0    0.001    0.001    1.093    1.329       5
 compute_M_pq_inv_and_V_pq            1  8.0    0.000    0.000    1.292    1.292       6
 compute_fm_W_freq                   30  8.0    0.000    0.000    1.280    1.290      10
 compute_d_lp_auto_ri_atom            1 11.0    0.478    0.602    1.049    1.286       2
 qs_vxc_create                        2  8.5    0.001    0.006    1.162    1.182       6
 xc_vxc_pw_create                     1  9.0    0.024    0.029    1.162    1.177       4
 qs_rho_update_rho_low                2  5.0    0.002    0.002    1.171    1.171       1
 calculate_rho_elec                   2  6.0    0.029    0.030    1.170    1.170       5
 compute_contracted_RI_matrix         2  9.0    0.001    0.002    1.164    1.165       6
 compute_optimized_RI_matrix_bl      14 10.0    0.168    0.196    1.007    1.158       1
 contract_B_PQ                       18 11.9    0.856    1.058    0.925    1.145       2
 compute_M_PQ_AB                    508 11.0    0.001    0.001    0.865    0.993       4
 compute_M_PQ                       508 12.0    0.001    0.001    0.864    0.992       1
 int_operators_r12_ab_os            508 13.0    0.001    0.001    0.863    0.991       2
 int_operator_ab_os_low             508 14.0    0.318    0.366    0.862    0.990       1
 xc_pw_derive                         6 11.0    0.000    0.000    0.845    0.918       5
 mp_bcast_dm                         54  9.1    0.600    0.790    0.600    0.790       8
 mp_alltoall_z22v                    28 14.0    0.357    0.756    0.357    0.756       6
 compute_AA_optimized_RI_basis        1  8.0    0.011    0.013    0.746    0.746       1
 abc_contract_xsmm                  861 11.1    0.575    0.705    0.575    0.705       2
 density_rs2pw                        2  7.0    0.001    0.001    0.680    0.701       6
 mp_sum_dm                           81 10.9    0.498    0.692    0.498    0.692      11
 init_scf_run                         1  3.0    0.006    0.006    0.684    0.684       2
 scf_env_initial_rho_setup            1  4.0    0.005    0.006    0.678    0.679       0
 qs_init_subsys                       1  2.0    0.009    0.009    0.676    0.676      11
 qs_env_setup                         1  3.0    0.003    0.003    0.661    0.662       8
 qs_env_rebuild_pw_env                2  3.5    0.000    0.000    0.657    0.657       4
 pw_env_rebuild                       1  5.0    0.004    0.004    0.656    0.657      11
 pw_grid_setup                        5  5.2    0.001    0.001    0.645    0.645       1
 pw_grid_setup_internal               5  6.2    0.012    0.012    0.644    0.644       4
 xc_pw_divergence                     1 10.0    0.000    0.000    0.567    0.640       4
 scf_env_do_scf_inner_loop            1  4.0    0.001    0.001    0.592    0.592      10
 xc_rho_set_and_dset_create           1 10.0    0.020    0.026    0.554    0.589      11
 compute_B_PQ_exchange                9 10.9    0.000    0.000    0.463    0.573       6
 compute_B_PQ_transition              9 10.9    0.000    0.000    0.463    0.573       6
 pw_grid_sort                         5  7.2    0.380    0.385    0.550    0.556       1
 compute_V_xc                         1  7.0    0.000    0.000    0.519    0.519       6
 setup_time_and_frequency_minim       1  7.0    0.000    0.000    0.336    0.507       0
 build_minimax_time_frequency_g       1  8.0    0.000    0.000    0.336    0.507       3
 fit_l_sq_weights                     3  9.0    0.336    0.507    0.336    0.507       6
 compute_auto_ri_d_lp_transform       1 10.0    0.248    0.506    0.248    0.506       7
 sum_up_and_integrate                 2  8.5    0.005    0.007    0.479    0.501       6
 yz_to_x                             14 12.2    0.149    0.172    0.341    0.496       5
 integrate_v_rspace                   2  9.5    0.000    0.000    0.468    0.490       3
 x_to_yz                             14 13.8    0.177    0.204    0.343    0.482       5
 grid_collocate_task_list             2  7.0    0.442    0.473    0.442    0.473       0
 rirs_cluster_gradient_coordina     301 10.0    0.450    0.472    0.450    0.472       6
 potential_pw2rs                      2 10.5    0.001    0.002    0.433    0.455       5
 initialize_auto_ri_integrals         2  9.0    0.038    0.453    0.454    0.455       0
 copy_dbcsr_to_fm                   104  9.5    0.233    0.385    0.240    0.394       6
 operator2                       297778 15.0    0.340    0.388    0.340    0.388       1
 build_3c_integral_block_auto_r      72 12.0    0.000    0.000    0.312    0.382       2
 initialize_ri_rs_grid                1  8.0    0.008    0.009    0.190    0.370       4
 qs_energies_init_hamiltonians        1  3.0    0.003    0.003    0.323    0.323       9
 qs_ks_ddapc                          2  8.5    0.000    0.000    0.311    0.317      11
 build_3c_integral_block_auto_r      72 12.0    0.259    0.305    0.259    0.305       3
 mp_sum_d                           724  4.7    0.150    0.293    0.150    0.293       7
 cp_fm_cholesky_invert               31  9.0    0.270    0.275    0.270    0.275       8
 cp_fm_get_submatrix                 78 10.0    0.001    0.001    0.184    0.275       4
 rirs_cluster_gradient_products     301 10.0    0.247    0.274    0.247    0.274      11
 create_qs_kind_set                   1  2.0    0.000    0.000    0.273    0.274       9
 read_qs_kind                         2  3.0    0.069    0.072    0.273    0.273       0
 transfer_rs2pw                       9  7.8    0.000    0.000    0.209    0.268       6
 qs_env_update_s_mstruct              1  4.0    0.001    0.001    0.261    0.261       8
 pw_poisson_solve                     2  8.5    0.000    0.000    0.251    0.259       6
 ab_contract                     298887 15.0    0.206    0.237    0.206    0.237       1
 calculate_rho_core                   1  5.0    0.023    0.024    0.219    0.223       6
 transfer_rs2pw_300                   3  8.3    0.078    0.086    0.167    0.221       8
 mp_waitany                         144 11.3    0.153    0.212    0.153    0.212       6
 build_G_ao                         121  8.5    0.005    0.005    0.182    0.205      11
 parser_read_line                 37795  4.0    0.006    0.007    0.204    0.204       9
 cp_fm_cholesky_decompose            35  9.0    0.167    0.200    0.167    0.200       0
 parser_read_line_low                41  5.0    0.007    0.064    0.197    0.198       0
 broadcast_input_information         41  6.0    0.009    0.025    0.190    0.196       0
 compute_B_PQ_AA                     12  9.0    0.000    0.001    0.157    0.182       0
 fit_auto_ri_z_lp                     1  9.0    0.078    0.089    0.161    0.179      11
 pw_gather_p                         14 11.2    0.162    0.178    0.162    0.178      11
 pw_copy                             28 10.5    0.167    0.178    0.167    0.178       4
 mp_sum_root_rm                      14 10.1    0.147    0.174    0.147    0.174      11
 pw_derive                           12 11.2    0.164    0.173    0.164    0.173       7
 sort_shells                          5  8.2    0.170    0.173    0.170    0.173       4
 check_for_restart_files              1  7.0    0.093    0.171    0.093    0.171      11
 G_occ_vir                          121  9.5    0.012    0.014    0.140    0.163       0
 pw_scatter_p                        14 12.8    0.152    0.159    0.152    0.159       9
 cp_fm_syevd                          5  9.0    0.001    0.001    0.156    0.157       3
 cp_fm_redistribute_end               5 10.0    0.078    0.154    0.078    0.154      10
 cp_fm_syevd_base                     5 10.0    0.075    0.151    0.075    0.151       5
 hadamard_product                    91  9.7    0.129    0.148    0.129    0.148       6
 pw_poisson_set                       3  8.3    0.000    0.000    0.140    0.147      11
 transfer_pw2rs                       8 11.5    0.000    0.000    0.146    0.146       6
 cp_fm_geeig                          2  9.5    0.000    0.000    0.142    0.142      11
 extract_grid_panel                 122  9.5    0.114    0.136    0.114    0.136       4
 rirs_cluster_D_ll                  301 10.0    0.127    0.135    0.127    0.135       1
 compute_fm_chi_Gamma_freq           30  8.0    0.050    0.073    0.112    0.135      11
 cp_fm_uplo_to_full                  63  9.0    0.097    0.133    0.097    0.133       6
 compute_M_pq_inv                     1  9.0    0.000    0.000    0.128    0.129       8
 fft_wrap_pw1pw2_100                  4 10.8    0.005    0.009    0.082    0.128       5
 xc_functional_eval                   1 11.0    0.000    0.001    0.091    0.128       6
 pbe_lda_eval                         1 12.0    0.091    0.127    0.091    0.127       6
 mp_bcast_am_src                     41  7.0    0.103    0.117    0.103    0.117      10
 pw_integral_ab_c1d_c1d_gs            4 10.0    0.095    0.098    0.102    0.114       3
 mp_bcast_i_src                     169  7.0    0.078    0.106    0.078    0.106       1
 transfer_pw2rs_300                   2 12.5    0.044    0.048    0.102    0.106       4
 copy_fm_to_dbcsr                   161  9.3    0.085    0.095    0.097    0.106      10
 mp_sum_iv                          142 10.0    0.066    0.105    0.066    0.105       0
 compute_QP_energies                  1  8.0    0.000    0.001    0.102    0.104       8
 cp_ddapc_apply_CD                    2  9.5    0.000    0.000    0.076    0.101      11
 compute_int_3c                       2  9.0    0.081    0.083    0.094    0.097       6
 rirs_cluster_residual              301 10.0    0.083    0.094    0.083    0.094       3
 compute_Sigma_x                      1  7.0    0.000    0.000    0.093    0.093       0
 build_phi_on_sphere                  2 10.5    0.005    0.007    0.081    0.089      11
 local_gemm                        6992 12.9    0.070    0.087    0.070    0.087       2
 evaluate_ao_on_points               24 11.5    0.076    0.083    0.076    0.083       6
 pw_axpy                             25  6.6    0.074    0.079    0.074    0.079      11
 to_Gamma_and_mo_real                62  9.0    0.001    0.001    0.078    0.078      10
 pw_copy_to_array                    14 11.2    0.069    0.075    0.069    0.075       8
 eval_bandstructure_properties        1  5.0    0.001    0.001    0.072    0.072       9
 extract_masked_blocks              244  9.6    0.064    0.071    0.064    0.071       5
 solve_AB_eigenproblem                4 10.0    0.040    0.050    0.058    0.071       2
 rirs_cluster_d_lP                  301 10.0    0.064    0.071    0.064    0.071       1
 eval_pw_TabLR                        1  2.0    0.042    0.043    0.070    0.070      10
 cp_cfm_geeig                         1  6.0    0.007    0.007    0.065    0.066       6
 rirs_cluster_AO_products           301 10.0    0.058    0.064    0.058    0.064       3
 create_and_init_bs_env               1  5.0    0.001    0.001    0.063    0.063       3
 ot_scf_init                          1  5.0    0.014    0.014    0.058    0.058       7
 build_core_hamiltonian_matrix        1  4.0    0.016    0.016    0.058    0.058       2
 pw_grid_assign                       5  7.2    0.055    0.056    0.057    0.057       4
 collect_used_col_blocks             92  9.7    0.001    0.001    0.034    0.056       5
 get_ddapc                            2 10.5    0.000    0.000    0.024    0.049       6
 calculate_first_density_matrix       1  5.0    0.001    0.002    0.046    0.046       0
 pw_copy_from_array                  14 12.8    0.040    0.046    0.040    0.046      10
 qs_ot_get_p                          2  7.0    0.008    0.008    0.045    0.045       4
 build_gram_jacobi_blas               1 10.0    0.020    0.024    0.036    0.042      11
 mp_sum_dv                          375  9.2    0.035    0.041    0.035    0.041       3
 mp_waitall_1                        71 12.7    0.025    0.041    0.025    0.041       6
 diamat_all                          20 11.5    0.029    0.040    0.029    0.040       0
 make_basis_sm                        1  6.0    0.001    0.001    0.037    0.039       9
 pw_grid_remap                        4  8.0    0.008    0.009    0.019    0.037       2
 Fourier_transform_w_to_t            30  8.0    0.000    0.001    0.028    0.037       4
 cp_fm_scale_and_add                901  9.0    0.027    0.036    0.027    0.036       3
 diagonalize_ks_matrix                1  6.0    0.000    0.000    0.036    0.036       6
 cp_fm_geeig_canon                    1  7.0    0.000    0.000    0.036    0.036       6
 cp_cfm_heevd                         1  7.0    0.000    0.000    0.035    0.035       6
 cp_cfm_heevd_base                    1  8.0    0.035    0.035    0.035    0.035      10
 grid_integrate_task_list             2 10.5    0.016    0.034    0.016    0.034       6
 mp_sync                             10  9.2    0.019    0.033    0.019    0.033       8
 transfer_pw2rs_100                   2 12.5    0.007    0.010    0.028    0.032       5
 transfer_rs2pw_100                   2  9.0    0.007    0.009    0.025    0.032       7
 cp_cfm_cholesky_decompose            2  7.0    0.030    0.031    0.030    0.031       7
 arnoldi_extremal                     2  8.0    0.001    0.001    0.031    0.031       0
 rirs_grid_build_clusters             1  8.0    0.017    0.019    0.028    0.031       0
 compute_reference_M_PQ_inv_fac      14 10.8    0.001    0.001    0.021    0.031       0
 arnoldi_normal_ev                    2  9.0    0.019    0.019    0.030    0.030       1
 mp_sum_im3                           5  9.0    0.011    0.029    0.011    0.029       6
 build_overlap_matrix_low             1  5.0    0.027    0.028    0.029    0.029       0
 pw_zero                             25  4.7    0.025    0.028    0.025    0.028       2
 cp_ddapc_init                        1  5.0    0.000    0.000    0.028    0.028       1
 cp_ddapc_create                      1  6.0    0.000    0.000    0.028    0.028       0
 rs_grid_zero                         5 12.0    0.025    0.026    0.025    0.026       3
 qs_create_task_list                  1  5.0    0.001    0.007    0.012    0.025       6
 write_mo_set_to_restart              1  5.0    0.001    0.008    0.024    0.025       0
 rs_gather_matrices                   2 10.5    0.000    0.001    0.019    0.024       3
 mp_alltoall_d11v                     4  9.8    0.019    0.024    0.019    0.024       7
 cp_dbcsr_sm_fm_multiply              2  7.5    0.000    0.000    0.024    0.024       3
 write_mo_set_low                     1  6.0    0.000    0.001    0.023    0.023       0
 subspace_eigenvalues_ks_fm           1  7.0    0.006    0.006    0.022    0.023       0
 check_positive_definite_overla       1  6.0    0.000    0.000    0.021    0.021       4
 -------------------------------------------------------------------------------

 The number of warnings for this run is : 0
 
 -------------------------------------------------------------------------------
  **** **** ******  **  PROGRAM ENDED AT                 2026-10-03 11:12:20.598
 ***** ** ***  *** **   PROGRAM RAN ON                                  n2cn0325
 **    ****   ******    PROGRAM RAN BY                                  eprop2d1
 ***** **    ** ** **   PROGRAM PROCESS ID                               1547425
  **** **  *******  **  PROGRAM STOPPED IN /scratch/hpc-prf-metdyn/eprop2d1_Jan/
                                           53_benchmark_RI_opt/418_gw100_fig5_fu
                                           ll_epsfilter_1e12_20261002/calculatio
                                           ns/rc0p5/ri3_rs09/88_C6F6
