 DBCSR| CPU Multiplication driver                                           XSMM (U)
 DBCSR| Multrec recursion limit                                              512 (U)
 DBCSR| Multiplication stack size                                           1000 (D)
 DBCSR| Maximum elements for images                                    UNLIMITED (U)
 DBCSR| Multiplicative factor virtual images                                   1 (U)
 DBCSR| Use multiplication densification                                       T (D)
 DBCSR| Multiplication size stacks                                             3 (U)
 DBCSR| Use memory pool for CPU allocation                                     F (U)
 DBCSR| Number of 3D layers                                               SINGLE (U)
 DBCSR| Use MPI memory allocation                                              F (U)
 DBCSR| Use RMA algorithm                                                      F (U)
 DBCSR| Use Communication thread                                               T (U)
 DBCSR| Communication thread load                                             75 (D)
 DBCSR| MPI: My process id                                                     0
 DBCSR| MPI: Number of processes                                              32
 DBCSR| OMP: Current number of threads                                         4
 DBCSR| OMP: Max number of threads                                             4
 DBCSR| Split modifier for TAS multiplication algorithm                  1.0E+00 (U)


  **** **** ******  **  PROGRAM STARTED AT               2026-09-18 14:57:36.850
 ***** ** ***  *** **   PROGRAM STARTED ON                              n2cn0572
 **    ****   ******    PROGRAM STARTED BY                              eprop2d1
 ***** **    ** ** **   PROGRAM PROCESS ID                                335462
  **** **  *******  **  PROGRAM STARTED IN /scratch/hpc-prf-metdyn/eprop2d1_Jan/
                                           53_benchmark_RI_opt/129_GW100_Si293_A
                                           O_frontier_optimization_coopfst/follo
                                           wups/figure1_missing/gw100/90_C6H5NH2
                                           /szv_t2/initial

 CP2K| version string:                 CP2K version 2026.2 (Development Version)
 CP2K| source code revision number:                                      d1dff42
 CP2K| cp2kflags: omp libint fftw3 libxc parallel scalapack openblas            
 CP2K| is freely available from                            https://www.cp2k.org/
 CP2K| Program compiled at                                   2026-09-17 17:57:35
 CP2K| Program compiled on                                              n2login6
 CP2K| Program compiled for                                               x86_64
 CP2K| Data directory path    /scratch/hpc-prf-metdyn/eprop2d1_Jan/53_benchmark_
 CP2K| Input file name        /scratch/hpc-prf-metdyn/eprop2d1_Jan/53_benchmark_

 GLOBAL| Force Environment number                                              1
 GLOBAL| Basis set file name            /scratch/hpc-prf-metdyn/eprop2d1_Jan/53_
 GLOBAL| Potential file name            /scratch/hpc-prf-metdyn/eprop2d1_Jan/53_
 GLOBAL| MM Potential file name                                     MM_POTENTIAL
 GLOBAL| Coordinate file name                                      __STD_INPUT__
 GLOBAL| Method name                                                        CP2K
 GLOBAL| Project name                                                 f1i_090_s2
 GLOBAL| Run type                                                         ENERGY
 GLOBAL| FFT library                                                       FFTW3
 GLOBAL| Diagonalization library                                       ScaLAPACK
 GLOBAL| Cholesky decomposition library                                ScaLAPACK
 GLOBAL| DGEMM library                                                      BLAS
 GLOBAL| Direct generalized diagonalization requested                          F
 GLOBAL| Orthonormality check for eigenvectors                          DISABLED
 GLOBAL| Matrix multiplication library                                 ScaLAPACK
 GLOBAL| All-to-all communication in single precision                          F
 GLOBAL| Grid backend                                                       AUTO
 GLOBAL| Global print level                                               MEDIUM
 GLOBAL| MPI I/O enabled                                                       T
 GLOBAL| Total number of message passing processes                            32
 GLOBAL| Number of distributed systems (nodes)                                 1
 GLOBAL| Number of threads for this process                                    4
 GLOBAL| This output is from process                                           0
 GLOBAL| OpenMP stack size per thread (OMP_STACKSIZE)                       512M
 GLOBAL| CPU model name                          AMD EPYC 7763 64-Core Processor

 MEMORY| system memory details [Kb]
 MEMORY|                        rank 0           min           max       average
 MEMORY| MemTotal            263897568     263897568     263897568     263897568
 MEMORY| MemFree             246159760     246159760     246159760     246159760
 MEMORY| Buffers                321600        321600        321600        321600
 MEMORY| Cached                7006644       7006644       7006644       7006644
 MEMORY| Slab                  1359840       1359840       1359840       1359840
 MEMORY| SReclaimable           247920        247920        247920        247920
 MEMORY| MemLikelyFree       253735924     253735924     253735924     253735924


 *** Fundamental physical constants (SI units) ***

 *** Literature: B. J. Mohr and B. N. Taylor,
 ***             CODATA recommended values of the fundamental physical
 ***             constants: 2006, Web Version 5.1
 ***             http://physics.nist.gov/constants

 Speed of light in vacuum [m/s]                             2.99792458000000E+08
 Magnetic constant or permeability of vacuum [N/A**2]       1.25663706143592E-06
 Electric constant or permittivity of vacuum [F/m]          8.85418781762039E-12
 Planck constant (h) [J*s]                                  6.62606896000000E-34
 Planck constant (h-bar) [J*s]                              1.05457162825177E-34
 Elementary charge [C]                                      1.60217648700000E-19
 Electron mass [kg]                                         9.10938215000000E-31
 Electron g factor [ ]                                     -2.00231930436220E+00
 Proton mass [kg]                                           1.67262163700000E-27
 Fine-structure constant                                    7.29735253760000E-03
 Rydberg constant [1/m]                                     1.09737315685270E+07
 Avogadro constant [1/mol]                                  6.02214179000000E+23
 Boltzmann constant [J/K]                                   1.38065040000000E-23
 Atomic mass unit [kg]                                      1.66053878200000E-27
 Bohr radius [m]                                            5.29177208590000E-11

 *** Conversion factors ***

 [u] -> [a.u.]                                              1.82288848426455E+03
 [Angstrom] -> [Bohr] = [a.u.]                              1.88972613288564E+00
 [a.u.] = [Bohr] -> [Angstrom]                              5.29177208590000E-01
 [a.u.] -> [s]                                              2.41888432650478E-17
 [a.u.] -> [fs]                                             2.41888432650478E-02
 [a.u.] -> [J]                                              4.35974393937059E-18
 [a.u.] -> [N]                                              8.23872205491840E-08
 [a.u.] -> [K]                                              3.15774647902944E+05
 [a.u.] -> [kJ/mol]                                         2.62549961709828E+03
 [a.u.] -> [kcal/mol]                                       6.27509468713739E+02
 [a.u.] -> [Pa]                                             2.94210107994716E+13
 [a.u.] -> [bar]                                            2.94210107994716E+08
 [a.u.] -> [atm]                                            2.90362800883016E+08
 [a.u.] -> [eV]                                             2.72113838565563E+01
 [a.u.] -> [Hz]                                             6.57968392072181E+15
 [a.u.] -> [1/cm] (wave numbers)                            2.19474631370540E+05
 [a.u./Bohr**2] -> [1/cm]                                   5.14048714338585E+03
 

 CELL| Volume [angstrom^3]:                                         10648.000000
 CELL| Vector a [angstrom]:      22.000     0.000     0.000   |a| =    22.000000
 CELL| Vector b [angstrom]:       0.000    22.000     0.000   |b| =    22.000000
 CELL| Vector c [angstrom]:       0.000     0.000    22.000   |c| =    22.000000
 CELL| Angle (b,c), alpha [degree]:                                    90.000000
 CELL| Angle (a,c), beta  [degree]:                                    90.000000
 CELL| Angle (a,b), gamma [degree]:                                    90.000000
 CELL| Numerically orthorhombic:                                             YES
 CELL| Periodicity                                                          NONE

 CELL_REF| Volume [angstrom^3]:                                     10648.000000
 CELL_REF| Vector a [angstrom    22.000     0.000     0.000   |a| =    22.000000
 CELL_REF| Vector b [angstrom     0.000    22.000     0.000   |b| =    22.000000
 CELL_REF| Vector c [angstrom     0.000     0.000    22.000   |c| =    22.000000
 CELL_REF| Angle (b,c), alpha [degree]:                                90.000000
 CELL_REF| Angle (a,c), beta  [degree]:                                90.000000
 CELL_REF| Angle (a,b), gamma [degree]:                                90.000000
 CELL_REF| Numerically orthorhombic:                                         YES
 CELL_REF| Periodicity                                                      NONE

 GENERATE|  Preliminary Number of Bonds generated:                             0
 GENERATE|  Achieved consistency in connectivity generation.

 PW_GRID| Information for grid number                                          1
 PW_GRID| Cutoff [a.u.]                                                      6.6
 PW_GRID| spherical cutoff:                                                   NO
 PW_GRID|   Bounds   1              0      49                Points:          50
 PW_GRID|   Bounds   2              0      49                Points:          50
 PW_GRID|   Bounds   3              0      49                Points:          50
 PW_GRID| Volume element (a.u.^3)  0.5749         Volume (a.u.^3)     71856.2666
 PW_GRID| Grid span                                                    HALFSPACE

 *******************************************************************************
 *******************************************************************************
 **                                                                           **
 **     #####                         ##              ##                      **
 **    ##   ##            ##          ##              ##                      **
 **   ##     ##                       ##            ######                    **
 **   ##     ##  ##   ##  ##   #####  ##  ##   ####   ##    #####    #####    **
 **   ##     ##  ##   ##  ##  ##      ## ##   ##      ##   ##   ##  ##   ##   **
 **   ##  ## ##  ##   ##  ##  ##      ####     ###    ##   ######   ######    **
 **    ##  ###   ##   ##  ##  ##      ## ##      ##   ##   ##       ##        **
 **     #######   #####   ##   #####  ##  ##  ####    ##    #####   ##        **
 **           ##                                                    ##        **
 **                                                                           **
 **                                                ... make the atoms dance   **
 **                                                                           **
 **            Copyright (C) by CP2K developers group (2000-2026)             **
 **                      J. Chem. Phys. 152, 194103 (2020)                    **
 **                                                                           **
 *******************************************************************************

 DFT| Spin restricted Kohn-Sham (RKS) calculation                            RKS
 DFT| Multiplicity                                                             1
 DFT| Number of spin states                                                    1
 DFT| Charge                                                                   0
 DFT| Self-interaction correction (SIC)                                       NO
 DFT| Cutoffs: density                                              1.000000E-10
 DFT|          gradient                                             1.000000E-10
 DFT|          tau                                                  1.000000E-10
 DFT|          cutoff_smoothing_range                               0.000000E+00
 DFT| XC density smoothing                                                  NONE
 DFT| XC derivatives                                                          PW

 FUNCTIONAL| PBE:
 FUNCTIONAL| J.P.Perdew, K.Burke, M.Ernzerhof, Phys. Rev. Letter, vol. 77, n 18,
 FUNCTIONAL|  pp. 3865-3868, (1996) {spin unpolarized}                          


 QS| Method:                                                                 GPW
 QS| Density plane wave grid type                        NON-SPHERICAL FULLSPACE
 QS| Number of grid levels:                                                    5
 QS| Density cutoff [a.u.]:                                                300.0
 QS| Multi grid cutoff [a.u.]: 1) grid level                               300.0
 QS|                           2) grid level                               100.0
 QS|                           3) grid level                                33.3
 QS|                           4) grid level                                11.1
 QS|                           5) grid level                                 3.7
 QS| Grid level progression factor:                                          3.0
 QS| Relative density cutoff [a.u.]:                                        30.0
 QS| Interaction thresholds: eps_pgf_orb:                                1.0E-12
 QS|                         eps_filter_matrix:                          0.0E+00
 QS|                         eps_core_charge:                            1.0E-14
 QS|                         eps_rho_gspace:                             1.0E-12
 QS|                         eps_rho_rspace:                             1.0E-12
 QS|                         eps_gvg_rspace:                             1.0E-06
 QS|                         eps_ppl:                                    1.0E-02
 QS|                         eps_ppnl:                                   1.0E-08


 ATOMIC KIND INFORMATION

  1. Atomic kind: C                                     Number of atoms:       6

     Orbital Basis Set                                 aug-SZV-MOLOPT-GTH-tier-2

       Number of orbital shell sets:                                           1
       Number of orbital shells:                                               5
       Number of primitive Cartesian functions:                                6
       Number of Cartesian basis functions:                                   14
       Number of spherical basis functions:                                   13
       Norm type:                                                              2

       Normalised Cartesian orbitals:

                        Set   Shell   Orbital            Exponent    Coefficient

                          1       1    2s                0.070000       0.000000
                                                         0.128212      -0.022789
                                                         0.348157      -0.219794
                                                         0.769911      -0.209686
                                                         2.113016       0.213043
                                                         5.605331       0.322515

                          1       2    3s                0.070000       0.133509
                                                         0.128212      -0.041206
                                                         0.348157      -0.081784
                                                         0.769911      -0.003005
                                                         2.113016       0.000000
                                                         5.605331       0.000000

                          1       3    3px               0.070000       0.000000
                                                         0.128212      -0.027849
                                                         0.348157      -0.139743
                                                         0.769911      -0.374851
                                                         2.113016      -0.642521
                                                         5.605331      -0.703879
                          1       3    3py               0.070000       0.000000
                                                         0.128212      -0.027849
                                                         0.348157      -0.139743
                                                         0.769911      -0.374851
                                                         2.113016      -0.642521
                                                         5.605331      -0.703879
                          1       3    3pz               0.070000       0.000000
                                                         0.128212      -0.027849
                                                         0.348157      -0.139743
                                                         0.769911      -0.374851
                                                         2.113016      -0.642521
                                                         5.605331      -0.703879

                          1       4    4px               0.070000       0.033242
                                                         0.128212       0.023307
                                                         0.348157       0.113522
                                                         0.769911      -0.094955
                                                         2.113016       0.000000
                                                         5.605331       0.000000
                          1       4    4py               0.070000       0.033242
                                                         0.128212       0.023307
                                                         0.348157       0.113522
                                                         0.769911      -0.094955
                                                         2.113016       0.000000
                                                         5.605331       0.000000
                          1       4    4pz               0.070000       0.033242
                                                         0.128212       0.023307
                                                         0.348157       0.113522
                                                         0.769911      -0.094955
                                                         2.113016       0.000000
                                                         5.605331       0.000000

                          1       5    4dx2              0.070000      -0.000111
                                                         0.128212       0.037828
                                                         0.348157       0.043639
                                                         0.769911       0.120124
                                                         2.113016       0.000000
                                                         5.605331       0.000000
                          1       5    4dxy              0.070000      -0.000193
                                                         0.128212       0.065520
                                                         0.348157       0.075585
                                                         0.769911       0.208061
                                                         2.113016       0.000000
                                                         5.605331       0.000000
                          1       5    4dxz              0.070000      -0.000193
                                                         0.128212       0.065520
                                                         0.348157       0.075585
                                                         0.769911       0.208061
                                                         2.113016       0.000000
                                                         5.605331       0.000000
                          1       5    4dy2              0.070000      -0.000111
                                                         0.128212       0.037828
                                                         0.348157       0.043639
                                                         0.769911       0.120124
                                                         2.113016       0.000000
                                                         5.605331       0.000000
                          1       5    4dyz              0.070000      -0.000193
                                                         0.128212       0.065520
                                                         0.348157       0.075585
                                                         0.769911       0.208061
                                                         2.113016       0.000000
                                                         5.605331       0.000000
                          1       5    4dz2              0.070000      -0.000111
                                                         0.128212       0.037828
                                                         0.348157       0.043639
                                                         0.769911       0.120124
                                                         2.113016       0.000000
                                                         5.605331       0.000000

     RI Auxiliary Basis Set             RI_aug-SZV-MOLOPT-GTH-tier-2_N_RI_115_s_

       Number of orbital shell sets:                                          27
       Number of orbital shells:                                              27
       Number of primitive Cartesian functions:                               27
       Number of Cartesian basis functions:                                  151
       Number of spherical basis functions:                                  115
       Norm type:                                                              2

       Normalised Cartesian orbitals:

                        Set   Shell   Orbital            Exponent    Coefficient

                          1       1    1s                0.175000       0.192836

                          2       1    2s                0.339578       0.317041

                          3       1    3s                0.658934       0.521245

                          4       1    4s                1.278627       0.856975

                          5       1    5s                2.481110       1.408947

                          6       1    6s                4.814465       2.316440

                          7       1    7s                9.342218       3.808444

                          8       1    8px               0.175000       0.161338
                          8       1    8py               0.175000       0.161338
                          8       1    8pz               0.175000       0.161338

                          9       1    9px               0.387722       0.436105
                          9       1    9py               0.387722       0.436105
                          9       1    9pz               0.387722       0.436105

                         10       1   10px               0.859019       1.178809
                         10       1   10py               0.859019       1.178809
                         10       1   10pz               0.859019       1.178809

                         11       1   11px               1.903203       3.186373
                         11       1   11py               1.903203       3.186373
                         11       1   11pz               1.903203       3.186373

                         12       1   12px               4.216650       8.612904
                         12       1   12py               4.216650       8.612904
                         12       1   12pz               4.216650       8.612904

                         13       1   13px               9.342218      23.281051
                         13       1   13py               9.342218      23.281051
                         13       1   13pz               9.342218      23.281051

                         14       1   14dx2              0.175000       0.077934
                         14       1   14dxy              0.175000       0.134985
                         14       1   14dxz              0.175000       0.134985
                         14       1   14dy2              0.175000       0.077934
                         14       1   14dyz              0.175000       0.134985
                         14       1   14dz2              0.175000       0.077934

                         15       1   15dx2              0.387722       0.313560
                         15       1   15dxy              0.387722       0.543101
                         15       1   15dxz              0.387722       0.543101
                         15       1   15dy2              0.387722       0.313560
                         15       1   15dyz              0.387722       0.543101
                         15       1   15dz2              0.387722       0.313560

                         16       1   16dx2              0.859019       1.261579
                         16       1   16dxy              0.859019       2.185119
                         16       1   16dxz              0.859019       2.185119
                         16       1   16dy2              0.859019       1.261579
                         16       1   16dyz              0.859019       2.185119
                         16       1   16dz2              0.859019       1.261579

                         17       1   17dx2              1.903203       5.075848
                         17       1   17dxy              1.903203       8.791626
                         17       1   17dxz              1.903203       8.791626
                         17       1   17dy2              1.903203       5.075848
                         17       1   17dyz              1.903203       8.791626
                         17       1   17dz2              1.903203       5.075848

                         18       1   18dx2              4.216650      20.422211
                         18       1   18dxy              4.216650      35.372307
                         18       1   18dxz              4.216650      35.372307
                         18       1   18dy2              4.216650      20.422211
                         18       1   18dyz              4.216650      35.372307
                         18       1   18dz2              4.216650      20.422211

                         19       1   19dx2              9.342218      82.166908
                         19       1   19dxy              9.342218     142.317260
                         19       1   19dxz              9.342218     142.317260
                         19       1   19dy2              9.342218      82.166908
                         19       1   19dyz              9.342218     142.317260
                         19       1   19dz2              9.342218      82.166908

                         20       1   20fx3              0.175000       0.029160
                         20       1   20fx2y             0.175000       0.065204
                         20       1   20fx2z             0.175000       0.065204
                         20       1   20fxy2             0.175000       0.065204
                         20       1   20fxyz             0.175000       0.112937
                         20       1   20fxz2             0.175000       0.065204
                         20       1   20fy3              0.175000       0.029160
                         20       1   20fy2z             0.175000       0.065204
                         20       1   20fyz2             0.175000       0.065204
                         20       1   20fz3              0.175000       0.029160

                         21       1   21fx3              0.387722       0.174633
                         21       1   21fx2y             0.387722       0.390490
                         21       1   21fx2z             0.387722       0.390490
                         21       1   21fxy2             0.387722       0.390490
                         21       1   21fxyz             0.387722       0.676349
                         21       1   21fxz2             0.387722       0.390490
                         21       1   21fy3              0.387722       0.174633
                         21       1   21fy2z             0.387722       0.390490
                         21       1   21fyz2             0.387722       0.390490
                         21       1   21fz3              0.387722       0.174633

                         22       1   22fx3              0.859019       1.045829
                         22       1   22fx2y             0.859019       2.338545
                         22       1   22fx2z             0.859019       2.338545
                         22       1   22fxy2             0.859019       2.338545
                         22       1   22fxyz             0.859019       4.050480
                         22       1   22fxz2             0.859019       2.338545
                         22       1   22fy3              0.859019       1.045829
                         22       1   22fy2z             0.859019       2.338545
                         22       1   22fyz2             0.859019       2.338545
                         22       1   22fz3              0.859019       1.045829

                         23       1   23fx3              1.903203       6.263199
                         23       1   23fx2y             1.903203      14.004938
                         23       1   23fx2z             1.903203      14.004938
                         23       1   23fxy2             1.903203      14.004938
                         23       1   23fxyz             1.903203      24.257264
                         23       1   23fxz2             1.903203      14.004938
                         23       1   23fy3              1.903203       6.263199
                         23       1   23fy2z             1.903203      14.004938
                         23       1   23fyz2             1.903203      14.004938
                         23       1   23fz3              1.903203       6.263199

                         24       1   24fx3              4.216650      37.508661
                         24       1   24fx2y             4.216650      83.871916
                         24       1   24fx2z             4.216650      83.871916
                         24       1   24fxy2             4.216650      83.871916
                         24       1   24fxyz             4.216650     145.270419
                         24       1   24fxz2             4.216650      83.871916
                         24       1   24fy3              4.216650      37.508661
                         24       1   24fy2z             4.216650      83.871916
                         24       1   24fyz2             4.216650      83.871916
                         24       1   24fz3              4.216650      37.508661

                         25       1   25fx3              9.342218     224.629575
                         25       1   25fx2y             9.342218     502.286999
                         25       1   25fx2z             9.342218     502.286999
                         25       1   25fxy2             9.342218     502.286999
                         25       1   25fxyz             9.342218     869.986603
                         25       1   25fxz2             9.342218     502.286999
                         25       1   25fy3              9.342218     224.629575
                         25       1   25fy2z             9.342218     502.286999
                         25       1   25fyz2             9.342218     502.286999
                         25       1   25fz3              9.342218     224.629575

                         26       1   26gx4              0.175000       0.009221
                         26       1   26gx3y             0.175000       0.024397
                         26       1   26gx3z             0.175000       0.024397
                         26       1   26gx2y2            0.175000       0.031497
                         26       1   26gx2yz            0.175000       0.054554
                         26       1   26gx2z2            0.175000       0.031497
                         26       1   26gxy3             0.175000       0.024397
                         26       1   26gxy2z            0.175000       0.054554
                         26       1   26gxyz2            0.175000       0.054554
                         26       1   26gxz3             0.175000       0.024397
                         26       1   26gy4              0.175000       0.009221
                         26       1   26gy3z             0.175000       0.024397
                         26       1   26gy2z2            0.175000       0.031497
                         26       1   26gyz3             0.175000       0.024397
                         26       1   26gz4              0.175000       0.009221

                         27       1   27gx4              9.342218     519.006632
                         27       1   27gx3y             9.342218    1373.162478
                         27       1   27gx3z             9.342218    1373.162478
                         27       1   27gx2y2            9.342218    1772.745136
                         27       1   27gx2yz            9.342218    3070.484644
                         27       1   27gx2z2            9.342218    1772.745136
                         27       1   27gxy3             9.342218    1373.162478
                         27       1   27gxy2z            9.342218    3070.484644
                         27       1   27gxyz2            9.342218    3070.484644
                         27       1   27gxz3             9.342218    1373.162478
                         27       1   27gy4              9.342218     519.006632
                         27       1   27gy3z             9.342218    1373.162478
                         27       1   27gy2z2            9.342218    1772.745136
                         27       1   27gyz3             9.342218    1373.162478
                         27       1   27gz4              9.342218     519.006632

       Atomic covalent radius [Angstrom]:                                  0.770

       Atomic van der Waals radius [Angstrom]:                             1.700

     GTH Potential information for                                       GTH-PBE

       Description:                       Goedecker-Teter-Hutter pseudopotential
                                           Goedecker et al., PRB 54, 1703 (1996)
                                          Hartwigsen et al., PRB 58, 3641 (1998)
                                                      Krack, TCA 114, 145 (2005)

       Gaussian exponent of the core charge distribution:               4.364419
       Electronic configuration (s p d ...):                               2   2

       Parameters of the local part of the GTH pseudopotential:

                          rloc        C1          C2          C3          C4
                        0.338471   -8.803674    1.339211

       Parameters of the non-local part of the GTH pseudopotential:

                   l      r(l)      h(i,j,l)

                   0    0.302576    9.622487
                   1    0.291507

  2. Atomic kind: H                                     Number of atoms:       7

     Orbital Basis Set                                 aug-SZV-MOLOPT-GTH-tier-2

       Number of orbital shell sets:                                           1
       Number of orbital shells:                                               4
       Number of primitive Cartesian functions:                                7
       Number of Cartesian basis functions:                                    6
       Number of spherical basis functions:                                    6
       Norm type:                                                              2

       Normalised Cartesian orbitals:

                        Set   Shell   Orbital            Exponent    Coefficient

                          1       1    2s                0.050000       0.000000
                                                         0.082193      -0.014019
                                                         0.239116      -0.107525
                                                         0.450000       0.000000
                                                         0.791502      -0.258419
                                                         2.680223      -0.177618
                                                        10.068468      -0.133023

                          1       2    3s                0.050000       0.064974
                                                         0.082193       0.029198
                                                         0.239116      -0.007574
                                                         0.450000      -0.090795
                                                         0.791502      -0.025739
                                                         2.680223       0.000002
                                                        10.068468       0.000000

                          1       3    4s                0.050000      -0.067626
                                                         0.082193       0.244167
                                                         0.239116      -0.094768
                                                         0.450000      -0.043967
                                                         0.791502      -0.043572
                                                         2.680223      -0.153771
                                                        10.068468       0.000000

                          1       4    3px               0.050000       0.038628
                                                         0.082193      -0.015554
                                                         0.239116       0.034455
                                                         0.450000       0.013474
                                                         0.791502      -0.005076
                                                         2.680223       0.028739
                                                        10.068468       0.000000
                          1       4    3py               0.050000       0.038628
                                                         0.082193      -0.015554
                                                         0.239116       0.034455
                                                         0.450000       0.013474
                                                         0.791502      -0.005076
                                                         2.680223       0.028739
                                                        10.068468       0.000000
                          1       4    3pz               0.050000       0.038628
                                                         0.082193      -0.015554
                                                         0.239116       0.034455
                                                         0.450000       0.013474
                                                         0.791502      -0.005076
                                                         2.680223       0.028739
                                                        10.068468       0.000000

     RI Auxiliary Basis Set             RI_aug-SZV-MOLOPT-GTH-tier-2_N_RI_050_s_

       Number of orbital shell sets:                                          18
       Number of orbital shells:                                              18
       Number of primitive Cartesian functions:                               18
       Number of Cartesian basis functions:                                   55
       Number of spherical basis functions:                                   50
       Norm type:                                                              2

       Normalised Cartesian orbitals:

                        Set   Shell   Orbital            Exponent    Coefficient

                          1       1    1s                0.125000       0.149828

                          2       1    2s                0.282853       0.276427

                          3       1    3s                0.640045       0.509998

                          4       1    4s                1.448309       0.940927

                          5       1    5s                3.277264       1.735976

                          6       1    6s                7.415865       3.202812

                          7       1    7s               16.780780       5.909071

                          8       1    8px               0.125000       0.105944
                          8       1    8py               0.125000       0.105944
                          8       1    8pz               0.125000       0.105944

                          9       1    9px               0.333035       0.360623
                          9       1    9py               0.333035       0.360623
                          9       1    9pz               0.333035       0.360623

                         10       1   10px               0.887301       1.227520
                         10       1   10py               0.887301       1.227520
                         10       1   10pz               0.887301       1.227520

                         11       1   11px               2.364021       4.178344
                         11       1   11py               2.364021       4.178344
                         11       1   11pz               2.364021       4.178344

                         12       1   12px               6.298422      14.222625
                         12       1   12py               6.298422      14.222625
                         12       1   12pz               6.298422      14.222625

                         13       1   13px              16.780780      48.412251
                         13       1   13py              16.780780      48.412251
                         13       1   13pz              16.780780      48.412251

                         14       1   14dx2              0.125000       0.043252
                         14       1   14dxy              0.125000       0.074914
                         14       1   14dxz              0.125000       0.074914
                         14       1   14dy2              0.125000       0.043252
                         14       1   14dyz              0.125000       0.074914
                         14       1   14dz2              0.125000       0.043252

                         15       1   15dx2              0.425486       0.368943
                         15       1   15dxy              0.425486       0.639028
                         15       1   15dxz              0.425486       0.639028
                         15       1   15dy2              0.425486       0.368943
                         15       1   15dyz              0.425486       0.639028
                         15       1   15dz2              0.425486       0.368943

                         16       1   16dx2              1.448309       3.147142
                         16       1   16dxy              1.448309       5.451010
                         16       1   16dxz              1.448309       5.451010
                         16       1   16dy2              1.448309       3.147142
                         16       1   16dyz              1.448309       5.451010
                         16       1   16dz2              1.448309       3.147142

                         17       1   17dx2              4.929883      26.845626
                         17       1   17dxy              4.929883      46.497989
                         17       1   17dxz              4.929883      46.497989
                         17       1   17dy2              4.929883      26.845626
                         17       1   17dyz              4.929883      46.497989
                         17       1   17dz2              4.929883      26.845626

                         18       1   18dx2             16.780780     228.997491
                         18       1   18dxy             16.780780     396.635290
                         18       1   18dxz             16.780780     396.635290
                         18       1   18dy2             16.780780     228.997491
                         18       1   18dyz             16.780780     396.635290
                         18       1   18dz2             16.780780     228.997491

       Atomic covalent radius [Angstrom]:                                  0.320

       Atomic van der Waals radius [Angstrom]:                             1.090

     GTH Potential information for                                       GTH-PBE

       Description:                       Goedecker-Teter-Hutter pseudopotential
                                           Goedecker et al., PRB 54, 1703 (1996)
                                          Hartwigsen et al., PRB 58, 3641 (1998)
                                                      Krack, TCA 114, 145 (2005)

       Gaussian exponent of the core charge distribution:              12.500000
       Electronic configuration (s p d ...):                                   1

       Parameters of the local part of the GTH pseudopotential:

                          rloc        C1          C2          C3          C4
                        0.200000   -4.178900    0.724463

  3. Atomic kind: N                                     Number of atoms:       1

     Orbital Basis Set                                 aug-SZV-MOLOPT-GTH-tier-2

       Number of orbital shell sets:                                           1
       Number of orbital shells:                                               5
       Number of primitive Cartesian functions:                                6
       Number of Cartesian basis functions:                                   14
       Number of spherical basis functions:                                   13
       Norm type:                                                              2

       Normalised Cartesian orbitals:

                        Set   Shell   Orbital            Exponent    Coefficient

                          1       1    2s                0.070000       0.000000
                                                         0.112012      -0.019197
                                                         0.333802      -0.182244
                                                         0.888575      -0.289383
                                                         2.542637       0.139177
                                                         7.341988       0.360561

                          1       2    3s                0.070000       0.092556
                                                         0.112012      -0.004523
                                                         0.333802       0.017208
                                                         0.888575       0.059493
                                                         2.542637       0.000000
                                                         7.341988       0.000000

                          1       3    3px               0.070000       0.000000
                                                         0.112012      -0.013986
                                                         0.333802      -0.144894
                                                         0.888575      -0.501079
                                                         2.542637      -0.973969
                                                         7.341988      -1.188719
                          1       3    3py               0.070000       0.000000
                                                         0.112012      -0.013986
                                                         0.333802      -0.144894
                                                         0.888575      -0.501079
                                                         2.542637      -0.973969
                                                         7.341988      -1.188719
                          1       3    3pz               0.070000       0.000000
                                                         0.112012      -0.013986
                                                         0.333802      -0.144894
                                                         0.888575      -0.501079
                                                         2.542637      -0.973969
                                                         7.341988      -1.188719

                          1       4    4px               0.070000       0.019777
                                                         0.112012       0.010521
                                                         0.333802       0.223757
                                                         0.888575       0.038703
                                                         2.542637       0.000000
                                                         7.341988       0.000000
                          1       4    4py               0.070000       0.019777
                                                         0.112012       0.010521
                                                         0.333802       0.223757
                                                         0.888575       0.038703
                                                         2.542637       0.000000
                                                         7.341988       0.000000
                          1       4    4pz               0.070000       0.019777
                                                         0.112012       0.010521
                                                         0.333802       0.223757
                                                         0.888575       0.038703
                                                         2.542637       0.000000
                                                         7.341988       0.000000

                          1       5    4dx2              0.070000       0.012523
                                                         0.112012      -0.007680
                                                         0.333802       0.106561
                                                         0.888575       0.393255
                                                         2.542637       0.000000
                                                         7.341988       0.000000
                          1       5    4dxy              0.070000       0.021691
                                                         0.112012      -0.013303
                                                         0.333802       0.184569
                                                         0.888575       0.681137
                                                         2.542637       0.000000
                                                         7.341988       0.000000
                          1       5    4dxz              0.070000       0.021691
                                                         0.112012      -0.013303
                                                         0.333802       0.184569
                                                         0.888575       0.681137
                                                         2.542637       0.000000
                                                         7.341988       0.000000
                          1       5    4dy2              0.070000       0.012523
                                                         0.112012      -0.007680
                                                         0.333802       0.106561
                                                         0.888575       0.393255
                                                         2.542637       0.000000
                                                         7.341988       0.000000
                          1       5    4dyz              0.070000       0.021691
                                                         0.112012      -0.013303
                                                         0.333802       0.184569
                                                         0.888575       0.681137
                                                         2.542637       0.000000
                                                         7.341988       0.000000
                          1       5    4dz2              0.070000       0.012523
                                                         0.112012      -0.007680
                                                         0.333802       0.106561
                                                         0.888575       0.393255
                                                         2.542637       0.000000
                                                         7.341988       0.000000

     RI Auxiliary Basis Set             RI_aug-SZV-MOLOPT-GTH-tier-2_N_RI_097_s_

       Number of orbital shell sets:                                          25
       Number of orbital shells:                                              25
       Number of primitive Cartesian functions:                               25
       Number of Cartesian basis functions:                                  121
       Number of spherical basis functions:                                   97
       Norm type:                                                              2

       Normalised Cartesian orbitals:

                        Set   Shell   Orbital            Exponent    Coefficient

                          1       1    1s                0.175000       0.192836

                          2       1    2s                0.355202       0.327919

                          3       1    3s                0.720963       0.557628

                          4       1    4s                1.463357       0.948250

                          5       1    5s                2.970213       1.612504

                          6       1    6s                6.028719       2.742072

                          7       1    7s               12.236647       4.662909

                          8       1    8px               0.175000       0.161338
                          8       1    8py               0.175000       0.161338
                          8       1    8pz               0.175000       0.161338

                          9       1    9px               0.409226       0.466545
                          9       1    9py               0.409226       0.466545
                          9       1    9pz               0.409226       0.466545

                         10       1   10px               0.956947       1.349118
                         10       1   10py               0.956947       1.349118
                         10       1   10pz               0.956947       1.349118

                         11       1   11px               2.237756       3.901269
                         11       1   11py               2.237756       3.901269
                         11       1   11pz               2.237756       3.901269

                         12       1   12px               5.232841      11.281375
                         12       1   12py               5.232841      11.281375
                         12       1   12pz               5.232841      11.281375

                         13       1   13px              12.236647      32.622566
                         13       1   13py              12.236647      32.622566
                         13       1   13pz              12.236647      32.622566

                         14       1   14dx2              0.175000       0.077934
                         14       1   14dxy              0.175000       0.134985
                         14       1   14dxz              0.175000       0.134985
                         14       1   14dy2              0.175000       0.077934
                         14       1   14dyz              0.175000       0.134985
                         14       1   14dz2              0.175000       0.077934

                         15       1   15dx2              0.409226       0.344623
                         15       1   15dxy              0.409226       0.596905
                         15       1   15dxz              0.409226       0.596905
                         15       1   15dy2              0.409226       0.344623
                         15       1   15dyz              0.409226       0.596905
                         15       1   15dz2              0.409226       0.344623

                         16       1   16dx2              0.956947       1.523923
                         16       1   16dxy              0.956947       2.639513
                         16       1   16dxz              0.956947       2.639513
                         16       1   16dy2              0.956947       1.523923
                         16       1   16dyz              0.956947       2.639513
                         16       1   16dz2              0.956947       1.523923

                         17       1   17dx2              2.237756       6.738786
                         17       1   17dxy              2.237756      11.671919
                         17       1   17dxz              2.237756      11.671919
                         17       1   17dy2              2.237756       6.738786
                         17       1   17dyz              2.237756      11.671919
                         17       1   17dz2              2.237756       6.738786

                         18       1   18dx2              5.232841      29.798895
                         18       1   18dxy              5.232841      51.613201
                         18       1   18dxz              5.232841      51.613201
                         18       1   18dy2              5.232841      29.798895
                         18       1   18dyz              5.232841      51.613201
                         18       1   18dz2              5.232841      29.798895

                         19       1   19dx2             12.236647     131.770653
                         19       1   19dxy             12.236647     228.233465
                         19       1   19dxz             12.236647     228.233465
                         19       1   19dy2             12.236647     131.770653
                         19       1   19dyz             12.236647     228.233465
                         19       1   19dz2             12.236647     131.770653

                         20       1   20fx3              0.175000       0.029160
                         20       1   20fx2y             0.175000       0.065204
                         20       1   20fx2z             0.175000       0.065204
                         20       1   20fxy2             0.175000       0.065204
                         20       1   20fxyz             0.175000       0.112937
                         20       1   20fxz2             0.175000       0.065204
                         20       1   20fy3              0.175000       0.029160
                         20       1   20fy2z             0.175000       0.065204
                         20       1   20fyz2             0.175000       0.065204
                         20       1   20fz3              0.175000       0.029160

                         21       1   21fx3              0.409226       0.197184
                         21       1   21fx2y             0.409226       0.440916
                         21       1   21fx2z             0.409226       0.440916
                         21       1   21fxy2             0.409226       0.440916
                         21       1   21fxyz             0.409226       0.763689
                         21       1   21fxz2             0.409226       0.440916
                         21       1   21fy3              0.409226       0.197184
                         21       1   21fy2z             0.409226       0.440916
                         21       1   21fyz2             0.409226       0.440916
                         21       1   21fz3              0.409226       0.197184

                         22       1   22fx3              0.956947       1.333374
                         22       1   22fx2y             0.956947       2.981515
                         22       1   22fx2z             0.956947       2.981515
                         22       1   22fxy2             0.956947       2.981515
                         22       1   22fxyz             0.956947       5.164135
                         22       1   22fxz2             0.956947       2.981515
                         22       1   22fy3              0.956947       1.333374
                         22       1   22fy2z             0.956947       2.981515
                         22       1   22fyz2             0.956947       2.981515
                         22       1   22fz3              0.956947       1.333374

                         23       1   23fx3              2.237756       9.016396
                         23       1   23fx2y             2.237756      20.161274
                         23       1   23fx2z             2.237756      20.161274
                         23       1   23fxy2             2.237756      20.161274
                         23       1   23fxyz             2.237756      34.920350
                         23       1   23fxz2             2.237756      20.161274
                         23       1   23fy3              2.237756       9.016396
                         23       1   23fy2z             2.237756      20.161274
                         23       1   23fyz2             2.237756      20.161274
                         23       1   23fz3              2.237756       9.016396

                         24       1   24fx3              5.232841      60.969682
                         24       1   24fx2y             5.232841     136.332355
                         24       1   24fx2z             5.232841     136.332355
                         24       1   24fxy2             5.232841     136.332355
                         24       1   24fxyz             5.232841     236.134565
                         24       1   24fxz2             5.232841     136.332355
                         24       1   24fy3              5.232841      60.969682
                         24       1   24fy2z             5.232841     136.332355
                         24       1   24fyz2             5.232841     136.332355
                         24       1   24fz3              5.232841      60.969682

                         25       1   25fx3             12.236647     412.282501
                         25       1   25fx2y            12.236647     921.891697
                         25       1   25fx2z            12.236647     921.891697
                         25       1   25fxy2            12.236647     921.891697
                         25       1   25fxyz            12.236647    1596.763259
                         25       1   25fxz2            12.236647     921.891697
                         25       1   25fy3             12.236647     412.282501
                         25       1   25fy2z            12.236647     921.891697
                         25       1   25fyz2            12.236647     921.891697
                         25       1   25fz3             12.236647     412.282501

       Atomic covalent radius [Angstrom]:                                  0.750

       Atomic van der Waals radius [Angstrom]:                             1.550

     GTH Potential information for                                       GTH-PBE

       Description:                       Goedecker-Teter-Hutter pseudopotential
                                           Goedecker et al., PRB 54, 1703 (1996)
                                          Hartwigsen et al., PRB 58, 3641 (1998)
                                                      Krack, TCA 114, 145 (2005)

       Gaussian exponent of the core charge distribution:               6.208322
       Electronic configuration (s p d ...):                               2   3

       Parameters of the local part of the GTH pseudopotential:

                          rloc        C1          C2          C3          C4
                        0.283791  -12.415226    1.868096

       Parameters of the non-local part of the GTH pseudopotential:

                   l      r(l)      h(i,j,l)

                   0    0.255405   13.630263
                   1    0.245495


 MOLECULE KIND INFORMATION


 All atoms are their own molecule, skipping detailed information


 TOTAL NUMBERS AND MAXIMUM NUMBERS

  Total number of            - Atomic kinds:                                   3
                             - Atoms:                                         14
                             - Shell sets:                                    14
                             - Shells:                                        63
                             - Primitive Cartesian functions:                 91
                             - Cartesian basis functions:                    140
                             - Spherical basis functions:                    133

  Maximum angular momentum of- Orbital basis functions:                        2
                             - Local part of the GTH pseudopotential:          2
                             - Non-local part of the GTH pseudopotential:      0


 MODULE QUICKSTEP: ATOMIC COORDINATES IN ANGSTROM

   Atom Kind Element         X             Y             Z       Z(eff)     Mass
      1    1 C     6      9.914036      9.683114     10.826716   4.0000  12.0107
      2    1 C     6     11.211019      9.177754     10.826716   4.0000  12.0107
      3    1 C     6     12.297062     10.048280     10.826716   4.0000  12.0107
      4    1 C     6     12.086321     11.424166     10.826716   4.0000  12.0107
      5    1 C     6     10.789338     11.929426     10.826716   4.0000  12.0107
      6    1 C     6      9.703196     11.058901     10.826716   4.0000  12.0107
      7    2 H     1      9.067475      9.005188     10.826716   1.0000   1.0079
      8    2 H     1     11.375159      8.105697     10.826716   1.0000   1.0079
      9    2 H     1     13.307653      9.654637     10.826716   1.0000   1.0079
     10    2 H     1     12.932562     12.102490     10.826716   1.0000   1.0079
     11    2 H     1      8.692347     11.451882     10.826716   1.0000   1.0079
     12    3 N     7     10.571678     13.343796     10.826716   5.0000  14.0067
     13    2 H     1     11.323746     13.894303     11.173284   1.0000   1.0079
     14    2 H     1      9.673015     13.623810     11.160696   1.0000   1.0079



 SCF PARAMETERS         Density guess:                                    ATOMIC
                        --------------------------------------------------------
                        max_scf:                                             200
                        max_scf_history:                                       0
                        max_diis:                                              4
                        --------------------------------------------------------
                        eps_scf:                                        1.00E-07
                        eps_scf_history:                                0.00E+00
                        eps_diis:                                       1.00E-01
                        eps_eigval:                                     1.00E-05
                        --------------------------------------------------------
                        level_shift [a.u.]:                             0.000000
                        SCF update method:                                MIXING
                        added MOs                                       115    0
                        --------------------------------------------------------
                        Mixing method:                            BROYDEN_MIXING
                                                charge density mixing in g-space
                        --------------------------------------------------------
                        Outer loop SCF in use 
                        No variables optimised in outer loop
                        eps_scf                                         1.00E-07
                        max_scf                                               20
                        No outer loop optimization
                        step_size                                       5.00E-01

 PW_GRID| Information for grid number                                          2
 PW_GRID| Grid distributed over                                    32 processors
 PW_GRID| Real space group dimensions                                    32    1
 PW_GRID| the grid is blocked:                                                NO
 PW_GRID| Cutoff [a.u.]                                                    300.0
 PW_GRID| spherical cutoff:                                                   NO
 PW_GRID|   Bounds   1           -180     179                Points:         360
 PW_GRID|   Bounds   2           -180     179                Points:         360
 PW_GRID|   Bounds   3           -180     179                Points:         360
 PW_GRID| Volume element (a.u.^3)  0.1540E-02     Volume (a.u.^3)     71856.2666
 PW_GRID| Grid span                                                    FULLSPACE
 PW_GRID|   Distribution                         Average         Max         Min
 PW_GRID|   G-Vectors                          1458000.0     1458000     1458000
 PW_GRID|   G-Rays                                4050.0        4050        4050
 PW_GRID|   Real Space Points                  1458000.0     1555200     1425600

 PW_GRID| Information for grid number                                          3
 PW_GRID| Number of the reference grid                                         2
 PW_GRID| Grid distributed over                                    32 processors
 PW_GRID| Real space group dimensions                                    32    1
 PW_GRID| the grid is blocked:                                                NO
 PW_GRID| Cutoff [a.u.]                                                    100.0
 PW_GRID| spherical cutoff:                                                   NO
 PW_GRID|   Bounds   1            -96      95                Points:         192
 PW_GRID|   Bounds   2            -96      95                Points:         192
 PW_GRID|   Bounds   3            -96      95                Points:         192
 PW_GRID| Volume element (a.u.^3)  0.1015E-01     Volume (a.u.^3)     71856.2666
 PW_GRID| Grid span                                                    FULLSPACE
 PW_GRID|   Distribution                         Average         Max         Min
 PW_GRID|   G-Vectors                           221184.0      221376      220992
 PW_GRID|   G-Rays                                1152.0        1153        1151
 PW_GRID|   Real Space Points                   221184.0      221184      221184

 PW_GRID| Information for grid number                                          4
 PW_GRID| Number of the reference grid                                         2
 PW_GRID| Grid distributed over                                    32 processors
 PW_GRID| Real space group dimensions                                    32    1
 PW_GRID| the grid is blocked:                                                NO
 PW_GRID| Cutoff [a.u.]                                                     33.3
 PW_GRID| spherical cutoff:                                                   NO
 PW_GRID|   Bounds   1            -60      59                Points:         120
 PW_GRID|   Bounds   2            -60      59                Points:         120
 PW_GRID|   Bounds   3            -60      59                Points:         120
 PW_GRID| Volume element (a.u.^3)  0.4158E-01     Volume (a.u.^3)     71856.2666
 PW_GRID| Grid span                                                    FULLSPACE
 PW_GRID|   Distribution                         Average         Max         Min
 PW_GRID|   G-Vectors                            54000.0       54120       53880
 PW_GRID|   G-Rays                                 450.0         451         449
 PW_GRID|   Real Space Points                    54000.0       57600       43200

 PW_GRID| Information for grid number                                          5
 PW_GRID| Number of the reference grid                                         2
 PW_GRID| Grid distributed over                                    32 processors
 PW_GRID| Real space group dimensions                                    32    1
 PW_GRID| the grid is blocked:                                                NO
 PW_GRID| Cutoff [a.u.]                                                     11.1
 PW_GRID| spherical cutoff:                                                   NO
 PW_GRID|   Bounds   1            -32      31                Points:          64
 PW_GRID|   Bounds   2            -32      31                Points:          64
 PW_GRID|   Bounds   3            -32      31                Points:          64
 PW_GRID| Volume element (a.u.^3)  0.2741         Volume (a.u.^3)     71856.2666
 PW_GRID| Grid span                                                    FULLSPACE
 PW_GRID|   Distribution                         Average         Max         Min
 PW_GRID|   G-Vectors                             8192.0        8256        8128
 PW_GRID|   G-Rays                                 128.0         129         127
 PW_GRID|   Real Space Points                     8192.0        8192        8192

 PW_GRID| Information for grid number                                          6
 PW_GRID| Number of the reference grid                                         2
 PW_GRID| Grid distributed over                                    32 processors
 PW_GRID| Real space group dimensions                                    32    1
 PW_GRID| the grid is blocked:                                                NO
 PW_GRID| Cutoff [a.u.]                                                      3.7
 PW_GRID| spherical cutoff:                                                   NO
 PW_GRID|   Bounds   1            -20      19                Points:          40
 PW_GRID|   Bounds   2            -20      19                Points:          40
 PW_GRID|   Bounds   3            -20      19                Points:          40
 PW_GRID| Volume element (a.u.^3)   1.123         Volume (a.u.^3)     71856.2666
 PW_GRID| Grid span                                                    FULLSPACE
 PW_GRID|   Distribution                         Average         Max         Min
 PW_GRID|   G-Vectors                             2000.0        2040        1960
 PW_GRID|   G-Rays                                  50.0          51          49
 PW_GRID|   Real Space Points                     2000.0        3200        1600

 POISSON| Solver                                             MULTIPOLE (Bloechl)
 POISSON| Periodicity                                                       NONE

 RS_GRID| Information for grid number                                          2
 RS_GRID|   Bounds   1           -180     179                Points:         360
 RS_GRID|   Bounds   2           -180     179                Points:         360
 RS_GRID|   Bounds   3           -180     179                Points:         360
 RS_GRID| Real space distribution over                                  2 groups
 RS_GRID| Real space distribution along direction                              1
 RS_GRID| Border size                                                         29
 RS_GRID| Real space distribution over                                  4 groups
 RS_GRID| Real space distribution along direction                              2
 RS_GRID| Border size                                                         29
 RS_GRID| Real space distribution over                                  4 groups
 RS_GRID| Real space distribution along direction                              3
 RS_GRID| Border size                                                         29
 RS_GRID|   Distribution                         Average         Max         Min
 RS_GRID|   Planes                                 238.0         238         238
 RS_GRID|   Distribution                         Average         Max         Min
 RS_GRID|   Planes                                 148.0         148         148
 RS_GRID|   Distribution                         Average         Max         Min
 RS_GRID|   Planes                                 148.0         148         148

 RS_GRID| Information for grid number                                          3
 RS_GRID|   Bounds   1            -96      95                Points:         192
 RS_GRID|   Bounds   2            -96      95                Points:         192
 RS_GRID|   Bounds   3            -96      95                Points:         192
 RS_GRID| Real space distribution over                                  2 groups
 RS_GRID| Real space distribution along direction                              1
 RS_GRID| Border size                                                         28
 RS_GRID| Real space distribution over                                  4 groups
 RS_GRID| Real space distribution along direction                              2
 RS_GRID| Border size                                                         28
 RS_GRID| Real space distribution over                                  4 groups
 RS_GRID| Real space distribution along direction                              3
 RS_GRID| Border size                                                         28
 RS_GRID|   Distribution                         Average         Max         Min
 RS_GRID|   Planes                                 152.0         152         152
 RS_GRID|   Distribution                         Average         Max         Min
 RS_GRID|   Planes                                 104.0         104         104
 RS_GRID|   Distribution                         Average         Max         Min
 RS_GRID|   Planes                                 104.0         104         104

 RS_GRID| Information for grid number                                          4
 RS_GRID|   Bounds   1            -60      59                Points:         120
 RS_GRID|   Bounds   2            -60      59                Points:         120
 RS_GRID|   Bounds   3            -60      59                Points:         120
 RS_GRID| Real space fully replicated
 RS_GRID| Group size                                                           1

 RS_GRID| Information for grid number                                          5
 RS_GRID|   Bounds   1            -32      31                Points:          64
 RS_GRID|   Bounds   2            -32      31                Points:          64
 RS_GRID|   Bounds   3            -32      31                Points:          64
 RS_GRID| Real space fully replicated
 RS_GRID| Group size                                                           1

 RS_GRID| Information for grid number                                          6
 RS_GRID|   Bounds   1            -20      19                Points:          40
 RS_GRID|   Bounds   2            -20      19                Points:          40
 RS_GRID|   Bounds   3            -20      19                Points:          40
 RS_GRID| Real space fully replicated
 RS_GRID| Group size                                                           1

 Extrapolation method: initial_guess

 Atomic guess: The first density matrix is obtained in terms of atomic orbitals
               and electronic configurations assigned to each atomic kind

 Guess for atomic kind: C

 Electronic structure
    Total number of core electrons                                          2.00
    Total number of valence electrons                                       4.00
    Total number of electrons                                               6.00
    Multiplicity                                                   not specified
    S   [  2.00] 2.00
    P      2.00


 *******************************************************************************
                  Iteration          Convergence                     Energy [au]
 *******************************************************************************
                          1        0.988758E-01                  -5.245867139855
                          2        0.702567E-01                  -5.249950338066
                          3        0.324324E-03                  -5.254466662830
                          4        0.763974E-05                  -5.254466744799
                          5        0.410505E-05                  -5.254466744830
                          6        0.282419E-05                  -5.254466744837
                          7        0.925358E-08                  -5.254466744843

 Energy components [Hartree]           Total Energy ::           -5.254466744843
                                        Band Energy ::           -1.295684616135
                                     Kinetic Energy ::            3.559613956185
                                   Potential Energy ::           -8.814080701028
                                      Virial (-V/T) ::            2.476133875617
                                        Core Energy ::           -8.257747528207
                                          XC Energy ::           -1.378022926287
                                     Coulomb Energy ::            4.381303709651
                       Total Pseudopotential Energy ::          -11.853169988044
                       Local Pseudopotential Energy ::          -12.322682182621
                    Nonlocal Pseudopotential Energy ::            0.469512194577
                                        Confinement ::            0.358085036523

 Orbital energies  State     L     Occupation   Energy[a.u.]          Energy[eV]

                       1     0          2.000      -0.472377          -12.854028

                       1     1          2.000      -0.175465           -4.774658


 Total Electron Density at R=0:                                         0.011027

 Guess for atomic kind: H

 Electronic structure
    Total number of core electrons                                          0.00
    Total number of valence electrons                                       1.00
    Total number of electrons                                               1.00
    Multiplicity                                                   not specified
    S      1.00


 *******************************************************************************
                  Iteration          Convergence                     Energy [au]
 *******************************************************************************
                          1        0.309524E-02                  -0.417828613492
                          2        0.397171E-03                  -0.417845979898
                          3        0.350877E-04                  -0.417846294368
                          4        0.929318E-09                  -0.417846297422

 Energy components [Hartree]           Total Energy ::           -0.417846297422
                                        Band Energy ::           -0.196148543103
                                     Kinetic Energy ::            0.486531132430
                                   Potential Energy ::           -0.904377429852
                                      Virial (-V/T) ::            1.858827461532
                                        Core Energy ::           -0.470733162945
                                          XC Energy ::           -0.242450390891
                                     Coulomb Energy ::            0.295337256414
                       Total Pseudopotential Energy ::           -0.978038883002
                       Local Pseudopotential Energy ::           -0.978038883002
                    Nonlocal Pseudopotential Energy ::            0.000000000000
                                        Confinement ::            0.207745876267

 Orbital energies  State     L     Occupation   Energy[a.u.]          Energy[eV]

                       1     0          1.000      -0.196149           -5.337473


 Total Electron Density at R=0:                                         0.282919

 Guess for atomic kind: N

 Electronic structure
    Total number of core electrons                                          2.00
    Total number of valence electrons                                       5.00
    Total number of electrons                                               7.00
    Multiplicity                                                   not specified
    S   [  2.00] 2.00
    P      3.00


 *******************************************************************************
                  Iteration          Convergence                     Energy [au]
 *******************************************************************************
                          1        0.279825                      -9.519702036083
                          2        0.203084                      -9.530037546193
                          3        0.554394E-03                  -9.542302744773
                          4        0.528449E-04                  -9.542302841836
                          5        0.297177E-04                  -9.542302842361
                          6        0.208869E-04                  -9.542302842484
                          7        0.550195E-07                  -9.542302842603

 Energy components [Hartree]           Total Energy ::           -9.542302842603
                                        Band Energy ::           -2.003604362155
                                     Kinetic Energy ::            6.761024631072
                                   Potential Energy ::          -16.303327473676
                                      Virial (-V/T) ::            2.411369335758
                                        Core Energy ::          -15.577117993880
                                          XC Energy ::           -2.176535633023
                                     Coulomb Energy ::            8.211350784299
                       Total Pseudopotential Energy ::          -22.374806510451
                       Local Pseudopotential Energy ::          -23.291549762728
                    Nonlocal Pseudopotential Energy ::            0.916743252277
                                        Confinement ::            0.366638854993

 Orbital energies  State     L     Occupation   Energy[a.u.]          Energy[eV]

                       1     0          2.000      -0.653124          -17.772414

                       1     1          3.000      -0.232452           -6.325340


 Total Electron Density at R=0:                                         0.000012
 Re-scaling the density matrix to get the right number of electrons
                  # Electrons              Trace(P)               Scaling factor
                           36                36.000                        1.000

 Number of electrons:                                                         36
 Number of occupied orbitals:                                                 18
 Number of molecular orbitals:                                               133

 Number of orbital functions:                                                133
 Number of independent orbital functions:                                    133


 SCF WAVEFUNCTION OPTIMIZATION

  Step     Update method      Time    Convergence         Total energy    Change
  ------------------------------------------------------------------------------
     1 NoMix/Diag. 0.20E+00    1.3     0.97412158       -47.4401563612 -4.74E+01
     2 Broy./Diag. 0.20E+00    1.7     0.14739810       -41.7232143657  5.72E+00
     3 Broy./Diag. 0.20E+00    1.7     0.22538338       -45.2779612095 -3.55E+00
     4 Broy./Diag. 0.20E+00    1.7     0.04283958       -47.6769851842 -2.40E+00
     5 Broy./Diag. 0.20E+00    1.7     0.01547878       -48.0815888529 -4.05E-01
     6 Broy./Diag. 0.20E+00    1.8     0.01165146       -48.1556868255 -7.41E-02
     7 Broy./Diag. 0.20E+00    1.8     0.00280265       -48.1343235822  2.14E-02
     8 Broy./Diag. 0.20E+00    1.8     0.00588675       -48.1192293761  1.51E-02
     9 Broy./Diag. 0.20E+00    1.9     0.00222238       -48.1648146944 -4.56E-02
    10 Broy./Diag. 0.20E+00    1.9     0.00167897       -48.1853797779 -2.06E-02
    11 Broy./Diag. 0.20E+00    1.9     0.00118452       -48.1990695400 -1.37E-02
    12 Broy./Diag. 0.20E+00    1.9     0.00061876       -48.2039748375 -4.91E-03
    13 Broy./Diag. 0.20E+00    1.9     0.00152996       -48.2002415493  3.73E-03
    14 Broy./Diag. 0.20E+00    1.9     0.00053412       -48.1975293003  2.71E-03
    15 Broy./Diag. 0.20E+00    1.9     0.00065638       -48.1966105720  9.19E-04
    16 Broy./Diag. 0.20E+00    1.9     0.00043112       -48.1974318312 -8.21E-04
    17 Broy./Diag. 0.20E+00    1.9     0.00012254       -48.1973040977  1.28E-04
    18 Broy./Diag. 0.20E+00    1.9     0.00021054       -48.1978915183 -5.87E-04
    19 Broy./Diag. 0.20E+00    1.9     0.00007650       -48.1987600111 -8.68E-04
    20 Broy./Diag. 0.20E+00    1.9     0.00008623       -48.1986250329  1.35E-04
    21 Broy./Diag. 0.20E+00    1.8     0.00013064       -48.1982402165  3.85E-04
    22 Broy./Diag. 0.20E+00    1.9     0.00007204       -48.1984938467 -2.54E-04
    23 Broy./Diag. 0.20E+00    1.9     0.00007308       -48.1982121690  2.82E-04
    24 Broy./Diag. 0.20E+00    1.9     0.00009556       -48.1981549321  5.72E-05
    25 Broy./Diag. 0.20E+00    1.9     0.00003309       -48.1982280344 -7.31E-05
    26 Broy./Diag. 0.20E+00    1.9     0.00001629       -48.1984154766 -1.87E-04
    27 Broy./Diag. 0.20E+00    1.9     0.00001047       -48.1984495926 -3.41E-05
    28 Broy./Diag. 0.20E+00    1.9     0.00001077       -48.1983107868  1.39E-04
    29 Broy./Diag. 0.20E+00    1.9     0.00000692       -48.1982289645  8.18E-05
    30 Broy./Diag. 0.20E+00    1.9     0.00000259       -48.1982424521 -1.35E-05
    31 Broy./Diag. 0.20E+00    1.9     0.00000504       -48.1982882751 -4.58E-05
    32 Broy./Diag. 0.20E+00    1.9     0.00000209       -48.1983085888 -2.03E-05
    33 Broy./Diag. 0.20E+00    1.9     0.00000280       -48.1982964754  1.21E-05
    34 Broy./Diag. 0.20E+00    1.9     0.00000296       -48.1982868127  9.66E-06
    35 Broy./Diag. 0.20E+00    1.9     0.00000159       -48.1982866143  1.98E-07
    36 Broy./Diag. 0.20E+00    1.9     0.00000047       -48.1982921702 -5.56E-06
    37 Broy./Diag. 0.20E+00    1.9     0.00000052       -48.1982938669 -1.70E-06
    38 Broy./Diag. 0.20E+00    1.9     0.00000027       -48.1982930083  8.59E-07
    39 Broy./Diag. 0.20E+00    1.9     0.00000014       -48.1982923861  6.22E-07
    40 Broy./Diag. 0.20E+00    1.9     0.00000018       -48.1982931435 -7.57E-07
    41 Broy./Diag. 0.20E+00    1.9     0.00000008       -48.1982942190 -1.08E-06

  *** SCF run converged in    41 steps ***


  Electronic density on regular grids:        -36.0000000000        0.0000000000
  Core density on regular grids:               36.0000000000       -0.0000000000
  Total charge density on r-space grids:       -0.0000000000
  Total charge density g-space grids:          -0.0000000000

  Overlap energy of the core charge distribution:               0.00000355397473
  Self energy of the core charge distribution:               -114.73398411242242
  Core Hamiltonian energy:                                     36.00505714025504
  Hartree energy:                                              46.02066831083991
  Exchange-correlation energy:                                -15.49003911162699

  Total energy:                                               -48.19829421897972

  outer SCF iter =    1 RMS gradient =   0.83E-07 energy =        -48.1982942190
  outer SCF loop converged in   1 iterations or   41 steps


 !-----------------------------------------------------------------------------!
                     Mulliken Population Analysis

 #  Atom  Element  Kind  Atomic population                           Net charge
       1     C        1          4.245729                             -0.245729
       2     C        1          4.256771                             -0.256771
       3     C        1          4.245564                             -0.245564
       4     C        1          4.168278                             -0.168278
       5     C        1          4.062962                             -0.062962
       6     C        1          4.168120                             -0.168120
       7     H        2          0.761841                              0.238159
       8     H        2          0.766045                              0.233955
       9     H        2          0.761751                              0.238249
      10     H        2          0.769749                              0.230251
      11     H        2          0.769961                              0.230039
      12     N        3          5.340230                             -0.340230
      13     H        2          0.843520                              0.156480
      14     H        2          0.839479                              0.160521
 # Total charge                             36.000000                 -0.000000

 !-----------------------------------------------------------------------------!

 !-----------------------------------------------------------------------------!
                           Hirshfeld Charges

  #Atom  Element  Kind  Ref Charge     Population                    Net charge
      1       C      1       4.000          4.446                        -0.446
      2       C      1       4.000          4.475                        -0.475
      3       C      1       4.000          4.446                        -0.446
      4       C      1       4.000          4.477                        -0.477
      5       C      1       4.000          3.891                         0.109
      6       C      1       4.000          4.477                        -0.477
      7       H      2       1.000          0.550                         0.450
      8       H      2       1.000          0.551                         0.449
      9       H      2       1.000          0.550                         0.450
     10       H      2       1.000          0.551                         0.449
     11       H      2       1.000          0.551                         0.449
     12       N      3       5.000          6.040                        -1.040
     13       H      2       1.000          0.485                         0.515
     14       H      2       1.000          0.485                         0.515

  Total Charge                                                            0.026
 !-----------------------------------------------------------------------------!
  
 -------------------------------------------------------------------------------
 -                                                                             -
 -                          BANDSTRUCTURE CALCULATION                          -
 -                                                                             -
 -------------------------------------------------------------------------------
  
 Number of occupied molecular orbitals (MOs) = Number of occupied bands       18
 Number of unoccupied (= virtual) MOs = Number of unoccupied bands           115
 Number of Gaussian basis functions for MOs                                  133
  
 -------------------------------------------------------------------------------
 -                                                                             -
 -                                GW CALCULATION                               -
 -                                                                             -
 -------------------------------------------------------------------------------
  
 Input: Number of time/freq. points                                           30
 Input: ω_max for fitting Σ(iω) (eV)                                        10.0
 Input: Filter threshold for sparse tensor operations                    1.0E-07
 Input: Apply Hedin shift                                                      F
 Detected: Available memory per MPI process                               7.1 GB
 
 Input: RI-RS Tikhonov regularization                                   1.00E-08
 Input: AO grid hard cutoff radius                                        8.00 Å
 Input: MPI ranks per atom in Z_lP solve                                      -1
 Input: Keep sparsity in χ/G/W panels                                          T
 Input: GW flavour                                                          G0W0
 
 Input: RI-RS grid optimization activated                                      T
 Input: RS points per AO function                                            7.0
 Input: Cutoff radius for atomic clusters                                  3.0 Å
 Input: Maximum grid optimization iterations                                 300
 
 Input: AUTO_RI basis optimization activated:                                  T
 Input: AUTO_RI number of RI functions per AO function:                      4.0
 Input: AUTO_RI frontier orbital window:                                  5.0 eV
 Input: AUTO_RI neighbor radius:                                           3.0 Å
 
 Cutoff radius for the truncated Coulomb operator in RI metric:            6.0 Å
 Regularization parameter of RI                                          0.0E+00
 Regularization parameter of minimax grids                               1.0E-06
 
 AUTO_RI| Number of automatic RI functions for χ, ε, W:                      532
 AUTO_RI| Total RI basis optimization time:                                1.2 s
 
 SCF direct band gap (eV)                                                   3.92
 Max. SCF eigval diff. (eV)                                               233.75
 E-Range for minimax grid                                                  59.70
 Number of Padé parameters for analytic continuation:                         16
 
 RI-RS basis radii (Å):
     Kind  Elem     r_AO (Å)     r_RI (Å)
        1    C         8.0299        5.0785
        2    H         9.5011        6.0090
        3    N         8.0299        5.0785
 
 Started RI-RS grid optimization
 RI-RS grid initial normalized error                          6.674197371516E-04
 RI-RS grid optimization completed, execution time:                      164.4 s
 Normalized 3C error:                                                    1.3E-07
 Maximum absolute 3C error:                                              3.4E-03
 Optimized points outside molecular Voronoi cells:                           388 / 931
 Total grid points used for RI-RS:                                           931
 
 RI-RS grid row-blocks of ϕ_μ(r_l)                                            35
 RI-RS grid points per block (max)                                            32
 
 Percentage of non-zero matrix elements in ϕ_μ(r_l)                     100.00 %
 
 RI-RS memory estimate per MPI process:
   Available memory per process (system)                                 7.16 GB
   Required for Z_lP (dense upper bound; actual is sparser)              0.00 GB
   Required for χ, W, Σ panels (peak per panel step)                     0.00 GB
   Required for Z_lP solve peak (D_local+ϕ, worst-case atom)             0.01 GB
   Worst-case local-grid number of grid points:                              931
   Worst-case memory D_local:                                            0.01 GB
 
 Started computing Z_lP
 Computed Z_lP (MPI rank 0) for atom          1 /  1,    Execution time    0.1 s
 Computed Z_lP (all MPI ranks) for all atoms,            Execution time    0.2 s

 Memory per MPI process after computing Z_lP:
 Available memory per MPI process                                7.2 GB
 Used memory per MPI process                                     1.3 GB
 Number of batches for χ, Σ matrices                                           1
 
 Percentage of non-zero matrix elements in Z_lP                         100.00 %
 Percentage of non-zero matrix elements in G_ll', χ_ll', W_ll'          100.00 %
 Percentage of non-zero matrix elements in χ_PQ for time point 1        100.00 %
 
 Computed χ(iτ,k=0) for time point            1 / 30,    Execution time    0.0 s
 Computed χ(iτ,k=0) for time point            2 / 30,    Execution time    0.0 s
 Computed χ(iτ,k=0) for time point            3 / 30,    Execution time    0.0 s
 Computed χ(iτ,k=0) for time point            4 / 30,    Execution time    0.0 s
 Computed χ(iτ,k=0) for time point            5 / 30,    Execution time    0.0 s
 Computed χ(iτ,k=0) for time point            6 / 30,    Execution time    0.0 s
 Computed χ(iτ,k=0) for time point            7 / 30,    Execution time    0.0 s
 Computed χ(iτ,k=0) for time point            8 / 30,    Execution time    0.0 s
 Computed χ(iτ,k=0) for time point            9 / 30,    Execution time    0.0 s
 Computed χ(iτ,k=0) for time point           10 / 30,    Execution time    0.0 s
 Computed χ(iτ,k=0) for time point           11 / 30,    Execution time    0.0 s
 Computed χ(iτ,k=0) for time point           12 / 30,    Execution time    0.0 s
 Computed χ(iτ,k=0) for time point           13 / 30,    Execution time    0.0 s
 Computed χ(iτ,k=0) for time point           14 / 30,    Execution time    0.0 s
 Computed χ(iτ,k=0) for time point           15 / 30,    Execution time    0.0 s
 Computed χ(iτ,k=0) for time point           16 / 30,    Execution time    0.0 s
 Computed χ(iτ,k=0) for time point           17 / 30,    Execution time    0.0 s
 Computed χ(iτ,k=0) for time point           18 / 30,    Execution time    0.0 s
 Computed χ(iτ,k=0) for time point           19 / 30,    Execution time    0.0 s
 Computed χ(iτ,k=0) for time point           20 / 30,    Execution time    0.0 s
 Computed χ(iτ,k=0) for time point           21 / 30,    Execution time    0.0 s
 Computed χ(iτ,k=0) for time point           22 / 30,    Execution time    0.0 s
 Computed χ(iτ,k=0) for time point           23 / 30,    Execution time    0.0 s
 Computed χ(iτ,k=0) for time point           24 / 30,    Execution time    0.0 s
 Computed χ(iτ,k=0) for time point           25 / 30,    Execution time    0.0 s
 Computed χ(iτ,k=0) for time point           26 / 30,    Execution time    0.0 s
 Computed χ(iτ,k=0) for time point           27 / 30,    Execution time    0.0 s
 Computed χ(iτ,k=0) for time point           28 / 30,    Execution time    0.0 s
 Computed χ(iτ,k=0) for time point           29 / 30,    Execution time    0.0 s
 Computed χ(iτ,k=0) for time point           30 / 30,    Execution time    0.0 s
 
 Computed W(iτ),                                         Execution time    0.3 s
 
 Computed Σ^x(k=0),                                      Execution time    0.0 s
 
 Computed Σ^c(iτ) for time point              1 / 30,    Execution time    0.0 s
 Computed Σ^c(iτ) for time point              2 / 30,    Execution time    0.0 s
 Computed Σ^c(iτ) for time point              3 / 30,    Execution time    0.0 s
 Computed Σ^c(iτ) for time point              4 / 30,    Execution time    0.0 s
 Computed Σ^c(iτ) for time point              5 / 30,    Execution time    0.0 s
 Computed Σ^c(iτ) for time point              6 / 30,    Execution time    0.0 s
 Computed Σ^c(iτ) for time point              7 / 30,    Execution time    0.0 s
 Computed Σ^c(iτ) for time point              8 / 30,    Execution time    0.0 s
 Computed Σ^c(iτ) for time point              9 / 30,    Execution time    0.0 s
 Computed Σ^c(iτ) for time point             10 / 30,    Execution time    0.0 s
 Computed Σ^c(iτ) for time point             11 / 30,    Execution time    0.0 s
 Computed Σ^c(iτ) for time point             12 / 30,    Execution time    0.0 s
 Computed Σ^c(iτ) for time point             13 / 30,    Execution time    0.0 s
 Computed Σ^c(iτ) for time point             14 / 30,    Execution time    0.0 s
 Computed Σ^c(iτ) for time point             15 / 30,    Execution time    0.0 s
 Computed Σ^c(iτ) for time point             16 / 30,    Execution time    0.0 s
 Computed Σ^c(iτ) for time point             17 / 30,    Execution time    0.0 s
 Computed Σ^c(iτ) for time point             18 / 30,    Execution time    0.0 s
 Computed Σ^c(iτ) for time point             19 / 30,    Execution time    0.0 s
 Computed Σ^c(iτ) for time point             20 / 30,    Execution time    0.0 s
 Computed Σ^c(iτ) for time point             21 / 30,    Execution time    0.0 s
 Computed Σ^c(iτ) for time point             22 / 30,    Execution time    0.0 s
 Computed Σ^c(iτ) for time point             23 / 30,    Execution time    0.0 s
 Computed Σ^c(iτ) for time point             24 / 30,    Execution time    0.0 s
 Computed Σ^c(iτ) for time point             25 / 30,    Execution time    0.0 s
 Computed Σ^c(iτ) for time point             26 / 30,    Execution time    0.0 s
 Computed Σ^c(iτ) for time point             27 / 30,    Execution time    0.0 s
 Computed Σ^c(iτ) for time point             28 / 30,    Execution time    0.0 s
 Computed Σ^c(iτ) for time point             29 / 30,    Execution time    0.0 s
 Computed Σ^c(iτ) for time point             30 / 30,    Execution time    0.0 s

 *** WARNING in post_scf_bandstructure_utils.F:3161 :: G0W0 reorders the   ***
 *** empty levels: the SCF conduction band minimum (SCF LUMO) is level 19, ***
 *** whereas the G0W0 conduction band minimum (G0W0 LUMO) is level 21. The ***
 *** SCF and G0W0 band edges printed below therefore belong to different   ***
 *** orbitals; see the eigenvalues in the file bandstructure_SCF_and_G0W0. ***

 
 SCF valence band maximum (eV):                                           -5.022
 SCF conduction band minimum (eV):                                        -1.107
 SCF indirect band gap (eV):                                               3.915
 SCF direct band gap (eV):                                                 3.915
 
 G0W0 valence band maximum (eV):                                          -6.942
 G0W0 conduction band minimum (eV):                                        1.413
 G0W0 indirect band gap (eV):                                              8.355
 G0W0 direct band gap (eV):                                                8.355
 
 Hartree-Fock with SCF orbitals valence band maximum (eV):                -8.005
 Hartree-Fock with SCF orbitals conduction band minimum (eV)               2.277
 Hartree-Fock with SCF orbitals indirect band gap (eV):                   10.282
 Hartree-Fock with SCF orbitals direct band gap (eV):                     10.282

 ENERGY| Total FORCE_EVAL ( QS ) energy [hartree]            -48.198294218979719

 -------------------------------------------------------------------------------
 -                                                                             -
 -                                DBCSR STATISTICS                             -
 -                                                                             -
 -------------------------------------------------------------------------------
 COUNTER                                    TOTAL       BLAS       SMM       ACC
 flops     6 x     6 x     5               413280       0.0%    100.0%      0.0%     
 flops     6 x    13 x     5               767520       0.0%    100.0%      0.0%     
 flops    13 x     6 x     5               799500       0.0%    100.0%      0.0%     
 flops    13 x    13 x     5              1940120       0.0%    100.0%      0.0%     
 flops    33 x    32 x    10              2703360       0.0%    100.0%      0.0%     
 flops    33 x    33 x    10              2766060       0.0%    100.0%      0.0%     
 flops    39 x    32 x    10              3194880       0.0%    100.0%      0.0%     
 flops    39 x    33 x    10              3268980       0.0%    100.0%      0.0%     
 flops    33 x    39 x    10              3268980       0.0%    100.0%      0.0%     
 flops    40 x    32 x    10              3276800       0.0%    100.0%      0.0%     
 flops    40 x    33 x    10              3352800       0.0%    100.0%      0.0%     
 flops    39 x    39 x    10              3863340       0.0%    100.0%      0.0%     
 flops    40 x    39 x    10              3962400       0.0%    100.0%      0.0%     
 flops    10 x    10 x    26              5241600       0.0%    100.0%      0.0%     
 flops    10 x    32 x    10              5932800       0.0%    100.0%      0.0%     
 flops    10 x    33 x    10              6098400       0.0%    100.0%      0.0%     
 flops    38 x    32 x    10              6225920       0.0%    100.0%      0.0%     
 flops    38 x    33 x    10              6370320       0.0%    100.0%      0.0%     
 flops    33 x    38 x    10              6420480       0.0%    100.0%      0.0%     
 flops    33 x    40 x    10              6732000       0.0%    100.0%      0.0%     
 flops    10 x    10 x    33              7114800       0.0%    100.0%      0.0%     
 flops    10 x    39 x    10              7222800       0.0%    100.0%      0.0%     
 flops     6 x     6 x    10              7467840       0.0%    100.0%      0.0%     
 flops    10 x    32 x    38              7490560       0.0%    100.0%      0.0%     
 flops    38 x    39 x    10              7528560       0.0%    100.0%      0.0%     
 flops    33 x    32 x    27              7584192       0.0%    100.0%      0.0%     
 flops    39 x    38 x    10              7587840       0.0%    100.0%      0.0%     
 flops    10 x    33 x    38              7724640       0.0%    100.0%      0.0%     
 flops    10 x    10 x    36              7761600       0.0%    100.0%      0.0%     
 flops    40 x    38 x    10              7782400       0.0%    100.0%      0.0%     
 flops    33 x    33 x    27              7821198       0.0%    100.0%      0.0%     
 flops    39 x    40 x    10              7956000       0.0%    100.0%      0.0%     
 flops    40 x    40 x    10              8160000       0.0%    100.0%      0.0%     
 flops    36 x    32 x    10              8847360       0.0%    100.0%      0.0%     
 flops    39 x    32 x    27              8963136       0.0%    100.0%      0.0%     
 flops    36 x    33 x    10              9052560       0.0%    100.0%      0.0%     
 flops    10 x    39 x    38              9129120       0.0%    100.0%      0.0%     
 flops    33 x    36 x    10              9147600       0.0%    100.0%      0.0%     
 flops    40 x    32 x    27              9192960       0.0%    100.0%      0.0%     
 flops    39 x    33 x    27              9243234       0.0%    100.0%      0.0%     
 flops    33 x    39 x    27              9243234       0.0%    100.0%      0.0%     
 flops    40 x    33 x    27              9480240       0.0%    100.0%      0.0%     
 flops    41 x    32 x    10             10076160       0.0%    100.0%      0.0%     
 flops    41 x    33 x    10             10309860       0.0%    100.0%      0.0%     
 flops    36 x    39 x    10             10698480       0.0%    100.0%      0.0%     
 flops    39 x    36 x    10             10810800       0.0%    100.0%      0.0%     
 flops    39 x    39 x    27             10923822       0.0%    100.0%      0.0%     
 flops    10 x    33 x    36             10977120       0.0%    100.0%      0.0%     
 flops    40 x    36 x    10             11088000       0.0%    100.0%      0.0%     
 flops    40 x    39 x    27             11203920       0.0%    100.0%      0.0%     
 flops    41 x    39 x    10             12184380       0.0%    100.0%      0.0%     
 flops    10 x     6 x    10             12334800       0.0%    100.0%      0.0%     
 flops    10 x    39 x    36             12972960       0.0%    100.0%      0.0%     
 flops    33 x    41 x    10             13854720       0.0%    100.0%      0.0%     
 flops    10 x    38 x    10             14052400       0.0%    100.0%      0.0%     
 flops    27 x    10 x    26             14447160       0.0%    100.0%      0.0%     
 flops    10 x    27 x    26             14447160       0.0%    100.0%      0.0%     
 flops    10 x    40 x    10             14720000       0.0%    100.0%      0.0%     
 flops    38 x    38 x    10             14786560       0.0%    100.0%      0.0%     
 flops    38 x    40 x    10             15504000       0.0%    100.0%      0.0%     
 flops    10 x    32 x    41             16163840       0.0%    100.0%      0.0%     
 flops    13 x     6 x    10             16264560       0.0%    100.0%      0.0%     
 flops    39 x    41 x    10             16373760       0.0%    100.0%      0.0%     
 flops    27 x    32 x    10             16588800       0.0%    100.0%      0.0%     
 flops     6 x    13 x    10             16604640       0.0%    100.0%      0.0%     
 flops    10 x    32 x    27             16623360       0.0%    100.0%      0.0%     
 flops    10 x    33 x    41             16668960       0.0%    100.0%      0.0%     
 flops    40 x    41 x    10             16793600       0.0%    100.0%      0.0%     
 flops    10 x    33 x    27             17089380       0.0%    100.0%      0.0%     
 flops    27 x    33 x    10             17125020       0.0%    100.0%      0.0%     
 flops    38 x    32 x    27             17466624       0.0%    100.0%      0.0%     
 flops    10 x    38 x    38             17790080       0.0%    100.0%      0.0%     
 flops    38 x    33 x    27             18012456       0.0%    100.0%      0.0%     
 flops    33 x    38 x    27             18012456       0.0%    100.0%      0.0%     
 flops    10 x    40 x    38             18726400       0.0%    100.0%      0.0%     
 flops    33 x    40 x    27             18960480       0.0%    100.0%      0.0%     
 flops    10 x    10 x    19             19152000       0.0%    100.0%      0.0%     
 flops    27 x    10 x    33             19209960       0.0%    100.0%      0.0%     
 flops    10 x    27 x    33             19209960       0.0%    100.0%      0.0%     
 flops    10 x    39 x    41             19699680       0.0%    100.0%      0.0%     
 flops    10 x    36 x    10             19980000       0.0%    100.0%      0.0%     
 flops    27 x    32 x    38             20224512       0.0%    100.0%      0.0%     
 flops    27 x    39 x    10             20259720       0.0%    100.0%      0.0%     
 flops    10 x    39 x    27             20365020       0.0%    100.0%      0.0%     
 flops    10 x     6 x     6             20749680       0.0%    100.0%      0.0%     
 flops    27 x    33 x    38             20856528       0.0%    100.0%      0.0%     
 flops    27 x    10 x    36             20956320       0.0%    100.0%      0.0%     
 flops    10 x    27 x    36             20956320       0.0%    100.0%      0.0%     
 flops    36 x    38 x    10             21012480       0.0%    100.0%      0.0%     
 flops     6 x     6 x    27             21063240       0.0%    100.0%      0.0%     
 flops    38 x    36 x    10             21067200       0.0%    100.0%      0.0%     
 flops    38 x    39 x    27             21287448       0.0%    100.0%      0.0%     
 flops    39 x    38 x    27             21287448       0.0%    100.0%      0.0%     
 flops    40 x    38 x    27             21833280       0.0%    100.0%      0.0%     
 flops    36 x    40 x    10             22032000       0.0%    100.0%      0.0%     
 flops    39 x    40 x    27             22407840       0.0%    100.0%      0.0%     
 flops    40 x    40 x    27             22982400       0.0%    100.0%      0.0%     
 flops    41 x    38 x    10             23930880       0.0%    100.0%      0.0%     
 flops    27 x    39 x    38             24648624       0.0%    100.0%      0.0%     
 flops    36 x    32 x    27             24820992       0.0%    100.0%      0.0%     
 flops    41 x    40 x    10             25092000       0.0%    100.0%      0.0%     
 flops    10 x    36 x    38             25280640       0.0%    100.0%      0.0%     
 flops    10 x    38 x    36             25280640       0.0%    100.0%      0.0%     
 flops    36 x    33 x    27             25596648       0.0%    100.0%      0.0%     
 flops    33 x    36 x    27             25596648       0.0%    100.0%      0.0%     
 flops    10 x    40 x    36             26611200       0.0%    100.0%      0.0%     
 flops    10 x    13 x    10             27024400       0.0%    100.0%      0.0%     
 flops    33 x    32 x    32             27168768       0.0%    100.0%      0.0%     
 flops    33 x    33 x    32             27739008       0.0%    100.0%      0.0%     
 flops    10 x    10 x     6             28183200       0.0%    100.0%      0.0%     
 flops    41 x    32 x    27             28268352       0.0%    100.0%      0.0%     
 flops    41 x    33 x    27             29151738       0.0%    100.0%      0.0%     
 flops    27 x    33 x    36             29638224       0.0%    100.0%      0.0%     
 flops    36 x    36 x    10             29937600       0.0%    100.0%      0.0%     
 flops    39 x    36 x    27             30250584       0.0%    100.0%      0.0%     
 flops    36 x    39 x    27             30250584       0.0%    100.0%      0.0%     
 flops    10 x    41 x    10             30454800       0.0%    100.0%      0.0%     
 flops    40 x    36 x    27             31026240       0.0%    100.0%      0.0%     
 flops    38 x    41 x    10             31907840       0.0%    100.0%      0.0%     
 flops    39 x    32 x    32             32108544       0.0%    100.0%      0.0%     
 flops    39 x    33 x    32             32782464       0.0%    100.0%      0.0%     
 flops    33 x    39 x    32             32782464       0.0%    100.0%      0.0%     
 flops    40 x    32 x    32             32931840       0.0%    100.0%      0.0%     
 flops    40 x    33 x    32             33623040       0.0%    100.0%      0.0%     
 flops    10 x    10 x    79             34064800       0.0%    100.0%      0.0%     
 flops    41 x    36 x    10             34095600       0.0%    100.0%      0.0%     
 flops    41 x    39 x    27             34452054       0.0%    100.0%      0.0%     
 flops    27 x     6 x    10             34804080       0.0%    100.0%      0.0%     
 flops    27 x    39 x    36             35026992       0.0%    100.0%      0.0%     
 flops    10 x    36 x    36             35925120       0.0%    100.0%      0.0%     
 flops    13 x    13 x    10             36125440       0.0%    100.0%      0.0%     
 flops    10 x     6 x    27             36164880       0.0%    100.0%      0.0%     
 flops    10 x    38 x    41             38389120       0.0%    100.0%      0.0%     
 flops    10 x    41 x    38             38389120       0.0%    100.0%      0.0%     
 flops    39 x    39 x    32             38742912       0.0%    100.0%      0.0%     
 flops    33 x    41 x    27             38868984       0.0%    100.0%      0.0%     
 flops    27 x    27 x    26             39007332       0.0%    100.0%      0.0%     
 flops    27 x    38 x    10             39644640       0.0%    100.0%      0.0%     
 flops    10 x    38 x    27             39644640       0.0%    100.0%      0.0%     
 flops    40 x    39 x    32             39736320       0.0%    100.0%      0.0%     
 flops    10 x    40 x    41             40409600       0.0%    100.0%      0.0%     
 flops    27 x    40 x    10             41407200       0.0%    100.0%      0.0%     
 flops    10 x    40 x    27             41472000       0.0%    100.0%      0.0%     
 flops    38 x    38 x    27             41483232       0.0%    100.0%      0.0%     
 flops    27 x    32 x    41             43642368       0.0%    100.0%      0.0%     
 flops    38 x    40 x    27             43666560       0.0%    100.0%      0.0%     
 flops    27 x    33 x    41             45006192       0.0%    100.0%      0.0%     
 flops    36 x    41 x    10             45342720       0.0%    100.0%      0.0%     
 flops    13 x     6 x    27             45641232       0.0%    100.0%      0.0%     
 flops    27 x    32 x    27             45862848       0.0%    100.0%      0.0%     
 flops    39 x    41 x    27             45936072       0.0%    100.0%      0.0%     
 flops    10 x    13 x     6             46155720       0.0%    100.0%      0.0%     
 flops    10 x     6 x    13             46296120       0.0%    100.0%      0.0%     
 flops    40 x    41 x    27             47113920       0.0%    100.0%      0.0%     
 flops    27 x    33 x    27             47247948       0.0%    100.0%      0.0%     
 flops     6 x    13 x    27             47574540       0.0%    100.0%      0.0%     
 flops    27 x    38 x    38             48033216       0.0%    100.0%      0.0%     
 flops    27 x    40 x    38             50561280       0.0%    100.0%      0.0%     
 flops    10 x    32 x    26             51317760       0.0%    100.0%      0.0%     
 flops    32 x    10 x    26             51317760       0.0%    100.0%      0.0%     
 flops    41 x    41 x    10             51640320       0.0%    100.0%      0.0%     
 flops    27 x    27 x    33             51866892       0.0%    100.0%      0.0%     
 flops    27 x    10 x    19             52787700       0.0%    100.0%      0.0%     
 flops    10 x    27 x    19             52787700       0.0%    100.0%      0.0%     
 flops    27 x    39 x    41             53189136       0.0%    100.0%      0.0%     
 flops    10 x    36 x    41             54552960       0.0%    100.0%      0.0%     
 flops    10 x    41 x    36             54552960       0.0%    100.0%      0.0%     
 flops    27 x    39 x    27             56009070       0.0%    100.0%      0.0%     
 flops    10 x    36 x    27             56123280       0.0%    100.0%      0.0%     
 flops    27 x    36 x    10             56220480       0.0%    100.0%      0.0%     
 flops    27 x    27 x    36             56582064       0.0%    100.0%      0.0%     
 flops    27 x     6 x     6             56828952       0.0%    100.0%      0.0%     
 flops    10 x    10 x    13             57371600       0.0%    100.0%      0.0%     
 flops    10 x    32 x    32             58654720       0.0%    100.0%      0.0%     
 flops    38 x    36 x    27             58949856       0.0%    100.0%      0.0%     
 flops    36 x    38 x    27             58949856       0.0%    100.0%      0.0%     
 flops    10 x    33 x    32             60445440       0.0%    100.0%      0.0%     
 flops    32 x    32 x    10             61501440       0.0%    100.0%      0.0%     
 flops    36 x    40 x    27             62052480       0.0%    100.0%      0.0%     
 flops    38 x    32 x    32             62570496       0.0%    100.0%      0.0%     
 flops    32 x    33 x    10             63360000       0.0%    100.0%      0.0%     
 flops    38 x    33 x    32             63883776       0.0%    100.0%      0.0%     
 flops    33 x    38 x    32             64204800       0.0%    100.0%      0.0%     
 flops    41 x    38 x    27             67137336       0.0%    100.0%      0.0%     
 flops    33 x    40 x    32             67415040       0.0%    100.0%      0.0%     
 flops    27 x    36 x    38             68257728       0.0%    100.0%      0.0%     
 flops    27 x    38 x    36             68257728       0.0%    100.0%      0.0%     
 flops    10 x    32 x    33             68302080       0.0%    100.0%      0.0%     
 flops    32 x    10 x    33             68302080       0.0%    100.0%      0.0%     
 flops    41 x    40 x    27             70670880       0.0%    100.0%      0.0%     
 flops    10 x    39 x    32             71435520       0.0%    100.0%      0.0%     
 flops    27 x    40 x    36             71850240       0.0%    100.0%      0.0%     
 flops    32 x    32 x    38             71909376       0.0%    100.0%      0.0%     
 flops    32 x    33 x    38             74156544       0.0%    100.0%      0.0%     
 flops    32 x    10 x    36             74511360       0.0%    100.0%      0.0%     
 flops    32 x    39 x    10             75154560       0.0%    100.0%      0.0%     
 flops    38 x    39 x    32             75499008       0.0%    100.0%      0.0%     
 flops    39 x    38 x    32             75878400       0.0%    100.0%      0.0%     
 flops    27 x    13 x    10             76019580       0.0%    100.0%      0.0%     
 flops    10 x    27 x     6             77241600       0.0%    100.0%      0.0%     
 flops    40 x    38 x    32             77824000       0.0%    100.0%      0.0%     
 flops    27 x    10 x     6             78320520       0.0%    100.0%      0.0%     
 flops    39 x    40 x    32             79672320       0.0%    100.0%      0.0%     
 flops    10 x    13 x    27             80210520       0.0%    100.0%      0.0%     
 flops    40 x    40 x    32             81715200       0.0%    100.0%      0.0%     
 flops    10 x    41 x    41             82839680       0.0%    100.0%      0.0%     
 flops    36 x    36 x    27             83770848       0.0%    100.0%      0.0%     
 flops    10 x    32 x    36             85155840       0.0%    100.0%      0.0%     
 flops     6 x     6 x    32             85335552       0.0%    100.0%      0.0%     
 flops    10 x    41 x    27             85615380       0.0%    100.0%      0.0%     
 flops    27 x    41 x    10             85659660       0.0%    100.0%      0.0%     
 flops    32 x    39 x    38             87639552       0.0%    100.0%      0.0%     
 flops    36 x    32 x    32             88915968       0.0%    100.0%      0.0%     
 flops    38 x    41 x    27             89516448       0.0%    100.0%      0.0%     
 flops    36 x    33 x    32             90782208       0.0%    100.0%      0.0%     
 flops    33 x    36 x    32             91162368       0.0%    100.0%      0.0%     
 flops    27 x    10 x    79             91974960       0.0%    100.0%      0.0%     
 flops    10 x    27 x    79             91974960       0.0%    100.0%      0.0%     
 flops    41 x    36 x    27             95405688       0.0%    100.0%      0.0%     
 flops    27 x    36 x    36             96997824       0.0%    100.0%      0.0%     
 flops    27 x     6 x    27            100838196       0.0%    100.0%      0.0%     
 flops    41 x    32 x    32            101265408       0.0%    100.0%      0.0%     
 flops    10 x    13 x    13            102417380       0.0%    100.0%      0.0%     
 flops    13 x    13 x    27            103105548       0.0%    100.0%      0.0%     
 flops    41 x    33 x    32            103390848       0.0%    100.0%      0.0%     
 flops    27 x    41 x    38            103650624       0.0%    100.0%      0.0%     
 flops    27 x    38 x    41            103650624       0.0%    100.0%      0.0%     
 flops    32 x    33 x    36            105380352       0.0%    100.0%      0.0%     
 flops    36 x    39 x    32            107288064       0.0%    100.0%      0.0%     
 flops    39 x    36 x    32            107737344       0.0%    100.0%      0.0%     
 flops    27 x    38 x    27            108979668       0.0%    100.0%      0.0%     
 flops    27 x    40 x    41            109105920       0.0%    100.0%      0.0%     
 flops    40 x    36 x    32            110499840       0.0%    100.0%      0.0%     
 flops    27 x    40 x    27            114540480       0.0%    100.0%      0.0%     
 flops    41 x    39 x    32            122189184       0.0%    100.0%      0.0%     
 flops    32 x     6 x    10            123502080       0.0%    100.0%      0.0%     
 flops    32 x    39 x    36            124540416       0.0%    100.0%      0.0%     
 flops    27 x    13 x     6            126195732       0.0%    100.0%      0.0%     
 flops    27 x     6 x    13            126229428       0.0%    100.0%      0.0%     
 flops    36 x    41 x    27            127207584       0.0%    100.0%      0.0%     
 flops    10 x     6 x    32            127848960       0.0%    100.0%      0.0%     
 flops    27 x    32 x    26            138692736       0.0%    100.0%      0.0%     
 flops    32 x    27 x    26            138692736       0.0%    100.0%      0.0%     
 flops    10 x    38 x    32            139280640       0.0%    100.0%      0.0%     
 flops    33 x    41 x    32            139326528       0.0%    100.0%      0.0%     
 flops    27 x    27 x    19            142526790       0.0%    100.0%      0.0%     
 flops    41 x    41 x    27            144875304       0.0%    100.0%      0.0%     
 flops    10 x    40 x    32            145971200       0.0%    100.0%      0.0%     
 flops    32 x    38 x    10            146406400       0.0%    100.0%      0.0%     
 flops    27 x    36 x    41            147292992       0.0%    100.0%      0.0%     
 flops    27 x    41 x    36            147292992       0.0%    100.0%      0.0%     
 flops    38 x    38 x    32            147865600       0.0%    100.0%      0.0%     
 flops    32 x    40 x    10            153676800       0.0%    100.0%      0.0%     
 flops    27 x    36 x    27            154577160       0.0%    100.0%      0.0%     
 flops    32 x    32 x    41            155172864       0.0%    100.0%      0.0%     
 flops    38 x    40 x    32            155258880       0.0%    100.0%      0.0%     
 flops    10 x    27 x    13            157121640       0.0%    100.0%      0.0%     
 flops    27 x    10 x    13            159838380       0.0%    100.0%      0.0%     
 flops    32 x    33 x    41            160022016       0.0%    100.0%      0.0%     
 flops    27 x    32 x    32            162846720       0.0%    100.0%      0.0%     
 flops    39 x    41 x    32            164658624       0.0%    100.0%      0.0%     
 flops    27 x    33 x    32            167992704       0.0%    100.0%      0.0%     
 flops    40 x    41 x    32            168880640       0.0%    100.0%      0.0%     
 flops    32 x    38 x    38            170784768       0.0%    100.0%      0.0%     
 flops    32 x    32 x    27            170864640       0.0%    100.0%      0.0%     
 flops    32 x    33 x    27            176090112       0.0%    100.0%      0.0%     
 flops    32 x    40 x    38            179773440       0.0%    100.0%      0.0%     
 flops    13 x     6 x    32            182627328       0.0%    100.0%      0.0%     
 flops    27 x    32 x    33            184415616       0.0%    100.0%      0.0%     
 flops    32 x    27 x    33            184415616       0.0%    100.0%      0.0%     
 flops     6 x    13 x    32            187279872       0.0%    100.0%      0.0%     
 flops    10 x    32 x    19            187507200       0.0%    100.0%      0.0%     
 flops    32 x    10 x    19            187507200       0.0%    100.0%      0.0%     
 flops    32 x    39 x    41            189116928       0.0%    100.0%      0.0%     
 flops    10 x    36 x    32            198051840       0.0%    100.0%      0.0%     
 flops    27 x    39 x    32            198334656       0.0%    100.0%      0.0%     
 flops    32 x    27 x    36            201180672       0.0%    100.0%      0.0%     
 flops    32 x     6 x     6            201676032       0.0%    100.0%      0.0%     
 flops    32 x    36 x    10            207797760       0.0%    100.0%      0.0%     
 flops    32 x    39 x    27            208847808       0.0%    100.0%      0.0%     
 flops    38 x    36 x    32            209949696       0.0%    100.0%      0.0%     
 flops    36 x    38 x    32            210124800       0.0%    100.0%      0.0%     
 flops    27 x    27 x     6            215139564       0.0%    100.0%      0.0%     
 flops    36 x    40 x    32            220631040       0.0%    100.0%      0.0%     
 flops    27 x    41 x    41            223667136       0.0%    100.0%      0.0%     
 flops    27 x    13 x    27            223676154       0.0%    100.0%      0.0%     
 flops    27 x    32 x    36            229920768       0.0%    100.0%      0.0%     
 flops    27 x    41 x    27            235465542       0.0%    100.0%      0.0%     
 flops    41 x    38 x    32            239308800       0.0%    100.0%      0.0%     
 flops    32 x    36 x    38            242694144       0.0%    100.0%      0.0%     
 flops    32 x    38 x    36            242694144       0.0%    100.0%      0.0%     
 flops    27 x    27 x    79            248332392       0.0%    100.0%      0.0%     
 flops    41 x    40 x    32            251274240       0.0%    100.0%      0.0%     
 flops    32 x    40 x    36            255467520       0.0%    100.0%      0.0%     
 flops    32 x    13 x    10            269751040       0.0%    100.0%      0.0%     
 flops    10 x    32 x     6            274091520       0.0%    100.0%      0.0%     
 flops    32 x    10 x     6            278411520       0.0%    100.0%      0.0%     
 flops    27 x    13 x    13            278443386       0.0%    100.0%      0.0%     
 flops    10 x    13 x    32            282131200       0.0%    100.0%      0.0%     
 flops    36 x    36 x    32            298349568       0.0%    100.0%      0.0%     
 flops    10 x    41 x    32            300448000       0.0%    100.0%      0.0%     
 flops    32 x    41 x    10            316952960       0.0%    100.0%      0.0%     
 flops    38 x    41 x    32            320873216       0.0%    100.0%      0.0%     
 flops    10 x    32 x    79            327022080       0.0%    100.0%      0.0%     
 flops    32 x    10 x    79            327022080       0.0%    100.0%      0.0%     
 flops    41 x    36 x    32            339787008       0.0%    100.0%      0.0%     
 flops    32 x    36 x    36            344881152       0.0%    100.0%      0.0%     
 flops    27 x     6 x    32            357219072       0.0%    100.0%      0.0%     
 flops    32 x     6 x    27            357778944       0.0%    100.0%      0.0%     
 flops    32 x    41 x    38            368535552       0.0%    100.0%      0.0%     
 flops    32 x    38 x    41            368535552       0.0%    100.0%      0.0%     
 flops    27 x    38 x    32            386629632       0.0%    100.0%      0.0%     
 flops    32 x    40 x    41            387932160       0.0%    100.0%      0.0%     
 flops    32 x    38 x    27            406394496       0.0%    100.0%      0.0%     
 flops    27 x    40 x    32            406702080       0.0%    100.0%      0.0%     
 flops    13 x    13 x    32            413203648       0.0%    100.0%      0.0%     
 flops    32 x    40 x    27            426608640       0.0%    100.0%      0.0%     
 flops    27 x    27 x    13            439865478       0.0%    100.0%      0.0%     
 flops    32 x    13 x     6            447847296       0.0%    100.0%      0.0%     
 flops    32 x     6 x    13            448356480       0.0%    100.0%      0.0%     
 flops    36 x    41 x    32            455977728       0.0%    100.0%      0.0%     
 flops    32 x    32 x    26            493129728       0.0%    100.0%      0.0%     
 flops    27 x    32 x    19            506761920       0.0%    100.0%      0.0%     
 flops    32 x    27 x    19            506761920       0.0%    100.0%      0.0%     
 flops    41 x    41 x    32            519307968       0.0%    100.0%      0.0%     
 flops    32 x    36 x    41            523708416       0.0%    100.0%      0.0%     
 flops    32 x    41 x    36            523708416       0.0%    100.0%      0.0%     
 flops    27 x    36 x    32            549980928       0.0%    100.0%      0.0%     
 flops    10 x    32 x    13            557406720       0.0%    100.0%      0.0%     
 flops    32 x    10 x    13            567265920       0.0%    100.0%      0.0%     
 flops    32 x    36 x    27            577228032       0.0%    100.0%      0.0%     
 flops    32 x    32 x    32            605945856       0.0%    100.0%      0.0%     
 flops    32 x    33 x    32            623597568       0.0%    100.0%      0.0%     
 flops    32 x    32 x    33            655699968       0.0%    100.0%      0.0%     
 flops    32 x    39 x    32            737777664       0.0%    100.0%      0.0%     
 flops    27 x    32 x     6            763022592       0.0%    100.0%      0.0%     
 flops    32 x    27 x     6            764422272       0.0%    100.0%      0.0%     
 flops    27 x    13 x    32            786711744       0.0%    100.0%      0.0%     
 flops    32 x    13 x    27            792170496       0.0%    100.0%      0.0%     
 flops    32 x    41 x    41            795260928       0.0%    100.0%      0.0%     
 flops    32 x    32 x    36            817496064       0.0%    100.0%      0.0%     
 flops    27 x    41 x    32            834801984       0.0%    100.0%      0.0%     
 flops    32 x    41 x    27            876177216       0.0%    100.0%      0.0%     
 flops    27 x    32 x    79            882959616       0.0%    100.0%      0.0%     
 flops    32 x    27 x    79            882959616       0.0%    100.0%      0.0%     
 flops    32 x    13 x    13            989047488       0.0%    100.0%      0.0%     
 flops    32 x     6 x    32           1267580928       0.0%    100.0%      0.0%     
 flops    32 x    38 x    32           1436864512       0.0%    100.0%      0.0%     
 flops    32 x    40 x    32           1509867520       0.0%    100.0%      0.0%     
 flops    27 x    32 x    13           1560326976       0.0%    100.0%      0.0%     
 flops    32 x    27 x    13           1560866112       0.0%    100.0%      0.0%     
 flops    32 x    32 x    19           1801820160       0.0%    100.0%      0.0%     
 flops    32 x    36 x    32           2043224064       0.0%    100.0%      0.0%     
 flops    32 x    32 x     6           2711740416       0.0%    100.0%      0.0%     
 flops    32 x    13 x    32           2788704256       0.0%    100.0%      0.0%     
 flops    32 x    41 x    32           3104968704       0.0%    100.0%      0.0%     
 flops    32 x    32 x    79           3139411968       0.0%    100.0%      0.0%     
 flops    32 x    32 x    13           5536034816       0.0%    100.0%      0.0%     
 flops inhomo. stacks                 25035211008     100.0%      0.0%      0.0%
 flops total                       100.175719E+09      25.0%     75.0%      0.0%
 flops max/rank                      4.147611E+09      24.3%     75.7%      0.0%
 matmuls inhomo. stacks                    180212     100.0%      0.0%      0.0%
 matmuls total                            3574902       5.0%     95.0%      0.0%
 number of processed stacks               1336306       2.1%     97.9%      0.0%
 average stack size                                     6.5       2.6       0.0
 marketing flops                   136.384938E+09
 -------------------------------------------------------------------------------
 # multiplications                            527
 max memory usage/rank              21.313155E+09
 # max total images/rank                        2
 # max 3D layers                                1
 # MPI messages exchanged                  219232
 MPI messages size (bytes):
  total size                         9.223543E+09
  min size                           0.000000E+00
  max size                         282.624000E+03
  average size                      42.072062E+03
 MPI breakdown and total messages size (bytes):
             size <=      128               36675                        0
       128 < size <=     8192               34397                124820008
      8192 < size <=    32768               64935               1241639504
     32768 < size <=   131072               60902               3363898536
    131072 < size <=  4194304               22323               4493195280
   4194304 < size <= 16777216                   0                        0
  16777216 < size                               0                        0
 -------------------------------------------------------------------------------

 *** WARNING in dbcsr_mm.F:301 :: Using a non-square number of MPI ranks ***
 *** might lead to poor performance. Used ranks: 32 Suggested: 36 64     ***

 -------------------------------------------------------------------------------
 -                                                                             -
 -                      DBCSR MESSAGE PASSING PERFORMANCE                      -
 -                                                                             -
 -------------------------------------------------------------------------------
 ROUTINE             CALLS      AVE VOLUME [Bytes]
 MP_Bcast              359                     12.
 MP_Allreduce         2960                     17.
 MP_Alltoall          4348                   8833.
 MP_ISend            19790                  17306.
 MP_IRecv            17404                  17758.
 -------------------------------------------------------------------------------

 -------------------------------------------------------------------------------
 -                                                                             -
 -                                GRID STATISTICS                              -
 -                                                                             -
 -------------------------------------------------------------------------------
 LP    KERNEL             BACKEND                              COUNT     PERCENT
 3     collocate ortho    CPU                                   5964      23.32%
 3     integrate ortho    CPU                                   5964      23.32%
 4     collocate ortho    CPU                                   3612      14.12%
 4     integrate ortho    CPU                                   3612      14.12%
 2     collocate ortho    CPU                                   3192      12.48%
 2     integrate ortho    CPU                                   3192      12.48%
 0     collocate general  CPU                                     28       0.11%
 0     integrate general  CPU                                     14       0.05%
 -------------------------------------------------------------------------------

 -------------------------------------------------------------------------------
 -                                                                             -
 -                          OFFLOAD MEMPOOL STATISTICS                         -
 -                                                                             -
 -------------------------------------------------------------------------------
 Memory consumption                Number of allocations  Used [MiB]  Size [MiB]
 Host                                                  7          68    21321847
 -------------------------------------------------------------------------------

 MEMORY| Estimated peak process memory [MiB]                                1632

 -------------------------------------------------------------------------------
 -                                                                             -
 -                         MESSAGE PASSING PERFORMANCE                         -
 -                                                                             -
 -------------------------------------------------------------------------------

 ROUTINE             CALLS      AVE VOLUME [Bytes]
 MP_Group                6
 MP_Bcast              415                 222859.
 MP_Allreduce         2701                   5924.
 MP_Sync                51
 MP_Alltoall           932               50769626.
 MP_SendRecv          3906                 183979.
 MP_ISendRecv         3906                 183979.
 MP_Wait              8352
 MP_comm_split          50
 MP_ISend             3762                1255183.
 MP_IRecv             3762                1255114.
 -------------------------------------------------------------------------------


 -------------------------------------------------------------------------------
 -                                                                             -
 -                           R E F E R E N C E S                               -
 -                                                                             -
 -------------------------------------------------------------------------------
 
 CP2K version 2026.2 (Development Version), the CP2K developers group (2026).
 CP2K is freely available from https://www.cp2k.org/ .
 
 M. Iannuzzi, J. Wilhelm, F. Stein, A. Bussy, H. Elgabarty, D. Golze, A. Hehn, 
 M. Graml, S. Marek, B. Sertcan Gökmen, C. Schran, H. Forbert, R. Z. 
 Khaliullin, A. Kozhevnikov, M. Taillefumier, R. Meli, V. V. Rybkin, M. Brehm, 
 R. Schade, O. Schütt, J. V. Pototschnig, H. Mirhosseini, A. Knüpfer, D. Marx, 
 M. Krack, J. Hutter, T. D. Kühne.
 J. Phys. Chem. B 130, 1237-1310 (2026).
 The CP2K Program Package Made Simple.
 https://doi.org/10.1021/acs.jpcb.5c05851

 M. Graml, K. Zollner, D. Hernangómez-Pérez, P. E. Faria Junior, J. Wilhelm.
 J. Chem. Theory Comput. 20, 2202-2208 (2024).
 Low-scaling GW algorithm applied to twisted transition-metal dichalcogenide 
 heterobilayers.
 https://doi.org/10.1021/acs.jctc.3c01230

 T. D. Kühne, M. Iannuzzi, M. Del Ben, V. V. Rybkin, P. Seewald, F. Stein, T. 
 Laino, R. Z. Khaliullin, O. Schütt, F. Schiffmann, D. Golze, J. Wilhelm, S. 
 Chulkov, M. H. Bani-Hashemian, V. Weber, U. Borstnik, M. Taillefumier, A. S. 
 Jakobovits, A. Lazzaro, H. Pabst, T. Müller, R. Schade, M. Guidon, S. 
 Andermatt, N. Holmberg, G. K. Schenter, A. Hehn, A. Bussy, F. Belleflamme, G. 
 Tabacchi, A. Glöß, M. Lass, I. Bethune, C. J. Mundy, C. Plessl, M. Watkins, 
 J. VandeVondele, M. Krack, J. Hutter.
 J. Chem. Phys. 152, 194103 (2020).
 CP2K: An electronic structure and molecular dynamics software package - 
 Quickstep: Efficient and accurate electronic structure calculations.
 https://doi.org/10.1063/5.0007045

 O. Schuett, P. Messmer, J. Hutter, J. VandeVondele.
 Electronic Structure Calculations on Graphics Processing Units, 173-190 (2016).
 GPU-Accelerated Sparse Matrix-Matrix Multiplication for Linear Scaling Density 
 Functional Theory.
 https://doi.org/10.1002/9781118670712.ch8

 U. Borstnik, J. VandeVondele, V. Weber, J. Hutter.
 Parallel Comput. 40, 47-58 (2014).
 Sparse matrix multiplication: The distributed block-compressed sparse row 
 library.
 https://doi.org/10.1016/j.parco.2014.03.012

 J. VandeVondele, J. Hutter.
 J. Chem. Phys. 127, 114105 (2007).
 Gaussian basis sets for accurate calculations on molecular systems in gas and 
 condensed phases.
 https://doi.org/10.1063/1.2770708

 J. VandeVondele, M. Krack, F. Mohamed, M. Parrinello, T. Chassaing, J. Hutter.
 Comput. Phys. Commun. 167, 103-128 (2005).
 QUICKSTEP: Fast and accurate density functional calculations using a mixed 
 Gaussian and plane waves approach.
 https://doi.org/10.1016/j.cpc.2004.12.014

 M. Krack.
 Theor. Chem. Acc. 114, 145-152 (2005).
 Pseudopotentials for H to Kr optimized for gradient-corrected 
 exchange-correlation functionals.
 https://doi.org/10.1007/s00214-005-0655-y

 M. Frigo, S. G. Johnson.
 Proc. IEEE 93, 216-231 (2005).
 The design and implementation of FFTW3.
 https://doi.org/10.1109/JPROC.2004.840301

 C. Hartwigsen, S. Goedecker, J. Hutter.
 Phys. Rev. B 58, 3641-3662 (1998).
 Relativistic separable dual-space Gaussian pseudopotentials from H to Rn.
 https://doi.org/10.1103/PhysRevB.58.3641

 G. Lippert, J. Hutter, M. Parrinello.
 Mol. Phys. 92, 477-487 (1997).
 A hybrid Gaussian and plane wave density functional scheme.
 https://doi.org/10.1080/002689797170220

 S. Goedecker, M. Teter, J. Hutter.
 Phys. Rev. B 54, 1703-1710 (1996).
 Separable dual-space Gaussian pseudopotentials.
 https://doi.org/10.1103/PhysRevB.54.1703

 J. P. Perdew, K. Burke, M. Ernzerhof.
 Phys. Rev. Lett. 77, 3865-3868 (1996).
 Generalized gradient approximation made simple.
 https://doi.org/10.1103/PhysRevLett.77.3865

 P. E. Blöchl.
 J. Chem. Phys. 103, 7422-7428 (1995).
 Electrostatic decoupling of periodic images of plane‐wave‐expanded 
 densities and derived atomic point charges.
 https://doi.org/10.1063/1.470314

 R. H. Byrd, P. H. Lu, J. Nocedal, C. Y. Zhu.
 SIAM J. Sci. Comput. 16, 1190-1208 (1995).
 A Limited Memory Algorithm for Bound Constrained Optimization.
 https://doi.org/10.1137/0916069

 C. G. Broyden.
 Math. Comput. 19, 577-593 (1965).
 A class of methods for solving nonlinear simultaneous equations.
 https://doi.org/10.1090/S0025-5718-1965-0198670-6


 -------------------------------------------------------------------------------
 -                                                                             -
 -                                T I M I N G                                  -
 -                                                                             -
 -------------------------------------------------------------------------------
 SUBROUTINE                       CALLS  ASD         SELF TIME        TOTAL TIME
                                MAXIMUM       AVERAGE  MAXIMUM  AVERAGE  MAXIMUM
 CP2K                                 1  1.0    0.077    0.080  247.335  247.335
 qs_energies                          1  2.0    0.015    0.015  246.633  246.633
 qs_energies_properties               1  3.0    0.001    0.001  169.540  169.540
 post_scf_bandstructure               1  4.0    0.000    0.000  169.539  169.539
 run_gw                               1  5.0    0.000    0.000  169.490  169.503
 mp_sum_d                          1228  6.0  136.692  167.755  136.692  167.755
 gw_calc_ri_rs_non_periodic           1  6.0    0.001    0.001  167.622  167.634
 optimize_ri_rs_grid                  1  7.0    0.001    0.001  166.540  166.541
 rirs_grid_LBFGS                      1  8.0    0.633    2.269  165.747  166.316
 evaluate_rirs_grid_cluster         301  9.0    2.215   10.634   29.216  160.927
 scf_env_do_scf                       1  3.0    0.002    0.002   76.044   76.045
 scf_env_do_scf_inner_loop           41  4.0    0.019    0.021   76.043   76.043
 rirs_cluster_gradient_products     301 10.0    9.702   56.485    9.702   56.485
 qs_ks_build_kohn_sham_matrix        42  7.0    0.041    0.057   48.154   48.166
 qs_ks_update_qs_env                 41  5.0    0.000    0.000   47.789   47.799
 rebuild_ks_matrix                   41  6.0    0.001    0.002   47.784   47.794
 fft_wrap_pw1pw2                    832 10.0    0.017    0.019   40.047   40.655
 fft_wrap_pw1pw2_300                496 11.4    2.444    2.836   38.939   39.500
 qs_vxc_create                       42  8.0    0.005    0.006   32.319   32.680
 xc_vxc_pw_create                    41  9.0    0.444    0.536   32.314   32.675
 fft3d_ps                           832 12.0   16.005   17.102   28.223   29.239
 xc_pw_derive                       246 11.0    0.003    0.003   23.033   23.859
 rirs_cluster_residual              301 10.0    4.227   23.240    4.227   23.240
 rirs_cluster_d_lP                  301 10.0    3.543   20.886    3.543   20.886
 rirs_cluster_gradient_coordina     301 10.0    4.012   20.636    4.012   20.636
 rirs_cluster_D_ll                  301 10.0    3.078   18.235    3.078   18.235
 xc_rho_set_and_dset_create          41 10.0    0.555    0.746   16.052   16.505
 xc_pw_divergence                    41 10.0    0.002    0.002   15.350   16.013
 qs_rho_update_rho_low               42  5.0    0.000    0.001   15.561   15.564
 calculate_rho_elec                  42  6.0    0.229    0.244   15.561   15.564
 gspace_mixing                       40  5.0    0.221    0.235   12.701   12.702
 rirs_cluster_AO_products           301 10.0    2.439   10.810    2.439   10.810
 density_rs2pw                       42  7.0    0.003    0.003    9.647    9.861
 broyden_mixing                      40  6.0    9.248    9.312    9.339    9.366
 mp_alltoall_z22v                   832 14.0    6.976    8.756    6.976    8.756
 x_to_yz                            456 13.4    3.361    4.003    7.105    7.629
 sum_up_and_integrate                42  8.0    0.009    0.010    7.232    7.252
 integrate_v_rspace                  42  9.0    0.002    0.002    7.041    7.067
 potential_pw2rs                     42 10.0    0.011    0.012    6.831    6.849
 yz_to_x                            376 12.6    1.854    2.044    5.087    6.536
 grid_collocate_task_list            42  7.0    5.458    5.629    5.458    5.629
 -------------------------------------------------------------------------------

 The number of warnings for this run is : 2
 
 -------------------------------------------------------------------------------
  **** **** ******  **  PROGRAM ENDED AT                 2026-09-18 15:02:11.040
 ***** ** ***  *** **   PROGRAM RAN ON                                  n2cn0572
 **    ****   ******    PROGRAM RAN BY                                  eprop2d1
 ***** **    ** ** **   PROGRAM PROCESS ID                                335462
  **** **  *******  **  PROGRAM STOPPED IN /scratch/hpc-prf-metdyn/eprop2d1_Jan/
                                           53_benchmark_RI_opt/129_GW100_Si293_A
                                           O_frontier_optimization_coopfst/follo
                                           wups/figure1_missing/gw100/90_C6H5NH2
                                           /szv_t2/initial
