 DBCSR| CPU Multiplication driver                                           XSMM (U)
 DBCSR| Multrec recursion limit                                              512 (U)
 DBCSR| Multiplication stack size                                           1000 (D)
 DBCSR| Maximum elements for images                                    UNLIMITED (U)
 DBCSR| Multiplicative factor virtual images                                   1 (U)
 DBCSR| Use multiplication densification                                       T (D)
 DBCSR| Multiplication size stacks                                             3 (U)
 DBCSR| Use memory pool for CPU allocation                                     F (U)
 DBCSR| Number of 3D layers                                               SINGLE (U)
 DBCSR| Use MPI memory allocation                                              F (U)
 DBCSR| Use RMA algorithm                                                      F (U)
 DBCSR| Use Communication thread                                               T (U)
 DBCSR| Communication thread load                                             75 (D)
 DBCSR| MPI: My process id                                                     0
 DBCSR| MPI: Number of processes                                              32
 DBCSR| OMP: Current number of threads                                         4
 DBCSR| OMP: Max number of threads                                             4
 DBCSR| Split modifier for TAS multiplication algorithm                  1.0E+00 (U)


  **** **** ******  **  PROGRAM STARTED AT               2026-10-01 21:37:18.543
 ***** ** ***  *** **   PROGRAM STARTED ON                              n2cn0196
 **    ****   ******    PROGRAM STARTED BY                              eprop2d1
 ***** **    ** ** **   PROGRAM PROCESS ID                               2708838
  **** **  *******  **  PROGRAM STARTED IN /scratch/hpc-prf-metdyn/eprop2d1_Jan/
                                           53_benchmark_RI_opt/407_figure3cd_si4
                                           5_eps1e10_20261001/10_r3_a3

 CP2K| version string:                 CP2K version 2026.2 (Development Version)
 CP2K| source code revision number:                                   d1dff42668
 CP2K| cp2kflags: omp libint fftw3 libxc parallel scalapack mpi_f08 cosma libxs 
 CP2K|            libxsmm spglib openblas libdftd4 s_dftd3 mctc-lib tblite libvo
 CP2K|            ori libbqb
 CP2K| is freely available from                            https://www.cp2k.org/
 CP2K| Program compiled at                                   2026-09-18 06:02:26
 CP2K| Program compiled on                                              n2login6
 CP2K| Program compiled for                                               x86_64
 CP2K| Data directory path    /scratch/hpc-prf-metdyn/eprop2d1_Jan/53_benchmark_
 CP2K| Input file name        /scratch/hpc-prf-metdyn/eprop2d1_Jan/53_benchmark_
 
 eprop2d1@n2cn0196 has created rank and process                      0   2708838
 eprop2d1@n2cn0196 has created rank and process                      1   2708839
 eprop2d1@n2cn0196 has created rank and process                      2   2708840
 eprop2d1@n2cn0196 has created rank and process                      3   2708841
 eprop2d1@n2cn0196 has created rank and process                      4   2708842
 eprop2d1@n2cn0196 has created rank and process                      5   2708843
 eprop2d1@n2cn0196 has created rank and process                      6   2708844
 eprop2d1@n2cn0196 has created rank and process                      7   2708845
 eprop2d1@n2cn0196 has created rank and process                      8   2708846
 eprop2d1@n2cn0196 has created rank and process                      9   2708847
 eprop2d1@n2cn0196 has created rank and process                     10   2708848
 eprop2d1@n2cn0196 has created rank and process                     11   2708849
 eprop2d1@n2cn0196 has created rank and process                     12   2708850
 eprop2d1@n2cn0196 has created rank and process                     13   2708851
 eprop2d1@n2cn0196 has created rank and process                     14   2708852
 eprop2d1@n2cn0196 has created rank and process                     15   2708853
 eprop2d1@n2cn0196 has created rank and process                     16   2708854
 eprop2d1@n2cn0196 has created rank and process                     17   2708855
 eprop2d1@n2cn0196 has created rank and process                     18   2708856
 eprop2d1@n2cn0196 has created rank and process                     19   2708857
 eprop2d1@n2cn0196 has created rank and process                     20   2708858
 eprop2d1@n2cn0196 has created rank and process                     21   2708859
 eprop2d1@n2cn0196 has created rank and process                     22   2708860
 eprop2d1@n2cn0196 has created rank and process                     23   2708861
 eprop2d1@n2cn0196 has created rank and process                     24   2708862
 eprop2d1@n2cn0196 has created rank and process                     25   2708863
 eprop2d1@n2cn0196 has created rank and process                     26   2708864
 eprop2d1@n2cn0196 has created rank and process                     27   2708865
 eprop2d1@n2cn0196 has created rank and process                     28   2708866
 eprop2d1@n2cn0196 has created rank and process                     29   2708867
 eprop2d1@n2cn0196 has created rank and process                     30   2708868
 eprop2d1@n2cn0196 has created rank and process                     31   2708869
 
 eprop2d1@n2cn0196 is running                                       32 processes

 GLOBAL| Force Environment number                                              1
 GLOBAL| Basis set file name            /scratch/hpc-prf-metdyn/eprop2d1_Jan/53_
 GLOBAL| Potential file name            /scratch/hpc-prf-metdyn/eprop2d1_Jan/53_
 GLOBAL| MM Potential file name                                     MM_POTENTIAL
 GLOBAL| Coordinate file name           /scratch/hpc-prf-metdyn/eprop2d1_Jan/53_
 GLOBAL| Method name                                                        CP2K
 GLOBAL| Project name                          fig3_Si45H56_auto_augSZVT2_rc3_a3
 GLOBAL| Run type                                                         ENERGY
 GLOBAL| FFT library                                                       FFTW3
 GLOBAL| Diagonalization library                                       ScaLAPACK
 GLOBAL| Cholesky decomposition library                                ScaLAPACK
 GLOBAL| DGEMM library                                                      BLAS
 GLOBAL| Direct generalized diagonalization requested                          F
 GLOBAL| Orthonormality check for eigenvectors                          DISABLED
 GLOBAL| Matrix multiplication library                                     COSMA
 GLOBAL| All-to-all communication in single precision                          F
 GLOBAL| Grid backend                                                       AUTO
 GLOBAL| Global print level                                                  LOW
 GLOBAL| MPI I/O enabled                                                       T
 GLOBAL| Total number of message passing processes                            32
 GLOBAL| Number of distributed systems (nodes)                                 1
 GLOBAL| Number of threads for this process                                    4
 GLOBAL| This output is from process                                           0
 GLOBAL| OpenMP stack size per thread (OMP_STACKSIZE)                       256M
 GLOBAL| CPU model name                          AMD EPYC 7763 64-Core Processor
 GLOBAL| CPUID                                                              1002
 GLOBAL| Compiled for CPUID                                                    0

 *** HINT in environment.F:968 :: The compiler target (generic) used to ***
 *** build this binary does not enable all instruction-set extensions   ***
 *** available on this CPU (x86_avx2). Consider reconfiguring and       ***
 *** rebuilding CP2K for this target system to enable them.             ***


 MEMORY| system memory details [Kb]
 MEMORY|                        rank 0           min           max       average
 MEMORY| MemTotal            263897620     263897620     263897620     263897620
 MEMORY| MemFree             237758272     237758272     237758524     237758350
 MEMORY| Buffers                138444        138444        138444        138444
 MEMORY| Cached               15171216      15171216      15171216      15171216
 MEMORY| Slab                  1636808       1636808       1636808       1636808
 MEMORY| SReclaimable           283836        283836        283836        283836
 MEMORY| MemLikelyFree       253351768     253351768     253352020     253351846


 GENERATE|  Preliminary Number of Bonds generated:                             0
 GENERATE|  Achieved consistency in connectivity generation.

 *******************************************************************************
 *******************************************************************************
 **                                                                           **
 **     #####                         ##              ##                      **
 **    ##   ##            ##          ##              ##                      **
 **   ##     ##                       ##            ######                    **
 **   ##     ##  ##   ##  ##   #####  ##  ##   ####   ##    #####    #####    **
 **   ##     ##  ##   ##  ##  ##      ## ##   ##      ##   ##   ##  ##   ##   **
 **   ##  ## ##  ##   ##  ##  ##      ####     ###    ##   ######   ######    **
 **    ##  ###   ##   ##  ##  ##      ## ##      ##   ##   ##       ##        **
 **     #######   #####   ##   #####  ##  ##  ####    ##    #####   ##        **
 **           ##                                                    ##        **
 **                                                                           **
 **                                                ... make the atoms dance   **
 **                                                                           **
 **            Copyright (C) by CP2K developers group (2000-2026)             **
 **                      J. Chem. Phys. 152, 194103 (2020)                    **
 **                                                                           **
 *******************************************************************************


 TOTAL NUMBERS AND MAXIMUM NUMBERS

  Total number of            - Atomic kinds:                                   2
                             - Atoms:                                        101
                             - Shell sets:                                   101
                             - Shells:                                       449
                             - Primitive Cartesian functions:                662
                             - Cartesian basis functions:                    966
                             - Spherical basis functions:                    921

  Maximum angular momentum of- Orbital basis functions:                        2
                             - Local part of the GTH pseudopotential:          2
                             - Non-local part of the GTH pseudopotential:      2


 SCF PARAMETERS         Density guess:                                   RESTART
                        --------------------------------------------------------
                        max_scf:                                             500
                        max_scf_history:                                       0
                        max_diis:                                              4
                        --------------------------------------------------------
                        eps_scf:                                        1.00E-08
                        eps_scf_history:                                0.00E+00
                        eps_diis:                                       0.00E+00
                        eps_eigval:                                     1.00E-05
                        --------------------------------------------------------
                        level_shift [a.u.]:                             0.000000
                        --------------------------------------------------------
                        Outer loop SCF in use 
                        No variables optimised in outer loop
                        eps_scf                                         1.00E-08
                        max_scf                                               20
                        No outer loop optimization
                        step_size                                       5.00E-01

 Extrapolation method: initial_guess

 Number of electrons:                                                        236
 Number of occupied orbitals:                                                118
 Number of molecular orbitals:                                               118

 Number of orbital functions:                                                921
 Number of independent orbital functions:                                    921


 SCF WAVEFUNCTION OPTIMIZATION

  ----------------------------------- OT ---------------------------------------
  Minimizer      : DIIS                : direct inversion
                                         in the iterative subspace
                                         using   7 DIIS vectors
                                         safer DIIS on
  Preconditioner : FULL_KINETIC        : inversion of T + eS
  Lattice FFT   : OFF
  Precond_solver : DEFAULT
  stepsize       :    0.15000000                  energy_gap     :    0.20000000
  eps_taylor     :   0.10000E-15                  max_taylor     :             4
  ----------------------------------- OT ---------------------------------------

  Step     Update method      Time    Convergence         Total energy    Change
  ------------------------------------------------------------------------------
     1 OT DIIS     0.15E+00    3.1     3.4923E-09      -209.4766386754 -2.09E+02

  *** SCF run converged in     1 steps ***


  Electronic density on regular grids:       -236.0000000000        0.0000000000
  Core density on regular grids:              235.9999999996       -0.0000000004
  Total charge density on r-space grids:       -0.0000000004
  Total charge density g-space grids:          -0.0000000004

  Overlap energy of the core charge distribution:               0.00000057541286
  Self energy of the core charge distribution:               -540.59620096303195
  Core Hamiltonian energy:                                    124.75177113618517
  Hartree energy:                                             279.78225848744046
  Exchange-correlation energy:                                -73.41446791140534

  Total energy:                                              -209.47663867539876

  outer SCF iter =    1 RMS gradient =   0.35E-08 energy =       -209.4766386754
  outer SCF loop converged in   1 iterations or    1 steps

  
 -------------------------------------------------------------------------------
 -                                                                             -
 -                          BANDSTRUCTURE CALCULATION                          -
 -                                                                             -
 -------------------------------------------------------------------------------
  
 Number of occupied molecular orbitals (MOs) = Number of occupied bands      118
 Number of unoccupied (= virtual) MOs = Number of unoccupied bands           803
 Number of Gaussian basis functions for MOs                                  921
  
 -------------------------------------------------------------------------------
 -                                                                             -
 -                                GW CALCULATION                               -
 -                                                                             -
 -------------------------------------------------------------------------------
  
 Input: Number of time/freq. points                                           30
 Input: ω_max for fitting Σ(iω) (eV)                                        10.0
 Input: Filter threshold for sparse tensor operations                    1.0E-10
 Input: Apply Hedin shift                                                      F
 Detected: Available memory per MPI process                               7.2 GB
 
 Input: RI-RS Tikhonov regularization                                   1.00E-04
 Input: AO grid hard cutoff radius                                        8.00 Å
 Input: MPI ranks per atom in Z_lP solve                                      -1
 Input: Keep sparsity in χ/G/W panels                                          T
 Input: GW flavour                                                          G0W0
 
 Input: RI-RS grid optimization activated                                      T
 Input: RS points per AO function                                            7.0
 Input: Cutoff radius for atomic clusters                                  3.0 Å
 Input: Maximum grid optimization iterations                                 300
 
 Input: AUTO_RI basis optimization activated:                                  T
 Input: AUTO_RI number of RI functions per AO function:                      3.0
 Input: AUTO_RI frontier orbital window:                                  5.0 eV
 Input: AUTO_RI neighbor radius:                                           3.0 Å
 
 Cutoff radius for the truncated Coulomb operator in RI metric:            7.0 Å
 Regularization parameter of RI                                          0.0E+00
 Regularization parameter of minimax grids                               1.0E-06
 
 AUTO_RI| Number of automatic RI functions for χ, ε, W:                     2763
 AUTO_RI| Total RI basis optimization time:                                5.5 s
 
 SCF direct band gap (eV)                                                   3.16
 Max. SCF eigval diff. (eV)                                               132.05
 E-Range for minimax grid                                                  41.78
 Number of Padé parameters for analytic continuation:                         16
 
 RI-RS basis radii (Å):
     Kind  Elem     r_AO (Å)     r_RI (Å)
        1    Si        9.7225        6.3588
        2    H        11.3560        7.1821
 
 Started RI-RS grid optimization
 RI-RS grid initial normalized error                          2.498944396683E-03
 RI-RS grid optimization completed, execution time:                       44.0 s
 Normalized 3C error:                                                    2.3E-07
 Maximum absolute 3C error:                                              3.1E-03
 Optimized points outside molecular Voronoi cells:                          2750 / 6447
 Total grid points used for RI-RS:                                          6447
 
 RI-RS grid row-blocks of ϕ_μ(r_l)                                           247
 RI-RS grid points per block (max)                                            32
 
 Percentage of non-zero matrix elements in ϕ_μ(r_l)                      84.68 %
 
 RI-RS memory estimate per MPI process:
   Available memory per process (system)                                 7.47 GB
   Required for Z_lP (dense upper bound; actual is sparser)              0.00 GB
   Required for χ, W, Σ panels (peak per panel step)                     0.04 GB
   Required for Z_lP solve peak (D_local+ϕ, worst-case atom)             0.39 GB
   Worst-case local-grid number of grid points:                             6447
   Worst-case memory D_local:                                            0.33 GB
 
 Started computing Z_lP
 Computed Z_lP (MPI rank 0) for atom          1 /  4,    Execution time    4.7 s
 Computed Z_lP (MPI rank 0) for atom          2 /  4,    Execution time    5.0 s
 Computed Z_lP (MPI rank 0) for atom          3 /  4,    Execution time    2.3 s
 Computed Z_lP (MPI rank 0) for atom          4 /  4,    Execution time    2.6 s
 Computed Z_lP (all MPI ranks) for all atoms,            Execution time   21.5 s

 Memory per MPI process after computing Z_lP:
 Available memory per MPI process                                7.4 GB
 Used memory per MPI process                                     1.1 GB
 Number of batches for χ, Σ matrices                                           1
 
 Percentage of non-zero matrix elements in Z_lP                         100.00 %
 Percentage of non-zero matrix elements in G_ll', χ_ll', W_ll'          100.00 %
 Percentage of non-zero matrix elements in χ_PQ for time point 1        100.00 %
 
 Computed χ(iτ,k=0) for time point            1 / 30,    Execution time    0.4 s
 Computed χ(iτ,k=0) for time point            2 / 30,    Execution time    0.3 s
 Computed χ(iτ,k=0) for time point            3 / 30,    Execution time    0.3 s
 Computed χ(iτ,k=0) for time point            4 / 30,    Execution time    0.3 s
 Computed χ(iτ,k=0) for time point            5 / 30,    Execution time    0.3 s
 Computed χ(iτ,k=0) for time point            6 / 30,    Execution time    0.3 s
 Computed χ(iτ,k=0) for time point            7 / 30,    Execution time    0.3 s
 Computed χ(iτ,k=0) for time point            8 / 30,    Execution time    0.3 s
 Computed χ(iτ,k=0) for time point            9 / 30,    Execution time    0.3 s
 Computed χ(iτ,k=0) for time point           10 / 30,    Execution time    0.3 s
 Computed χ(iτ,k=0) for time point           11 / 30,    Execution time    0.3 s
 Computed χ(iτ,k=0) for time point           12 / 30,    Execution time    0.3 s
 Computed χ(iτ,k=0) for time point           13 / 30,    Execution time    0.4 s
 Computed χ(iτ,k=0) for time point           14 / 30,    Execution time    0.4 s
 Computed χ(iτ,k=0) for time point           15 / 30,    Execution time    0.3 s
 Computed χ(iτ,k=0) for time point           16 / 30,    Execution time    0.3 s
 Computed χ(iτ,k=0) for time point           17 / 30,    Execution time    0.4 s
 Computed χ(iτ,k=0) for time point           18 / 30,    Execution time    0.3 s
 Computed χ(iτ,k=0) for time point           19 / 30,    Execution time    0.3 s
 Computed χ(iτ,k=0) for time point           20 / 30,    Execution time    0.2 s
 Computed χ(iτ,k=0) for time point           21 / 30,    Execution time    0.2 s
 Computed χ(iτ,k=0) for time point           22 / 30,    Execution time    0.2 s
 Computed χ(iτ,k=0) for time point           23 / 30,    Execution time    0.1 s
 Computed χ(iτ,k=0) for time point           24 / 30,    Execution time    0.1 s
 Computed χ(iτ,k=0) for time point           25 / 30,    Execution time    0.1 s
 Computed χ(iτ,k=0) for time point           26 / 30,    Execution time    0.1 s
 Computed χ(iτ,k=0) for time point           27 / 30,    Execution time    0.1 s
 Computed χ(iτ,k=0) for time point           28 / 30,    Execution time    0.1 s
 Computed χ(iτ,k=0) for time point           29 / 30,    Execution time    0.1 s
 Computed χ(iτ,k=0) for time point           30 / 30,    Execution time    0.1 s
 
 Computed W(iτ),                                         Execution time    9.1 s
 
 Computed Σ^x(k=0),                                      Execution time    0.5 s
 
 Computed Σ^c(iτ) for time point              1 / 30,    Execution time    0.5 s
 Computed Σ^c(iτ) for time point              2 / 30,    Execution time    0.5 s
 Computed Σ^c(iτ) for time point              3 / 30,    Execution time    0.5 s
 Computed Σ^c(iτ) for time point              4 / 30,    Execution time    0.5 s
 Computed Σ^c(iτ) for time point              5 / 30,    Execution time    0.5 s
 Computed Σ^c(iτ) for time point              6 / 30,    Execution time    0.5 s
 Computed Σ^c(iτ) for time point              7 / 30,    Execution time    0.5 s
 Computed Σ^c(iτ) for time point              8 / 30,    Execution time    0.5 s
 Computed Σ^c(iτ) for time point              9 / 30,    Execution time    0.5 s
 Computed Σ^c(iτ) for time point             10 / 30,    Execution time    0.5 s
 Computed Σ^c(iτ) for time point             11 / 30,    Execution time    0.5 s
 Computed Σ^c(iτ) for time point             12 / 30,    Execution time    0.5 s
 Computed Σ^c(iτ) for time point             13 / 30,    Execution time    0.5 s
 Computed Σ^c(iτ) for time point             14 / 30,    Execution time    0.5 s
 Computed Σ^c(iτ) for time point             15 / 30,    Execution time    0.5 s
 Computed Σ^c(iτ) for time point             16 / 30,    Execution time    0.4 s
 Computed Σ^c(iτ) for time point             17 / 30,    Execution time    0.4 s
 Computed Σ^c(iτ) for time point             18 / 30,    Execution time    0.4 s
 Computed Σ^c(iτ) for time point             19 / 30,    Execution time    0.4 s
 Computed Σ^c(iτ) for time point             20 / 30,    Execution time    0.4 s
 Computed Σ^c(iτ) for time point             21 / 30,    Execution time    0.3 s
 Computed Σ^c(iτ) for time point             22 / 30,    Execution time    0.2 s
 Computed Σ^c(iτ) for time point             23 / 30,    Execution time    0.1 s
 Computed Σ^c(iτ) for time point             24 / 30,    Execution time    0.1 s
 Computed Σ^c(iτ) for time point             25 / 30,    Execution time    0.1 s
 Computed Σ^c(iτ) for time point             26 / 30,    Execution time    0.1 s
 Computed Σ^c(iτ) for time point             27 / 30,    Execution time    0.1 s
 Computed Σ^c(iτ) for time point             28 / 30,    Execution time    0.1 s
 Computed Σ^c(iτ) for time point             29 / 30,    Execution time    0.1 s
 Computed Σ^c(iτ) for time point             30 / 30,    Execution time    0.1 s
 
 SCF valence band maximum (eV):                                           -5.871
 SCF conduction band minimum (eV):                                        -2.711
 SCF indirect band gap (eV):                                               3.161
 SCF direct band gap (eV):                                                 3.161
 
 G0W0 valence band maximum (eV):                                          -6.934
 G0W0 conduction band minimum (eV):                                       -1.117
 G0W0 indirect band gap (eV):                                              5.817
 G0W0 direct band gap (eV):                                                5.817
 
 Hartree-Fock with SCF orbitals valence band maximum (eV):                -8.036
 Hartree-Fock with SCF orbitals conduction band minimum (eV)               1.195
 Hartree-Fock with SCF orbitals indirect band gap (eV):                    9.231
 Hartree-Fock with SCF orbitals direct band gap (eV):                      9.231

 ENERGY| Total FORCE_EVAL ( QS ) energy [hartree]           -209.476638675398760

 -------------------------------------------------------------------------------
 -                                                                             -
 -                                DBCSR STATISTICS                             -
 -                                                                             -
 -------------------------------------------------------------------------------
 COUNTER                                    TOTAL       BLAS       SMM       ACC
 flops    22 x    22 x    22                21296       0.0%    100.0%      0.0%     
 flops    26 x    22 x    22                75504       0.0%    100.0%      0.0%     
 flops    22 x    22 x    32                92928       0.0%    100.0%      0.0%     
 flops    22 x    32 x    22                92928       0.0%    100.0%      0.0%     
 flops    32 x    22 x    22                92928       0.0%    100.0%      0.0%     
 flops    51 x    22 x    22               148104       0.0%    100.0%      0.0%     
 flops    57 x    22 x    22               165528       0.0%    100.0%      0.0%     
 flops    62 x    22 x    22               180048       0.0%    100.0%      0.0%     
 flops    76 x    22 x    22               220704       0.0%    100.0%      0.0%     
 flops    89 x    22 x    22               258456       0.0%    100.0%      0.0%     
 flops    26 x    22 x   119               272272       0.0%    100.0%      0.0%     
 flops     6 x    22 x    22               325248       0.0%    100.0%      0.0%     
 flops    56 x    22 x    22               325248       0.0%    100.0%      0.0%     
 flops    26 x    22 x    32               329472       0.0%    100.0%      0.0%     
 flops    26 x    32 x    22               329472       0.0%    100.0%      0.0%     
 flops    38 x    22 x    22               331056       0.0%    100.0%      0.0%     
 flops    22 x    22 x   119               345576       0.0%    100.0%      0.0%     
 flops    32 x    32 x    22               405504       0.0%    100.0%      0.0%     
 flops    22 x    32 x    32               405504       0.0%    100.0%      0.0%     
 flops    32 x    22 x    32               405504       0.0%    100.0%      0.0%     
 flops    26 x    22 x   113               517088       0.0%    100.0%      0.0%     
 flops    51 x    22 x   119               534072       0.0%    100.0%      0.0%     
 flops    63 x    22 x    22               548856       0.0%    100.0%      0.0%     
 flops    13 x    22 x    22               566280       0.0%    100.0%      0.0%     
 flops    10 x    16 x    16               573440       0.0%    100.0%      0.0%     
 flops    57 x    22 x   119               596904       0.0%    100.0%      0.0%     
 flops    51 x    22 x    32               646272       0.0%    100.0%      0.0%     
 flops    51 x    32 x    22               646272       0.0%    100.0%      0.0%     
 flops    62 x    22 x   119               649264       0.0%    100.0%      0.0%     
 flops    22 x    22 x   113               656304       0.0%    100.0%      0.0%     
 flops    57 x    22 x    32               722304       0.0%    100.0%      0.0%     
 flops    57 x    32 x    22               722304       0.0%    100.0%      0.0%     
 flops    62 x    32 x    22               785664       0.0%    100.0%      0.0%     
 flops    62 x    22 x    32               785664       0.0%    100.0%      0.0%     
 flops    76 x    22 x   119               795872       0.0%    100.0%      0.0%     
 flops    89 x    22 x   119               932008       0.0%    100.0%      0.0%     
 flops    76 x    22 x    32               963072       0.0%    100.0%      0.0%     
 flops    76 x    32 x    22               963072       0.0%    100.0%      0.0%     
 flops    51 x    22 x   113              1014288       0.0%    100.0%      0.0%     
 flops    26 x    22 x   114              1043328       0.0%    100.0%      0.0%     
 flops    89 x    22 x    32              1127808       0.0%    100.0%      0.0%     
 flops    89 x    32 x    22              1127808       0.0%    100.0%      0.0%     
 flops    57 x    22 x   113              1133616       0.0%    100.0%      0.0%     
 flops    56 x    22 x   119              1172864       0.0%    100.0%      0.0%     
 flops    26 x    32 x   119              1188096       0.0%    100.0%      0.0%     
 flops    38 x    22 x   119              1193808       0.0%    100.0%      0.0%     
 flops    62 x    22 x   113              1233056       0.0%    100.0%      0.0%     
 flops    27 x    16 x    16              1244160       0.0%    100.0%      0.0%     
 flops    22 x    22 x   114              1324224       0.0%    100.0%      0.0%     
 flops    56 x    32 x    22              1419264       0.0%    100.0%      0.0%     
 flops    56 x    22 x    32              1419264       0.0%    100.0%      0.0%     
 flops    38 x    32 x    22              1444608       0.0%    100.0%      0.0%     
 flops    38 x    22 x    32              1444608       0.0%    100.0%      0.0%     
 flops    22 x    32 x   119              1507968       0.0%    100.0%      0.0%     
 flops    32 x    22 x   119              1507968       0.0%    100.0%      0.0%     
 flops    76 x    22 x   113              1511488       0.0%    100.0%      0.0%     
 flops    89 x    22 x   113              1770032       0.0%    100.0%      0.0%     
 flops    63 x    22 x   119              1979208       0.0%    100.0%      0.0%     
 flops    51 x    22 x   114              2046528       0.0%    100.0%      0.0%     
 flops     6 x    32 x    32              2064384       0.0%    100.0%      0.0%     
 flops    56 x    22 x   113              2227456       0.0%    100.0%      0.0%     
 flops    26 x    32 x   113              2256384       0.0%    100.0%      0.0%     
 flops    38 x    22 x   113              2267232       0.0%    100.0%      0.0%     
 flops    57 x    22 x   114              2287296       0.0%    100.0%      0.0%     
 flops    51 x    32 x   119              2330496       0.0%    100.0%      0.0%     
 flops    63 x    22 x    32              2395008       0.0%    100.0%      0.0%     
 flops    63 x    32 x    22              2395008       0.0%    100.0%      0.0%     
 flops    62 x    22 x   114              2487936       0.0%    100.0%      0.0%     
 flops    57 x    32 x   119              2604672       0.0%    100.0%      0.0%     
 flops    51 x    32 x    32              2820096       0.0%    100.0%      0.0%     
 flops    62 x    32 x   119              2833152       0.0%    100.0%      0.0%     
 flops    22 x    32 x   113              2863872       0.0%    100.0%      0.0%     
 flops    32 x    22 x   113              2863872       0.0%    100.0%      0.0%     
 flops    76 x    22 x   114              3049728       0.0%    100.0%      0.0%     
 flops    57 x    32 x    32              3151872       0.0%    100.0%      0.0%     
 flops    62 x    32 x    32              3428352       0.0%    100.0%      0.0%     
 flops    10 x    28 x    55              3449600       0.0%    100.0%      0.0%     
 flops    76 x    32 x   119              3472896       0.0%    100.0%      0.0%     
 flops    89 x    22 x   114              3571392       0.0%    100.0%      0.0%     
 flops    10 x    29 x    55              3572800       0.0%    100.0%      0.0%     
 flops    13 x    32 x    32              3594240       0.0%    100.0%      0.0%     
 flops    63 x    22 x   113              3758832       0.0%    100.0%      0.0%     
 flops    10 x    32 x    55              3942400       0.0%    100.0%      0.0%     
 flops    10 x    33 x    55              4065600       0.0%    100.0%      0.0%     
 flops    89 x    32 x   119              4066944       0.0%    100.0%      0.0%     
 flops    10 x    28 x    44              4139520       0.0%    100.0%      0.0%     
 flops    10 x    34 x    55              4188800       0.0%    100.0%      0.0%     
 flops    76 x    32 x    32              4202496       0.0%    100.0%      0.0%     
 flops    51 x    32 x   113              4425984       0.0%    100.0%      0.0%     
 flops    56 x    22 x   114              4494336       0.0%    100.0%      0.0%     
 flops    26 x    32 x   114              4552704       0.0%    100.0%      0.0%     
 flops    38 x    22 x   114              4574592       0.0%    100.0%      0.0%     
 flops    32 x    16 x    16              4784128       0.0%    100.0%      0.0%     
 flops    89 x    32 x    32              4921344       0.0%    100.0%      0.0%     
 flops    57 x    32 x   113              4946688       0.0%    100.0%      0.0%     
 flops     6 x     6 x    22              5056128       0.0%    100.0%      0.0%     
 flops    56 x    32 x   119              5117952       0.0%    100.0%      0.0%     
 flops    38 x    32 x   119              5209344       0.0%    100.0%      0.0%     
 flops    62 x    32 x   113              5380608       0.0%    100.0%      0.0%     
 flops    22 x    32 x   114              5778432       0.0%    100.0%      0.0%     
 flops    32 x    22 x   114              5778432       0.0%    100.0%      0.0%     
 flops    10 x    30 x    44              5913600       0.0%    100.0%      0.0%     
 flops    56 x    32 x    32              6193152       0.0%    100.0%      0.0%     
 flops    38 x    32 x    32              6303744       0.0%    100.0%      0.0%     
 flops    32 x    32 x   119              6580224       0.0%    100.0%      0.0%     
 flops    76 x    32 x   113              6595584       0.0%    100.0%      0.0%     
 flops    27 x    28 x    55              7484400       0.0%    100.0%      0.0%     
 flops    63 x    22 x   114              7584192       0.0%    100.0%      0.0%     
 flops    89 x    32 x   113              7723776       0.0%    100.0%      0.0%     
 flops    27 x    29 x    55              7751700       0.0%    100.0%      0.0%     
 flops    27 x    32 x    55              8553600       0.0%    100.0%      0.0%     
 flops    63 x    32 x   119              8636544       0.0%    100.0%      0.0%     
 flops    13 x     6 x    22              8648640       0.0%    100.0%      0.0%     
 flops     6 x    13 x    22              8648640       0.0%    100.0%      0.0%     
 flops    27 x    33 x    55              8820900       0.0%    100.0%      0.0%     
 flops    51 x    32 x   114              8930304       0.0%    100.0%      0.0%     
 flops    27 x    28 x    44              8981280       0.0%    100.0%      0.0%     
 flops    27 x    34 x    55              9088200       0.0%    100.0%      0.0%     
 flops    56 x    32 x   113              9719808       0.0%    100.0%      0.0%     
 flops    38 x    32 x   113              9893376       0.0%    100.0%      0.0%     
 flops    57 x    32 x   114              9980928       0.0%    100.0%      0.0%     
 flops    63 x    32 x    32             10450944       0.0%    100.0%      0.0%     
 flops    10 x    31 x    44             10693760       0.0%    100.0%      0.0%     
 flops    62 x    32 x   114             10856448       0.0%    100.0%      0.0%     
 flops    32 x    32 x   113             12496896       0.0%    100.0%      0.0%     
 flops    27 x    30 x    44             12830400       0.0%    100.0%      0.0%     
 flops    10 x    29 x    44             12862080       0.0%    100.0%      0.0%     
 flops    76 x    32 x   114             13307904       0.0%    100.0%      0.0%     
 flops    13 x    13 x    22             15392520       0.0%    100.0%      0.0%     
 flops    89 x    32 x   114             15584256       0.0%    100.0%      0.0%     
 flops    63 x    32 x   113             16402176       0.0%    100.0%      0.0%     
 flops    10 x    26 x    44             17937920       0.0%    100.0%      0.0%     
 flops    56 x    32 x   114             19611648       0.0%    100.0%      0.0%     
 flops    38 x    32 x   114             19961856       0.0%    100.0%      0.0%     
 flops    27 x    31 x    44             23201640       0.0%    100.0%      0.0%     
 flops    32 x    32 x   114             25214976       0.0%    100.0%      0.0%     
 flops    27 x    29 x    44             27906120       0.0%    100.0%      0.0%     
 flops    32 x    28 x    55             28779520       0.0%    100.0%      0.0%     
 flops     6 x    22 x     6             29804544       0.0%    100.0%      0.0%     
 flops    32 x    29 x    55             29807360       0.0%    100.0%      0.0%     
 flops    32 x    32 x    55             32890880       0.0%    100.0%      0.0%     
 flops    63 x    32 x   114             33094656       0.0%    100.0%      0.0%     
 flops    32 x    33 x    55             33918720       0.0%    100.0%      0.0%     
 flops    32 x    28 x    44             34535424       0.0%    100.0%      0.0%     
 flops    32 x    34 x    55             34946560       0.0%    100.0%      0.0%     
 flops    21 x    15 x    10             38215800       0.0%    100.0%      0.0%     
 flops    27 x    26 x    44             38918880       0.0%    100.0%      0.0%     
 flops    32 x    30 x    44             49336320       0.0%    100.0%      0.0%     
 flops    13 x    22 x     6             51891840       0.0%    100.0%      0.0%     
 flops     6 x    22 x    13             51891840       0.0%    100.0%      0.0%     
 flops    20 x    15 x    10             60660000       0.0%    100.0%      0.0%     
 flops    21 x    16 x    10             61266240       0.0%    100.0%      0.0%     
 flops    16 x    15 x    10             67939200       0.0%    100.0%      0.0%     
 flops    21 x    28 x    10             71724240       0.0%    100.0%      0.0%     
 flops    21 x    32 x    10             81889920       0.0%    100.0%      0.0%     
 flops    21 x    15 x    27             86138640       0.0%    100.0%      0.0%     
 flops    21 x    34 x    10             86579640       0.0%    100.0%      0.0%     
 flops    32 x    31 x    44             89216512       0.0%    100.0%      0.0%     
 flops    13 x    22 x    13             90347400       0.0%    100.0%      0.0%     
 flops    20 x    16 x    10             97248000       0.0%    100.0%      0.0%     
 flops    21 x    20 x    10            102337200       0.0%    100.0%      0.0%     
 flops    21 x    21 x    10            107295300       0.0%    100.0%      0.0%     
 flops    32 x    29 x    44            107306496       0.0%    100.0%      0.0%     
 flops    16 x    16 x    10            108917760       0.0%    100.0%      0.0%     
 flops    30 x    15 x    10            109188000       0.0%    100.0%      0.0%     
 flops    26 x    15 x    10            110401200       0.0%    100.0%      0.0%     
 flops    20 x    28 x    10            113848000       0.0%    100.0%      0.0%     
 flops    16 x    28 x    10            127509760       0.0%    100.0%      0.0%     
 flops    20 x    32 x    10            129984000       0.0%    100.0%      0.0%     
 flops     6 x    32 x     6            130056192       0.0%    100.0%      0.0%     
 flops    20 x    15 x    27            136728000       0.0%    100.0%      0.0%     
 flops    20 x    34 x    10            137428000       0.0%    100.0%      0.0%     
 flops    21 x    16 x    27            138964896       0.0%    100.0%      0.0%     
 flops    16 x    32 x    10            145582080       0.0%    100.0%      0.0%     
 flops    32 x    26 x    44            149653504       0.0%    100.0%      0.0%     
 flops    16 x    15 x    27            153135360       0.0%    100.0%      0.0%     
 flops    21 x    30 x    10            153543600       0.0%    100.0%      0.0%     
 flops    16 x    34 x    10            153919360       0.0%    100.0%      0.0%     
 flops    29 x    15 x    10            158322600       0.0%    100.0%      0.0%     
 flops    20 x    20 x    10            162440000       0.0%    100.0%      0.0%     
 flops    21 x    28 x    27            162506736       0.0%    100.0%      0.0%     
 flops    20 x    21 x    10            170310000       0.0%    100.0%      0.0%     
 flops    30 x    16 x    10            175046400       0.0%    100.0%      0.0%     
 flops    26 x    16 x    10            176991360       0.0%    100.0%      0.0%     
 flops    10 x    10 x    26            177923200       0.0%    100.0%      0.0%     
 flops    16 x    20 x    10            181932800       0.0%    100.0%      0.0%     
 flops    21 x    32 x    27            184851072       0.0%    100.0%      0.0%     
 flops    10 x    10 x    30            188160000       0.0%    100.0%      0.0%     
 flops    16 x    21 x    10            190747200       0.0%    100.0%      0.0%     
 flops    10 x    15 x    26            192192000       0.0%    100.0%      0.0%     
 flops    21 x    34 x    27            194900580       0.0%    100.0%      0.0%     
 flops    10 x    15 x    30            203112000       0.0%    100.0%      0.0%     
 flops    30 x    28 x    10            204926400       0.0%    100.0%      0.0%     
 flops    10 x    16 x    26            205004800       0.0%    100.0%      0.0%     
 flops    26 x    28 x    10            207203360       0.0%    100.0%      0.0%     
 flops    10 x    16 x    30            215040000       0.0%    100.0%      0.0%     
 flops    10 x    10 x    29            218265600       0.0%    100.0%      0.0%     
 flops    20 x    16 x    27            220579200       0.0%    100.0%      0.0%     
 flops    13 x    32 x     6            226437120       0.0%    100.0%      0.0%     
 flops     6 x    32 x    13            226437120       0.0%    100.0%      0.0%     
 flops    21 x    20 x    27            231472080       0.0%    100.0%      0.0%     
 flops    30 x    32 x    10            233971200       0.0%    100.0%      0.0%     
 flops    10 x    15 x    29            234343200       0.0%    100.0%      0.0%     
 flops    21 x    26 x    10            234496080       0.0%    100.0%      0.0%     
 flops    26 x    32 x    10            236570880       0.0%    100.0%      0.0%     
 flops    21 x    21 x    27            243045684       0.0%    100.0%      0.0%     
 flops    20 x    30 x    10            243720000       0.0%    100.0%      0.0%     
 flops    30 x    15 x    27            246110400       0.0%    100.0%      0.0%     
 flops    16 x    16 x    27            247048704       0.0%    100.0%      0.0%     
 flops    30 x    34 x    10            247370400       0.0%    100.0%      0.0%     
 flops    26 x    15 x    27            248844960       0.0%    100.0%      0.0%     
 flops    10 x    16 x    29            249446400       0.0%    100.0%      0.0%     
 flops    26 x    34 x    10            250118960       0.0%    100.0%      0.0%     
 flops    29 x    16 x    10            253817280       0.0%    100.0%      0.0%     
 flops    20 x    28 x    27            257947200       0.0%    100.0%      0.0%     
 flops    16 x    30 x    10            272966400       0.0%    100.0%      0.0%     
 flops    16 x    28 x    27            288900864       0.0%    100.0%      0.0%     
 flops    30 x    20 x    10            292392000       0.0%    100.0%      0.0%     
 flops    20 x    32 x    27            293414400       0.0%    100.0%      0.0%     
 flops    26 x    20 x    10            295640800       0.0%    100.0%      0.0%     
 flops    29 x    28 x    10            297143280       0.0%    100.0%      0.0%     
 flops    30 x    21 x    10            306558000       0.0%    100.0%      0.0%     
 flops    20 x    34 x    27            309366000       0.0%    100.0%      0.0%     
 flops    26 x    21 x    10            309964200       0.0%    100.0%      0.0%     
 flops    21 x    31 x    10            317909340       0.0%    100.0%      0.0%     
 flops    16 x    32 x    27            328624128       0.0%    100.0%      0.0%     
 flops    21 x    15 x    32            331188480       0.0%    100.0%      0.0%     
 flops    29 x    32 x    10            339258240       0.0%    100.0%      0.0%     
 flops    16 x    34 x    27            346489920       0.0%    100.0%      0.0%     
 flops    21 x    30 x    27            346493700       0.0%    100.0%      0.0%     
 flops    10 x    15 x    10            348195000       0.0%    100.0%      0.0%     
 flops    29 x    15 x    27            356860080       0.0%    100.0%      0.0%     
 flops    29 x    34 x    10            358687080       0.0%    100.0%      0.0%     
 flops    10 x    28 x    26            363650560       0.0%    100.0%      0.0%     
 flops    20 x    20 x    27            367416000       0.0%    100.0%      0.0%     
 flops    20 x    26 x    10            372216000       0.0%    100.0%      0.0%     
 flops    21 x    29 x    10            372379140       0.0%    100.0%      0.0%     
 flops    10 x    16 x    10            372921600       0.0%    100.0%      0.0%     
 flops    27 x    10 x    26            382112640       0.0%    100.0%      0.0%     
 flops    20 x    21 x    27            385786800       0.0%    100.0%      0.0%     
 flops    10 x    27 x    26            386029800       0.0%    100.0%      0.0%     
 flops    10 x    28 x    30            386668800       0.0%    100.0%      0.0%     
 flops    13 x    32 x    13            394243200       0.0%    100.0%      0.0%     
 flops    30 x    16 x    27            397042560       0.0%    100.0%      0.0%     
 flops    26 x    16 x    27            401454144       0.0%    100.0%      0.0%     
 flops    10 x    27 x    30            408240000       0.0%    100.0%      0.0%     
 flops    27 x    10 x    30            408240000       0.0%    100.0%      0.0%     
 flops    16 x    20 x    27            411505920       0.0%    100.0%      0.0%     
 flops    16 x    26 x    10            416881920       0.0%    100.0%      0.0%     
 flops    27 x    15 x    26            416988000       0.0%    100.0%      0.0%     
 flops    29 x    20 x    10            423968400       0.0%    100.0%      0.0%     
 flops    16 x    21 x    27            432081216       0.0%    100.0%      0.0%     
 flops    30 x    30 x    10            438696000       0.0%    100.0%      0.0%     
 flops    10 x    33 x    26            440119680       0.0%    100.0%      0.0%     
 flops    27 x    15 x    30            440680500       0.0%    100.0%      0.0%     
 flops    26 x    30 x    10            443570400       0.0%    100.0%      0.0%     
 flops    29 x    21 x    10            444509100       0.0%    100.0%      0.0%     
 flops    27 x    16 x    26            444787200       0.0%    100.0%      0.0%     
 flops    10 x    28 x    29            448353920       0.0%    100.0%      0.0%     
 flops    10 x    34 x    26            453456640       0.0%    100.0%      0.0%     
 flops    30 x    28 x    27            464304960       0.0%    100.0%      0.0%     
 flops    10 x    33 x    30            465696000       0.0%    100.0%      0.0%     
 flops    27 x    16 x    30            466560000       0.0%    100.0%      0.0%     
 flops    26 x    28 x    27            469463904       0.0%    100.0%      0.0%     
 flops    10 x    27 x    29            473558400       0.0%    100.0%      0.0%     
 flops    27 x    10 x    29            473558400       0.0%    100.0%      0.0%     
 flops    10 x    34 x    30            479808000       0.0%    100.0%      0.0%     
 flops    20 x    31 x    10            504618000       0.0%    100.0%      0.0%     
 flops    27 x    15 x    29            508441050       0.0%    100.0%      0.0%     
 flops    10 x    20 x    26            513094400       0.0%    100.0%      0.0%     
 flops    20 x    15 x    32            525696000       0.0%    100.0%      0.0%     
 flops    30 x    32 x    27            528145920       0.0%    100.0%      0.0%     
 flops    21 x    26 x    27            528589152       0.0%    100.0%      0.0%     
 flops    21 x    16 x    32            532482048       0.0%    100.0%      0.0%     
 flops    26 x    32 x    27            534014208       0.0%    100.0%      0.0%     
 flops    10 x    33 x    29            540207360       0.0%    100.0%      0.0%     
 flops    27 x    16 x    29            541209600       0.0%    100.0%      0.0%     
 flops    20 x    30 x    27            549990000       0.0%    100.0%      0.0%     
 flops    10 x    20 x    30            552384000       0.0%    100.0%      0.0%     
 flops    10 x    34 x    29            556577280       0.0%    100.0%      0.0%     
 flops    30 x    34 x    27            556858800       0.0%    100.0%      0.0%     
 flops    26 x    34 x    27            563046120       0.0%    100.0%      0.0%     
 flops    16 x    31 x    10            565172160       0.0%    100.0%      0.0%     
 flops    29 x    16 x    27            575711712       0.0%    100.0%      0.0%     
 flops    16 x    15 x    32            588779520       0.0%    100.0%      0.0%     
 flops    20 x    29 x    10            591078000       0.0%    100.0%      0.0%     
 flops    16 x    30 x    27            615988800       0.0%    100.0%      0.0%     
 flops    21 x    28 x    32            623411712       0.0%    100.0%      0.0%     
 flops    29 x    30 x    10            636109200       0.0%    100.0%      0.0%     
 flops    10 x    20 x    29            637907200       0.0%    100.0%      0.0%     
 flops    10 x    28 x    10            656818400       0.0%    100.0%      0.0%     
 flops    30 x    20 x    27            661348800       0.0%    100.0%      0.0%     
 flops    16 x    29 x    10            662007360       0.0%    100.0%      0.0%     
 flops    26 x    20 x    27            668697120       0.0%    100.0%      0.0%     
 flops    30 x    26 x    10            669988800       0.0%    100.0%      0.0%     
 flops    10 x    21 x    26            672672000       0.0%    100.0%      0.0%     
 flops    29 x    28 x    27            673242192       0.0%    100.0%      0.0%     
 flops    26 x    26 x    10            677433120       0.0%    100.0%      0.0%     
 flops    30 x    21 x    27            694416240       0.0%    100.0%      0.0%     
 flops    26 x    21 x    27            702131976       0.0%    100.0%      0.0%     
 flops    21 x    32 x    32            709632000       0.0%    100.0%      0.0%     
 flops    21 x    31 x    27            720199998       0.0%    100.0%      0.0%     
 flops    10 x    21 x    30            720417600       0.0%    100.0%      0.0%     
 flops    21 x    34 x    32            748774656       0.0%    100.0%      0.0%     
 flops    29 x    32 x    27            765811584       0.0%    100.0%      0.0%     
 flops    10 x    33 x    10            767005800       0.0%    100.0%      0.0%     
 flops    10 x    15 x    27            771735600       0.0%    100.0%      0.0%     
 flops    27 x    15 x    10            773242200       0.0%    100.0%      0.0%     
 flops    27 x    28 x    26            788991840       0.0%    100.0%      0.0%     
 flops    10 x    34 x    10            791139200       0.0%    100.0%      0.0%     
 flops    10 x    31 x    26            794393600       0.0%    100.0%      0.0%     
 flops    29 x    34 x    27            807445260       0.0%    100.0%      0.0%     
 flops    10 x    16 x    27            824126400       0.0%    100.0%      0.0%     
 flops    27 x    16 x    10            826234560       0.0%    100.0%      0.0%     
 flops    27 x    27 x    26            829047960       0.0%    100.0%      0.0%     
 flops    10 x    21 x    29            830773440       0.0%    100.0%      0.0%     
 flops    27 x    28 x    30            838933200       0.0%    100.0%      0.0%     
 flops    20 x    26 x    27            839030400       0.0%    100.0%      0.0%     
 flops    21 x    29 x    27            840368844       0.0%    100.0%      0.0%     
 flops    10 x    31 x    30            843696000       0.0%    100.0%      0.0%     
 flops    20 x    16 x    32            845209600       0.0%    100.0%      0.0%     
 flops    27 x    27 x    30            885735000       0.0%    100.0%      0.0%     
 flops    21 x    20 x    32            888088320       0.0%    100.0%      0.0%     
 flops    30 x    31 x    10            908312400       0.0%    100.0%      0.0%     
 flops    26 x    31 x    10            918404760       0.0%    100.0%      0.0%     
 flops    10 x    20 x    10            930840000       0.0%    100.0%      0.0%     
 flops    21 x    21 x    32            931815360       0.0%    100.0%      0.0%     
 flops    16 x    26 x    27            939714048       0.0%    100.0%      0.0%     
 flops    30 x    15 x    32            946252800       0.0%    100.0%      0.0%     
 flops    16 x    16 x    32            946634752       0.0%    100.0%      0.0%     
 flops    27 x    33 x    26            954902520       0.0%    100.0%      0.0%     
 flops    26 x    15 x    32            956766720       0.0%    100.0%      0.0%     
 flops    29 x    20 x    27            958955760       0.0%    100.0%      0.0%     
 flops    10 x    30 x    26            971443200       0.0%    100.0%      0.0%     
 flops    29 x    26 x    10            971483760       0.0%    100.0%      0.0%     
 flops    27 x    28 x    29            972767880       0.0%    100.0%      0.0%     
 flops    10 x    31 x    29            976673600       0.0%    100.0%      0.0%     
 flops    27 x    34 x    26            983838960       0.0%    100.0%      0.0%     
 flops    20 x    28 x    32            989542400       0.0%    100.0%      0.0%     
 flops    30 x    30 x    27            989982000       0.0%    100.0%      0.0%     
 flops    26 x    30 x    27           1000981800       0.0%    100.0%      0.0%     
 flops    10 x    26 x    26           1003184000       0.0%    100.0%      0.0%     
 flops    29 x    21 x    27           1006903548       0.0%    100.0%      0.0%     
 flops    27 x    33 x    30           1010394000       0.0%    100.0%      0.0%     
 flops    27 x    27 x    29           1027452600       0.0%    100.0%      0.0%     
 flops    10 x    30 x    30           1038240000       0.0%    100.0%      0.0%     
 flops    27 x    34 x    30           1041012000       0.0%    100.0%      0.0%     
 flops    10 x    26 x    30           1059676800       0.0%    100.0%      0.0%     
 flops    30 x    29 x    10           1063940400       0.0%    100.0%      0.0%     
 flops    26 x    29 x    10           1075761960       0.0%    100.0%      0.0%     
 flops    16 x    28 x    32           1108287488       0.0%    100.0%      0.0%     
 flops    27 x    20 x    26           1113231600       0.0%    100.0%      0.0%     
 flops    20 x    32 x    32           1126400000       0.0%    100.0%      0.0%     
 flops    20 x    31 x    27           1143174600       0.0%    100.0%      0.0%     
 flops    27 x    33 x    29           1172057040       0.0%    100.0%      0.0%     
 flops    20 x    34 x    32           1188531200       0.0%    100.0%      0.0%     
 flops    10 x    30 x    29           1196563200       0.0%    100.0%      0.0%     
 flops    27 x    20 x    30           1198476000       0.0%    100.0%      0.0%     
 flops    27 x    34 x    29           1207573920       0.0%    100.0%      0.0%     
 flops    10 x    21 x    10           1221423000       0.0%    100.0%      0.0%     
 flops    10 x    26 x    29           1228718400       0.0%    100.0%      0.0%     
 flops    16 x    32 x    32           1261568000       0.0%    100.0%      0.0%     
 flops    16 x    31 x    27           1280355552       0.0%    100.0%      0.0%     
 flops    29 x    31 x    10           1317052980       0.0%    100.0%      0.0%     
 flops    16 x    34 x    32           1331154944       0.0%    100.0%      0.0%     
 flops    21 x    30 x    32           1332011520       0.0%    100.0%      0.0%     
 flops    20 x    29 x    27           1333918800       0.0%    100.0%      0.0%     
 flops    29 x    15 x    32           1372066560       0.0%    100.0%      0.0%     
 flops    27 x    20 x    29           1384030800       0.0%    100.0%      0.0%     
 flops    20 x    20 x    32           1409664000       0.0%    100.0%      0.0%     
 flops    29 x    30 x    27           1435473900       0.0%    100.0%      0.0%     
 flops    10 x    28 x    27           1445381280       0.0%    100.0%      0.0%     
 flops    27 x    28 x    10           1453394880       0.0%    100.0%      0.0%     
 flops    10 x    31 x    10           1456646600       0.0%    100.0%      0.0%     
 flops    27 x    21 x    26           1459458000       0.0%    100.0%      0.0%     
 flops    32 x    10 x    26           1470443520       0.0%    100.0%      0.0%     
 flops    20 x    21 x    32           1479072000       0.0%    100.0%      0.0%     
 flops    10 x    32 x    10           1490822400       0.0%    100.0%      0.0%     
 flops    16 x    29 x    27           1493989056       0.0%    100.0%      0.0%     
 flops    10 x    29 x    26           1495574080       0.0%    100.0%      0.0%     
 flops    30 x    26 x    27           1510254720       0.0%    100.0%      0.0%     
 flops    30 x    16 x    32           1521377280       0.0%    100.0%      0.0%     
 flops    26 x    26 x    27           1527035328       0.0%    100.0%      0.0%     
 flops    26 x    16 x    32           1538281472       0.0%    100.0%      0.0%     
 flops    29 x    29 x    10           1542713580       0.0%    100.0%      0.0%     
 flops    27 x    21 x    30           1563048900       0.0%    100.0%      0.0%     
 flops    32 x    10 x    30           1569792000       0.0%    100.0%      0.0%     
 flops    16 x    20 x    32           1578823680       0.0%    100.0%      0.0%     
 flops    10 x    29 x    30           1597041600       0.0%    100.0%      0.0%     
 flops    32 x    15 x    26           1603430400       0.0%    100.0%      0.0%     
 flops    16 x    21 x    32           1656560640       0.0%    100.0%      0.0%     
 flops    10 x    33 x    27           1694200860       0.0%    100.0%      0.0%     
 flops    32 x    15 x    30           1694534400       0.0%    100.0%      0.0%     
 flops    27 x    33 x    10           1699707240       0.0%    100.0%      0.0%     
 flops    27 x    15 x    27           1706756670       0.0%    100.0%      0.0%     
 flops    32 x    16 x    26           1710325760       0.0%    100.0%      0.0%     
 flops    27 x    31 x    26           1723550400       0.0%    100.0%      0.0%     
 flops    10 x    34 x    27           1745778960       0.0%    100.0%      0.0%     
 flops    10 x    30 x    10           1751604000       0.0%    100.0%      0.0%     
 flops    27 x    34 x    10           1753416720       0.0%    100.0%      0.0%     
 flops    30 x    28 x    32           1781176320       0.0%    100.0%      0.0%     
 flops    32 x    16 x    30           1794048000       0.0%    100.0%      0.0%     
 flops    26 x    28 x    32           1800967168       0.0%    100.0%      0.0%     
 flops    27 x    21 x    29           1802481660       0.0%    100.0%      0.0%     
 flops    32 x    10 x    29           1820958720       0.0%    100.0%      0.0%     
 flops    27 x    16 x    27           1823736384       0.0%    100.0%      0.0%     
 flops    27 x    31 x    30           1830519000       0.0%    100.0%      0.0%     
 flops    10 x    26 x    10           1835750800       0.0%    100.0%      0.0%     
 flops    10 x    29 x    29           1850872800       0.0%    100.0%      0.0%     
 flops     6 x     6 x    10           1948924080       0.0%    100.0%      0.0%     
 flops    32 x    15 x    29           1955091840       0.0%    100.0%      0.0%     
 flops    30 x    32 x    32           2027520000       0.0%    100.0%      0.0%     
 flops    21 x    26 x    32           2029233024       0.0%    100.0%      0.0%     
 flops    26 x    32 x    32           2051485696       0.0%    100.0%      0.0%     
 flops    10 x    20 x    27           2055844800       0.0%    100.0%      0.0%     
 flops    30 x    31 x    27           2057714280       0.0%    100.0%      0.0%     
 flops    27 x    20 x    10           2064387600       0.0%    100.0%      0.0%     
 flops    26 x    31 x    27           2080577772       0.0%    100.0%      0.0%     
 flops    32 x    16 x    29           2081095680       0.0%    100.0%      0.0%     
 flops    27 x    30 x    26           2107684800       0.0%    100.0%      0.0%     
 flops    20 x    30 x    32           2114304000       0.0%    100.0%      0.0%     
 flops    27 x    31 x    29           2119032900       0.0%    100.0%      0.0%     
 flops    30 x    34 x    32           2139356160       0.0%    100.0%      0.0%     
 flops    26 x    34 x    32           2163126784       0.0%    100.0%      0.0%     
 flops    27 x    26 x    26           2176551000       0.0%    100.0%      0.0%     
 flops    29 x    26 x    27           2189869344       0.0%    100.0%      0.0%     
 flops    29 x    16 x    32           2205997056       0.0%    100.0%      0.0%     
 flops    27 x    30 x    30           2252610000       0.0%    100.0%      0.0%     
 flops    27 x    26 x    30           2299120200       0.0%    100.0%      0.0%     
 flops    10 x    32 x    26           2330498560       0.0%    100.0%      0.0%     
 flops    16 x    30 x    32           2368020480       0.0%    100.0%      0.0%     
 flops    30 x    29 x    27           2401053840       0.0%    100.0%      0.0%     
 flops    26 x    29 x    27           2427732216       0.0%    100.0%      0.0%     
 flops    10 x    32 x    30           2466508800       0.0%    100.0%      0.0%     
 flops    30 x    20 x    32           2537395200       0.0%    100.0%      0.0%     
 flops    26 x    20 x    32           2565588480       0.0%    100.0%      0.0%     
 flops    29 x    28 x    32           2582705664       0.0%    100.0%      0.0%     
 flops    27 x    30 x    29           2596114800       0.0%    100.0%      0.0%     
 flops    30 x    21 x    32           2662329600       0.0%    100.0%      0.0%     
 flops    27 x    26 x    29           2665880100       0.0%    100.0%      0.0%     
 flops    26 x    21 x    32           2691911040       0.0%    100.0%      0.0%     
 flops    10 x    21 x    27           2699373600       0.0%    100.0%      0.0%     
 flops    27 x    21 x    10           2711711520       0.0%    100.0%      0.0%     
 flops    10 x    29 x    10           2712619400       0.0%    100.0%      0.0%     
 flops    21 x    31 x    32           2764573056       0.0%    100.0%      0.0%     
 flops    10 x    32 x    29           2860318720       0.0%    100.0%      0.0%     
 flops    29 x    32 x    32           2939904000       0.0%    100.0%      0.0%     
 flops    10 x    15 x    32           2962214400       0.0%    100.0%      0.0%     
 flops    32 x    15 x    10           2971142400       0.0%    100.0%      0.0%     
 flops    29 x    31 x    27           2983685706       0.0%    100.0%      0.0%     
 flops    32 x    28 x    26           3033884672       0.0%    100.0%      0.0%     
 flops    29 x    34 x    32           3102066432       0.0%    100.0%      0.0%     
 flops    10 x    16 x    32           3168501760       0.0%    100.0%      0.0%     
 flops    32 x    16 x    10           3175915520       0.0%    100.0%      0.0%     
 flops    32 x    27 x    26           3190337280       0.0%    100.0%      0.0%     
 flops    27 x    28 x    27           3202397856       0.0%    100.0%      0.0%     
 flops    10 x    31 x    27           3210748740       0.0%    100.0%      0.0%     
 flops    20 x    26 x    32           3221004800       0.0%    100.0%      0.0%     
 flops    27 x    31 x    10           3222516960       0.0%    100.0%      0.0%     
 flops    32 x    28 x    30           3225922560       0.0%    100.0%      0.0%     
 flops    21 x    29 x    32           3228615936       0.0%    100.0%      0.0%     
 flops    27 x    29 x    26           3244861620       0.0%    100.0%      0.0%     
 flops    10 x     6 x    10           3272407200       0.0%    100.0%      0.0%     
 flops    10 x    32 x    27           3288660480       0.0%    100.0%      0.0%     
 flops    27 x    32 x    10           3305957760       0.0%    100.0%      0.0%     
 flops    32 x    27 x    30           3405888000       0.0%    100.0%      0.0%     
 flops     6 x    13 x    10           3457939680       0.0%    100.0%      0.0%     
 flops    27 x    29 x    30           3465009900       0.0%    100.0%      0.0%     
 flops    29 x    29 x    27           3481528068       0.0%    100.0%      0.0%     
 flops    16 x    26 x    32           3607525376       0.0%    100.0%      0.0%     
 flops    32 x    33 x    26           3671855616       0.0%    100.0%      0.0%     
 flops    29 x    20 x    32           3679223040       0.0%    100.0%      0.0%     
 flops    32 x    28 x    29           3740552704       0.0%    100.0%      0.0%     
 flops    27 x    33 x    27           3752603316       0.0%    100.0%      0.0%     
 flops    32 x    34 x    26           3783123968       0.0%    100.0%      0.0%     
 flops    30 x    30 x    32           3805747200       0.0%    100.0%      0.0%     
 flops    26 x    30 x    32           3848033280       0.0%    100.0%      0.0%     
 flops    29 x    21 x    32           3860377920       0.0%    100.0%      0.0%     
 flops    10 x    10 x   308           3863552000       0.0%    100.0%      0.0%     
 flops    10 x    30 x    27           3865158000       0.0%    100.0%      0.0%     
 flops    27 x    34 x    27           3866913432       0.0%    100.0%      0.0%     
 flops    27 x    30 x    10           3878944200       0.0%    100.0%      0.0%     
 flops    32 x    33 x    30           3885235200       0.0%    100.0%      0.0%     
 flops    32 x    27 x    29           3950830080       0.0%    100.0%      0.0%     
 flops    32 x    34 x    30           4002969600       0.0%    100.0%      0.0%     
 flops    27 x    29 x    29           4015732950       0.0%    100.0%      0.0%     
 flops    10 x    26 x    27           4037609160       0.0%    100.0%      0.0%     
 flops    27 x    26 x    10           4053558600       0.0%    100.0%      0.0%     
 flops    10 x    10 x   327           4101888000       0.0%    100.0%      0.0%     
 flops    10 x    10 x   331           4152064000       0.0%    100.0%      0.0%     
 flops    13 x     6 x    10           4261838880       0.0%    100.0%      0.0%     
 flops    32 x    20 x    26           4280673280       0.0%    100.0%      0.0%     
 flops    20 x    31 x    32           4388211200       0.0%    100.0%      0.0%     
 flops    32 x    33 x    29           4506872832       0.0%    100.0%      0.0%     
 flops    27 x    20 x    27           4546189800       0.0%    100.0%      0.0%     
 flops    32 x    20 x    30           4608460800       0.0%    100.0%      0.0%     
 flops    32 x    34 x    29           4643444736       0.0%    100.0%      0.0%     
 flops    16 x    31 x    32           4914796544       0.0%    100.0%      0.0%     
 flops    27 x    32 x    26           5023669248       0.0%    100.0%      0.0%     
 flops    20 x    29 x    32           5124787200       0.0%    100.0%      0.0%     
 flops    32 x    20 x    29           5321968640       0.0%    100.0%      0.0%     
 flops    27 x    32 x    30           5351443200       0.0%    100.0%      0.0%     
 flops    29 x    30 x    32           5518333440       0.0%    100.0%      0.0%     
 flops    10 x    28 x    32           5564715520       0.0%    100.0%      0.0%     
 flops    10 x     6 x     6           5569365600       0.0%    100.0%      0.0%     
 flops    32 x    28 x    10           5585484800       0.0%    100.0%      0.0%     
 flops    32 x    21 x    26           5612006400       0.0%    100.0%      0.0%     
 flops    16 x    29 x    32           5739761664       0.0%    100.0%      0.0%     
 flops    30 x    26 x    32           5797808640       0.0%    100.0%      0.0%     
 flops    26 x    26 x    32           5862228736       0.0%    100.0%      0.0%     
 flops    27 x    21 x    27           5969468988       0.0%    100.0%      0.0%     
 flops    10 x    29 x    27           5982871680       0.0%    100.0%      0.0%     
 flops    27 x    29 x    10           6009665940       0.0%    100.0%      0.0%     
 flops    32 x    21 x    30           6010341120       0.0%    100.0%      0.0%     
 flops    27 x    32 x    29           6205870080       0.0%    100.0%      0.0%     
 flops    10 x    33 x    32           6521328000       0.0%    100.0%      0.0%     
 flops    32 x    33 x    10           6532859520       0.0%    100.0%      0.0%     
 flops    27 x    15 x    32           6562321920       0.0%    100.0%      0.0%     
 flops    32 x    15 x    27           6563799360       0.0%    100.0%      0.0%     
 flops    32 x    31 x    26           6627512320       0.0%    100.0%      0.0%     
 flops    10 x    34 x    32           6718073600       0.0%    100.0%      0.0%     
 flops    32 x    34 x    10           6738984960       0.0%    100.0%      0.0%     
 flops    32 x    21 x    29           6931024128       0.0%    100.0%      0.0%     
 flops    32 x    16 x    27           7013329920       0.0%    100.0%      0.0%     
 flops    27 x    16 x    32           7018030080       0.0%    100.0%      0.0%     
 flops    32 x    31 x    30           7038835200       0.0%    100.0%      0.0%     
 flops    10 x    13 x    10           7063812600       0.0%    100.0%      0.0%     
 flops     6 x     6 x    27           7102172664       0.0%    100.0%      0.0%     
 flops    27 x    31 x    27           7118910990       0.0%    100.0%      0.0%     
 flops    27 x     6 x    10           7264838160       0.0%    100.0%      0.0%     
 flops    27 x    32 x    27           7284214656       0.0%    100.0%      0.0%     
 flops    13 x    13 x    10           7599331740       0.0%    100.0%      0.0%     
 flops    30 x    31 x    32           7898780160       0.0%    100.0%      0.0%     
 flops    10 x    20 x    32           7909504000       0.0%    100.0%      0.0%     
 flops    32 x    20 x    10           7932595200       0.0%    100.0%      0.0%     
 flops    26 x    31 x    32           7986544384       0.0%    100.0%      0.0%     
 flops    32 x    30 x    26           8104611840       0.0%    100.0%      0.0%     
 flops    32 x    31 x    29           8148248320       0.0%    100.0%      0.0%     
 flops    32 x    26 x    26           8369420800       0.0%    100.0%      0.0%     
 flops    10 x    27 x   308           8382528000       0.0%    100.0%      0.0%     
 flops    27 x    10 x   308           8382528000       0.0%    100.0%      0.0%     
 flops    29 x    26 x    32           8406822528       0.0%    100.0%      0.0%     
 flops    27 x    30 x    27           8565516720       0.0%    100.0%      0.0%     
 flops    32 x    30 x    30           8661888000       0.0%    100.0%      0.0%     
 flops    32 x    26 x    30           8840732160       0.0%    100.0%      0.0%     
 flops    10 x    27 x   327           8899632000       0.0%    100.0%      0.0%     
 flops    27 x    10 x   327           8899632000       0.0%    100.0%      0.0%     
 flops    27 x    26 x    27           8963194968       0.0%    100.0%      0.0%     
 flops    10 x    27 x   331           9008496000       0.0%    100.0%      0.0%     
 flops    27 x    10 x   331           9008496000       0.0%    100.0%      0.0%     
 flops    10 x    10 x     6           9207868800       0.0%    100.0%      0.0%     
 flops    30 x    29 x    32           9224616960       0.0%    100.0%      0.0%     
 flops    26 x    29 x    32           9327112704       0.0%    100.0%      0.0%     
 flops    10 x    13 x     6           9845670120       0.0%    100.0%      0.0%     
 flops    32 x    30 x    29           9982755840       0.0%    100.0%      0.0%     
 flops    32 x    26 x    29          10251022080       0.0%    100.0%      0.0%     
 flops    10 x    21 x    32          10383582720       0.0%    100.0%      0.0%     
 flops    32 x    21 x    10          10419306240       0.0%    100.0%      0.0%     
 flops    29 x    31 x    32          11453231232       0.0%    100.0%      0.0%     
 flops    10 x     6 x    27          11891201760       0.0%    100.0%      0.0%     
 flops    32 x    28 x    27          12319388928       0.0%    100.0%      0.0%     
 flops    27 x    28 x    32          12330081792       0.0%    100.0%      0.0%     
 flops    10 x    31 x    32          12351015040       0.0%    100.0%      0.0%     
 flops    32 x    31 x    10          12386032640       0.0%    100.0%      0.0%     
 flops    32 x    29 x    26          12477360896       0.0%    100.0%      0.0%     
 flops     6 x    13 x    27          12652704792       0.0%    100.0%      0.0%     
 flops    10 x     6 x    13          12658847760       0.0%    100.0%      0.0%     
 flops    10 x    32 x    32          12659281920       0.0%    100.0%      0.0%     
 flops    32 x    32 x    10          12704256000       0.0%    100.0%      0.0%     
 flops    27 x    29 x    27          13265427834       0.0%    100.0%      0.0%     
 flops    32 x    29 x    30          13323889920       0.0%    100.0%      0.0%     
 flops    29 x    29 x    32          13375694592       0.0%    100.0%      0.0%     
 flops    13 x     6 x    27          13810735224       0.0%    100.0%      0.0%     
 flops    32 x    33 x    27          14431234752       0.0%    100.0%      0.0%     
 flops    27 x    33 x    32          14432147136       0.0%    100.0%      0.0%     
 flops    27 x    34 x    32          14870189952       0.0%    100.0%      0.0%     
 flops    32 x    34 x    27          14870836224       0.0%    100.0%      0.0%     
 flops    10 x    30 x    32          14871571200       0.0%    100.0%      0.0%     
 flops    32 x    30 x    10          14912102400       0.0%    100.0%      0.0%     
 flops    32 x    29 x    29          15441567360       0.0%    100.0%      0.0%     
 flops    10 x    26 x    32          15533972480       0.0%    100.0%      0.0%     
 flops    32 x    26 x    10          15581096960       0.0%    100.0%      0.0%     
 flops    27 x    13 x    10          15760903860       0.0%    100.0%      0.0%     
 flops    32 x    20 x    27          17481934080       0.0%    100.0%      0.0%     
 flops    27 x    20 x    32          17515042560       0.0%    100.0%      0.0%     
 flops    27 x    27 x   308          18187092000       0.0%    100.0%      0.0%     
 flops    27 x    27 x   327          19309023000       0.0%    100.0%      0.0%     
 flops    32 x    32 x    26          19326681088       0.0%    100.0%      0.0%     
 flops    27 x    27 x   331          19545219000       0.0%    100.0%      0.0%     
 flops    27 x     6 x     6          19778843088       0.0%    100.0%      0.0%     
 flops    27 x    10 x     6          20460943440       0.0%    100.0%      0.0%     
 flops    32 x    32 x    30          20577730560       0.0%    100.0%      0.0%     
 flops    10 x    10 x    13          21029496800       0.0%    100.0%      0.0%     
 flops    10 x    13 x    13          22271212080       0.0%    100.0%      0.0%     
 flops    32 x    21 x    27          22957058880       0.0%    100.0%      0.0%     
 flops    27 x    21 x    32          22985218368       0.0%    100.0%      0.0%     
 flops    10 x    29 x    32          23020209280       0.0%    100.0%      0.0%     
 flops    32 x    29 x    10          23096954880       0.0%    100.0%      0.0%     
 flops    10 x    13 x    27          23284048320       0.0%    100.0%      0.0%     
 flops    32 x    32 x    29          23863230464       0.0%    100.0%      0.0%     
 flops    13 x    13 x    27          24610266720       0.0%    100.0%      0.0%     
 flops     6 x     6 x    32          25186332672       0.0%    100.0%      0.0%     
 flops    32 x    15 x    32          25231441920       0.0%    100.0%      0.0%     
 flops    27 x     6 x    27          26525615616       0.0%    100.0%      0.0%     
 flops    32 x    16 x    32          26985693184       0.0%    100.0%      0.0%     
 flops    27 x    31 x    32          27362962944       0.0%    100.0%      0.0%     
 flops    32 x    31 x    27          27376247808       0.0%    100.0%      0.0%     
 flops    32 x     6 x    10          27883434240       0.0%    100.0%      0.0%     
 flops    32 x    32 x    27          28012566528       0.0%    100.0%      0.0%     
 flops    27 x    32 x    32          28027938816       0.0%    100.0%      0.0%     
 flops    10 x    32 x   308          32233062400       0.0%    100.0%      0.0%     
 flops    32 x    10 x   308          32233062400       0.0%    100.0%      0.0%     
 flops    10 x    27 x     6          32609002680       0.0%    100.0%      0.0%     
 flops    32 x    30 x    27          32943231360       0.0%    100.0%      0.0%     
 flops    27 x    30 x    32          32948156160       0.0%    100.0%      0.0%     
 flops    10 x    32 x   327          34221465600       0.0%    100.0%      0.0%     
 flops    32 x    10 x   327          34221465600       0.0%    100.0%      0.0%     
 flops    27 x    26 x    32          34471502208       0.0%    100.0%      0.0%     
 flops    32 x    26 x    27          34472670336       0.0%    100.0%      0.0%     
 flops    10 x    32 x   331          34640076800       0.0%    100.0%      0.0%     
 flops    32 x    10 x   331          34640076800       0.0%    100.0%      0.0%     
 flops    27 x    13 x     6          34953210396       0.0%    100.0%      0.0%     
 flops    27 x     6 x    13          39067294032       0.0%    100.0%      0.0%     
 flops    10 x     6 x    32          42247587840       0.0%    100.0%      0.0%     
 flops     6 x    13 x    32          44837075712       0.0%    100.0%      0.0%     
 flops    27 x    10 x    13          46442951100       0.0%    100.0%      0.0%     
 flops    32 x    28 x    32          47424290816       0.0%    100.0%      0.0%     
 flops    13 x     6 x    32          50484949632       0.0%    100.0%      0.0%     
 flops    27 x    29 x    32          50988659328       0.0%    100.0%      0.0%     
 flops    32 x    29 x    27          51016170816       0.0%    100.0%      0.0%     
 flops    27 x    13 x    27          51917071986       0.0%    100.0%      0.0%     
 flops    32 x    33 x    32          55487477760       0.0%    100.0%      0.0%     
 flops    32 x    34 x    32          57182633984       0.0%    100.0%      0.0%     
 flops    32 x    13 x    10          60497357440       0.0%    100.0%      0.0%     
 flops    10 x    27 x    13          64755014220       0.0%    100.0%      0.0%     
 flops    32 x    20 x    32          67359252480       0.0%    100.0%      0.0%     
 flops    27 x    13 x    13          68478674940       0.0%    100.0%      0.0%     
 flops    27 x    32 x   308          69934233600       0.0%    100.0%      0.0%     
 flops    32 x    27 x   308          69934233600       0.0%    100.0%      0.0%     
 flops    32 x     6 x     6          70217515008       0.0%    100.0%      0.0%     
 flops    27 x    27 x     6          72644188068       0.0%    100.0%      0.0%     
 flops    27 x    32 x   327          74248358400       0.0%    100.0%      0.0%     
 flops    32 x    27 x   327          74248358400       0.0%    100.0%      0.0%     
 flops    27 x    32 x   331          75156595200       0.0%    100.0%      0.0%     
 flops    32 x    27 x   331          75156595200       0.0%    100.0%      0.0%     
 flops    32 x    10 x     6          78569736960       0.0%    100.0%      0.0%     
 flops    10 x    13 x    32          84827583360       0.0%    100.0%      0.0%     
 flops    32 x    21 x    32          88389095424       0.0%    100.0%      0.0%     
 flops    13 x    13 x    32          89953221696       0.0%    100.0%      0.0%     
 flops    27 x     6 x    32          94099428864       0.0%    100.0%      0.0%     
 flops    32 x     6 x    27         101662584192       0.0%    100.0%      0.0%     
 flops    32 x    31 x    32         105234089984       0.0%    100.0%      0.0%     
 flops    32 x    32 x    32         107778670592       0.0%    100.0%      0.0%     
 flops    10 x    32 x     6         115848007680       0.0%    100.0%      0.0%     
 flops    32 x    13 x     6         124118477184       0.0%    100.0%      0.0%     
 flops    32 x    30 x    32         126691921920       0.0%    100.0%      0.0%     
 flops    32 x    26 x    32         132537786368       0.0%    100.0%      0.0%     
 flops    27 x    27 x    13         142485974748       0.0%    100.0%      0.0%     
 flops    32 x     6 x    13         143731900416       0.0%    100.0%      0.0%     
 flops    32 x    10 x    13         178485349120       0.0%    100.0%      0.0%     
 flops    27 x    13 x    32         189136950912       0.0%    100.0%      0.0%     
 flops    32 x    29 x    32         196073897984       0.0%    100.0%      0.0%     
 flops    32 x    13 x    27         199014416640       0.0%    100.0%      0.0%     
 flops    10 x    32 x    13         238304518400       0.0%    100.0%      0.0%     
 flops    32 x    13 x    13         252287310080       0.0%    100.0%      0.0%     
 flops    27 x    32 x     6         257952574080       0.0%    100.0%      0.0%     
 flops    32 x    32 x   308         268915834880       0.0%    100.0%      0.0%     
 flops    32 x    27 x     6         278969982336       0.0%    100.0%      0.0%     
 flops    32 x    32 x   327         285504798720       0.0%    100.0%      0.0%     
 flops    32 x    32 x   331         288997212160       0.0%    100.0%      0.0%     
 flops    32 x     6 x    32         360822546432       0.0%    100.0%      0.0%     
 flops    27 x    32 x    13         525283259904       0.0%    100.0%      0.0%     
 flops    32 x    27 x    13         547775676864       0.0%    100.0%      0.0%     
 flops    32 x    13 x    32         725385097216       0.0%    100.0%      0.0%     
 flops    32 x    32 x     6         990580580352       0.0%    100.0%      0.0%     
 flops    32 x    32 x    13        2019187163136       0.0%    100.0%      0.0%     
 flops inhomo. stacks              17622619488512     100.0%      0.0%      0.0%
 flops total                        30.615738E+12      57.6%     42.4%      0.0%
 flops max/rank                      1.059617E+12      56.8%     43.2%      0.0%
 matmuls inhomo. stacks                 157615449     100.0%      0.0%      0.0%
 matmuls total                         1037284374      15.2%     84.8%      0.0%
 number of processed stacks               5415106       3.7%     96.3%      0.0%
 average stack size                                   797.2     168.6       0.0
 marketing flops                    36.089515E+12
 -------------------------------------------------------------------------------
 # multiplications                            506
 max memory usage/rank              21.827555E+09
 # max total images/rank                        2
 # max 3D layers                                1
 # MPI messages exchanged                  210496
 MPI messages size (bytes):
  total size                       385.852572E+09
  min size                           0.000000E+00
  max size                          11.857160E+06
  average size                       1.833064E+06
 MPI breakdown and total messages size (bytes):
             size <=      128               33267                        0
       128 < size <=     8192                 511                  3068984
      8192 < size <=    32768                2043                 54035976
     32768 < size <=   131072               17889               1852845624
    131072 < size <=  4194304              127204             161660928528
   4194304 < size <= 16777216               29582             222281606064
  16777216 < size                               0                        0
 -------------------------------------------------------------------------------

 *** WARNING in dbcsr_mm.F:301 :: Using a non-square number of MPI ranks ***
 *** might lead to poor performance. Used ranks: 32 Suggested: 36 64     ***

 -------------------------------------------------------------------------------
 -                                                                             -
 -                      DBCSR MESSAGE PASSING PERFORMANCE                      -
 -                                                                             -
 -------------------------------------------------------------------------------
 ROUTINE             CALLS      AVE VOLUME [Bytes]
 MP_Bcast              677                     12.
 MP_Allreduce         3475                     42.
 MP_Alltoall          3387                 211735.
 MP_ISend            25312                 544595.
 MP_IRecv            22310                 598819.
 -------------------------------------------------------------------------------

 -------------------------------------------------------------------------------
 -                                                                             -
 -                                GRID STATISTICS                              -
 -                                                                             -
 -------------------------------------------------------------------------------
 LP    KERNEL             BACKEND                              COUNT     PERCENT
 3     collocate ortho    CPU                                   6420      24.87%
 3     integrate ortho    CPU                                   6420      24.87%
 2     collocate ortho    CPU                                   3324      12.88%
 2     integrate ortho    CPU                                   3324      12.88%
 4     collocate ortho    CPU                                   3114      12.06%
 4     integrate ortho    CPU                                   3114      12.06%
 0     collocate general  CPU                                    101       0.39%
 -------------------------------------------------------------------------------

 -------------------------------------------------------------------------------
 -                                                                             -
 -                          OFFLOAD MEMPOOL STATISTICS                         -
 -                                                                             -
 -------------------------------------------------------------------------------
 Memory consumption                Number of allocations  Used [MiB]  Size [MiB]
 Host                                                  6         138    21386425
 -------------------------------------------------------------------------------

 MEMORY| Estimated peak process memory [MiB]                                2122

 -------------------------------------------------------------------------------
 -                                                                             -
 -                         MESSAGE PASSING PERFORMANCE                         -
 -                                                                             -
 -------------------------------------------------------------------------------

 ROUTINE             CALLS      AVE VOLUME [Bytes]
 MP_Group                5
 MP_Bcast              513                  67820.
 MP_Allreduce         2120                  48866.
 MP_Sync                10
 MP_Alltoall            46               82118133.
 MP_SendRecv           124                 622592.
 MP_ISendRecv          124                 622592.
 MP_Wait               358
 MP_comm_split          12
 MP_ISend              198                2459166.
 MP_IRecv              198                2459166.
 -------------------------------------------------------------------------------


 -------------------------------------------------------------------------------
 -                                                                             -
 -                           R E F E R E N C E S                               -
 -                                                                             -
 -------------------------------------------------------------------------------
 
 CP2K version 2026.2 (Development Version), the CP2K developers group (2026).
 CP2K is freely available from https://www.cp2k.org/ .
 
 M. Iannuzzi, J. Wilhelm, F. Stein, A. Bussy, H. Elgabarty, D. Golze, A. Hehn, 
 M. Graml, S. Marek, B. Sertcan Gökmen, C. Schran, H. Forbert, R. Z. 
 Khaliullin, A. Kozhevnikov, M. Taillefumier, R. Meli, V. V. Rybkin, M. Brehm, 
 R. Schade, O. Schütt, J. V. Pototschnig, H. Mirhosseini, A. Knüpfer, D. Marx, 
 M. Krack, J. Hutter, T. D. Kühne.
 J. Phys. Chem. B 130, 1237-1310 (2026).
 The CP2K Program Package Made Simple.
 https://doi.org/10.1021/acs.jpcb.5c05851

 M. Graml, K. Zollner, D. Hernangómez-Pérez, P. E. Faria Junior, J. Wilhelm.
 J. Chem. Theory Comput. 20, 2202-2208 (2024).
 Low-scaling GW algorithm applied to twisted transition-metal dichalcogenide 
 heterobilayers.
 https://doi.org/10.1021/acs.jctc.3c01230

 T. D. Kühne, M. Iannuzzi, M. Del Ben, V. V. Rybkin, P. Seewald, F. Stein, T. 
 Laino, R. Z. Khaliullin, O. Schütt, F. Schiffmann, D. Golze, J. Wilhelm, S. 
 Chulkov, M. H. Bani-Hashemian, V. Weber, U. Borstnik, M. Taillefumier, A. S. 
 Jakobovits, A. Lazzaro, H. Pabst, T. Müller, R. Schade, M. Guidon, S. 
 Andermatt, N. Holmberg, G. K. Schenter, A. Hehn, A. Bussy, F. Belleflamme, G. 
 Tabacchi, A. Glöß, M. Lass, I. Bethune, C. J. Mundy, C. Plessl, M. Watkins, 
 J. VandeVondele, M. Krack, J. Hutter.
 J. Chem. Phys. 152, 194103 (2020).
 CP2K: An electronic structure and molecular dynamics software package - 
 Quickstep: Efficient and accurate electronic structure calculations.
 https://doi.org/10.1063/5.0007045

 O. Schuett, P. Messmer, J. Hutter, J. VandeVondele.
 Electronic Structure Calculations on Graphics Processing Units, 173-190 (2016).
 GPU-Accelerated Sparse Matrix-Matrix Multiplication for Linear Scaling Density 
 Functional Theory.
 https://doi.org/10.1002/9781118670712.ch8

 A. Heinecke, G. Henry, M. Hutchinson, H. Pabst.
 Proceedings of Intl. Supercomputing Conference, 981-991 (2016).
 LIBXSMM: Accelerating Small Matrix Multiplications by Runtime Code Generation.
 https://doi.org/10.1109/SC.2016.83

 U. Borstnik, J. VandeVondele, V. Weber, J. Hutter.
 Parallel Comput. 40, 47-58 (2014).
 Sparse matrix multiplication: The distributed block-compressed sparse row 
 library.
 https://doi.org/10.1016/j.parco.2014.03.012

 J. VandeVondele, J. Hutter.
 J. Chem. Phys. 127, 114105 (2007).
 Gaussian basis sets for accurate calculations on molecular systems in gas and 
 condensed phases.
 https://doi.org/10.1063/1.2770708

 J. VandeVondele, M. Krack, F. Mohamed, M. Parrinello, T. Chassaing, J. Hutter.
 Comput. Phys. Commun. 167, 103-128 (2005).
 QUICKSTEP: Fast and accurate density functional calculations using a mixed 
 Gaussian and plane waves approach.
 https://doi.org/10.1016/j.cpc.2004.12.014

 M. Krack.
 Theor. Chem. Acc. 114, 145-152 (2005).
 Pseudopotentials for H to Kr optimized for gradient-corrected 
 exchange-correlation functionals.
 https://doi.org/10.1007/s00214-005-0655-y

 M. Frigo, S. G. Johnson.
 Proc. IEEE 93, 216-231 (2005).
 The design and implementation of FFTW3.
 https://doi.org/10.1109/JPROC.2004.840301

 J. VandeVondele, J. Hutter.
 J. Chem. Phys. 118, 4365-4369 (2003).
 An efficient orbital transformation method for electronic structure 
 calculations.
 https://doi.org/10.1063/1.1543154

 C. Hartwigsen, S. Goedecker, J. Hutter.
 Phys. Rev. B 58, 3641-3662 (1998).
 Relativistic separable dual-space Gaussian pseudopotentials from H to Rn.
 https://doi.org/10.1103/PhysRevB.58.3641

 G. Lippert, J. Hutter, M. Parrinello.
 Mol. Phys. 92, 477-487 (1997).
 A hybrid Gaussian and plane wave density functional scheme.
 https://doi.org/10.1080/002689797170220

 S. Goedecker, M. Teter, J. Hutter.
 Phys. Rev. B 54, 1703-1710 (1996).
 Separable dual-space Gaussian pseudopotentials.
 https://doi.org/10.1103/PhysRevB.54.1703

 J. P. Perdew, K. Burke, M. Ernzerhof.
 Phys. Rev. Lett. 77, 3865-3868 (1996).
 Generalized gradient approximation made simple.
 https://doi.org/10.1103/PhysRevLett.77.3865

 P. E. Blöchl.
 J. Chem. Phys. 103, 7422-7428 (1995).
 Electrostatic decoupling of periodic images of plane‐wave‐expanded 
 densities and derived atomic point charges.
 https://doi.org/10.1063/1.470314

 R. H. Byrd, P. H. Lu, J. Nocedal, C. Y. Zhu.
 SIAM J. Sci. Comput. 16, 1190-1208 (1995).
 A Limited Memory Algorithm for Bound Constrained Optimization.
 https://doi.org/10.1137/0916069


 -------------------------------------------------------------------------------
 -                                                                             -
 -                                T I M I N G                                  -
 -                                                                             -
 -------------------------------------------------------------------------------
 SUBROUTINE                       CALLS  ASD         SELF TIME        TOTAL TIME MAXRANK
                                MAXIMUM       AVERAGE  MAXIMUM  AVERAGE  MAXIMUM
 CP2K                                 1  1.0    0.030    0.035  108.673  108.674       0
 qs_energies                          1  2.0    0.001    0.002  107.829  107.830      10
 qs_energies_properties               1  3.0    0.000    0.000  102.210  102.211      12
 post_scf_bandstructure               1  4.0    0.000    0.000  102.209  102.211      26
 run_gw                               1  5.0    0.000    0.000  101.885  101.920      10
 gw_calc_ri_rs_non_periodic           1  6.0    0.001    0.002   94.944   95.055       7
 optimize_ri_rs_grid                  1  7.0    0.000    0.001   44.788   44.900      17
 rirs_grid_LBFGS                      1  8.0    1.566    2.144   44.057   44.325       3
 evaluate_rirs_grid_cluster        1060  9.0    2.759    4.268   26.192   41.497       3
 mp_sum_d                           722  4.3   16.274   30.498   16.274   30.498      31
 dbcsr_multiply_generic             506  9.6    0.026    0.028   20.224   22.222       1
 compute_Z_lP                         1  7.0    0.000    0.000   21.606   21.606       5
 compute_Z_lP_auto_ri                 1  8.0    0.001    0.001   21.606   21.606      31
 compute_auto_ri_d_lp                 1  9.0    0.000    0.000   15.282   15.287      20
 compute_auto_ri_d_lp_AB_d_lp         1 10.0    0.002    0.003   11.534   15.253       3
 compute_d_lp_auto_ri_atom            4 11.0    6.172    8.309   10.657   14.132       3
 multiply_cannon                    506 10.6    0.043    0.048   12.603   13.569      29
 multiply_cannon_loop               506 11.6    0.040    0.061   12.015   13.036      15
 rirs_cluster_gradient_products    1060 10.0    7.472   11.924    7.472   11.924       3
 compute_Sigma_c_and_QP_energie       1  7.0    0.000    0.000   11.216   11.251      19
 multiply_cannon_multrec           4048 12.6    9.830   10.897    9.845   10.911       3
 compute_Sigma_c                      1  8.0    0.001    0.001   10.758   10.758       0
 contract_grid_panels_sigma_c        30  9.0    0.002    0.003   10.233   10.253      26
 compute_W                            1  7.0    0.001    0.001    9.111    9.112       3
 rirs_cluster_gradient_coordina    1060 10.0    5.396    8.527    5.396    8.527       3
 contract_grid_panels                31  8.0    0.002    0.003    7.618    7.848      17
 parallel_gemm_fm_cosma             431  9.6    7.585    7.770    7.585    7.770      27
 mp_sum_l                          1706 10.5    5.114    7.758    5.114    7.758      23
 get_mat_chi_Gamma_tau                1  7.0    0.000    0.001    7.750    7.751       0
 create_and_init_bs_env_for_gw        1  6.0    0.004    0.005    6.941    7.061      31
 fit_auto_ri_z_lp                     1  9.0    2.674    3.253    5.073    6.188       1
 compute_fm_W_freq                   30  8.0    0.001    0.002    6.070    6.087      16
 compute_auto_ri_d_lp_transform       1 10.0    0.000    0.000    3.749    5.719      26
 generate_auto_ri_basis               1  7.0    0.000    0.001    5.529    5.529      23
 rirs_cluster_residual             1060 10.0    3.049    4.881    3.049    4.881       3
 compute_M_pq_inv_and_V_pq            1  8.0    0.000    0.000    4.662    4.663       1
 rirs_cluster_D_ll                 1060 10.0    2.814    4.366    2.814    4.366       3
 build_3c_integral_block_auto_r   17740 12.0    3.217    4.143    3.217    4.143       0
 rirs_cluster_d_lP                 1060 10.0    2.565    4.113    2.565    4.113       3
 scf_env_do_scf                       1  3.0    0.000    0.000    4.096    4.096       6
 compute_contracted_RI_matrix         2  9.0    0.001    0.001    4.089    4.091      19
 qs_ks_build_kohn_sham_matrix         2  7.5    0.001    0.002    4.071    4.073      26
 compute_optimized_RI_matrix_bl     322 10.0    0.181    0.189    3.922    4.071       3
 compute_M_PQ_AB                   4000 11.0    0.004    0.004    3.763    3.906       3
 compute_M_PQ                      4000 12.0    0.005    0.005    3.760    3.902       3
 int_operators_r12_ab_os           4000 13.0    0.002    0.002    3.754    3.897      25
 int_operator_ab_os_low            4000 14.0    1.737    1.808    3.752    3.894       3
 fft_wrap_pw1pw2                     28 10.0    0.001    0.001    3.586    3.748      24
 mp_waitall_1                     32544 13.8    2.947    3.613    2.947    3.613      21
 fft_wrap_pw1pw2_300                 16 11.2    0.188    0.226    3.413    3.586      29
 rirs_cluster_AO_products          1060 10.0    2.137    3.417    2.137    3.417       3
 init_scf_loop                        1  4.0    0.001    0.001    3.113    3.114       8
 qs_ks_update_qs_env                  2  5.0    0.000    0.000    3.092    3.093      29
 rebuild_ks_matrix                    1  6.0    0.000    0.001    3.091    3.092       1
 fft3d_ps                            28 12.0    1.506    1.559    2.597    2.752      17
 make_m2s                          1012 10.6    0.012    0.014    2.335    2.365       0
 make_images                       1012 11.6    0.219    0.368    2.281    2.314      25
 build_phi_on_sphere                  8 10.5    0.058    0.088    1.715    2.205       3
 evaluate_ao_on_points              808 11.5    1.656    2.143    1.656    2.143       1
 qs_vxc_create                        2  8.5    0.000    0.001    2.046    2.078      28
 xc_vxc_pw_create                     1  9.0    0.029    0.039    2.046    2.078      15
 qs_rho_update_rho_low                2  5.0    0.000    0.000    1.900    1.902      10
 calculate_rho_elec                   2  6.0    0.026    0.026    1.900    1.902      24
 abc_contract_xsmm                33062 11.5    1.349    1.886    1.349    1.886       4
 multiply_cannon_metrocomm3        4048 12.6    0.009    0.009    1.307    1.854       3
 build_gram_jacobi_blas               4 10.0    0.415    0.569    1.450    1.822       3
 build_3c_integral_block_auto_r   17740 12.0    0.019    0.025    1.257    1.739       2
 xc_pw_derive                         6 11.0    0.000    0.000    1.539    1.662       2
 make_images_data                  1012 12.6    0.012    0.013    1.504    1.584       8
 mp_sync                             10  9.2    1.117    1.468    1.117    1.468      25
 hybrid_alltoall_any               1116 13.4    0.079    0.383    1.360    1.433       0
 density_rs2pw                        2  7.0    0.000    0.001    1.228    1.291      10
 build_gram_jacobi_blas_dsyrk         4 11.0    1.035    1.278    1.035    1.278       2
 xc_pw_divergence                     1 10.0    0.000    0.000    1.033    1.137      16
 cp_fm_cholesky_invert               31  9.0    1.126    1.134    1.126    1.134       1
 operator2                      1759435 15.0    1.080    1.121    1.080    1.121       3
 xc_rho_set_and_dset_create           1 10.0    0.039    0.065    0.962    1.052      11
 init_scf_run                         1  3.0    0.000    0.001    1.022    1.022      25
 scf_env_initial_rho_setup            1  4.0    0.000    0.000    1.021    1.022       3
 compute_V_xc                         1  7.0    0.000    0.000    0.982    0.982      23
 scf_env_do_scf_inner_loop            1  4.0    0.000    0.001    0.968    0.982      24
 ab_contract                    1760288 15.0    0.936    0.966    0.936    0.966       3
 sum_up_and_integrate                 2  8.5    0.000    0.000    0.918    0.933      21
 build_G_ao                         121  8.5    0.001    0.001    0.756    0.920       0
 integrate_v_rspace                   2  9.5    0.000    0.000    0.905    0.920       6
 rirs_grid_build_clusters             1  8.0    0.434    0.720    0.531    0.871       3
 potential_pw2rs                      2 10.5    0.002    0.002    0.788    0.802      16
 G_occ_vir                          121  9.5    0.032    0.042    0.637    0.798       9
 qs_init_subsys                       1  2.0    0.002    0.002    0.706    0.708       0
 qs_env_setup                         1  3.0    0.001    0.001    0.702    0.706      18
 qs_env_rebuild_pw_env                2  3.5    0.000    0.001    0.701    0.704      26
 pw_env_rebuild                       1  5.0    0.001    0.001    0.700    0.703      26
 pw_grid_setup                        5  5.2    0.000    0.000    0.693    0.696      17
 pw_grid_setup_internal               5  6.2    0.012    0.012    0.693    0.696       8
 yz_to_x                             14 12.2    0.237    0.256    0.525    0.682       0
 grid_collocate_task_list             2  7.0    0.637    0.679    0.637    0.679      18
 mp_alltoall_z22v                    28 14.0    0.496    0.675    0.496    0.675      29
 cp_fm_cholesky_decompose            35  9.0    0.601    0.647    0.601    0.647      31
 cp_fm_syevd                          5  9.0    0.000    0.000    0.629    0.630      15
 cp_fm_redistribute_end               5 10.0    0.314    0.626    0.315    0.626      23
 cp_fm_syevd_base                     5 10.0    0.308    0.619    0.308    0.619      15
 cp_fm_geeig                          2  9.5    0.000    0.000    0.614    0.615      25
 calculate_norms                   6816 12.6    0.545    0.604    0.545    0.604      24
 x_to_yz                             14 13.8    0.355    0.382    0.563    0.596      18
 pw_grid_sort                         5  7.2    0.424    0.430    0.581    0.589      21
 copy_dbcsr_to_fm                   104  9.5    0.002    0.003    0.445    0.576      27
 compute_M_pq_inv                     1  9.0    0.000    0.001    0.573    0.574      10
 qs_ks_ddapc                          2  8.5    0.000    0.001    0.559    0.571      26
 dbcsr_complete_redistribute        265 10.4    0.145    0.169    0.476    0.505       4
 compute_AA_optimized_RI_basis        1  8.0    0.002    0.002    0.500    0.500      19
 qs_energies_init_hamiltonians        1  3.0    0.001    0.001    0.498    0.500       4
 extract_grid_panel                 122  9.5    0.324    0.440    0.359    0.491       2
 compute_QP_energies                  1  8.0    0.001    0.001    0.457    0.482      25
 pw_poisson_solve                     2  8.5    0.000    0.000    0.470    0.473      19
 qs_env_update_s_mstruct              1  4.0    0.000    0.000    0.469    0.473      20
 mp_bcast_dm                        282  9.0    0.349    0.471    0.349    0.471      14
 buffer_matrices_ensure_size       1012 11.6    0.395    0.465    0.395    0.465      18
 mp_sum_root_rm                     114 10.1    0.344    0.460    0.344    0.460       4
 make_images_pack                  1012 12.6    0.332    0.454    0.335    0.457       1
 compute_Sigma_x                      1  7.0    0.000    0.000    0.454    0.455       0
 compute_fm_chi_Gamma_freq           30  8.0    0.001    0.001    0.381    0.430       3
 extract_masked_blocks              244  9.6    0.267    0.370    0.307    0.423       3
 mp_alltoall_i22                    369 11.4    0.279    0.411    0.279    0.411      14
 transfer_rs2pw                       9  7.8    0.000    0.000    0.332    0.403      26
 dbcsr_desymmetrize_deep            104 10.5    0.010    0.012    0.262    0.392      31
 Fourier_transform_w_to_t            30  8.0    0.001    0.001    0.336    0.388      27
 cp_fm_scale_and_add                901  9.0    0.335    0.387    0.335    0.387      10
 pw_gather_p                         14 11.2    0.303    0.386    0.303    0.386      25
 to_Gamma_and_mo_real                62  9.0    0.002    0.002    0.382    0.382      18
 compute_AB_optimized_RI_basis        1  8.0    0.001    0.001    0.366    0.366      21
 pw_derive                           12 11.2    0.337    0.361    0.337    0.361      15
 compute_AB_optimized_RI_basis_       1  9.0    0.001    0.001    0.355    0.361      27
 copy_fm_to_dbcsr                   161  9.3    0.001    0.001    0.330    0.356       6
 check_for_restart_files              1  7.0    0.247    0.355    0.247    0.355      24
 pw_copy                             28 10.5    0.341    0.354    0.341    0.354      18
 dbcsr_finalize                    2009 10.8    0.013    0.014    0.267    0.341      13
 calculate_rho_core                   1  5.0    0.016    0.025    0.327    0.331      26
 hadamard_product                    91  9.7    0.169    0.205    0.292    0.329      15
 dbcsr_merge_all                   1744 11.9    0.037    0.049    0.243    0.317       9
 transfer_rs2pw_300                   3  8.3    0.114    0.130    0.243    0.314      29
 initialize_ri_rs_grid                1  8.0    0.064    0.102    0.200    0.312       7
 dbcsr_copy                        1160 10.5    0.236    0.297    0.243    0.303      27
 pw_poisson_set                       3  8.3    0.000    0.000    0.292    0.296      12
 transfer_pw2rs                       8 11.5    0.000    0.000    0.287    0.287      30
 mp_waitany                         198 11.3    0.219    0.283    0.219    0.283      20
 compute_B_PQ_AB                      6 10.0    0.065    0.082    0.217    0.281       0
 pw_scatter_p                        14 12.8    0.273    0.279    0.273    0.279      26
 multiply_cannon_metrocomm1        4048 12.6    0.005    0.006    0.236    0.277      29
 compute_B_PQ_AA                    101  9.0    0.001    0.001    0.262    0.263       2
 mp_alltoall_d11v                  1111 11.7    0.226    0.248    0.226    0.248      31
 cp_fm_uplo_to_full                  63  9.0    0.159    0.237    0.159    0.237      21
 dbcsr_add_d                        935  9.0    0.001    0.001    0.185    0.229       6
 dbcsr_add_anytype                  935 10.0    0.144    0.170    0.184    0.228      24
 mp_sum_iv                          568 11.3    0.161    0.226    0.161    0.226      22
 initialize_auto_ri_integrals         2  9.0    0.007    0.216    0.218    0.218       0
 collect_used_col_blocks             92  9.7    0.003    0.004    0.147    0.210       3
 fit_auto_ri_z_lp_gather_rhs          4 10.0    0.000    0.000    0.091    0.206       9
 fft_wrap_pw1pw2_100                  4 10.8    0.009    0.016    0.148    0.198      16
 setup_time_and_frequency_minim       1  7.0    0.000    0.000    0.176    0.194       0
 build_minimax_time_frequency_g       1  8.0    0.000    0.000    0.176    0.194       2
 fit_l_sq_weights                     3  9.0    0.176    0.194    0.176    0.194       1
 xc_functional_eval                   1 11.0    0.000    0.000    0.117    0.192      19
 pbe_lda_eval                         1 12.0    0.117    0.192    0.117    0.192      16
 transfer_pw2rs_300                   2 12.5    0.088    0.094    0.175    0.183      19
 eval_bandstructure_properties        1  5.0    0.000    0.001    0.181    0.182      17
 mp_allgather_i34                   506 11.6    0.099    0.172    0.099    0.172       7
 mp_sum_dm                          359 11.0    0.104    0.164    0.104    0.164      31
 dbcsr_data_copy_aa2                629 12.8    0.112    0.163    0.112    0.163       0
 sort_shells                          5  8.2    0.157    0.162    0.157    0.162       7
 make_images_sizes                 1012 12.6    0.001    0.001    0.117    0.157      15
 mp_alltoall_i44                   1012 13.6    0.116    0.156    0.116    0.156      31
 cp_cfm_geeig                         1  6.0    0.000    0.000    0.151    0.153       0
 cp_fm_get_submatrix                356 10.0    0.009    0.011    0.103    0.151      13
 pw_axpy                             25  6.6    0.131    0.149    0.131    0.149      31
 contract_B_PQ                       32 11.8    0.102    0.137    0.111    0.148       0
 create_and_init_bs_env               1  5.0    0.000    0.001    0.143    0.145      26
 dbcsr_sort_data                   1467 14.0    0.118    0.142    0.118    0.142       0
 pw_copy_to_array                    14 11.2    0.130    0.141    0.130    0.141       3
 dbcsr_binary_write                   1  9.0    0.131    0.132    0.132    0.132      29
 diagonalize_ks_matrix                1  6.0    0.000    0.000    0.130    0.131      12
 cp_fm_geeig_canon                    1  7.0    0.000    0.000    0.130    0.131      15
 cp_ddapc_init                        1  5.0    0.000    0.000    0.129    0.130      30
 cp_ddapc_create                      1  6.0    0.000    0.000    0.129    0.130      22
 cp_ddapc_apply_CD                    2  9.5    0.000    0.000    0.124    0.128       4
 pw_integral_ab_c1d_c1d_gs            4 10.0    0.117    0.118    0.120    0.122       0
 grid_integrate_task_list             2 10.5    0.097    0.116    0.097    0.116       0
 -------------------------------------------------------------------------------

 The number of warnings for this run is : 1
 
 -------------------------------------------------------------------------------
  **** **** ******  **  PROGRAM ENDED AT                 2026-10-01 21:39:36.207
 ***** ** ***  *** **   PROGRAM RAN ON                                  n2cn0196
 **    ****   ******    PROGRAM RAN BY                                  eprop2d1
 ***** **    ** ** **   PROGRAM PROCESS ID                               2708838
  **** **  *******  **  PROGRAM STOPPED IN /scratch/hpc-prf-metdyn/eprop2d1_Jan/
                                           53_benchmark_RI_opt/407_figure3cd_si4
                                           5_eps1e10_20261001/10_r3_a3
