 DBCSR| CPU Multiplication driver                                           XSMM (U)
 DBCSR| Multrec recursion limit                                              512 (U)
 DBCSR| Multiplication stack size                                           1000 (D)
 DBCSR| Maximum elements for images                                    UNLIMITED (U)
 DBCSR| Multiplicative factor virtual images                                   1 (U)
 DBCSR| Use multiplication densification                                       T (D)
 DBCSR| Multiplication size stacks                                             3 (U)
 DBCSR| Use memory pool for CPU allocation                                     F (U)
 DBCSR| Number of 3D layers                                               SINGLE (U)
 DBCSR| Use MPI memory allocation                                              F (U)
 DBCSR| Use RMA algorithm                                                      F (U)
 DBCSR| Use Communication thread                                               T (U)
 DBCSR| Communication thread load                                             60 (D)
 DBCSR| MPI: My process id                                                     0
 DBCSR| MPI: Number of processes                                              15
 DBCSR| OMP: Current number of threads                                         8
 DBCSR| OMP: Max number of threads                                             8
 DBCSR| Split modifier for TAS multiplication algorithm                  1.0E+00 (U)


  **** **** ******  **  PROGRAM STARTED AT               2026-10-03 18:59:39.031
 ***** ** ***  *** **   PROGRAM STARTED ON                              n2cn0248
 **    ****   ******    PROGRAM STARTED BY                              eprop2d1
 ***** **    ** ** **   PROGRAM PROCESS ID                               2368420
  **** **  *******  **  PROGRAM STARTED IN /scratch/hpc-prf-metdyn/eprop2d1_Jan/
                                           53_benchmark_RI_opt/418_gw100_fig5_fu
                                           ll_epsfilter_1e12_20261002/calculatio
                                           ns/rc0p5/ri4_rs04/93_adenine

 CP2K| version string:                 CP2K version 2026.2 (Development Version)
 CP2K| source code revision number:                                   0671c5aa6c
 CP2K| cp2kflags: omp libint fftw3 libxc parallel scalapack openblas            
 CP2K| is freely available from                            https://www.cp2k.org/
 CP2K| Program compiled at                                   2026-09-20 09:25:26
 CP2K| Program compiled on                                              n2login5
 CP2K| Program compiled for                                               x86_64
 CP2K| Data directory path    /scratch/hpc-prf-metdyn/eprop2d1_Jan/53_benchmark_
 CP2K| Input file name        /scratch/hpc-prf-metdyn/eprop2d1_Jan/53_benchmark_
 
 eprop2d1@n2cn0248 has created rank and process                      0   2368420
 eprop2d1@n2cn0248 has created rank and process                      1   2368421
 eprop2d1@n2cn0248 has created rank and process                      2   2368422
 eprop2d1@n2cn0248 has created rank and process                      3   2368423
 eprop2d1@n2cn0248 has created rank and process                      4   2368424
 eprop2d1@n2cn0248 has created rank and process                      5   2368425
 eprop2d1@n2cn0248 has created rank and process                      6   2368426
 eprop2d1@n2cn0248 has created rank and process                      7   2368427
 eprop2d1@n2cn0248 has created rank and process                      8   2368428
 eprop2d1@n2cn0248 has created rank and process                      9   2368429
 eprop2d1@n2cn0248 has created rank and process                     10   2368430
 eprop2d1@n2cn0248 has created rank and process                     11   2368431
 eprop2d1@n2cn0248 has created rank and process                     12   2368432
 eprop2d1@n2cn0248 has created rank and process                     13   2368433
 eprop2d1@n2cn0248 has created rank and process                     14   2368434
 
 eprop2d1@n2cn0248 is running                                       15 processes

 GLOBAL| Force Environment number                                              1
 GLOBAL| Basis set file name            /scratch/hpc-prf-metdyn/eprop2d1_Jan/53_
 GLOBAL| Potential file name            /scratch/hpc-prf-metdyn/eprop2d1_Jan/53_
 GLOBAL| MM Potential file name                                     MM_POTENTIAL
 GLOBAL| Coordinate file name                                      __STD_INPUT__
 GLOBAL| Method name                                                        CP2K
 GLOBAL| Project name                                             g418_a404_m093
 GLOBAL| Run type                                                         ENERGY
 GLOBAL| FFT library                                                       FFTW3
 GLOBAL| Diagonalization library                                       ScaLAPACK
 GLOBAL| Cholesky decomposition library                                ScaLAPACK
 GLOBAL| DGEMM library                                                      BLAS
 GLOBAL| Direct generalized diagonalization requested                          F
 GLOBAL| Orthonormality check for eigenvectors                          DISABLED
 GLOBAL| Matrix multiplication library                                 ScaLAPACK
 GLOBAL| All-to-all communication in single precision                          F
 GLOBAL| Grid backend                                                       AUTO
 GLOBAL| Global print level                                                  LOW
 GLOBAL| MPI I/O enabled                                                       T
 GLOBAL| Total number of message passing processes                            15
 GLOBAL| Number of distributed systems (nodes)                                 1
 GLOBAL| Number of threads for this process                                    8
 GLOBAL| This output is from process                                           0
 GLOBAL| OpenMP stack size per thread (OMP_STACKSIZE)                       512M
 GLOBAL| CPU model name                          AMD EPYC 7763 64-Core Processor

 MEMORY| system memory details [Kb]
 MEMORY|                        rank 0           min           max       average
 MEMORY| MemTotal            263897568     263897568     263897568     263897568
 MEMORY| MemFree             241197076     241197076     241197076     241197076
 MEMORY| Buffers                292600        292600        292600        292600
 MEMORY| Cached               14874244      14874244      14874244      14874244
 MEMORY| Slab                  1841372       1841372       1841372       1841372
 MEMORY| SReclaimable           396776        396776        396776        396776
 MEMORY| MemLikelyFree       256760696     256760696     256760696     256760696


 GENERATE|  Preliminary Number of Bonds generated:                             0
 GENERATE|  Achieved consistency in connectivity generation.

 *******************************************************************************
 *******************************************************************************
 **                                                                           **
 **     #####                         ##              ##                      **
 **    ##   ##            ##          ##              ##                      **
 **   ##     ##                       ##            ######                    **
 **   ##     ##  ##   ##  ##   #####  ##  ##   ####   ##    #####    #####    **
 **   ##     ##  ##   ##  ##  ##      ## ##   ##      ##   ##   ##  ##   ##   **
 **   ##  ## ##  ##   ##  ##  ##      ####     ###    ##   ######   ######    **
 **    ##  ###   ##   ##  ##  ##      ## ##      ##   ##   ##       ##        **
 **     #######   #####   ##   #####  ##  ##  ####    ##    #####   ##        **
 **           ##                                                    ##        **
 **                                                                           **
 **                                                ... make the atoms dance   **
 **                                                                           **
 **            Copyright (C) by CP2K developers group (2000-2026)             **
 **                      J. Chem. Phys. 152, 194103 (2020)                    **
 **                                                                           **
 *******************************************************************************


 TOTAL NUMBERS AND MAXIMUM NUMBERS

  Total number of            - Atomic kinds:                                   3
                             - Atoms:                                         15
                             - Shell sets:                                    15
                             - Shells:                                       115
                             - Primitive Cartesian functions:                100
                             - Cartesian basis functions:                    385
                             - Spherical basis functions:                    335

  Maximum angular momentum of- Orbital basis functions:                        3
                             - Local part of the GTH pseudopotential:          2
                             - Non-local part of the GTH pseudopotential:      0


 SCF PARAMETERS         Density guess:                                   RESTART
                        --------------------------------------------------------
                        max_scf:                                             500
                        max_scf_history:                                       0
                        max_diis:                                              4
                        --------------------------------------------------------
                        eps_scf:                                        1.00E-08
                        eps_scf_history:                                0.00E+00
                        eps_diis:                                       0.00E+00
                        eps_eigval:                                     1.00E-05
                        --------------------------------------------------------
                        level_shift [a.u.]:                             0.000000
                        --------------------------------------------------------
                        Outer loop SCF in use 
                        No variables optimised in outer loop
                        eps_scf                                         1.00E-08
                        max_scf                                               20
                        No outer loop optimization
                        step_size                                       5.00E-01

 Extrapolation method: initial_guess

 Number of electrons:                                                         50
 Number of occupied orbitals:                                                 25
 Number of molecular orbitals:                                                25

 Number of orbital functions:                                                335
 Number of independent orbital functions:                                    335


 SCF WAVEFUNCTION OPTIMIZATION

  ----------------------------------- OT ---------------------------------------
  Minimizer      : DIIS                : direct inversion
                                         in the iterative subspace
                                         using   7 DIIS vectors
                                         safer DIIS on
  Preconditioner : FULL_KINETIC        : inversion of T + eS
  Lattice FFT   : OFF
  Precond_solver : DEFAULT
  stepsize       :    0.15000000                  energy_gap     :    0.20000000
  eps_taylor     :   0.10000E-15                  max_taylor     :             4
  ----------------------------------- OT ---------------------------------------

  Step     Update method      Time    Convergence         Total energy    Change
  ------------------------------------------------------------------------------
  Decoupling Energy:                                               0.0000231806
     1 OT DIIS     0.15E+00    1.4     7.9105E-09       -81.1699801087 -8.12E+01

  *** SCF run converged in     1 steps ***


  Electronic density on regular grids:        -50.0000000000        0.0000000000
  Core density on regular grids:               50.0000000000       -0.0000000000
  Total charge density on r-space grids:       -0.0000000000
  Total charge density g-space grids:          -0.0000000000

  Overlap energy of the core charge distribution:               0.00000182290249
  Self energy of the core charge distribution:               -197.98050362690000
  Core Hamiltonian energy:                                     60.03968448369075
  Hartree energy:                                              79.96225469120213
  Exchange-correlation energy:                                -23.19141747958139

  Total energy:                                               -81.16998010868605

  outer SCF iter =    1 RMS gradient =   0.79E-08 energy =        -81.1699801087
  outer SCF loop converged in   1 iterations or    1 steps

  
 -------------------------------------------------------------------------------
 -                                                                             -
 -                          BANDSTRUCTURE CALCULATION                          -
 -                                                                             -
 -------------------------------------------------------------------------------
  
 Number of occupied molecular orbitals (MOs) = Number of occupied bands       25
 Number of unoccupied (= virtual) MOs = Number of unoccupied bands           310
 Number of Gaussian basis functions for MOs                                  335
  
 -------------------------------------------------------------------------------
 -                                                                             -
 -                                GW CALCULATION                               -
 -                                                                             -
 -------------------------------------------------------------------------------
  
 Input: Number of time/freq. points                                           30
 Input: ω_max for fitting Σ(iω) (eV)                                        10.0
 Input: Filter threshold for sparse tensor operations                    1.0E-12
 Input: Apply Hedin shift                                                      F
 Detected: Available memory per MPI process                              14.7 GB
 
 Input: RI-RS Tikhonov regularization                                   1.00E-04
 Input: AO grid hard cutoff radius                                        8.00 Å
 Input: MPI ranks per atom in Z_lP solve                                      -1
 Input: Keep sparsity in χ/G/W panels                                          T
 Input: GW flavour                                                          G0W0
 
 Input: RI-RS grid optimization activated                                      T
 Input: RS points per AO function                                            4.0
 Input: Cutoff radius for atomic clusters                                  0.5 Å
 Input: Maximum grid optimization iterations                                 300
 
 Input: AUTO_RI basis optimization activated:                                  T
 Input: AUTO_RI number of RI functions per AO function:                      4.0
 Input: AUTO_RI frontier orbital window:                                  5.0 eV
 Input: AUTO_RI neighbor radius:                                           3.0 Å
 
 Cutoff radius for the truncated Coulomb operator in RI metric:            7.0 Å
 Regularization parameter of RI                                          0.0E+00
 Regularization parameter of minimax grids                               1.0E-06
 
 AUTO_RI| Number of automatic RI functions for χ, ε, W:                     1340
 AUTO_RI| Total RI basis optimization time:                                4.4 s
  Decoupling Energy:                                               0.0000231806
 
 SCF direct band gap (eV)                                                   3.83
 Max. SCF eigval diff. (eV)                                               271.49
 E-Range for minimax grid                                                  70.97
 Number of Padé parameters for analytic continuation:                         16
 
 RI-RS basis radii (Å):
     Kind  Elem     r_AO (Å)     r_RI (Å)
        1    C        15.9835       10.1279
        2    N        14.0505        8.8909
        3    H        13.9082        8.7963
 
 Started RI-RS grid optimization
 RI-RS grid initial normalized error                          9.072005570536E-02
 RI-RS grid optimization completed, execution time:                        0.7 s
 Normalized 3C error:                                                    2.3E-04
 Maximum absolute 3C error:                                              1.9E-01
 Optimized points outside molecular Voronoi cells:                           675 / 1340
 Total grid points used for RI-RS:                                          1340
 
 RI-RS grid row-blocks of ϕ_μ(r_l)                                            50
 RI-RS grid points per block (max)                                            32
 
 Percentage of non-zero matrix elements in ϕ_μ(r_l)                     100.00 %
 
 RI-RS memory estimate per MPI process:
   Available memory per process (system)                                17.01 GB
   Required for Z_lP (dense upper bound; actual is sparser)              0.00 GB
   Required for χ, W, Σ panels (peak per panel step)                     0.01 GB
   Required for Z_lP solve peak (D_local+ϕ, worst-case atom)             0.03 GB
   Worst-case local-grid number of grid points:                             1340
   Worst-case memory D_local:                                            0.01 GB
 
 Started computing Z_lP
 Computed Z_lP (MPI rank 0) for atom          1 /  1,    Execution time    1.0 s
 Computed Z_lP (all MPI ranks) for all atoms,            Execution time    1.1 s

 Memory per MPI process after computing Z_lP:
 Available memory per MPI process                               16.8 GB
 Used memory per MPI process                                     1.0 GB
 Number of batches for χ, Σ matrices                                           1
 
 Percentage of non-zero matrix elements in Z_lP                         100.00 %
 Percentage of non-zero matrix elements in G_ll', χ_ll', W_ll'          100.00 %
 Percentage of non-zero matrix elements in χ_PQ for time point 1        100.00 %
 
 Computed χ(iτ,k=0) for time point            1 / 30,    Execution time    0.0 s
 Computed χ(iτ,k=0) for time point            2 / 30,    Execution time    0.0 s
 Computed χ(iτ,k=0) for time point            3 / 30,    Execution time    0.0 s
 Computed χ(iτ,k=0) for time point            4 / 30,    Execution time    0.0 s
 Computed χ(iτ,k=0) for time point            5 / 30,    Execution time    0.0 s
 Computed χ(iτ,k=0) for time point            6 / 30,    Execution time    0.0 s
 Computed χ(iτ,k=0) for time point            7 / 30,    Execution time    0.0 s
 Computed χ(iτ,k=0) for time point            8 / 30,    Execution time    0.0 s
 Computed χ(iτ,k=0) for time point            9 / 30,    Execution time    0.0 s
 Computed χ(iτ,k=0) for time point           10 / 30,    Execution time    0.0 s
 Computed χ(iτ,k=0) for time point           11 / 30,    Execution time    0.0 s
 Computed χ(iτ,k=0) for time point           12 / 30,    Execution time    0.0 s
 Computed χ(iτ,k=0) for time point           13 / 30,    Execution time    0.0 s
 Computed χ(iτ,k=0) for time point           14 / 30,    Execution time    0.0 s
 Computed χ(iτ,k=0) for time point           15 / 30,    Execution time    0.0 s
 Computed χ(iτ,k=0) for time point           16 / 30,    Execution time    0.0 s
 Computed χ(iτ,k=0) for time point           17 / 30,    Execution time    0.0 s
 Computed χ(iτ,k=0) for time point           18 / 30,    Execution time    0.0 s
 Computed χ(iτ,k=0) for time point           19 / 30,    Execution time    0.0 s
 Computed χ(iτ,k=0) for time point           20 / 30,    Execution time    0.0 s
 Computed χ(iτ,k=0) for time point           21 / 30,    Execution time    0.0 s
 Computed χ(iτ,k=0) for time point           22 / 30,    Execution time    0.0 s
 Computed χ(iτ,k=0) for time point           23 / 30,    Execution time    0.0 s
 Computed χ(iτ,k=0) for time point           24 / 30,    Execution time    0.0 s
 Computed χ(iτ,k=0) for time point           25 / 30,    Execution time    0.0 s
 Computed χ(iτ,k=0) for time point           26 / 30,    Execution time    0.0 s
 Computed χ(iτ,k=0) for time point           27 / 30,    Execution time    0.0 s
 Computed χ(iτ,k=0) for time point           28 / 30,    Execution time    0.0 s
 Computed χ(iτ,k=0) for time point           29 / 30,    Execution time    0.0 s
 Computed χ(iτ,k=0) for time point           30 / 30,    Execution time    0.0 s
 
 Computed W(iτ),                                         Execution time    2.0 s
 
 Computed Σ^x(k=0),                                      Execution time    0.0 s
 
 Computed Σ^c(iτ) for time point              1 / 30,    Execution time    0.0 s
 Computed Σ^c(iτ) for time point              2 / 30,    Execution time    0.0 s
 Computed Σ^c(iτ) for time point              3 / 30,    Execution time    0.0 s
 Computed Σ^c(iτ) for time point              4 / 30,    Execution time    0.0 s
 Computed Σ^c(iτ) for time point              5 / 30,    Execution time    0.0 s
 Computed Σ^c(iτ) for time point              6 / 30,    Execution time    0.0 s
 Computed Σ^c(iτ) for time point              7 / 30,    Execution time    0.0 s
 Computed Σ^c(iτ) for time point              8 / 30,    Execution time    0.0 s
 Computed Σ^c(iτ) for time point              9 / 30,    Execution time    0.0 s
 Computed Σ^c(iτ) for time point             10 / 30,    Execution time    0.0 s
 Computed Σ^c(iτ) for time point             11 / 30,    Execution time    0.0 s
 Computed Σ^c(iτ) for time point             12 / 30,    Execution time    0.0 s
 Computed Σ^c(iτ) for time point             13 / 30,    Execution time    0.0 s
 Computed Σ^c(iτ) for time point             14 / 30,    Execution time    0.0 s
 Computed Σ^c(iτ) for time point             15 / 30,    Execution time    0.0 s
 Computed Σ^c(iτ) for time point             16 / 30,    Execution time    0.0 s
 Computed Σ^c(iτ) for time point             17 / 30,    Execution time    0.0 s
 Computed Σ^c(iτ) for time point             18 / 30,    Execution time    0.0 s
 Computed Σ^c(iτ) for time point             19 / 30,    Execution time    0.0 s
 Computed Σ^c(iτ) for time point             20 / 30,    Execution time    0.0 s
 Computed Σ^c(iτ) for time point             21 / 30,    Execution time    0.0 s
 Computed Σ^c(iτ) for time point             22 / 30,    Execution time    0.0 s
 Computed Σ^c(iτ) for time point             23 / 30,    Execution time    0.0 s
 Computed Σ^c(iτ) for time point             24 / 30,    Execution time    0.0 s
 Computed Σ^c(iτ) for time point             25 / 30,    Execution time    0.0 s
 Computed Σ^c(iτ) for time point             26 / 30,    Execution time    0.0 s
 Computed Σ^c(iτ) for time point             27 / 30,    Execution time    0.0 s
 Computed Σ^c(iτ) for time point             28 / 30,    Execution time    0.0 s
 Computed Σ^c(iτ) for time point             29 / 30,    Execution time    0.0 s
 Computed Σ^c(iτ) for time point             30 / 30,    Execution time    0.0 s
 
 SCF valence band maximum (eV):                                           -5.526
 SCF conduction band minimum (eV):                                        -1.700
 SCF indirect band gap (eV):                                               3.825
 SCF direct band gap (eV):                                                 3.825
 
 G0W0 valence band maximum (eV):                                          -7.607
 G0W0 conduction band minimum (eV):                                        0.780
 G0W0 indirect band gap (eV):                                              8.387
 G0W0 direct band gap (eV):                                                8.387
 
 Hartree-Fock with SCF orbitals valence band maximum (eV):                -8.074
 Hartree-Fock with SCF orbitals conduction band minimum (eV)               1.945
 Hartree-Fock with SCF orbitals indirect band gap (eV):                   10.019
 Hartree-Fock with SCF orbitals direct band gap (eV):                     10.019

 ENERGY| Total FORCE_EVAL ( QS ) energy [hartree]            -81.169980108686048

 -------------------------------------------------------------------------------
 -                                                                             -
 -                                DBCSR STATISTICS                             -
 -                                                                             -
 -------------------------------------------------------------------------------
 COUNTER                                    TOTAL       BLAS       SMM       ACC
 flops    25 x    25 x    25                31250       0.0%    100.0%      0.0%     
 flops    18 x    25 x     9                81000       0.0%    100.0%      0.0%     
 flops    18 x    25 x    25                90000       0.0%    100.0%      0.0%     
 flops     9 x     9 x    25               121500       0.0%    100.0%      0.0%     
 flops     9 x    25 x    25               135000       0.0%    100.0%      0.0%     
 flops    25 x    25 x     9               168750       0.0%    100.0%      0.0%     
 flops    58 x    25 x     9               261000       0.0%    100.0%      0.0%     
 flops    58 x    25 x    25               290000       0.0%    100.0%      0.0%     
 flops    18 x    25 x    29               522000       0.0%    100.0%      0.0%     
 flops     4 x    37 x     4               633440       0.0%    100.0%      0.0%     
 flops    29 x     9 x    25               652500       0.0%    100.0%      0.0%     
 flops     9 x    29 x    25               652500       0.0%    100.0%      0.0%     
 flops     4 x     4 x    37               692640       0.0%    100.0%      0.0%     
 flops    29 x    25 x    25               725000       0.0%    100.0%      0.0%     
 flops     9 x    25 x     9               729000       0.0%    100.0%      0.0%     
 flops     4 x    43 x     4               738912       0.0%    100.0%      0.0%     
 flops     4 x    46 x     4               786048       0.0%    100.0%      0.0%     
 flops     4 x     4 x    43               825600       0.0%    100.0%      0.0%     
 flops     4 x    49 x     4               837312       0.0%    100.0%      0.0%     
 flops     4 x    59 x     4              1008192       0.0%    100.0%      0.0%     
 flops    25 x    25 x    29              1087500       0.0%    100.0%      0.0%     
 flops    37 x    37 x     4              1149960       0.0%    100.0%      0.0%     
 flops     4 x    37 x    37              1259480       0.0%    100.0%      0.0%     
 flops    43 x    37 x     4              1336440       0.0%    100.0%      0.0%     
 flops    37 x    43 x     4              1349168       0.0%    100.0%      0.0%     
 flops     4 x     9 x     4              1381248       0.0%    100.0%      0.0%     
 flops     4 x    82 x     4              1406464       0.0%    100.0%      0.0%     
 flops    46 x    37 x     4              1429680       0.0%    100.0%      0.0%     
 flops    37 x    46 x     4              1443296       0.0%    100.0%      0.0%     
 flops     4 x    37 x    43              1463720       0.0%    100.0%      0.0%     
 flops     4 x    43 x    37              1463720       0.0%    100.0%      0.0%     
 flops    49 x    37 x     4              1522920       0.0%    100.0%      0.0%     
 flops    37 x    49 x     4              1537424       0.0%    100.0%      0.0%     
 flops     4 x    46 x    37              1565840       0.0%    100.0%      0.0%     
 flops    43 x    43 x     4              1567952       0.0%    100.0%      0.0%     
 flops     4 x    49 x    37              1667960       0.0%    100.0%      0.0%     
 flops    43 x    46 x     4              1677344       0.0%    100.0%      0.0%     
 flops    46 x    43 x     4              1677344       0.0%    100.0%      0.0%     
 flops    58 x    25 x    29              1682000       0.0%    100.0%      0.0%     
 flops     4 x    99 x     4              1694880       0.0%    100.0%      0.0%     
 flops     4 x    43 x    43              1775040       0.0%    100.0%      0.0%     
 flops    43 x    49 x     4              1786736       0.0%    100.0%      0.0%     
 flops    49 x    43 x     4              1786736       0.0%    100.0%      0.0%     
 flops    46 x    46 x     4              1794368       0.0%    100.0%      0.0%     
 flops     4 x   106 x     4              1814720       0.0%    100.0%      0.0%     
 flops     4 x    46 x    43              1819760       0.0%    100.0%      0.0%     
 flops    37 x    59 x     4              1851184       0.0%    100.0%      0.0%     
 flops     4 x   111 x     4              1903872       0.0%    100.0%      0.0%     
 flops    49 x    46 x     4              1911392       0.0%    100.0%      0.0%     
 flops    46 x    49 x     4              1911392       0.0%    100.0%      0.0%     
 flops     4 x   112 x     4              1913856       0.0%    100.0%      0.0%     
 flops     4 x    49 x    43              1938440       0.0%    100.0%      0.0%     
 flops     4 x   115 x     4              1976160       0.0%    100.0%      0.0%     
 flops     4 x   116 x     4              1985920       0.0%    100.0%      0.0%     
 flops     4 x   117 x     4              2003040       0.0%    100.0%      0.0%     
 flops     4 x    59 x    37              2008360       0.0%    100.0%      0.0%     
 flops    49 x    49 x     4              2036048       0.0%    100.0%      0.0%     
 flops    43 x    59 x     4              2151376       0.0%    100.0%      0.0%     
 flops    46 x    59 x     4              2301472       0.0%    100.0%      0.0%     
 flops     4 x    59 x    43              2334040       0.0%    100.0%      0.0%     
 flops    49 x    59 x     4              2451568       0.0%    100.0%      0.0%     
 flops    82 x    37 x     4              2548560       0.0%    100.0%      0.0%     
 flops    37 x    82 x     4              2572832       0.0%    100.0%      0.0%     
 flops     4 x    82 x    37              2791280       0.0%    100.0%      0.0%     
 flops    43 x    82 x     4              2990048       0.0%    100.0%      0.0%     
 flops    82 x    43 x     4              2990048       0.0%    100.0%      0.0%     
 flops    99 x    37 x     4              3076920       0.0%    100.0%      0.0%     
 flops    37 x    99 x     4              3106224       0.0%    100.0%      0.0%     
 flops     9 x     9 x     4              3124656       0.0%    100.0%      0.0%     
 flops    82 x    46 x     4              3198656       0.0%    100.0%      0.0%     
 flops    46 x    82 x     4              3198656       0.0%    100.0%      0.0%     
 flops    37 x   106 x     4              3325856       0.0%    100.0%      0.0%     
 flops     4 x    82 x    43              3384960       0.0%    100.0%      0.0%     
 flops    49 x    82 x     4              3407264       0.0%    100.0%      0.0%     
 flops    82 x    49 x     4              3407264       0.0%    100.0%      0.0%     
 flops     4 x     4 x     9              3430080       0.0%    100.0%      0.0%     
 flops   111 x    37 x     4              3449880       0.0%    100.0%      0.0%     
 flops    37 x   111 x     4              3482736       0.0%    100.0%      0.0%     
 flops    37 x   112 x     4              3514112       0.0%    100.0%      0.0%     
 flops     4 x    99 x    37              3516480       0.0%    100.0%      0.0%     
 flops   115 x    37 x     4              3574200       0.0%    100.0%      0.0%     
 flops     4 x   106 x    37              3608240       0.0%    100.0%      0.0%     
 flops    37 x   115 x     4              3608240       0.0%    100.0%      0.0%     
 flops    43 x    99 x     4              3609936       0.0%    100.0%      0.0%     
 flops    99 x    43 x     4              3609936       0.0%    100.0%      0.0%     
 flops    37 x   116 x     4              3639616       0.0%    100.0%      0.0%     
 flops    37 x   117 x     4              3670992       0.0%    100.0%      0.0%     
 flops     4 x   111 x    37              3778440       0.0%    100.0%      0.0%     
 flops     4 x   112 x    37              3812480       0.0%    100.0%      0.0%     
 flops    46 x    99 x     4              3861792       0.0%    100.0%      0.0%     
 flops    99 x    46 x     4              3861792       0.0%    100.0%      0.0%     
 flops    43 x   106 x     4              3865184       0.0%    100.0%      0.0%     
 flops     4 x   115 x    37              3914600       0.0%    100.0%      0.0%     
 flops     4 x   116 x    37              3948640       0.0%    100.0%      0.0%     
 flops     4 x   117 x    37              3982680       0.0%    100.0%      0.0%     
 flops    43 x   111 x     4              4047504       0.0%    100.0%      0.0%     
 flops   111 x    43 x     4              4047504       0.0%    100.0%      0.0%     
 flops    43 x   112 x     4              4083968       0.0%    100.0%      0.0%     
 flops     4 x    99 x    43              4086720       0.0%    100.0%      0.0%     
 flops    82 x    59 x     4              4102624       0.0%    100.0%      0.0%     
 flops    49 x    99 x     4              4113648       0.0%    100.0%      0.0%     
 flops    99 x    49 x     4              4113648       0.0%    100.0%      0.0%     
 flops    46 x   106 x     4              4134848       0.0%    100.0%      0.0%     
 flops    43 x   115 x     4              4193360       0.0%    100.0%      0.0%     
 flops   115 x    43 x     4              4193360       0.0%    100.0%      0.0%     
 flops    43 x   116 x     4              4229824       0.0%    100.0%      0.0%     
 flops     4 x   124 x     4              4253696       0.0%    100.0%      0.0%     
 flops    43 x   117 x     4              4266288       0.0%    100.0%      0.0%     
 flops    46 x   111 x     4              4329888       0.0%    100.0%      0.0%     
 flops   111 x    46 x     4              4329888       0.0%    100.0%      0.0%     
 flops    46 x   112 x     4              4368896       0.0%    100.0%      0.0%     
 flops     4 x   106 x    43              4375680       0.0%    100.0%      0.0%     
 flops    49 x   106 x     4              4404512       0.0%    100.0%      0.0%     
 flops     4 x   112 x    43              4430720       0.0%    100.0%      0.0%     
 flops    46 x   115 x     4              4485920       0.0%    100.0%      0.0%     
 flops   115 x    46 x     4              4485920       0.0%    100.0%      0.0%     
 flops    46 x   116 x     4              4524928       0.0%    100.0%      0.0%     
 flops    46 x   117 x     4              4563936       0.0%    100.0%      0.0%     
 flops    29 x    25 x     9              4567500       0.0%    100.0%      0.0%     
 flops     4 x   111 x    43              4582080       0.0%    100.0%      0.0%     
 flops    49 x   111 x     4              4612272       0.0%    100.0%      0.0%     
 flops   111 x    49 x     4              4612272       0.0%    100.0%      0.0%     
 flops    29 x    29 x    25              4625500       0.0%    100.0%      0.0%     
 flops    49 x   112 x     4              4653824       0.0%    100.0%      0.0%     
 flops     9 x    25 x    29              4698000       0.0%    100.0%      0.0%     
 flops     4 x     4 x   124              4741760       0.0%    100.0%      0.0%     
 flops     4 x   115 x    43              4747200       0.0%    100.0%      0.0%     
 flops    49 x   115 x     4              4778480       0.0%    100.0%      0.0%     
 flops   115 x    49 x     4              4778480       0.0%    100.0%      0.0%     
 flops     4 x   116 x    43              4788480       0.0%    100.0%      0.0%     
 flops    49 x   116 x     4              4820032       0.0%    100.0%      0.0%     
 flops     4 x   117 x    43              4829760       0.0%    100.0%      0.0%     
 flops    49 x   117 x     4              4861584       0.0%    100.0%      0.0%     
 flops    99 x    59 x     4              4953168       0.0%    100.0%      0.0%     
 flops   111 x    59 x     4              5553552       0.0%    100.0%      0.0%     
 flops    82 x    82 x     4              5701952       0.0%    100.0%      0.0%     
 flops   115 x    59 x     4              5753680       0.0%    100.0%      0.0%     
 flops     4 x    37 x    20              6523840       0.0%    100.0%      0.0%     
 flops    20 x    37 x     4              6571200       0.0%    100.0%      0.0%     
 flops    82 x    99 x     4              6884064       0.0%    100.0%      0.0%     
 flops    99 x    82 x     4              6884064       0.0%    100.0%      0.0%     
 flops    20 x     4 x    37              6896800       0.0%    100.0%      0.0%     
 flops     4 x    20 x    37              6926400       0.0%    100.0%      0.0%     
 flops    82 x   106 x     4              7370816       0.0%    100.0%      0.0%     
 flops     4 x    43 x    20              7547360       0.0%    100.0%      0.0%     
 flops    20 x    43 x     4              7671200       0.0%    100.0%      0.0%     
 flops   124 x    37 x     4              7707840       0.0%    100.0%      0.0%     
 flops    82 x   111 x     4              7718496       0.0%    100.0%      0.0%     
 flops   111 x    82 x     4              7718496       0.0%    100.0%      0.0%     
 flops     4 x     9 x     9              7766280       0.0%    100.0%      0.0%     
 flops    37 x   124 x     4              7781248       0.0%    100.0%      0.0%     
 flops    82 x   112 x     4              7788032       0.0%    100.0%      0.0%     
 flops    82 x   115 x     4              7996640       0.0%    100.0%      0.0%     
 flops   115 x    82 x     4              7996640       0.0%    100.0%      0.0%     
 flops    82 x   116 x     4              8066176       0.0%    100.0%      0.0%     
 flops     4 x    46 x    20              8103360       0.0%    100.0%      0.0%     
 flops    20 x     4 x    43              8118400       0.0%    100.0%      0.0%     
 flops    82 x   117 x     4              8135712       0.0%    100.0%      0.0%     
 flops    20 x    46 x     4              8176960       0.0%    100.0%      0.0%     
 flops     4 x    20 x    43              8256000       0.0%    100.0%      0.0%     
 flops    99 x    99 x     4              8311248       0.0%    100.0%      0.0%     
 flops     4 x    37 x   124              8441920       0.0%    100.0%      0.0%     
 flops     4 x   124 x    37              8441920       0.0%    100.0%      0.0%     
 flops     4 x    49 x    20              8616160       0.0%    100.0%      0.0%     
 flops    20 x    49 x     4              8718080       0.0%    100.0%      0.0%     
 flops    99 x   106 x     4              8898912       0.0%    100.0%      0.0%     
 flops     4 x    29 x     4              9020160       0.0%    100.0%      0.0%     
 flops    43 x   124 x     4              9043072       0.0%    100.0%      0.0%     
 flops   124 x    43 x     4              9043072       0.0%    100.0%      0.0%     
 flops   111 x    99 x     4              9318672       0.0%    100.0%      0.0%     
 flops    99 x   111 x     4              9318672       0.0%    100.0%      0.0%     
 flops    99 x   112 x     4              9402624       0.0%    100.0%      0.0%     
 flops   115 x    99 x     4              9654480       0.0%    100.0%      0.0%     
 flops    99 x   115 x     4              9654480       0.0%    100.0%      0.0%     
 flops    46 x   124 x     4              9673984       0.0%    100.0%      0.0%     
 flops   124 x    46 x     4              9673984       0.0%    100.0%      0.0%     
 flops    99 x   116 x     4              9738432       0.0%    100.0%      0.0%     
 flops    99 x   117 x     4              9822384       0.0%    100.0%      0.0%     
 flops   111 x   106 x     4              9977568       0.0%    100.0%      0.0%     
 flops     4 x   124 x    43             10237440       0.0%    100.0%      0.0%     
 flops     4 x    43 x   124             10237440       0.0%    100.0%      0.0%     
 flops    49 x   124 x     4             10304896       0.0%    100.0%      0.0%     
 flops   124 x    49 x     4             10304896       0.0%    100.0%      0.0%     
 flops   115 x   106 x     4             10337120       0.0%    100.0%      0.0%     
 flops     4 x    59 x    20             10355680       0.0%    100.0%      0.0%     
 flops   111 x   111 x     4             10448208       0.0%    100.0%      0.0%     
 flops     4 x    46 x   124             10495360       0.0%    100.0%      0.0%     
 flops    20 x    59 x     4             10497280       0.0%    100.0%      0.0%     
 flops   111 x   112 x     4             10542336       0.0%    100.0%      0.0%     
 flops   111 x   115 x     4             10824720       0.0%    100.0%      0.0%     
 flops   115 x   111 x     4             10824720       0.0%    100.0%      0.0%     
 flops   111 x   116 x     4             10918848       0.0%    100.0%      0.0%     
 flops   115 x   112 x     4             10922240       0.0%    100.0%      0.0%     
 flops   111 x   117 x     4             11012976       0.0%    100.0%      0.0%     
 flops   115 x   115 x     4             11214800       0.0%    100.0%      0.0%     
 flops   115 x   116 x     4             11312320       0.0%    100.0%      0.0%     
 flops   115 x   117 x     4             11409840       0.0%    100.0%      0.0%     
 flops     4 x    49 x   124             11665920       0.0%    100.0%      0.0%     
 flops    37 x    37 x    20             12047200       0.0%    100.0%      0.0%     
 flops   124 x    59 x     4             12407936       0.0%    100.0%      0.0%     
 flops    20 x    37 x    37             12594800       0.0%    100.0%      0.0%     
 flops    20 x     9 x     4             13959360       0.0%    100.0%      0.0%     
 flops    43 x    37 x    20             14000800       0.0%    100.0%      0.0%     
 flops    37 x    43 x    20             14000800       0.0%    100.0%      0.0%     
 flops     4 x    59 x   124             14046720       0.0%    100.0%      0.0%     
 flops     4 x     9 x    20             14173920       0.0%    100.0%      0.0%     
 flops     4 x    82 x    20             14458240       0.0%    100.0%      0.0%     
 flops    20 x    82 x     4             14602560       0.0%    100.0%      0.0%     
 flops    20 x    37 x    43             14637200       0.0%    100.0%      0.0%     
 flops    20 x    43 x    37             14637200       0.0%    100.0%      0.0%     
 flops    37 x    46 x    20             14977600       0.0%    100.0%      0.0%     
 flops    46 x    37 x    20             14977600       0.0%    100.0%      0.0%     
 flops    20 x    46 x    37             15658400       0.0%    100.0%      0.0%     
 flops    49 x    37 x    20             15954400       0.0%    100.0%      0.0%     
 flops    37 x    49 x    20             15954400       0.0%    100.0%      0.0%     
 flops    43 x    43 x    20             16271200       0.0%    100.0%      0.0%     
 flops    20 x    49 x    37             16679600       0.0%    100.0%      0.0%     
 flops    82 x   124 x     4             17244928       0.0%    100.0%      0.0%     
 flops   124 x    82 x     4             17244928       0.0%    100.0%      0.0%     
 flops    43 x    46 x    20             17406400       0.0%    100.0%      0.0%     
 flops    46 x    43 x    20             17406400       0.0%    100.0%      0.0%     
 flops     4 x    99 x    20             17471520       0.0%    100.0%      0.0%     
 flops    20 x    99 x     4             17614080       0.0%    100.0%      0.0%     
 flops    20 x    43 x    43             17750400       0.0%    100.0%      0.0%     
 flops    20 x    46 x    43             18197600       0.0%    100.0%      0.0%     
 flops    43 x    49 x    20             18541600       0.0%    100.0%      0.0%     
 flops    49 x    43 x    20             18541600       0.0%    100.0%      0.0%     
 flops    46 x    46 x    20             18620800       0.0%    100.0%      0.0%     
 flops     4 x   106 x    20             18689920       0.0%    100.0%      0.0%     
 flops    20 x   106 x     4             18876480       0.0%    100.0%      0.0%     
 flops    37 x    59 x    20             19210400       0.0%    100.0%      0.0%     
 flops    20 x    49 x    43             19384400       0.0%    100.0%      0.0%     
 flops     4 x    82 x   124             19522560       0.0%    100.0%      0.0%     
 flops     4 x   111 x    20             19571520       0.0%    100.0%      0.0%     
 flops     4 x   112 x    20             19747840       0.0%    100.0%      0.0%     
 flops    20 x   111 x     4             19766880       0.0%    100.0%      0.0%     
 flops    49 x    46 x    20             19835200       0.0%    100.0%      0.0%     
 flops    46 x    49 x    20             19835200       0.0%    100.0%      0.0%     
 flops    20 x   112 x     4             19909120       0.0%    100.0%      0.0%     
 flops    20 x    59 x    37             20083600       0.0%    100.0%      0.0%     
 flops     9 x    29 x     4             20253600       0.0%    100.0%      0.0%     
 flops     4 x   115 x    20             20276800       0.0%    100.0%      0.0%     
 flops    29 x     9 x     4             20312064       0.0%    100.0%      0.0%     
 flops     4 x   116 x    20             20453120       0.0%    100.0%      0.0%     
 flops    20 x   115 x     4             20516000       0.0%    100.0%      0.0%     
 flops     4 x   117 x    20             20629440       0.0%    100.0%      0.0%     
 flops    20 x   116 x     4             20657280       0.0%    100.0%      0.0%     
 flops    20 x   117 x     4             20816640       0.0%    100.0%      0.0%     
 flops   124 x    99 x     4             20820096       0.0%    100.0%      0.0%     
 flops    99 x   124 x     4             20820096       0.0%    100.0%      0.0%     
 flops    49 x    49 x    20             21128800       0.0%    100.0%      0.0%     
 flops   124 x   106 x     4             22292224       0.0%    100.0%      0.0%     
 flops    43 x    59 x    20             22325600       0.0%    100.0%      0.0%     
 flops     4 x     4 x    29             22429760       0.0%    100.0%      0.0%     
 flops    20 x    59 x    43             23340400       0.0%    100.0%      0.0%     
 flops   111 x   124 x     4             23343744       0.0%    100.0%      0.0%     
 flops   124 x   111 x     4             23343744       0.0%    100.0%      0.0%     
 flops   124 x   112 x     4             23554048       0.0%    100.0%      0.0%     
 flops     4 x    99 x   124             23569920       0.0%    100.0%      0.0%     
 flops    46 x    59 x    20             23883200       0.0%    100.0%      0.0%     
 flops   115 x   124 x     4             24184960       0.0%    100.0%      0.0%     
 flops   124 x   115 x     4             24184960       0.0%    100.0%      0.0%     
 flops   124 x   116 x     4             24395264       0.0%    100.0%      0.0%     
 flops   124 x   117 x     4             24605568       0.0%    100.0%      0.0%     
 flops     4 x   106 x   124             25236480       0.0%    100.0%      0.0%     
 flops    49 x    59 x    20             25440800       0.0%    100.0%      0.0%     
 flops     4 x   111 x   124             26426880       0.0%    100.0%      0.0%     
 flops     4 x   112 x   124             26664960       0.0%    100.0%      0.0%     
 flops    37 x    82 x    20             26699200       0.0%    100.0%      0.0%     
 flops    82 x    37 x    20             26699200       0.0%    100.0%      0.0%     
 flops     4 x   115 x   124             27379200       0.0%    100.0%      0.0%     
 flops     4 x   116 x   124             27617280       0.0%    100.0%      0.0%     
 flops     4 x   117 x   124             27855360       0.0%    100.0%      0.0%     
 flops    20 x    82 x    37             27912800       0.0%    100.0%      0.0%     
 flops    29 x    25 x    29             29435000       0.0%    100.0%      0.0%     
 flops    43 x    82 x    20             31028800       0.0%    100.0%      0.0%     
 flops    82 x    43 x    20             31028800       0.0%    100.0%      0.0%     
 flops     9 x     9 x    20             31729320       0.0%    100.0%      0.0%     
 flops    37 x    99 x    20             32234400       0.0%    100.0%      0.0%     
 flops    99 x    37 x    20             32234400       0.0%    100.0%      0.0%     
 flops    82 x    46 x    20             33193600       0.0%    100.0%      0.0%     
 flops    46 x    82 x    20             33193600       0.0%    100.0%      0.0%     
 flops    20 x    82 x    43             33849600       0.0%    100.0%      0.0%     
 flops    37 x   106 x    20             34513600       0.0%    100.0%      0.0%     
 flops     4 x    20 x     9             34817760       0.0%    100.0%      0.0%     
 flops    20 x     4 x     9             34921440       0.0%    100.0%      0.0%     
 flops    20 x    99 x    37             35164800       0.0%    100.0%      0.0%     
 flops    49 x    82 x    20             35358400       0.0%    100.0%      0.0%     
 flops    82 x    49 x    20             35358400       0.0%    100.0%      0.0%     
 flops    20 x   106 x    37             36082400       0.0%    100.0%      0.0%     
 flops    37 x   111 x    20             36141600       0.0%    100.0%      0.0%     
 flops   111 x    37 x    20             36141600       0.0%    100.0%      0.0%     
 flops    37 x   112 x    20             36467200       0.0%    100.0%      0.0%     
 flops     4 x    37 x    32             36505088       0.0%    100.0%      0.0%     
 flops    32 x    37 x     4             36779776       0.0%    100.0%      0.0%     
 flops    37 x   115 x    20             37444000       0.0%    100.0%      0.0%     
 flops   115 x    37 x    20             37444000       0.0%    100.0%      0.0%     
 flops    43 x    99 x    20             37461600       0.0%    100.0%      0.0%     
 flops    99 x    43 x    20             37461600       0.0%    100.0%      0.0%     
 flops    37 x   116 x    20             37769600       0.0%    100.0%      0.0%     
 flops    20 x   111 x    37             37784400       0.0%    100.0%      0.0%     
 flops    37 x   117 x    20             38095200       0.0%    100.0%      0.0%     
 flops    20 x   112 x    37             38124800       0.0%    100.0%      0.0%     
 flops    32 x     4 x    37             38266880       0.0%    100.0%      0.0%     
 flops     4 x    32 x    37             38787840       0.0%    100.0%      0.0%     
 flops    20 x   115 x    37             39146000       0.0%    100.0%      0.0%     
 flops    20 x   116 x    37             39486400       0.0%    100.0%      0.0%     
 flops    20 x   117 x    37             39826800       0.0%    100.0%      0.0%     
 flops    46 x    99 x    20             40075200       0.0%    100.0%      0.0%     
 flops    99 x    46 x    20             40075200       0.0%    100.0%      0.0%     
 flops    43 x   106 x    20             40110400       0.0%    100.0%      0.0%     
 flops    20 x    99 x    43             40867200       0.0%    100.0%      0.0%     
 flops    43 x   111 x    20             42002400       0.0%    100.0%      0.0%     
 flops   111 x    43 x    20             42002400       0.0%    100.0%      0.0%     
 flops    43 x   112 x    20             42380800       0.0%    100.0%      0.0%     
 flops     4 x    43 x    32             42424832       0.0%    100.0%      0.0%     
 flops    82 x    59 x    20             42574400       0.0%    100.0%      0.0%     
 flops    49 x    99 x    20             42688800       0.0%    100.0%      0.0%     
 flops    99 x    49 x    20             42688800       0.0%    100.0%      0.0%     
 flops    32 x    43 x     4             42898176       0.0%    100.0%      0.0%     
 flops    46 x   106 x    20             42908800       0.0%    100.0%      0.0%     
 flops    43 x   115 x    20             43516000       0.0%    100.0%      0.0%     
 flops   115 x    43 x    20             43516000       0.0%    100.0%      0.0%     
 flops     4 x   124 x    20             43747200       0.0%    100.0%      0.0%     
 flops    20 x   106 x    43             43756800       0.0%    100.0%      0.0%     
 flops    43 x   116 x    20             43894400       0.0%    100.0%      0.0%     
 flops    20 x   124 x     4             44163840       0.0%    100.0%      0.0%     
 flops    43 x   117 x    20             44272800       0.0%    100.0%      0.0%     
 flops    20 x   112 x    43             44307200       0.0%    100.0%      0.0%     
 flops    46 x   111 x    20             44932800       0.0%    100.0%      0.0%     
 flops   111 x    46 x    20             44932800       0.0%    100.0%      0.0%     
 flops     4 x    46 x    32             45325824       0.0%    100.0%      0.0%     
 flops    46 x   112 x    20             45337600       0.0%    100.0%      0.0%     
 flops    32 x     4 x    43             45628160       0.0%    100.0%      0.0%     
 flops    49 x   106 x    20             45707200       0.0%    100.0%      0.0%     
 flops    32 x    46 x     4             45737984       0.0%    100.0%      0.0%     
 flops    20 x   111 x    43             45820800       0.0%    100.0%      0.0%     
 flops     4 x    32 x    43             46233600       0.0%    100.0%      0.0%     
 flops    46 x   115 x    20             46552000       0.0%    100.0%      0.0%     
 flops   115 x    46 x    20             46552000       0.0%    100.0%      0.0%     
 flops    20 x     4 x   124             46624000       0.0%    100.0%      0.0%     
 flops    46 x   116 x    20             46956800       0.0%    100.0%      0.0%     
 flops    46 x   117 x    20             47361600       0.0%    100.0%      0.0%     
 flops     4 x    20 x   124             47417600       0.0%    100.0%      0.0%     
 flops    20 x   115 x    43             47472000       0.0%    100.0%      0.0%     
 flops    49 x   111 x    20             47863200       0.0%    100.0%      0.0%     
 flops   111 x    49 x    20             47863200       0.0%    100.0%      0.0%     
 flops    20 x   116 x    43             47884800       0.0%    100.0%      0.0%     
 flops     4 x    49 x    32             48281856       0.0%    100.0%      0.0%     
 flops    49 x   112 x    20             48294400       0.0%    100.0%      0.0%     
 flops    20 x   117 x    43             48297600       0.0%    100.0%      0.0%     
 flops    32 x    49 x     4             48720896       0.0%    100.0%      0.0%     
 flops    49 x   115 x    20             49588000       0.0%    100.0%      0.0%     
 flops   115 x    49 x    20             49588000       0.0%    100.0%      0.0%     
 flops    49 x   116 x    20             50019200       0.0%    100.0%      0.0%     
 flops    49 x   117 x    20             50450400       0.0%    100.0%      0.0%     
 flops     4 x    29 x     9             50725872       0.0%    100.0%      0.0%     
 flops     4 x     9 x    29             50905440       0.0%    100.0%      0.0%     
 flops    99 x    59 x    20             51400800       0.0%    100.0%      0.0%     
 flops   124 x   124 x     4             52155392       0.0%    100.0%      0.0%     
 flops   111 x    59 x    20             57631200       0.0%    100.0%      0.0%     
 flops     4 x    59 x    32             58225920       0.0%    100.0%      0.0%     
 flops    32 x    59 x     4             58679040       0.0%    100.0%      0.0%     
 flops     4 x   124 x   124             59043840       0.0%    100.0%      0.0%     
 flops    82 x    82 x    20             59171200       0.0%    100.0%      0.0%     
 flops   115 x    59 x    20             59708000       0.0%    100.0%      0.0%     
 flops    37 x    37 x    32             67464320       0.0%    100.0%      0.0%     
 flops    20 x    37 x    20             67517600       0.0%    100.0%      0.0%     
 flops    20 x    20 x    37             68968000       0.0%    100.0%      0.0%     
 flops    32 x    37 x    37             70530880       0.0%    100.0%      0.0%     
 flops    82 x    99 x    20             71438400       0.0%    100.0%      0.0%     
 flops    99 x    82 x    20             71438400       0.0%    100.0%      0.0%     
 flops    82 x   106 x    20             76489600       0.0%    100.0%      0.0%     
 flops    20 x    43 x    20             78260000       0.0%    100.0%      0.0%     
 flops    43 x    37 x    32             78404480       0.0%    100.0%      0.0%     
 flops    37 x    43 x    32             78404480       0.0%    100.0%      0.0%     
 flops    32 x     9 x     4             78418944       0.0%    100.0%      0.0%     
 flops    20 x     9 x     9             78537600       0.0%    100.0%      0.0%     
 flops     4 x     9 x    32             79792128       0.0%    100.0%      0.0%     
 flops    82 x   111 x    20             80097600       0.0%    100.0%      0.0%     
 flops   111 x    82 x    20             80097600       0.0%    100.0%      0.0%     
 flops    37 x   124 x    20             80748800       0.0%    100.0%      0.0%     
 flops   124 x    37 x    20             80748800       0.0%    100.0%      0.0%     
 flops    82 x   112 x    20             80819200       0.0%    100.0%      0.0%     
 flops     4 x    82 x    32             81008128       0.0%    100.0%      0.0%     
 flops    20 x    20 x    43             81184000       0.0%    100.0%      0.0%     
 flops    32 x    82 x     4             81595904       0.0%    100.0%      0.0%     
 flops    32 x    37 x    43             81968320       0.0%    100.0%      0.0%     
 flops    32 x    43 x    37             81968320       0.0%    100.0%      0.0%     
 flops    82 x   115 x    20             82984000       0.0%    100.0%      0.0%     
 flops   115 x    82 x    20             82984000       0.0%    100.0%      0.0%     
 flops    82 x   116 x    20             83705600       0.0%    100.0%      0.0%     
 flops    20 x    46 x    20             83720000       0.0%    100.0%      0.0%     
 flops    37 x    46 x    32             83874560       0.0%    100.0%      0.0%     
 flops    46 x    37 x    32             83874560       0.0%    100.0%      0.0%     
 flops    20 x    37 x   124             84419200       0.0%    100.0%      0.0%     
 flops    20 x   124 x    37             84419200       0.0%    100.0%      0.0%     
 flops    82 x   117 x    20             84427200       0.0%    100.0%      0.0%     
 flops    99 x    99 x    20             86248800       0.0%    100.0%      0.0%     
 flops    32 x    46 x    37             87687040       0.0%    100.0%      0.0%     
 flops    20 x    49 x    20             89180000       0.0%    100.0%      0.0%     
 flops    49 x    37 x    32             89344640       0.0%    100.0%      0.0%     
 flops    37 x    49 x    32             89344640       0.0%    100.0%      0.0%     
 flops    20 x    29 x     4             90939360       0.0%    100.0%      0.0%     
 flops    43 x    43 x    32             91118720       0.0%    100.0%      0.0%     
 flops    99 x   106 x    20             92347200       0.0%    100.0%      0.0%     
 flops     4 x    29 x    20             92595840       0.0%    100.0%      0.0%     
 flops    32 x    49 x    37             93405760       0.0%    100.0%      0.0%     
 flops    43 x   124 x    20             93843200       0.0%    100.0%      0.0%     
 flops   124 x    43 x    20             93843200       0.0%    100.0%      0.0%     
 flops   111 x    99 x    20             96703200       0.0%    100.0%      0.0%     
 flops    99 x   111 x    20             96703200       0.0%    100.0%      0.0%     
 flops    43 x    46 x    32             97475840       0.0%    100.0%      0.0%     
 flops    46 x    43 x    32             97475840       0.0%    100.0%      0.0%     
 flops    99 x   112 x    20             97574400       0.0%    100.0%      0.0%     
 flops     4 x    99 x    32             97802496       0.0%    100.0%      0.0%     
 flops    32 x    99 x     4             98486784       0.0%    100.0%      0.0%     
 flops    32 x    43 x    43             99402240       0.0%    100.0%      0.0%     
 flops   115 x    99 x    20            100188000       0.0%    100.0%      0.0%     
 flops    99 x   115 x    20            100188000       0.0%    100.0%      0.0%     
 flops    46 x   124 x    20            100390400       0.0%    100.0%      0.0%     
 flops   124 x    46 x    20            100390400       0.0%    100.0%      0.0%     
 flops    99 x   116 x    20            101059200       0.0%    100.0%      0.0%     
 flops    32 x    46 x    43            101906560       0.0%    100.0%      0.0%     
 flops    99 x   117 x    20            101930400       0.0%    100.0%      0.0%     
 flops    20 x   124 x    43            102374400       0.0%    100.0%      0.0%     
 flops    20 x    43 x   124            102374400       0.0%    100.0%      0.0%     
 flops   111 x   106 x    20            103540800       0.0%    100.0%      0.0%     
 flops    43 x    49 x    32            103832960       0.0%    100.0%      0.0%     
 flops    49 x    43 x    32            103832960       0.0%    100.0%      0.0%     
 flops    46 x    46 x    32            104276480       0.0%    100.0%      0.0%     
 flops     4 x   106 x    32            104609280       0.0%    100.0%      0.0%     
 flops    20 x    46 x   124            104953600       0.0%    100.0%      0.0%     
 flops    32 x   106 x     4            105559040       0.0%    100.0%      0.0%     
 flops    49 x   124 x    20            106937600       0.0%    100.0%      0.0%     
 flops   124 x    49 x    20            106937600       0.0%    100.0%      0.0%     
 flops   115 x   106 x    20            107272000       0.0%    100.0%      0.0%     
 flops    20 x    59 x    20            107568800       0.0%    100.0%      0.0%     
 flops    37 x    59 x    32            107578240       0.0%    100.0%      0.0%     
 flops   111 x   111 x    20            108424800       0.0%    100.0%      0.0%     
 flops    32 x    49 x    43            108552640       0.0%    100.0%      0.0%     
 flops   111 x   112 x    20            109401600       0.0%    100.0%      0.0%     
 flops     4 x   111 x    32            109657344       0.0%    100.0%      0.0%     
 flops     4 x   112 x    32            110358528       0.0%    100.0%      0.0%     
 flops    32 x   111 x     4            110595072       0.0%    100.0%      0.0%     
 flops    49 x    46 x    32            111077120       0.0%    100.0%      0.0%     
 flops    46 x    49 x    32            111077120       0.0%    100.0%      0.0%     
 flops    32 x   112 x     4            111390720       0.0%    100.0%      0.0%     
 flops   111 x   115 x    20            112332000       0.0%    100.0%      0.0%     
 flops   115 x   111 x    20            112332000       0.0%    100.0%      0.0%     
 flops    32 x    59 x    37            112468160       0.0%    100.0%      0.0%     
 flops   111 x   116 x    20            113308800       0.0%    100.0%      0.0%     
 flops   115 x   112 x    20            113344000       0.0%    100.0%      0.0%     
 flops     4 x   115 x    32            113491200       0.0%    100.0%      0.0%     
 flops   111 x   117 x    20            114285600       0.0%    100.0%      0.0%     
 flops     4 x   116 x    32            114537472       0.0%    100.0%      0.0%     
 flops    32 x   115 x     4            114639360       0.0%    100.0%      0.0%     
 flops     4 x   117 x    32            115345152       0.0%    100.0%      0.0%     
 flops    32 x   116 x     4            115517440       0.0%    100.0%      0.0%     
 flops    32 x   117 x     4            116363520       0.0%    100.0%      0.0%     
 flops   115 x   115 x    20            116380000       0.0%    100.0%      0.0%     
 flops    20 x    49 x   124            116659200       0.0%    100.0%      0.0%     
 flops   115 x   116 x    20            117392000       0.0%    100.0%      0.0%     
 flops    49 x    49 x    32            118321280       0.0%    100.0%      0.0%     
 flops   115 x   117 x    20            118404000       0.0%    100.0%      0.0%     
 flops    43 x    59 x    32            125023360       0.0%    100.0%      0.0%     
 flops   124 x    59 x    20            128761600       0.0%    100.0%      0.0%     
 flops    32 x    59 x    43            130706240       0.0%    100.0%      0.0%     
 flops    29 x    29 x     4            131323832       0.0%    100.0%      0.0%     
 flops    46 x    59 x    32            133745920       0.0%    100.0%      0.0%     
 flops    20 x    59 x   124            140467200       0.0%    100.0%      0.0%     
 flops    49 x    59 x    32            142468480       0.0%    100.0%      0.0%     
 flops    20 x     9 x    20            143488800       0.0%    100.0%      0.0%     
 flops    37 x    82 x    32            149515520       0.0%    100.0%      0.0%     
 flops    82 x    37 x    32            149515520       0.0%    100.0%      0.0%     
 flops    20 x    82 x    20            150289600       0.0%    100.0%      0.0%     
 flops    32 x    82 x    37            156311680       0.0%    100.0%      0.0%     
 flops    43 x    82 x    32            173761280       0.0%    100.0%      0.0%     
 flops    82 x    43 x    32            173761280       0.0%    100.0%      0.0%     
 flops     9 x     9 x    32            177567552       0.0%    100.0%      0.0%     
 flops    82 x   124 x    20            178956800       0.0%    100.0%      0.0%     
 flops   124 x    82 x    20            178956800       0.0%    100.0%      0.0%     
 flops    37 x    99 x    32            180512640       0.0%    100.0%      0.0%     
 flops    99 x    37 x    32            180512640       0.0%    100.0%      0.0%     
 flops    20 x    99 x    20            181447200       0.0%    100.0%      0.0%     
 flops    82 x    46 x    32            185884160       0.0%    100.0%      0.0%     
 flops    46 x    82 x    32            185884160       0.0%    100.0%      0.0%     
 flops    32 x    82 x    43            189557760       0.0%    100.0%      0.0%     
 flops    37 x   106 x    32            193276160       0.0%    100.0%      0.0%     
 flops    20 x   106 x    20            193683200       0.0%    100.0%      0.0%     
 flops     4 x    32 x     9            195028992       0.0%    100.0%      0.0%     
 flops    20 x    82 x   124            195225600       0.0%    100.0%      0.0%     
 flops    32 x     4 x     9            195422976       0.0%    100.0%      0.0%     
 flops    32 x    99 x    37            196922880       0.0%    100.0%      0.0%     
 flops    49 x    82 x    32            198007040       0.0%    100.0%      0.0%     
 flops    82 x    49 x    32            198007040       0.0%    100.0%      0.0%     
 flops    32 x   106 x    37            202061440       0.0%    100.0%      0.0%     
 flops    37 x   111 x    32            202392960       0.0%    100.0%      0.0%     
 flops   111 x    37 x    32            202392960       0.0%    100.0%      0.0%     
 flops    20 x   111 x    20            203529600       0.0%    100.0%      0.0%     
 flops    37 x   112 x    32            204216320       0.0%    100.0%      0.0%     
 flops    20 x   112 x    20            204467200       0.0%    100.0%      0.0%     
 flops    29 x     9 x    20            204519600       0.0%    100.0%      0.0%     
 flops     9 x    29 x    20            204947640       0.0%    100.0%      0.0%     
 flops    37 x   115 x    32            209686400       0.0%    100.0%      0.0%     
 flops   115 x    37 x    32            209686400       0.0%    100.0%      0.0%     
 flops    43 x    99 x    32            209784960       0.0%    100.0%      0.0%     
 flops    99 x    43 x    32            209784960       0.0%    100.0%      0.0%     
 flops    20 x   115 x    20            209852000       0.0%    100.0%      0.0%     
 flops    37 x   116 x    32            211509760       0.0%    100.0%      0.0%     
 flops    32 x   111 x    37            211592640       0.0%    100.0%      0.0%     
 flops    20 x   116 x    20            212604800       0.0%    100.0%      0.0%     
 flops    37 x   117 x    32            213333120       0.0%    100.0%      0.0%     
 flops    32 x   112 x    37            213498880       0.0%    100.0%      0.0%     
 flops    20 x   117 x    20            213876000       0.0%    100.0%      0.0%     
 flops   124 x    99 x    20            216057600       0.0%    100.0%      0.0%     
 flops    99 x   124 x    20            216057600       0.0%    100.0%      0.0%     
 flops    32 x   115 x    37            219217600       0.0%    100.0%      0.0%     
 flops    32 x   116 x    37            221123840       0.0%    100.0%      0.0%     
 flops    32 x   117 x    37            223030080       0.0%    100.0%      0.0%     
 flops    46 x    99 x    32            224421120       0.0%    100.0%      0.0%     
 flops    99 x    46 x    32            224421120       0.0%    100.0%      0.0%     
 flops    43 x   106 x    32            224618240       0.0%    100.0%      0.0%     
 flops     4 x    20 x    29            225058560       0.0%    100.0%      0.0%     
 flops    32 x    99 x    43            228856320       0.0%    100.0%      0.0%     
 flops    20 x     4 x    29            230742560       0.0%    100.0%      0.0%     
 flops   124 x   106 x    20            231334400       0.0%    100.0%      0.0%     
 flops    43 x   111 x    32            235213440       0.0%    100.0%      0.0%     
 flops   111 x    43 x    32            235213440       0.0%    100.0%      0.0%     
 flops    20 x    99 x   124            235699200       0.0%    100.0%      0.0%     
 flops    43 x   112 x    32            237332480       0.0%    100.0%      0.0%     
 flops    82 x    59 x    32            238416640       0.0%    100.0%      0.0%     
 flops    49 x    99 x    32            239057280       0.0%    100.0%      0.0%     
 flops    99 x    49 x    32            239057280       0.0%    100.0%      0.0%     
 flops    46 x   106 x    32            240289280       0.0%    100.0%      0.0%     
 flops   111 x   124 x    20            242246400       0.0%    100.0%      0.0%     
 flops   124 x   111 x    20            242246400       0.0%    100.0%      0.0%     
 flops    43 x   115 x    32            243689600       0.0%    100.0%      0.0%     
 flops   115 x    43 x    32            243689600       0.0%    100.0%      0.0%     
 flops   124 x   112 x    20            244428800       0.0%    100.0%      0.0%     
 flops     4 x   124 x    32            244873216       0.0%    100.0%      0.0%     
 flops    32 x   106 x    43            245038080       0.0%    100.0%      0.0%     
 flops    43 x   116 x    32            245808640       0.0%    100.0%      0.0%     
 flops    32 x   124 x     4            247127040       0.0%    100.0%      0.0%     
 flops    43 x   117 x    32            247927680       0.0%    100.0%      0.0%     
 flops    32 x   112 x    43            248120320       0.0%    100.0%      0.0%     
 flops   115 x   124 x    20            250976000       0.0%    100.0%      0.0%     
 flops   124 x   115 x    20            250976000       0.0%    100.0%      0.0%     
 flops    46 x   111 x    32            251623680       0.0%    100.0%      0.0%     
 flops   111 x    46 x    32            251623680       0.0%    100.0%      0.0%     
 flops    20 x   106 x   124            252364800       0.0%    100.0%      0.0%     
 flops   124 x   116 x    20            253158400       0.0%    100.0%      0.0%     
 flops    46 x   112 x    32            253890560       0.0%    100.0%      0.0%     
 flops   124 x   117 x    20            255340800       0.0%    100.0%      0.0%     
 flops    49 x   106 x    32            255960320       0.0%    100.0%      0.0%     
 flops    32 x   111 x    43            256596480       0.0%    100.0%      0.0%     
 flops    46 x   115 x    32            260691200       0.0%    100.0%      0.0%     
 flops   115 x    46 x    32            260691200       0.0%    100.0%      0.0%     
 flops    46 x   116 x    32            262958080       0.0%    100.0%      0.0%     
 flops    20 x   111 x   124            264268800       0.0%    100.0%      0.0%     
 flops    32 x     4 x   124            265221120       0.0%    100.0%      0.0%     
 flops    46 x   117 x    32            265224960       0.0%    100.0%      0.0%     
 flops     4 x    32 x   124            265538560       0.0%    100.0%      0.0%     
 flops    32 x   115 x    43            265843200       0.0%    100.0%      0.0%     
 flops    20 x   112 x   124            266649600       0.0%    100.0%      0.0%     
 flops    49 x   111 x    32            268033920       0.0%    100.0%      0.0%     
 flops   111 x    49 x    32            268033920       0.0%    100.0%      0.0%     
 flops    32 x   116 x    43            268154880       0.0%    100.0%      0.0%     
 flops    49 x   112 x    32            270448640       0.0%    100.0%      0.0%     
 flops    32 x   117 x    43            270466560       0.0%    100.0%      0.0%     
 flops    20 x   115 x   124            273792000       0.0%    100.0%      0.0%     
 flops    20 x   116 x   124            276172800       0.0%    100.0%      0.0%     
 flops    49 x   115 x    32            277692800       0.0%    100.0%      0.0%     
 flops   115 x    49 x    32            277692800       0.0%    100.0%      0.0%     
 flops    20 x   117 x   124            278553600       0.0%    100.0%      0.0%     
 flops    49 x   116 x    32            280107520       0.0%    100.0%      0.0%     
 flops    49 x   117 x    32            282522240       0.0%    100.0%      0.0%     
 flops    99 x    59 x    32            287844480       0.0%    100.0%      0.0%     
 flops   111 x    59 x    32            322734720       0.0%    100.0%      0.0%     
 flops    82 x    82 x    32            331358720       0.0%    100.0%      0.0%     
 flops   115 x    59 x    32            334364800       0.0%    100.0%      0.0%     
 flops     4 x    29 x    29            338741344       0.0%    100.0%      0.0%     
 flops    20 x    20 x     9            350352000       0.0%    100.0%      0.0%     
 flops    32 x    37 x    20            377553920       0.0%    100.0%      0.0%     
 flops    20 x    37 x    32            379827200       0.0%    100.0%      0.0%     
 flops    32 x    20 x    37            382668800       0.0%    100.0%      0.0%     
 flops    20 x    32 x    37            386220800       0.0%    100.0%      0.0%     
 flops    82 x    99 x    32            400055040       0.0%    100.0%      0.0%     
 flops    99 x    82 x    32            400055040       0.0%    100.0%      0.0%     
 flops    82 x   106 x    32            428341760       0.0%    100.0%      0.0%     
 flops    32 x    43 x    20            437237760       0.0%    100.0%      0.0%     
 flops    32 x     9 x     9            439815744       0.0%    100.0%      0.0%     
 flops    20 x    43 x    32            440760320       0.0%    100.0%      0.0%     
 flops    82 x   111 x    32            448546560       0.0%    100.0%      0.0%     
 flops   111 x    82 x    32            448546560       0.0%    100.0%      0.0%     
 flops    37 x   124 x    32            452193280       0.0%    100.0%      0.0%     
 flops   124 x    37 x    32            452193280       0.0%    100.0%      0.0%     
 flops    82 x   112 x    32            452587520       0.0%    100.0%      0.0%     
 flops    20 x   124 x    20            453443200       0.0%    100.0%      0.0%     
 flops    20 x    32 x    43            454630400       0.0%    100.0%      0.0%     
 flops    32 x    20 x    43            456281600       0.0%    100.0%      0.0%     
 flops    82 x   115 x    32            464710400       0.0%    100.0%      0.0%     
 flops   115 x    82 x    32            464710400       0.0%    100.0%      0.0%     
 flops    20 x    20 x   124            466240000       0.0%    100.0%      0.0%     
 flops    32 x    46 x    20            467566080       0.0%    100.0%      0.0%     
 flops    82 x   116 x    32            468751360       0.0%    100.0%      0.0%     
 flops    20 x    46 x    32            471746560       0.0%    100.0%      0.0%     
 flops    32 x    37 x   124            472747520       0.0%    100.0%      0.0%     
 flops    32 x   124 x    37            472747520       0.0%    100.0%      0.0%     
 flops    82 x   117 x    32            472792320       0.0%    100.0%      0.0%     
 flops    99 x    99 x    32            482993280       0.0%    100.0%      0.0%     
 flops    32 x    49 x    20            498561280       0.0%    100.0%      0.0%     
 flops    20 x    49 x    32            502826240       0.0%    100.0%      0.0%     
 flops    20 x    29 x     9            509284080       0.0%    100.0%      0.0%     
 flops    32 x    29 x     4            510051072       0.0%    100.0%      0.0%     
 flops    20 x     9 x    29            510307200       0.0%    100.0%      0.0%     
 flops    99 x   106 x    32            517144320       0.0%    100.0%      0.0%     
 flops     4 x    29 x    32            523429120       0.0%    100.0%      0.0%     
 flops    43 x   124 x    32            525521920       0.0%    100.0%      0.0%     
 flops   124 x    43 x    32            525521920       0.0%    100.0%      0.0%     
 flops   124 x   124 x    20            541235200       0.0%    100.0%      0.0%     
 flops   111 x    99 x    32            541537920       0.0%    100.0%      0.0%     
 flops    99 x   111 x    32            541537920       0.0%    100.0%      0.0%     
 flops    99 x   112 x    32            546416640       0.0%    100.0%      0.0%     
 flops   115 x    99 x    32            561052800       0.0%    100.0%      0.0%     
 flops    99 x   115 x    32            561052800       0.0%    100.0%      0.0%     
 flops    46 x   124 x    32            562186240       0.0%    100.0%      0.0%     
 flops   124 x    46 x    32            562186240       0.0%    100.0%      0.0%     
 flops    99 x   116 x    32            565931520       0.0%    100.0%      0.0%     
 flops    99 x   117 x    32            570810240       0.0%    100.0%      0.0%     
 flops    32 x   124 x    43            573296640       0.0%    100.0%      0.0%     
 flops    32 x    43 x   124            573296640       0.0%    100.0%      0.0%     
 flops   111 x   106 x    32            579828480       0.0%    100.0%      0.0%     
 flops    32 x    46 x   124            587740160       0.0%    100.0%      0.0%     
 flops    20 x   124 x   124            590438400       0.0%    100.0%      0.0%     
 flops    49 x   124 x    32            598850560       0.0%    100.0%      0.0%     
 flops   124 x    49 x    32            598850560       0.0%    100.0%      0.0%     
 flops    32 x    59 x    20            600535040       0.0%    100.0%      0.0%     
 flops   115 x   106 x    32            600723200       0.0%    100.0%      0.0%     
 flops    20 x    59 x    32            605292800       0.0%    100.0%      0.0%     
 flops   111 x   111 x    32            607178880       0.0%    100.0%      0.0%     
 flops   111 x   112 x    32            612648960       0.0%    100.0%      0.0%     
 flops   111 x   115 x    32            629059200       0.0%    100.0%      0.0%     
 flops   115 x   111 x    32            629059200       0.0%    100.0%      0.0%     
 flops   111 x   116 x    32            634529280       0.0%    100.0%      0.0%     
 flops   115 x   112 x    32            634726400       0.0%    100.0%      0.0%     
 flops   111 x   117 x    32            639999360       0.0%    100.0%      0.0%     
 flops   115 x   115 x    32            651728000       0.0%    100.0%      0.0%     
 flops    32 x    49 x   124            653291520       0.0%    100.0%      0.0%     
 flops   115 x   116 x    32            657395200       0.0%    100.0%      0.0%     
 flops   115 x   117 x    32            663062400       0.0%    100.0%      0.0%     
 flops   124 x    59 x    32            721064960       0.0%    100.0%      0.0%     
 flops    32 x    59 x   124            786616320       0.0%    100.0%      0.0%     
 flops    32 x     9 x    20            806227200       0.0%    100.0%      0.0%     
 flops    20 x     9 x    32            810432000       0.0%    100.0%      0.0%     
 flops    32 x    82 x    20            841779200       0.0%    100.0%      0.0%     
 flops    20 x    82 x    32            843878400       0.0%    100.0%      0.0%     
 flops    20 x    29 x    20            941943200       0.0%    100.0%      0.0%     
 flops    82 x   124 x    32           1002158080       0.0%    100.0%      0.0%     
 flops   124 x    82 x    32           1002158080       0.0%    100.0%      0.0%     
 flops    32 x    99 x    20           1017054720       0.0%    100.0%      0.0%     
 flops    20 x    99 x    32           1018702080       0.0%    100.0%      0.0%     
 flops    32 x   106 x    20           1084354560       0.0%    100.0%      0.0%     
 flops    20 x   106 x    32           1088967680       0.0%    100.0%      0.0%     
 flops    32 x    82 x   124           1093263360       0.0%    100.0%      0.0%     
 flops    32 x   111 x    20           1139623680       0.0%    100.0%      0.0%     
 flops    20 x   111 x    32           1142323200       0.0%    100.0%      0.0%     
 flops    32 x   112 x    20           1143582720       0.0%    100.0%      0.0%     
 flops    29 x     9 x    32           1144558080       0.0%    100.0%      0.0%     
 flops     9 x    29 x    32           1148951232       0.0%    100.0%      0.0%     
 flops    20 x   112 x    32           1149603840       0.0%    100.0%      0.0%     
 flops    32 x   115 x    20           1174803200       0.0%    100.0%      0.0%     
 flops    20 x   115 x    32           1180985600       0.0%    100.0%      0.0%     
 flops    32 x   116 x    20           1191255040       0.0%    100.0%      0.0%     
 flops    20 x   116 x    32           1193185280       0.0%    100.0%      0.0%     
 flops    32 x   117 x    20           1197480960       0.0%    100.0%      0.0%     
 flops    20 x   117 x    32           1201674240       0.0%    100.0%      0.0%     
 flops   124 x    99 x    32           1209922560       0.0%    100.0%      0.0%     
 flops    99 x   124 x    32           1209922560       0.0%    100.0%      0.0%     
 flops     4 x    32 x    29           1260342784       0.0%    100.0%      0.0%     
 flops    32 x     4 x    29           1291182080       0.0%    100.0%      0.0%     
 flops   124 x   106 x    32           1295472640       0.0%    100.0%      0.0%     
 flops    32 x    99 x   124           1319915520       0.0%    100.0%      0.0%     
 flops    29 x    29 x    20           1321042800       0.0%    100.0%      0.0%     
 flops   111 x   124 x    32           1356579840       0.0%    100.0%      0.0%     
 flops   124 x   111 x    32           1356579840       0.0%    100.0%      0.0%     
 flops   124 x   112 x    32           1368801280       0.0%    100.0%      0.0%     
 flops   115 x   124 x    32           1405465600       0.0%    100.0%      0.0%     
 flops   124 x   115 x    32           1405465600       0.0%    100.0%      0.0%     
 flops    32 x   106 x   124           1413242880       0.0%    100.0%      0.0%     
 flops   124 x   116 x    32           1417687040       0.0%    100.0%      0.0%     
 flops   124 x   117 x    32           1429908480       0.0%    100.0%      0.0%     
 flops    32 x   111 x   124           1479905280       0.0%    100.0%      0.0%     
 flops    32 x   112 x   124           1493237760       0.0%    100.0%      0.0%     
 flops    32 x   115 x   124           1533235200       0.0%    100.0%      0.0%     
 flops    32 x   116 x   124           1546567680       0.0%    100.0%      0.0%     
 flops    32 x   117 x   124           1559900160       0.0%    100.0%      0.0%     
 flops    32 x    20 x     9           1958112000       0.0%    100.0%      0.0%     
 flops    20 x    32 x     9           1962420480       0.0%    100.0%      0.0%     
 flops    32 x    37 x    32           2127486976       0.0%    100.0%      0.0%     
 flops    32 x    32 x    37           2142945280       0.0%    100.0%      0.0%     
 flops    20 x    20 x    29           2337632000       0.0%    100.0%      0.0%     
 flops    32 x    43 x    32           2467817472       0.0%    100.0%      0.0%     
 flops    32 x   124 x    20           2539361280       0.0%    100.0%      0.0%     
 flops    20 x   124 x    32           2549519360       0.0%    100.0%      0.0%     
 flops    32 x    32 x    43           2555176960       0.0%    100.0%      0.0%     
 flops    20 x    32 x   124           2610944000       0.0%    100.0%      0.0%     
 flops    32 x    46 x    32           2641403904       0.0%    100.0%      0.0%     
 flops    32 x    20 x   124           2652211200       0.0%    100.0%      0.0%     
 flops    32 x    49 x    32           2814672896       0.0%    100.0%      0.0%     
 flops    32 x    29 x     9           2854813824       0.0%    100.0%      0.0%     
 flops    32 x     9 x    29           2857720320       0.0%    100.0%      0.0%     
 flops   124 x   124 x    32           3030917120       0.0%    100.0%      0.0%     
 flops    32 x   124 x   124           3306455040       0.0%    100.0%      0.0%     
 flops    32 x    59 x    32           3389216768       0.0%    100.0%      0.0%     
 flops    20 x    29 x    29           3394948800       0.0%    100.0%      0.0%     
 flops    32 x     9 x    32           4556427264       0.0%    100.0%      0.0%     
 flops    32 x    82 x    32           4725383168       0.0%    100.0%      0.0%     
 flops    32 x    29 x    20           5295910400       0.0%    100.0%      0.0%     
 flops    20 x    29 x    32           5304002560       0.0%    100.0%      0.0%     
 flops    32 x    99 x    32           5706049536       0.0%    100.0%      0.0%     
 flops    32 x   106 x    32           6103646208       0.0%    100.0%      0.0%     
 flops    32 x   111 x    32           6398601216       0.0%    100.0%      0.0%     
 flops    32 x   112 x    32           6442254336       0.0%    100.0%      0.0%     
 flops    32 x   115 x    32           6615992320       0.0%    100.0%      0.0%     
 flops    32 x   116 x    32           6685163520       0.0%    100.0%      0.0%     
 flops    32 x   117 x    32           6735845376       0.0%    100.0%      0.0%     
 flops    29 x    29 x    32           7405644160       0.0%    100.0%      0.0%     
 flops    32 x    32 x     9          10966874112       0.0%    100.0%      0.0%     
 flops    32 x    20 x    29          13078229760       0.0%    100.0%      0.0%     
 flops    20 x    32 x    29          13085616640       0.0%    100.0%      0.0%     
 flops    32 x   124 x    32          14281244672       0.0%    100.0%      0.0%     
 flops    32 x    32 x   124          14852382720       0.0%    100.0%      0.0%     
 flops    32 x    29 x    29          19011713280       0.0%    100.0%      0.0%     
 flops    32 x    29 x    32          29774931968       0.0%    100.0%      0.0%     
 flops    32 x    32 x    29          73211330560       0.0%    100.0%      0.0%     
 flops inhomo. stacks                395923688044     100.0%      0.0%      0.0%
 flops total                       839.139360E+09      47.2%     52.8%      0.0%
 flops max/rank                     69.602750E+09      43.3%     56.7%      0.0%
 matmuls inhomo. stacks                    931213     100.0%      0.0%      0.0%
 matmuls total                            9047499      10.3%     89.7%      0.0%
 number of processed stacks               1991146       3.3%     96.7%      0.0%
 average stack size                                    14.1       4.2       0.0
 marketing flops                   860.842361E+09
 -------------------------------------------------------------------------------
 # multiplications                            505
 max memory usage/rank              21.004079E+09
 # max total images/rank                        5
 # max 3D layers                                1
 # MPI messages exchanged                  166650
 MPI messages size (bytes):
  total size                        18.144696E+09
  min size                           0.000000E+00
  max size                         592.896000E+03
  average size                     108.879062E+03
 MPI breakdown and total messages size (bytes):
             size <=      128               20552                        0
       128 < size <=     8192                7702                 39482768
      8192 < size <=    32768               28060                638245888
     32768 < size <=   131072               70076               5626127120
    131072 < size <=  4194304               40260              11841171136
   4194304 < size <= 16777216                   0                        0
  16777216 < size                               0                        0
 -------------------------------------------------------------------------------

 *** WARNING in dbcsr_mm.F:301 :: Using a non-square number of MPI ranks ***
 *** might lead to poor performance. Used ranks: 15 Suggested: 16 25     ***

 -------------------------------------------------------------------------------
 -                                                                             -
 -                      DBCSR MESSAGE PASSING PERFORMANCE                      -
 -                                                                             -
 -------------------------------------------------------------------------------
 ROUTINE             CALLS      AVE VOLUME [Bytes]
 MP_Bcast              737                     12.
 MP_Allreduce         3597                     23.
 MP_Alltoall          3385                 123459.
 MP_ISend            27732                  60105.
 MP_IRecv            27666                  56222.
 -------------------------------------------------------------------------------

 -------------------------------------------------------------------------------
 -                                                                             -
 -                                GRID STATISTICS                              -
 -                                                                             -
 -------------------------------------------------------------------------------
 LP    KERNEL             BACKEND                              COUNT     PERCENT
 6     collocate ortho    CPU                                   1334      31.32%
 6     integrate ortho    CPU                                   1334      31.32%
 4     collocate ortho    CPU                                    712      16.72%
 4     integrate ortho    CPU                                    712      16.72%
 2     collocate ortho    CPU                                     76       1.78%
 2     integrate ortho    CPU                                     76       1.78%
 0     collocate general  CPU                                     15       0.35%
 -------------------------------------------------------------------------------

 -------------------------------------------------------------------------------
 -                                                                             -
 -                          OFFLOAD MEMPOOL STATISTICS                         -
 -                                                                             -
 -------------------------------------------------------------------------------
 Memory consumption                Number of allocations  Used [MiB]  Size [MiB]
 Host                                                  6          98    22311372
 -------------------------------------------------------------------------------

 MEMORY| Estimated peak process memory [MiB]                                2166

 -------------------------------------------------------------------------------
 -                                                                             -
 -                         MESSAGE PASSING PERFORMANCE                         -
 -                                                                             -
 -------------------------------------------------------------------------------

 ROUTINE             CALLS      AVE VOLUME [Bytes]
 MP_Group                5
 MP_Bcast              390                 250687.
 MP_Allreduce         1943                  18310.
 MP_Sync                10
 MP_Alltoall            46               73016970.
 MP_SendRecv            56                 564480.
 MP_ISendRecv           56                 564480.
 MP_Wait               254
 MP_comm_split          10
 MP_ISend              171                2367925.
 MP_IRecv              171                2367925.
 -------------------------------------------------------------------------------


 -------------------------------------------------------------------------------
 -                                                                             -
 -                           R E F E R E N C E S                               -
 -                                                                             -
 -------------------------------------------------------------------------------
 
 CP2K version 2026.2 (Development Version), the CP2K developers group (2026).
 CP2K is freely available from https://www.cp2k.org/ .
 
 M. Iannuzzi, J. Wilhelm, F. Stein, A. Bussy, H. Elgabarty, D. Golze, A. Hehn, 
 M. Graml, S. Marek, B. Sertcan Gökmen, C. Schran, H. Forbert, R. Z. 
 Khaliullin, A. Kozhevnikov, M. Taillefumier, R. Meli, V. V. Rybkin, M. Brehm, 
 R. Schade, O. Schütt, J. V. Pototschnig, H. Mirhosseini, A. Knüpfer, D. Marx, 
 M. Krack, J. Hutter, T. D. Kühne.
 J. Phys. Chem. B 130, 1237-1310 (2026).
 The CP2K Program Package Made Simple.
 https://doi.org/10.1021/acs.jpcb.5c05851

 M. Graml, K. Zollner, D. Hernangómez-Pérez, P. E. Faria Junior, J. Wilhelm.
 J. Chem. Theory Comput. 20, 2202-2208 (2024).
 Low-scaling GW algorithm applied to twisted transition-metal dichalcogenide 
 heterobilayers.
 https://doi.org/10.1021/acs.jctc.3c01230

 T. D. Kühne, M. Iannuzzi, M. Del Ben, V. V. Rybkin, P. Seewald, F. Stein, T. 
 Laino, R. Z. Khaliullin, O. Schütt, F. Schiffmann, D. Golze, J. Wilhelm, S. 
 Chulkov, M. H. Bani-Hashemian, V. Weber, U. Borstnik, M. Taillefumier, A. S. 
 Jakobovits, A. Lazzaro, H. Pabst, T. Müller, R. Schade, M. Guidon, S. 
 Andermatt, N. Holmberg, G. K. Schenter, A. Hehn, A. Bussy, F. Belleflamme, G. 
 Tabacchi, A. Glöß, M. Lass, I. Bethune, C. J. Mundy, C. Plessl, M. Watkins, 
 J. VandeVondele, M. Krack, J. Hutter.
 J. Chem. Phys. 152, 194103 (2020).
 CP2K: An electronic structure and molecular dynamics software package - 
 Quickstep: Efficient and accurate electronic structure calculations.
 https://doi.org/10.1063/5.0007045

 O. Schuett, P. Messmer, J. Hutter, J. VandeVondele.
 Electronic Structure Calculations on Graphics Processing Units, 173-190 (2016).
 GPU-Accelerated Sparse Matrix-Matrix Multiplication for Linear Scaling Density 
 Functional Theory.
 https://doi.org/10.1002/9781118670712.ch8

 U. Borstnik, J. VandeVondele, V. Weber, J. Hutter.
 Parallel Comput. 40, 47-58 (2014).
 Sparse matrix multiplication: The distributed block-compressed sparse row 
 library.
 https://doi.org/10.1016/j.parco.2014.03.012

 J. VandeVondele, J. Hutter.
 J. Chem. Phys. 127, 114105 (2007).
 Gaussian basis sets for accurate calculations on molecular systems in gas and 
 condensed phases.
 https://doi.org/10.1063/1.2770708

 J. VandeVondele, M. Krack, F. Mohamed, M. Parrinello, T. Chassaing, J. Hutter.
 Comput. Phys. Commun. 167, 103-128 (2005).
 QUICKSTEP: Fast and accurate density functional calculations using a mixed 
 Gaussian and plane waves approach.
 https://doi.org/10.1016/j.cpc.2004.12.014

 M. Krack.
 Theor. Chem. Acc. 114, 145-152 (2005).
 Pseudopotentials for H to Kr optimized for gradient-corrected 
 exchange-correlation functionals.
 https://doi.org/10.1007/s00214-005-0655-y

 M. Frigo, S. G. Johnson.
 Proc. IEEE 93, 216-231 (2005).
 The design and implementation of FFTW3.
 https://doi.org/10.1109/JPROC.2004.840301

 J. VandeVondele, J. Hutter.
 J. Chem. Phys. 118, 4365-4369 (2003).
 An efficient orbital transformation method for electronic structure 
 calculations.
 https://doi.org/10.1063/1.1543154

 C. Hartwigsen, S. Goedecker, J. Hutter.
 Phys. Rev. B 58, 3641-3662 (1998).
 Relativistic separable dual-space Gaussian pseudopotentials from H to Rn.
 https://doi.org/10.1103/PhysRevB.58.3641

 G. Lippert, J. Hutter, M. Parrinello.
 Mol. Phys. 92, 477-487 (1997).
 A hybrid Gaussian and plane wave density functional scheme.
 https://doi.org/10.1080/002689797170220

 S. Goedecker, M. Teter, J. Hutter.
 Phys. Rev. B 54, 1703-1710 (1996).
 Separable dual-space Gaussian pseudopotentials.
 https://doi.org/10.1103/PhysRevB.54.1703

 J. P. Perdew, K. Burke, M. Ernzerhof.
 Phys. Rev. Lett. 77, 3865-3868 (1996).
 Generalized gradient approximation made simple.
 https://doi.org/10.1103/PhysRevLett.77.3865

 P. E. Blöchl.
 J. Chem. Phys. 103, 7422-7428 (1995).
 Electrostatic decoupling of periodic images of plane‐wave‐expanded 
 densities and derived atomic point charges.
 https://doi.org/10.1063/1.470314

 R. H. Byrd, P. H. Lu, J. Nocedal, C. Y. Zhu.
 SIAM J. Sci. Comput. 16, 1190-1208 (1995).
 A Limited Memory Algorithm for Bound Constrained Optimization.
 https://doi.org/10.1137/0916069


 -------------------------------------------------------------------------------
 -                                                                             -
 -                                T I M I N G                                  -
 -                                                                             -
 -------------------------------------------------------------------------------
 SUBROUTINE                       CALLS  ASD         SELF TIME        TOTAL TIME MAXRANK
                                MAXIMUM       AVERAGE  MAXIMUM  AVERAGE  MAXIMUM
 CP2K                                 1  1.0    0.018    0.023   14.312   14.312       0
 qs_energies                          1  2.0    0.001    0.001   13.406   13.407      12
 qs_energies_properties               1  3.0    0.000    0.000   10.757   10.757      14
 post_scf_bandstructure               1  4.0    0.000    0.000   10.757   10.757       1
 run_gw                               1  5.0    0.000    0.000   10.680   10.692       4
 gw_calc_ri_rs_non_periodic           1  6.0    0.000    0.000    5.625    5.644       9
 create_and_init_bs_env_for_gw        1  6.0    0.004    0.005    5.055    5.085       1
 generate_auto_ri_basis               1  7.0    0.000    0.000    4.373    4.373       1
 mp_sum_dm                          100 10.9    1.440    2.682    1.440    2.682       8
 compute_AB_optimized_RI_basis        1  8.0    0.000    0.000    2.434    2.434      10
 compute_AB_optimized_RI_basis_       1  9.0    0.000    0.000    1.896    2.430       1
 compute_W                            1  7.0    0.000    0.000    1.988    1.989       0
 scf_env_do_scf                       1  3.0    0.000    0.000    1.914    1.914      11
 compute_B_PQ_AB                      4 10.0    0.326    0.481    1.278    1.864       1
 qs_ks_build_kohn_sham_matrix         2  7.5    0.001    0.001    1.840    1.841      14
 fft_wrap_pw1pw2                     28 10.0    0.001    0.001    1.604    1.672      10
 fft_wrap_pw1pw2_300                 16 11.2    0.078    0.082    1.540    1.604       6
 init_scf_loop                        1  4.0    0.000    0.000    1.417    1.417      13
 qs_ks_update_qs_env                  2  5.0    0.000    0.001    1.404    1.404      12
 rebuild_ks_matrix                    1  6.0    0.000    0.000    1.404    1.404       1
 compute_fm_W_freq                   30  8.0    0.000    0.000    1.394    1.402       0
 dbcsr_multiply_generic             505  9.6    0.012    0.012    1.367    1.391       0
 fft3d_ps                            28 12.0    0.660    0.684    1.166    1.390       7
 compute_M_pq_inv_and_V_pq            1  8.0    0.000    0.000    1.374    1.374      11
 cp_fm_get_submatrix                 96 10.0    0.001    0.001    0.561    1.367       0
 cp_fm_gemm                         434 10.5    1.322    1.353    1.322    1.353      13
 parallel_gemm_fm_gemm              431  9.6    0.000    0.001    1.321    1.351      13
 compute_contracted_RI_matrix         2  9.0    0.000    0.000    1.187    1.188      11
 compute_optimized_RI_matrix_bl      16 10.0    0.185    0.229    1.002    1.180       3
 compute_Sigma_c_and_QP_energie       1  7.0    0.000    0.000    1.113    1.126      10
 compute_Z_lP                         1  7.0    0.000    0.000    1.117    1.117      14
 compute_Z_lP_auto_ri                 1  8.0    0.001    0.002    1.117    1.117      11
 contract_B_PQ                       18 11.9    0.691    1.006    0.744    1.082       0
 compute_Sigma_c                      1  8.0    0.000    0.001    1.028    1.028       0
 compute_d_lp_auto_ri_batch           1  9.0    0.000    0.000    0.675    1.009       0
 compute_d_lp_auto_ri_atom            1 10.0    0.243    0.396    0.674    1.009       1
 qs_rho_update_rho_low                2  5.0    0.000    0.000    0.975    0.975      11
 calculate_rho_elec                   2  6.0    0.023    0.023    0.975    0.975       6
 compute_M_PQ_AB                    516 11.0    0.001    0.001    0.840    0.974       8
 compute_M_PQ                       516 12.0    0.001    0.001    0.839    0.974       3
 int_operators_r12_ab_os            516 13.0    0.000    0.000    0.838    0.972       3
 int_operator_ab_os_low             516 14.0    0.315    0.365    0.838    0.972       3
 qs_vxc_create                        2  8.5    0.000    0.000    0.931    0.952      13
 xc_vxc_pw_create                     1  9.0    0.019    0.021    0.931    0.952       5
 multiply_cannon                    505 10.6    0.024    0.024    0.849    0.925       2
 contract_grid_panels_sigma_c        30  9.0    0.001    0.001    0.882    0.887       0
 mp_alltoall_z22v                    28 14.0    0.278    0.836    0.278    0.836      14
 multiply_cannon_loop               505 11.6    0.030    0.031    0.742    0.817       0
 mp_sum_d                           758  4.5    0.232    0.772    0.232    0.772      14
 xc_pw_derive                         6 11.0    0.000    0.000    0.688    0.768      12
 optimize_ri_rs_grid                  1  7.0    0.000    0.000    0.715    0.735       0
 copy_dbcsr_to_fm                   104  9.5    0.001    0.001    0.306    0.712       0
 density_rs2pw                        2  7.0    0.000    0.000    0.560    0.695       8
 rirs_grid_LBFGS                      1  8.0    0.104    0.131    0.661    0.681       3
 mp_alltoall_i22                    369 11.4    0.245    0.668    0.245    0.668      14
 get_mat_chi_Gamma_tau                1  7.0    0.001    0.007    0.647    0.653       0
 dbcsr_desymmetrize_deep            104 10.5    0.004    0.006    0.237    0.640       0
 abc_contract_xsmm                  903 11.0    0.422    0.627    0.422    0.627       1
 contract_grid_panels                31  8.0    0.001    0.001    0.582    0.608       5
 compute_AA_optimized_RI_basis        1  8.0    0.001    0.001    0.565    0.565       7
 multiply_cannon_multrec           7575 12.6    0.485    0.562    0.487    0.564       5
 compute_B_PQ_transition              9 10.9    0.000    0.000    0.373    0.542       6
 compute_B_PQ_exchange                9 10.9    0.000    0.000    0.372    0.541       0
 init_scf_run                         1  3.0    0.000    0.000    0.538    0.538       9
 scf_env_initial_rho_setup            1  4.0    0.000    0.000    0.538    0.538       8
 yz_to_x                             14 12.2    0.105    0.111    0.249    0.536      11
 qs_init_subsys                       1  2.0    0.001    0.001    0.532    0.533      11
 qs_env_setup                         1  3.0    0.000    0.001    0.530    0.531       2
 qs_env_rebuild_pw_env                2  3.5    0.000    0.000    0.529    0.530       5
 pw_env_rebuild                       1  5.0    0.000    0.000    0.529    0.530      14
 xc_pw_divergence                     1 10.0    0.000    0.000    0.463    0.525       3
 pw_grid_setup                        5  5.2    0.000    0.000    0.517    0.517       6
 pw_grid_setup_internal               5  6.2    0.010    0.010    0.517    0.517       1
 scf_env_do_scf_inner_loop            1  4.0    0.000    0.001    0.496    0.497      13
 evaluate_rirs_grid_cluster         301  9.0    0.050    0.074    0.327    0.495       7
 xc_rho_set_and_dset_create           1 10.0    0.015    0.020    0.438    0.469      10
 pw_grid_sort                         5  7.2    0.304    0.307    0.439    0.445      10
 compute_V_xc                         1  7.0    0.000    0.000    0.438    0.438       2
 x_to_yz                             14 13.8    0.121    0.128    0.255    0.429       3
 sum_up_and_integrate                 2  8.5    0.000    0.000    0.402    0.421       8
 integrate_v_rspace                   2  9.5    0.000    0.000    0.397    0.419       8
 grid_collocate_task_list             2  7.0    0.386    0.409    0.386    0.409       7
 mp_waitall_1                     24323 13.8    0.265    0.378    0.265    0.378       9
 operator2                       311366 15.0    0.325    0.378    0.325    0.378       3
 potential_pw2rs                      2 10.5    0.001    0.001    0.354    0.376       5
 mp_bcast_dm                         66  9.1    0.330    0.374    0.330    0.374      14
 make_m2s                          1010 10.6    0.008    0.008    0.353    0.363       6
 cp_fm_cholesky_invert               31  9.0    0.343    0.349    0.343    0.349       4
 transfer_rs2pw                       9  7.8    0.000    0.000    0.170    0.348       8
 build_3c_integral_block_auto_r      90 11.0    0.000    0.000    0.231    0.347       0
 mp_waitany                         171 11.3    0.126    0.331    0.126    0.331      14
 make_images                       1010 11.6    0.043    0.058    0.320    0.330      13
 initialize_auto_ri_integrals         2  9.0    0.021    0.316    0.318    0.319       0
 create_qs_kind_set                   1  2.0    0.000    0.000    0.317    0.318      12
 read_qs_kind                         3  3.0    0.069    0.075    0.317    0.318       0
 transfer_rs2pw_300                   3  8.3    0.061    0.067    0.133    0.305      10
 build_3c_integral_block_auto_r      90 11.0    0.201    0.275    0.201    0.275       0
 qs_ks_ddapc                          2  8.5    0.000    0.000    0.256    0.275      11
 parser_read_line                 40157  4.0    0.007    0.007    0.248    0.250       1
 parser_read_line_low                46  5.0    0.006    0.055    0.241    0.243       0
 broadcast_input_information         46  6.0    0.009    0.028    0.235    0.241       0
 ab_contract                     313028 15.0    0.200    0.230    0.200    0.230       3
 pw_poisson_solve                     2  8.5    0.000    0.000    0.215    0.221      12
 multiply_cannon_metrocomm3        7575 12.6    0.005    0.005    0.105    0.211       9
 mp_sum_l                          1709 10.5    0.109    0.201    0.109    0.201      14
 rirs_cluster_gradient_coordina     301 10.0    0.129    0.197    0.129    0.197       3
 qs_energies_init_hamiltonians        1  3.0    0.000    0.000    0.196    0.196       4
 build_G_ao                         121  8.5    0.001    0.001    0.160    0.194       0
 cp_fm_geeig                          2  9.5    0.000    0.000    0.193    0.193       3
 cp_fm_cholesky_decompose            35  9.0    0.186    0.191    0.186    0.191       1
 cp_fm_syevd                          5  9.0    0.000    0.000    0.189    0.189       4
 qs_env_update_s_mstruct              1  4.0    0.000    0.000    0.187    0.189       5
 compute_fm_chi_Gamma_freq           30  8.0    0.001    0.001    0.149    0.189       4
 compute_B_PQ_AA                     15  9.0    0.000    0.000    0.166    0.189       0
 mp_sum_root_rm                      15 10.0    0.157    0.188    0.157    0.188      11
 cp_fm_redistribute_end               5 10.0    0.100    0.187    0.101    0.187      14
 compute_M_pq_inv                     1  9.0    0.000    0.000    0.187    0.187       5
 cp_fm_syevd_base                     5 10.0    0.085    0.184    0.085    0.184       4
 make_images_data                  1010 12.6    0.008    0.008    0.166    0.179       9
 calculate_rho_core                   1  5.0    0.012    0.013    0.166    0.169       7
 setup_time_and_frequency_minim       1  7.0    0.000    0.000    0.167    0.169       0
 build_minimax_time_frequency_g       1  8.0    0.000    0.000    0.167    0.169       0
 fit_l_sq_weights                     3  9.0    0.167    0.169    0.167    0.169       8
 mp_bcast_i_src                     189  7.0    0.087    0.169    0.087    0.169       1
 mp_bcast_am_src                     46  7.0    0.138    0.164    0.138    0.164      11
 dbcsr_complete_redistribute        265 10.4    0.043    0.057    0.147    0.158       0
 pw_copy                             28 10.5    0.150    0.157    0.150    0.157       5
 G_occ_vir                          121  9.5    0.009    0.013    0.122    0.153       5
 cp_fm_uplo_to_full                  63  9.0    0.139    0.153    0.139    0.153      14
 pw_derive                           12 11.2    0.143    0.150    0.143    0.150       6
 hybrid_alltoall_any               1114 13.4    0.013    0.026    0.132    0.149       0
 pw_gather_p                         14 11.2    0.135    0.144    0.135    0.144       1
 sort_shells                          5  8.2    0.135    0.139    0.135    0.139       7
 transfer_pw2rs                       8 11.5    0.000    0.000    0.133    0.133       0
 pw_poisson_set                       3  8.3    0.000    0.000    0.123    0.129       6
 pw_scatter_p                        14 12.8    0.122    0.128    0.122    0.128       5
 cp_ddapc_apply_CD                    2  9.5    0.000    0.000    0.063    0.121       0
 copy_fm_to_dbcsr                   161  9.3    0.000    0.000    0.095    0.105       2
 pw_integral_ab_c1d_c1d_gs            4 10.0    0.077    0.079    0.081    0.102       8
 check_for_restart_files              1  7.0    0.069    0.100    0.069    0.100       2
 fft_wrap_pw1pw2_100                  4 10.8    0.003    0.004    0.049    0.097       5
 rirs_cluster_gradient_products     301 10.0    0.061    0.094    0.061    0.094       7
 transfer_pw2rs_300                   2 12.5    0.040    0.043    0.087    0.092      10
 xc_functional_eval                   1 11.0    0.000    0.000    0.063    0.091       3
 pbe_lda_eval                         1 12.0    0.063    0.091    0.063    0.091       8
 calculate_norms                  12750 12.6    0.065    0.088    0.065    0.088       8
 compute_QP_energies                  1  8.0    0.000    0.000    0.085    0.087       4
 mp_alltoall_d11v                  1111 11.7    0.072    0.082    0.072    0.082      13
 solve_AB_eigenproblem                4 10.0    0.041    0.059    0.057    0.080       0
 mp_sum_iv                          567 11.2    0.048    0.080    0.048    0.080       4
 get_ddapc                            2 10.5    0.000    0.000    0.021    0.078       8
 local_gemm                        7136 12.9    0.053    0.077    0.053    0.077       0
 dbcsr_finalize                    2098 10.8    0.010    0.011    0.071    0.077       7
 Fourier_transform_w_to_t            30  8.0    0.000    0.000    0.050    0.073      10
 dbcsr_add_d                        935  9.0    0.001    0.001    0.051    0.073       5
 cp_fm_scale_and_add                901  9.0    0.049    0.072    0.049    0.072       0
 dbcsr_add_anytype                  935 10.0    0.012    0.026    0.051    0.072       6
 pw_copy_to_array                    14 11.2    0.064    0.069    0.064    0.069       4
 to_Gamma_and_mo_real                62  9.0    0.001    0.001    0.069    0.069       8
 pw_axpy                             25  6.6    0.057    0.063    0.057    0.063       9
 dbcsr_special_finalize            4040 12.6    0.007    0.007    0.052    0.060       0
 compute_int_3c                       3  9.0    0.038    0.042    0.053    0.056      14
 dbcsr_merge_all                   1833 11.9    0.019    0.020    0.048    0.055      11
 initialize_ri_rs_grid                1  8.0    0.003    0.006    0.034    0.054       7
 compute_Z_lP_auto_ri_dpotrs          1  9.0    0.033    0.051    0.033    0.051       4
 dbcsr_iterator_stop               5801 12.1    0.024    0.048    0.025    0.049       1
 dbcsr_merge_single_wm             3960 13.6    0.020    0.025    0.041    0.049       0
 extract_grid_panel                 122  9.5    0.029    0.039    0.037    0.049       2
 make_images_sizes                 1010 12.6    0.001    0.001    0.033    0.049      13
 mp_alltoall_i44                   1010 13.6    0.032    0.048    0.032    0.048      14
 eval_bandstructure_properties        1  5.0    0.000    0.000    0.046    0.047       6
 pw_grid_assign                       5  7.2    0.044    0.046    0.045    0.046       8
 rirs_cluster_residual              301 10.0    0.029    0.045    0.029    0.045       1
 extract_masked_blocks              244  9.6    0.024    0.031    0.034    0.042       7
 grid_integrate_task_list             2 10.5    0.016    0.042    0.016    0.042       7
 compute_Sigma_x                      1  7.0    0.000    0.000    0.041    0.042       0
 build_phi_on_complete_grid           1  9.0    0.000    0.000    0.019    0.041       4
 build_phi_on_sphere                  1 10.0    0.000    0.001    0.019    0.041       5
 cp_cfm_geeig                         1  6.0    0.000    0.000    0.040    0.041       5
 mp_allgather_i34                   505 11.6    0.029    0.041    0.029    0.041       4
 evaluate_ao_on_points               15 11.0    0.018    0.041    0.018    0.041       4
 pw_copy_from_array                  14 12.8    0.035    0.038    0.035    0.038       0
 dbcsr_sort_data                   4417 14.4    0.026    0.036    0.026    0.036       8
 rirs_cluster_AO_products           301 10.0    0.022    0.036    0.022    0.036      10
 collect_used_col_blocks             92  9.7    0.000    0.000    0.016    0.035       0
 rs_gather_matrices                   2 10.5    0.000    0.000    0.026    0.034      11
 transfer_pw2rs_100                   2 12.5    0.007    0.008    0.027    0.034       2
 mp_sync                             10  9.2    0.027    0.033    0.027    0.033       1
 diamat_all                          20 11.5    0.024    0.033    0.024    0.033       0
 buffer_matrices_ensure_size       1010 11.6    0.024    0.032    0.024    0.032       8
 create_and_init_bs_env               1  5.0    0.000    0.000    0.031    0.032       1
 dbcsr_create_new                 11722 12.1    0.022    0.022    0.031    0.031       9
 rirs_grid_build_clusters             1  8.0    0.012    0.019    0.020    0.031       1
 rirs_cluster_D_ll                  301 10.0    0.019    0.029    0.019    0.029       1
 pw_grid_remap                        4  8.0    0.007    0.007    0.016    0.028       8
 diagonalize_ks_matrix                1  6.0    0.000    0.000    0.027    0.027      13
 cp_fm_geeig_canon                    1  7.0    0.000    0.000    0.027    0.027       7
 rirs_cluster_d_lP                  301 10.0    0.017    0.027    0.017    0.027       3
 multiply_cannon_metrocomm1        7575 12.6    0.003    0.003    0.013    0.026      10
 transfer_rs2pw_100                   2  9.0    0.008    0.009    0.020    0.026      11
 multiply_cannon_metrocomm4        6060 12.6    0.010    0.010    0.022    0.024       6
 mp_sum_dv                          377  9.2    0.020    0.024    0.020    0.024       4
 rs_grid_zero                         5 12.0    0.022    0.024    0.022    0.024       1
 compute_reference_M_PQ_inv_fac      14 10.8    0.000    0.001    0.017    0.024       1
 calculate_first_density_matrix       1  5.0    0.000    0.000    0.023    0.023       3
 cp_cfm_heevd                         1  7.0    0.000    0.000    0.023    0.023       3
 cp_cfm_heevd_base                    1  8.0    0.023    0.023    0.023    0.023      12
 compute_V_MinvVsqrt                  1  8.0    0.000    0.000    0.021    0.023       5
 pw_zero                             25  4.7    0.020    0.023    0.020    0.023       4
 mp_sum_im3                           5  9.0    0.009    0.022    0.009    0.022      14
 eval_pw_TabLR                        1  2.0    0.009    0.009    0.021    0.021      11
 dbcsr_make_images_dense            118 11.5    0.001    0.001    0.018    0.020       0
 multiply_cannon_metrocomm2        5050 12.6    0.008    0.009    0.019    0.020       5
 hadamard_product                    91  9.7    0.013    0.015    0.017    0.019       2
 fill_fm_Sigma_c_Gamma_time           1  9.0    0.000    0.000    0.018    0.019      14
 qs_create_task_list                  1  5.0    0.000    0.000    0.005    0.018       1
 generate_qs_task_list                1  6.0    0.001    0.001    0.005    0.018       0
 dbcsr_work_create                 5977 12.1    0.012    0.012    0.017    0.018       0
 dbcsr_make_dense_low               482 12.5    0.001    0.002    0.015    0.017       0
 distribute_tasks                     1  7.0    0.000    0.000    0.004    0.017       9
 cp_cfm_cholesky_decompose            2  7.0    0.016    0.017    0.016    0.017      14
 cp_fm_triangular_multiply            7 10.0    0.016    0.017    0.016    0.017       4
 fft_wrap_pw1pw2_40                   4 10.8    0.001    0.001    0.011    0.016       6
 transfer_pw2rs_40                    2 12.5    0.005    0.006    0.015    0.016       2
 cp_ddapc_init                        1  5.0    0.000    0.000    0.016    0.016       4
 load_balance_distributed             2  8.0    0.000    0.000    0.003    0.016       2
 cp_ddapc_create                      1  6.0    0.000    0.000    0.016    0.016      14
 get_current_loads                   12  9.0    0.000    0.000    0.003    0.016       2
 compute_load_list                    4  9.0    0.000    0.000    0.002    0.016       1
 mp_alltoall_l                       13  9.9    0.002    0.016    0.002    0.016      14
 dbcsr_data_copy_aa2                636 12.9    0.011    0.015    0.011    0.015       3
 mp_isend_iv                      15194 13.6    0.014    0.015    0.014    0.015       8
 write_mo_set_to_restart              1  5.0    0.001    0.008    0.015    0.015       0
 make_basis_sm                        1  6.0    0.000    0.000    0.015    0.015      13
 make_dense_data                    482 13.5    0.008    0.009    0.013    0.015       9
 dbcsr_data_release               55732 12.7    0.014    0.015    0.014    0.015      13
 dbcsr_work_destroy_all            5977 13.0    0.010    0.010    0.014    0.015       0
 qs_scf_new_mos                       1  5.0    0.000    0.000    0.014    0.015      14
 qs_scf_loop_do_ot                    1  6.0    0.000    0.000    0.014    0.015      13
 dbcsr_data_new                   38257 12.5    0.014    0.014    0.014    0.014      13
 -------------------------------------------------------------------------------

 The number of warnings for this run is : 1
 
 -------------------------------------------------------------------------------
  **** **** ******  **  PROGRAM ENDED AT                 2026-10-03 18:59:54.867
 ***** ** ***  *** **   PROGRAM RAN ON                                  n2cn0248
 **    ****   ******    PROGRAM RAN BY                                  eprop2d1
 ***** **    ** ** **   PROGRAM PROCESS ID                               2368420
  **** **  *******  **  PROGRAM STOPPED IN /scratch/hpc-prf-metdyn/eprop2d1_Jan/
                                           53_benchmark_RI_opt/418_gw100_fig5_fu
                                           ll_epsfilter_1e12_20261002/calculatio
                                           ns/rc0p5/ri4_rs04/93_adenine
