 DBCSR| CPU Multiplication driver                                           XSMM (U)
 DBCSR| Multrec recursion limit                                              512 (U)
 DBCSR| Multiplication stack size                                           1000 (D)
 DBCSR| Maximum elements for images                                    UNLIMITED (U)
 DBCSR| Multiplicative factor virtual images                                   1 (U)
 DBCSR| Use multiplication densification                                       T (D)
 DBCSR| Multiplication size stacks                                             3 (U)
 DBCSR| Use memory pool for CPU allocation                                     F (U)
 DBCSR| Number of 3D layers                                               SINGLE (U)
 DBCSR| Use MPI memory allocation                                              F (U)
 DBCSR| Use RMA algorithm                                                      F (U)
 DBCSR| Use Communication thread                                               T (U)
 DBCSR| Communication thread load                                             60 (D)
 DBCSR| MPI: My process id                                                     0
 DBCSR| MPI: Number of processes                                              15
 DBCSR| OMP: Current number of threads                                         8
 DBCSR| OMP: Max number of threads                                             8
 DBCSR| Split modifier for TAS multiplication algorithm                  1.0E+00 (U)


  **** **** ******  **  PROGRAM STARTED AT               2026-10-03 18:52:56.695
 ***** ** ***  *** **   PROGRAM STARTED ON                              n2cn0937
 **    ****   ******    PROGRAM STARTED BY                              eprop2d1
 ***** **    ** ** **   PROGRAM PROCESS ID                               3181200
  **** **  *******  **  PROGRAM STARTED IN /scratch/hpc-prf-metdyn/eprop2d1_Jan/
                                           53_benchmark_RI_opt/418_gw100_fig5_fu
                                           ll_epsfilter_1e12_20261002/calculatio
                                           ns/rc0p5/ri4_rs02/86_C7H8

 CP2K| version string:                 CP2K version 2026.2 (Development Version)
 CP2K| source code revision number:                                   0671c5aa6c
 CP2K| cp2kflags: omp libint fftw3 libxc parallel scalapack openblas            
 CP2K| is freely available from                            https://www.cp2k.org/
 CP2K| Program compiled at                                   2026-09-20 09:25:26
 CP2K| Program compiled on                                              n2login5
 CP2K| Program compiled for                                               x86_64
 CP2K| Data directory path    /scratch/hpc-prf-metdyn/eprop2d1_Jan/53_benchmark_
 CP2K| Input file name        /scratch/hpc-prf-metdyn/eprop2d1_Jan/53_benchmark_
 
 eprop2d1@n2cn0937 has created rank and process                      0   3181200
 eprop2d1@n2cn0937 has created rank and process                      1   3181201
 eprop2d1@n2cn0937 has created rank and process                      2   3181202
 eprop2d1@n2cn0937 has created rank and process                      3   3181203
 eprop2d1@n2cn0937 has created rank and process                      4   3181204
 eprop2d1@n2cn0937 has created rank and process                      5   3181205
 eprop2d1@n2cn0937 has created rank and process                      6   3181206
 eprop2d1@n2cn0937 has created rank and process                      7   3181207
 eprop2d1@n2cn0937 has created rank and process                      8   3181208
 eprop2d1@n2cn0937 has created rank and process                      9   3181209
 eprop2d1@n2cn0937 has created rank and process                     10   3181210
 eprop2d1@n2cn0937 has created rank and process                     11   3181211
 eprop2d1@n2cn0937 has created rank and process                     12   3181212
 eprop2d1@n2cn0937 has created rank and process                     13   3181213
 eprop2d1@n2cn0937 has created rank and process                     14   3181214
 
 eprop2d1@n2cn0937 is running                                       15 processes

 GLOBAL| Force Environment number                                              1
 GLOBAL| Basis set file name            /scratch/hpc-prf-metdyn/eprop2d1_Jan/53_
 GLOBAL| Potential file name            /scratch/hpc-prf-metdyn/eprop2d1_Jan/53_
 GLOBAL| MM Potential file name                                     MM_POTENTIAL
 GLOBAL| Coordinate file name                                      __STD_INPUT__
 GLOBAL| Method name                                                        CP2K
 GLOBAL| Project name                                             g418_a402_m086
 GLOBAL| Run type                                                         ENERGY
 GLOBAL| FFT library                                                       FFTW3
 GLOBAL| Diagonalization library                                       ScaLAPACK
 GLOBAL| Cholesky decomposition library                                ScaLAPACK
 GLOBAL| DGEMM library                                                      BLAS
 GLOBAL| Direct generalized diagonalization requested                          F
 GLOBAL| Orthonormality check for eigenvectors                          DISABLED
 GLOBAL| Matrix multiplication library                                 ScaLAPACK
 GLOBAL| All-to-all communication in single precision                          F
 GLOBAL| Grid backend                                                       AUTO
 GLOBAL| Global print level                                                  LOW
 GLOBAL| MPI I/O enabled                                                       T
 GLOBAL| Total number of message passing processes                            15
 GLOBAL| Number of distributed systems (nodes)                                 1
 GLOBAL| Number of threads for this process                                    8
 GLOBAL| This output is from process                                           0
 GLOBAL| OpenMP stack size per thread (OMP_STACKSIZE)                       512M
 GLOBAL| CPU model name                          AMD EPYC 7763 64-Core Processor

 MEMORY| system memory details [Kb]
 MEMORY|                        rank 0           min           max       average
 MEMORY| MemTotal            263897592     263897592     263897592     263897592
 MEMORY| MemFree             243520292     243520292     243520292     243520292
 MEMORY| Buffers                 44080         44080         44080         44080
 MEMORY| Cached               12211908      12211908      12211908      12211908
 MEMORY| Slab                  2291288       2291288       2291288       2291288
 MEMORY| SReclaimable           548628        548628        548628        548628
 MEMORY| MemLikelyFree       256324908     256324908     256324908     256324908


 GENERATE|  Preliminary Number of Bonds generated:                             0
 GENERATE|  Achieved consistency in connectivity generation.

 *******************************************************************************
 *******************************************************************************
 **                                                                           **
 **     #####                         ##              ##                      **
 **    ##   ##            ##          ##              ##                      **
 **   ##     ##                       ##            ######                    **
 **   ##     ##  ##   ##  ##   #####  ##  ##   ####   ##    #####    #####    **
 **   ##     ##  ##   ##  ##  ##      ## ##   ##      ##   ##   ##  ##   ##   **
 **   ##  ## ##  ##   ##  ##  ##      ####     ###    ##   ######   ######    **
 **    ##  ###   ##   ##  ##  ##      ## ##      ##   ##   ##       ##        **
 **     #######   #####   ##   #####  ##  ##  ####    ##    #####   ##        **
 **           ##                                                    ##        **
 **                                                                           **
 **                                                ... make the atoms dance   **
 **                                                                           **
 **            Copyright (C) by CP2K developers group (2000-2026)             **
 **                      J. Chem. Phys. 152, 194103 (2020)                    **
 **                                                                           **
 *******************************************************************************


 TOTAL NUMBERS AND MAXIMUM NUMBERS

  Total number of            - Atomic kinds:                                   2
                             - Atoms:                                         15
                             - Shell sets:                                    15
                             - Shells:                                       103
                             - Primitive Cartesian functions:                 97
                             - Cartesian basis functions:                    310
                             - Spherical basis functions:                    275

  Maximum angular momentum of- Orbital basis functions:                        3
                             - Local part of the GTH pseudopotential:          2
                             - Non-local part of the GTH pseudopotential:      0


 SCF PARAMETERS         Density guess:                                   RESTART
                        --------------------------------------------------------
                        max_scf:                                             500
                        max_scf_history:                                       0
                        max_diis:                                              4
                        --------------------------------------------------------
                        eps_scf:                                        1.00E-08
                        eps_scf_history:                                0.00E+00
                        eps_diis:                                       0.00E+00
                        eps_eigval:                                     1.00E-05
                        --------------------------------------------------------
                        level_shift [a.u.]:                             0.000000
                        --------------------------------------------------------
                        Outer loop SCF in use 
                        No variables optimised in outer loop
                        eps_scf                                         1.00E-08
                        max_scf                                               20
                        No outer loop optimization
                        step_size                                       5.00E-01

 Extrapolation method: initial_guess

 Number of electrons:                                                         36
 Number of occupied orbitals:                                                 18
 Number of molecular orbitals:                                                18

 Number of orbital functions:                                                275
 Number of independent orbital functions:                                    275


 SCF WAVEFUNCTION OPTIMIZATION

  ----------------------------------- OT ---------------------------------------
  Minimizer      : DIIS                : direct inversion
                                         in the iterative subspace
                                         using   7 DIIS vectors
                                         safer DIIS on
  Preconditioner : FULL_KINETIC        : inversion of T + eS
  Lattice FFT   : OFF
  Precond_solver : DEFAULT
  stepsize       :    0.15000000                  energy_gap     :    0.20000000
  eps_taylor     :   0.10000E-15                  max_taylor     :             4
  ----------------------------------- OT ---------------------------------------

  Step     Update method      Time    Convergence         Total energy    Change
  ------------------------------------------------------------------------------
  Decoupling Energy:                                               0.0000002441
     1 OT DIIS     0.15E+00    1.6     4.5584E-09       -44.5775693077 -4.46E+01

  *** SCF run converged in     1 steps ***


  Electronic density on regular grids:        -36.0000000000        0.0000000000
  Core density on regular grids:               36.0000000000       -0.0000000000
  Total charge density on r-space grids:       -0.0000000000
  Total charge density g-space grids:          -0.0000000000

  Overlap energy of the core charge distribution:               0.00000267634191
  Self energy of the core charge distribution:               -104.62884715831160
  Core Hamiltonian energy:                                     32.99792971387720
  Hartree energy:                                              42.03649890139612
  Exchange-correlation energy:                                -14.98315344101774

  Total energy:                                               -44.57756930771411

  outer SCF iter =    1 RMS gradient =   0.46E-08 energy =        -44.5775693077
  outer SCF loop converged in   1 iterations or    1 steps

  
 -------------------------------------------------------------------------------
 -                                                                             -
 -                          BANDSTRUCTURE CALCULATION                          -
 -                                                                             -
 -------------------------------------------------------------------------------
  
 Number of occupied molecular orbitals (MOs) = Number of occupied bands       18
 Number of unoccupied (= virtual) MOs = Number of unoccupied bands           257
 Number of Gaussian basis functions for MOs                                  275
  
 -------------------------------------------------------------------------------
 -                                                                             -
 -                                GW CALCULATION                               -
 -                                                                             -
 -------------------------------------------------------------------------------
  
 Input: Number of time/freq. points                                           30
 Input: ω_max for fitting Σ(iω) (eV)                                        10.0
 Input: Filter threshold for sparse tensor operations                    1.0E-12
 Input: Apply Hedin shift                                                      F
 Detected: Available memory per MPI process                              14.7 GB
 
 Input: RI-RS Tikhonov regularization                                   1.00E-04
 Input: AO grid hard cutoff radius                                        8.00 Å
 Input: MPI ranks per atom in Z_lP solve                                      -1
 Input: Keep sparsity in χ/G/W panels                                          T
 Input: GW flavour                                                          G0W0
 
 Input: RI-RS grid optimization activated                                      T
 Input: RS points per AO function                                            2.0
 Input: Cutoff radius for atomic clusters                                  0.5 Å
 Input: Maximum grid optimization iterations                                 300
 
 Input: AUTO_RI basis optimization activated:                                  T
 Input: AUTO_RI number of RI functions per AO function:                      4.0
 Input: AUTO_RI frontier orbital window:                                  5.0 eV
 Input: AUTO_RI neighbor radius:                                           3.0 Å
 
 Cutoff radius for the truncated Coulomb operator in RI metric:            7.0 Å
 Regularization parameter of RI                                          0.0E+00
 Regularization parameter of minimax grids                               1.0E-06
 
 AUTO_RI| Number of automatic RI functions for χ, ε, W:                     1100
 AUTO_RI| Total RI basis optimization time:                                3.8 s
  Decoupling Energy:                                               0.0000002441
 
 SCF direct band gap (eV)                                                   4.78
 Max. SCF eigval diff. (eV)                                               267.61
 E-Range for minimax grid                                                  55.98
 Number of Padé parameters for analytic continuation:                         16
 
 RI-RS basis radii (Å):
     Kind  Elem     r_AO (Å)     r_RI (Å)
        1    C        15.9835       10.1279
        2    H        13.9082        8.7963
 
 Started RI-RS grid optimization
 RI-RS grid initial normalized error                          2.783322044466E-01
 RI-RS grid optimization completed, execution time:                        0.4 s
 Normalized 3C error:                                                    3.1E-03
 Maximum absolute 3C error:                                              1.2E+00
 Optimized points outside molecular Voronoi cells:                           290 / 550
 Total grid points used for RI-RS:                                           550
 
 RI-RS grid row-blocks of ϕ_μ(r_l)                                            22
 RI-RS grid points per block (max)                                            32
 
 Percentage of non-zero matrix elements in ϕ_μ(r_l)                     100.00 %
 
 RI-RS memory estimate per MPI process:
   Available memory per process (system)                                16.99 GB
   Required for Z_lP (dense upper bound; actual is sparser)              0.00 GB
   Required for χ, W, Σ panels (peak per panel step)                     0.00 GB
   Required for Z_lP solve peak (D_local+ϕ, worst-case atom)             0.01 GB
   Worst-case local-grid number of grid points:                              550
   Worst-case memory D_local:                                            0.00 GB
 
 Started computing Z_lP
 Computed Z_lP (MPI rank 0) for atom          1 /  1,    Execution time    0.5 s
 Computed Z_lP (all MPI ranks) for all atoms,            Execution time    0.5 s

 Memory per MPI process after computing Z_lP:
 Available memory per MPI process                               16.8 GB
 Used memory per MPI process                                     1.0 GB
 Number of batches for χ, Σ matrices                                           1
 
 Percentage of non-zero matrix elements in Z_lP                         100.00 %
 Percentage of non-zero matrix elements in G_ll', χ_ll', W_ll'          100.00 %
 Percentage of non-zero matrix elements in χ_PQ for time point 1        100.00 %
 
 Computed χ(iτ,k=0) for time point            1 / 30,    Execution time    0.0 s
 Computed χ(iτ,k=0) for time point            2 / 30,    Execution time    0.0 s
 Computed χ(iτ,k=0) for time point            3 / 30,    Execution time    0.0 s
 Computed χ(iτ,k=0) for time point            4 / 30,    Execution time    0.0 s
 Computed χ(iτ,k=0) for time point            5 / 30,    Execution time    0.0 s
 Computed χ(iτ,k=0) for time point            6 / 30,    Execution time    0.0 s
 Computed χ(iτ,k=0) for time point            7 / 30,    Execution time    0.0 s
 Computed χ(iτ,k=0) for time point            8 / 30,    Execution time    0.0 s
 Computed χ(iτ,k=0) for time point            9 / 30,    Execution time    0.0 s
 Computed χ(iτ,k=0) for time point           10 / 30,    Execution time    0.0 s
 Computed χ(iτ,k=0) for time point           11 / 30,    Execution time    0.0 s
 Computed χ(iτ,k=0) for time point           12 / 30,    Execution time    0.0 s
 Computed χ(iτ,k=0) for time point           13 / 30,    Execution time    0.0 s
 Computed χ(iτ,k=0) for time point           14 / 30,    Execution time    0.0 s
 Computed χ(iτ,k=0) for time point           15 / 30,    Execution time    0.0 s
 Computed χ(iτ,k=0) for time point           16 / 30,    Execution time    0.0 s
 Computed χ(iτ,k=0) for time point           17 / 30,    Execution time    0.0 s
 Computed χ(iτ,k=0) for time point           18 / 30,    Execution time    0.0 s
 Computed χ(iτ,k=0) for time point           19 / 30,    Execution time    0.0 s
 Computed χ(iτ,k=0) for time point           20 / 30,    Execution time    0.0 s
 Computed χ(iτ,k=0) for time point           21 / 30,    Execution time    0.0 s
 Computed χ(iτ,k=0) for time point           22 / 30,    Execution time    0.0 s
 Computed χ(iτ,k=0) for time point           23 / 30,    Execution time    0.0 s
 Computed χ(iτ,k=0) for time point           24 / 30,    Execution time    0.0 s
 Computed χ(iτ,k=0) for time point           25 / 30,    Execution time    0.0 s
 Computed χ(iτ,k=0) for time point           26 / 30,    Execution time    0.0 s
 Computed χ(iτ,k=0) for time point           27 / 30,    Execution time    0.0 s
 Computed χ(iτ,k=0) for time point           28 / 30,    Execution time    0.0 s
 Computed χ(iτ,k=0) for time point           29 / 30,    Execution time    0.0 s
 Computed χ(iτ,k=0) for time point           30 / 30,    Execution time    0.0 s
 
 Computed W(iτ),                                         Execution time    1.3 s
 
 Computed Σ^x(k=0),                                      Execution time    0.0 s
 
 Computed Σ^c(iτ) for time point              1 / 30,    Execution time    0.0 s
 Computed Σ^c(iτ) for time point              2 / 30,    Execution time    0.0 s
 Computed Σ^c(iτ) for time point              3 / 30,    Execution time    0.0 s
 Computed Σ^c(iτ) for time point              4 / 30,    Execution time    0.0 s
 Computed Σ^c(iτ) for time point              5 / 30,    Execution time    0.0 s
 Computed Σ^c(iτ) for time point              6 / 30,    Execution time    0.0 s
 Computed Σ^c(iτ) for time point              7 / 30,    Execution time    0.0 s
 Computed Σ^c(iτ) for time point              8 / 30,    Execution time    0.0 s
 Computed Σ^c(iτ) for time point              9 / 30,    Execution time    0.0 s
 Computed Σ^c(iτ) for time point             10 / 30,    Execution time    0.0 s
 Computed Σ^c(iτ) for time point             11 / 30,    Execution time    0.0 s
 Computed Σ^c(iτ) for time point             12 / 30,    Execution time    0.0 s
 Computed Σ^c(iτ) for time point             13 / 30,    Execution time    0.0 s
 Computed Σ^c(iτ) for time point             14 / 30,    Execution time    0.0 s
 Computed Σ^c(iτ) for time point             15 / 30,    Execution time    0.0 s
 Computed Σ^c(iτ) for time point             16 / 30,    Execution time    0.0 s
 Computed Σ^c(iτ) for time point             17 / 30,    Execution time    0.0 s
 Computed Σ^c(iτ) for time point             18 / 30,    Execution time    0.0 s
 Computed Σ^c(iτ) for time point             19 / 30,    Execution time    0.0 s
 Computed Σ^c(iτ) for time point             20 / 30,    Execution time    0.0 s
 Computed Σ^c(iτ) for time point             21 / 30,    Execution time    0.0 s
 Computed Σ^c(iτ) for time point             22 / 30,    Execution time    0.0 s
 Computed Σ^c(iτ) for time point             23 / 30,    Execution time    0.0 s
 Computed Σ^c(iτ) for time point             24 / 30,    Execution time    0.0 s
 Computed Σ^c(iτ) for time point             25 / 30,    Execution time    0.0 s
 Computed Σ^c(iτ) for time point             26 / 30,    Execution time    0.0 s
 Computed Σ^c(iτ) for time point             27 / 30,    Execution time    0.0 s
 Computed Σ^c(iτ) for time point             28 / 30,    Execution time    0.0 s
 Computed Σ^c(iτ) for time point             29 / 30,    Execution time    0.0 s
 Computed Σ^c(iτ) for time point             30 / 30,    Execution time    0.0 s

 *** WARNING in post_scf_bandstructure_utils.F:3161 :: G0W0 reorders the   ***
 *** empty levels: the SCF conduction band minimum (SCF LUMO) is level 19, ***
 *** whereas the G0W0 conduction band minimum (G0W0 LUMO) is level 21. The ***
 *** SCF and G0W0 band edges printed below therefore belong to different   ***
 *** orbitals; see the eigenvalues in the file bandstructure_SCF_and_G0W0. ***

 
 SCF valence band maximum (eV):                                           -5.981
 SCF conduction band minimum (eV):                                        -1.201
 SCF indirect band gap (eV):                                               4.780
 SCF direct band gap (eV):                                                 4.780
 
 G0W0 valence band maximum (eV):                                          -8.075
 G0W0 conduction band minimum (eV):                                        0.927
 G0W0 indirect band gap (eV):                                              9.002
 G0W0 direct band gap (eV):                                                9.002
 
 Hartree-Fock with SCF orbitals valence band maximum (eV):                -8.494
 Hartree-Fock with SCF orbitals conduction band minimum (eV)               2.032
 Hartree-Fock with SCF orbitals indirect band gap (eV):                   10.526
 Hartree-Fock with SCF orbitals direct band gap (eV):                     10.526

 ENERGY| Total FORCE_EVAL ( QS ) energy [hartree]            -44.577569307714114

 -------------------------------------------------------------------------------
 -                                                                             -
 -                                DBCSR STATISTICS                             -
 -                                                                             -
 -------------------------------------------------------------------------------
 COUNTER                                    TOTAL       BLAS       SMM       ACC
 flops    18 x    18 x    18                58320       0.0%    100.0%      0.0%     
 flops     9 x    18 x    18                93312       0.0%    100.0%      0.0%     
 flops    38 x    18 x    18                98496       0.0%    100.0%      0.0%     
 flops    38 x    18 x     9               196992       0.0%    100.0%      0.0%     
 flops    29 x    18 x    18               375840       0.0%    100.0%      0.0%     
 flops    38 x    18 x    29               555408       0.0%    100.0%      0.0%     
 flops     9 x    18 x     9              1306368       0.0%    100.0%      0.0%     
 flops     9 x    18 x    29              3683232       0.0%    100.0%      0.0%     
 flops    29 x    18 x     9              3908736       0.0%    100.0%      0.0%     
 flops    29 x    18 x    29             11020464       0.0%    100.0%      0.0%     
 flops    44 x    44 x    18             11708928       0.0%    100.0%      0.0%     
 flops    46 x    44 x    18             12241152       0.0%    100.0%      0.0%     
 flops    44 x    46 x    18             12241152       0.0%    100.0%      0.0%     
 flops    47 x    44 x    18             12507264       0.0%    100.0%      0.0%     
 flops    44 x    47 x    18             12507264       0.0%    100.0%      0.0%     
 flops    46 x    46 x    18             12797568       0.0%    100.0%      0.0%     
 flops    18 x    44 x    44             12824064       0.0%    100.0%      0.0%     
 flops    49 x    44 x    18             13039488       0.0%    100.0%      0.0%     
 flops    46 x    47 x    18             13075776       0.0%    100.0%      0.0%     
 flops    47 x    46 x    18             13075776       0.0%    100.0%      0.0%     
 flops    47 x    47 x    18             13360032       0.0%    100.0%      0.0%     
 flops    18 x    46 x    44             13406976       0.0%    100.0%      0.0%     
 flops    49 x    46 x    18             13632192       0.0%    100.0%      0.0%     
 flops    18 x    47 x    44             13698432       0.0%    100.0%      0.0%     
 flops    44 x    52 x    18             13837824       0.0%    100.0%      0.0%     
 flops    49 x    47 x    18             13928544       0.0%    100.0%      0.0%     
 flops    46 x    52 x    18             14466816       0.0%    100.0%      0.0%     
 flops    47 x    52 x    18             14781312       0.0%    100.0%      0.0%     
 flops    44 x    44 x    26             14798784       0.0%    100.0%      0.0%     
 flops    18 x    52 x    44             15155712       0.0%    100.0%      0.0%     
 flops    49 x    52 x    18             15410304       0.0%    100.0%      0.0%     
 flops    46 x    44 x    26             15471456       0.0%    100.0%      0.0%     
 flops    44 x    46 x    26             15471456       0.0%    100.0%      0.0%     
 flops    47 x    44 x    26             15807792       0.0%    100.0%      0.0%     
 flops    44 x    47 x    26             15807792       0.0%    100.0%      0.0%     
 flops    46 x    46 x    26             16174704       0.0%    100.0%      0.0%     
 flops    26 x    44 x    44             16208192       0.0%    100.0%      0.0%     
 flops    49 x    44 x    26             16480464       0.0%    100.0%      0.0%     
 flops    46 x    47 x    26             16526328       0.0%    100.0%      0.0%     
 flops    47 x    46 x    26             16526328       0.0%    100.0%      0.0%     
 flops    47 x    47 x    26             16885596       0.0%    100.0%      0.0%     
 flops    26 x    46 x    44             16944928       0.0%    100.0%      0.0%     
 flops    49 x    46 x    26             17229576       0.0%    100.0%      0.0%     
 flops    26 x    47 x    44             17313296       0.0%    100.0%      0.0%     
 flops    44 x    52 x    26             17489472       0.0%    100.0%      0.0%     
 flops    49 x    47 x    26             17604132       0.0%    100.0%      0.0%     
 flops    44 x    44 x    32             18213888       0.0%    100.0%      0.0%     
 flops    46 x    52 x    26             18284448       0.0%    100.0%      0.0%     
 flops    47 x    52 x    26             18681936       0.0%    100.0%      0.0%     
 flops    46 x    44 x    32             19041792       0.0%    100.0%      0.0%     
 flops    44 x    46 x    32             19041792       0.0%    100.0%      0.0%     
 flops    26 x    52 x    44             19155136       0.0%    100.0%      0.0%     
 flops    47 x    44 x    32             19455744       0.0%    100.0%      0.0%     
 flops    44 x    47 x    32             19455744       0.0%    100.0%      0.0%     
 flops    49 x    52 x    26             19476912       0.0%    100.0%      0.0%     
 flops    46 x    46 x    32             19907328       0.0%    100.0%      0.0%     
 flops    32 x    44 x    44             19948544       0.0%    100.0%      0.0%     
 flops    44 x    75 x    18             19958400       0.0%    100.0%      0.0%     
 flops    75 x    44 x    18             19958400       0.0%    100.0%      0.0%     
 flops    49 x    44 x    32             20283648       0.0%    100.0%      0.0%     
 flops    46 x    47 x    32             20340096       0.0%    100.0%      0.0%     
 flops    47 x    46 x    32             20340096       0.0%    100.0%      0.0%     
 flops    47 x    47 x    32             20782272       0.0%    100.0%      0.0%     
 flops    32 x    46 x    44             20855296       0.0%    100.0%      0.0%     
 flops    46 x    75 x    18             20865600       0.0%    100.0%      0.0%     
 flops    75 x    46 x    18             20865600       0.0%    100.0%      0.0%     
 flops    49 x    46 x    32             21205632       0.0%    100.0%      0.0%     
 flops    32 x    47 x    44             21308672       0.0%    100.0%      0.0%     
 flops    47 x    75 x    18             21319200       0.0%    100.0%      0.0%     
 flops    75 x    47 x    18             21319200       0.0%    100.0%      0.0%     
 flops    44 x    52 x    32             21525504       0.0%    100.0%      0.0%     
 flops    49 x    47 x    32             21666624       0.0%    100.0%      0.0%     
 flops    18 x    75 x    44             21859200       0.0%    100.0%      0.0%     
 flops    49 x    75 x    18             22226400       0.0%    100.0%      0.0%     
 flops    46 x    52 x    32             22503936       0.0%    100.0%      0.0%     
 flops    47 x    52 x    32             22993152       0.0%    100.0%      0.0%     
 flops    32 x    52 x    44             23575552       0.0%    100.0%      0.0%     
 flops    75 x    52 x    18             23587200       0.0%    100.0%      0.0%     
 flops    44 x    89 x    18             23683968       0.0%    100.0%      0.0%     
 flops    89 x    44 x    18             23683968       0.0%    100.0%      0.0%     
 flops    49 x    52 x    32             23971584       0.0%    100.0%      0.0%     
 flops    46 x    89 x    18             24760512       0.0%    100.0%      0.0%     
 flops    89 x    46 x    18             24760512       0.0%    100.0%      0.0%     
 flops    75 x    44 x    26             25225200       0.0%    100.0%      0.0%     
 flops    47 x    89 x    18             25298784       0.0%    100.0%      0.0%     
 flops    89 x    47 x    18             25298784       0.0%    100.0%      0.0%     
 flops    44 x    75 x    26             25396800       0.0%    100.0%      0.0%     
 flops    18 x    89 x    44             25939584       0.0%    100.0%      0.0%     
 flops    44 x    49 x    18             26078976       0.0%    100.0%      0.0%     
 flops    75 x    46 x    26             26371800       0.0%    100.0%      0.0%     
 flops    49 x    89 x    18             26375328       0.0%    100.0%      0.0%     
 flops    46 x    75 x    26             26551200       0.0%    100.0%      0.0%     
 flops    75 x    47 x    26             26945100       0.0%    100.0%      0.0%     
 flops    47 x    75 x    26             27128400       0.0%    100.0%      0.0%     
 flops    44 x   102 x    18             27143424       0.0%    100.0%      0.0%     
 flops    46 x    49 x    18             27264384       0.0%    100.0%      0.0%     
 flops    26 x    75 x    44             27627600       0.0%    100.0%      0.0%     
 flops    47 x    49 x    18             27857088       0.0%    100.0%      0.0%     
 flops    44 x   105 x    18             27941760       0.0%    100.0%      0.0%     
 flops   105 x    44 x    18             27941760       0.0%    100.0%      0.0%     
 flops    89 x    52 x    18             27990144       0.0%    100.0%      0.0%     
 flops    44 x    53 x    18             28207872       0.0%    100.0%      0.0%     
 flops    53 x    44 x    18             28207872       0.0%    100.0%      0.0%     
 flops    49 x    75 x    26             28282800       0.0%    100.0%      0.0%     
 flops    46 x   102 x    18             28377216       0.0%    100.0%      0.0%     
 flops    18 x    49 x    44             28562688       0.0%    100.0%      0.0%     
 flops    18 x    44 x    49             28562688       0.0%    100.0%      0.0%     
 flops    47 x   102 x    18             28994112       0.0%    100.0%      0.0%     
 flops    44 x   109 x    18             29006208       0.0%    100.0%      0.0%     
 flops    49 x    49 x    18             29042496       0.0%    100.0%      0.0%     
 flops    46 x   105 x    18             29211840       0.0%    100.0%      0.0%     
 flops   105 x    46 x    18             29211840       0.0%    100.0%      0.0%     
 flops    46 x    53 x    18             29490048       0.0%    100.0%      0.0%     
 flops    53 x    46 x    18             29490048       0.0%    100.0%      0.0%     
 flops    18 x   102 x    44             29728512       0.0%    100.0%      0.0%     
 flops    75 x    52 x    26             29811600       0.0%    100.0%      0.0%     
 flops    47 x   105 x    18             29846880       0.0%    100.0%      0.0%     
 flops   105 x    47 x    18             29846880       0.0%    100.0%      0.0%     
 flops    18 x    46 x    49             29860992       0.0%    100.0%      0.0%     
 flops    89 x    44 x    26             29933904       0.0%    100.0%      0.0%     
 flops    44 x   113 x    18             30070656       0.0%    100.0%      0.0%     
 flops    47 x    53 x    18             30131136       0.0%    100.0%      0.0%     
 flops    53 x    47 x    18             30131136       0.0%    100.0%      0.0%     
 flops    49 x   102 x    18             30227904       0.0%    100.0%      0.0%     
 flops    46 x   109 x    18             30324672       0.0%    100.0%      0.0%     
 flops    44 x   114 x    18             30336768       0.0%    100.0%      0.0%     
 flops    18 x    47 x    49             30510144       0.0%    100.0%      0.0%     
 flops    44 x    89 x    26             30544800       0.0%    100.0%      0.0%     
 flops    18 x   105 x    44             30602880       0.0%    100.0%      0.0%     
 flops    18 x    53 x    44             30894336       0.0%    100.0%      0.0%     
 flops    18 x    44 x    53             30894336       0.0%    100.0%      0.0%     
 flops    47 x   109 x    18             30983904       0.0%    100.0%      0.0%     
 flops    75 x    44 x    32             31046400       0.0%    100.0%      0.0%     
 flops    49 x   105 x    18             31116960       0.0%    100.0%      0.0%     
 flops    89 x    46 x    26             31294536       0.0%    100.0%      0.0%     
 flops    49 x    53 x    18             31413312       0.0%    100.0%      0.0%     
 flops    46 x   113 x    18             31437504       0.0%    100.0%      0.0%     
 flops    44 x    75 x    32             31680000       0.0%    100.0%      0.0%     
 flops    46 x   114 x    18             31715712       0.0%    100.0%      0.0%     
 flops    18 x   109 x    44             31768704       0.0%    100.0%      0.0%     
 flops    46 x    89 x    26             31933200       0.0%    100.0%      0.0%     
 flops    89 x    47 x    26             31974852       0.0%    100.0%      0.0%     
 flops    47 x   113 x    18             32120928       0.0%    100.0%      0.0%     
 flops    18 x    46 x    53             32298624       0.0%    100.0%      0.0%     
 flops    49 x   109 x    18             32302368       0.0%    100.0%      0.0%     
 flops    47 x   114 x    18             32405184       0.0%    100.0%      0.0%     
 flops    75 x    46 x    32             32457600       0.0%    100.0%      0.0%     
 flops    47 x    89 x    26             32627400       0.0%    100.0%      0.0%     
 flops    26 x    89 x    44             32784752       0.0%    100.0%      0.0%     
 flops    18 x   113 x    44             32934528       0.0%    100.0%      0.0%     
 flops    44 x    49 x    26             32960928       0.0%    100.0%      0.0%     
 flops    18 x    47 x    53             33000768       0.0%    100.0%      0.0%     
 flops   105 x    52 x    18             33022080       0.0%    100.0%      0.0%     
 flops    46 x    75 x    32             33120000       0.0%    100.0%      0.0%     
 flops    75 x    47 x    32             33163200       0.0%    100.0%      0.0%     
 flops    18 x   114 x    44             33225984       0.0%    100.0%      0.0%     
 flops    53 x    52 x    18             33336576       0.0%    100.0%      0.0%     
 flops    49 x   113 x    18             33487776       0.0%    100.0%      0.0%     
 flops    18 x    52 x    49             33755904       0.0%    100.0%      0.0%     
 flops    49 x   114 x    18             33784128       0.0%    100.0%      0.0%     
 flops    47 x    75 x    32             33840000       0.0%    100.0%      0.0%     
 flops    32 x    75 x    44             34003200       0.0%    100.0%      0.0%     
 flops    49 x    89 x    26             34015800       0.0%    100.0%      0.0%     
 flops    75 x    75 x    18             34020000       0.0%    100.0%      0.0%     
 flops    46 x    49 x    26             34459152       0.0%    100.0%      0.0%     
 flops    44 x   102 x    26             34539648       0.0%    100.0%      0.0%     
 flops    47 x    49 x    26             35208264       0.0%    100.0%      0.0%     
 flops    49 x    75 x    32             35280000       0.0%    100.0%      0.0%     
 flops    44 x   105 x    26             35315280       0.0%    100.0%      0.0%     
 flops   105 x    44 x    26             35315280       0.0%    100.0%      0.0%     
 flops    89 x    52 x    26             35376432       0.0%    100.0%      0.0%     
 flops    44 x    53 x    26             35651616       0.0%    100.0%      0.0%     
 flops    53 x    44 x    26             35651616       0.0%    100.0%      0.0%     
 flops    26 x    49 x    44             36100064       0.0%    100.0%      0.0%     
 flops    26 x    44 x    49             36100064       0.0%    100.0%      0.0%     
 flops    46 x   102 x    26             36109632       0.0%    100.0%      0.0%     
 flops    18 x    52 x    53             36511488       0.0%    100.0%      0.0%     
 flops    75 x    52 x    32             36691200       0.0%    100.0%      0.0%     
 flops    49 x    49 x    26             36706488       0.0%    100.0%      0.0%     
 flops    89 x    44 x    32             36841728       0.0%    100.0%      0.0%     
 flops    47 x   102 x    26             36894624       0.0%    100.0%      0.0%     
 flops    44 x   109 x    26             36910016       0.0%    100.0%      0.0%     
 flops    46 x   105 x    26             36920520       0.0%    100.0%      0.0%     
 flops   105 x    46 x    26             36920520       0.0%    100.0%      0.0%     
 flops    46 x    53 x    26             37272144       0.0%    100.0%      0.0%     
 flops    53 x    46 x    26             37272144       0.0%    100.0%      0.0%     
 flops    26 x   102 x    44             37573536       0.0%    100.0%      0.0%     
 flops    44 x    89 x    32             37593600       0.0%    100.0%      0.0%     
 flops    47 x   105 x    26             37723140       0.0%    100.0%      0.0%     
 flops   105 x    47 x    26             37723140       0.0%    100.0%      0.0%     
 flops    26 x    46 x    49             37740976       0.0%    100.0%      0.0%     
 flops    47 x    53 x    26             38082408       0.0%    100.0%      0.0%     
 flops    53 x    47 x    26             38082408       0.0%    100.0%      0.0%     
 flops    44 x   113 x    26             38264512       0.0%    100.0%      0.0%     
 flops    49 x   102 x    26             38464608       0.0%    100.0%      0.0%     
 flops    89 x    46 x    32             38516352       0.0%    100.0%      0.0%     
 flops    26 x    47 x    49             38561432       0.0%    100.0%      0.0%     
 flops    46 x   109 x    26             38587744       0.0%    100.0%      0.0%     
 flops    26 x   105 x    44             38678640       0.0%    100.0%      0.0%     
 flops    26 x    53 x    44             39047008       0.0%    100.0%      0.0%     
 flops    26 x    44 x    53             39047008       0.0%    100.0%      0.0%     
 flops    44 x   114 x    26             39124800       0.0%    100.0%      0.0%     
 flops    18 x    44 x    18             39175488       0.0%    100.0%      0.0%     
 flops    46 x    89 x    32             39302400       0.0%    100.0%      0.0%     
 flops    49 x   105 x    26             39328380       0.0%    100.0%      0.0%     
 flops    89 x    47 x    32             39353664       0.0%    100.0%      0.0%     
 flops    47 x   109 x    26             39426608       0.0%    100.0%      0.0%     
 flops    49 x    53 x    26             39702936       0.0%    100.0%      0.0%     
 flops    46 x   113 x    26             40003808       0.0%    100.0%      0.0%     
 flops    26 x   109 x    44             40152112       0.0%    100.0%      0.0%     
 flops    47 x    89 x    32             40156800       0.0%    100.0%      0.0%     
 flops    32 x    89 x    44             40350464       0.0%    100.0%      0.0%     
 flops    75 x    89 x    18             40370400       0.0%    100.0%      0.0%     
 flops    89 x    75 x    18             40370400       0.0%    100.0%      0.0%     
 flops    44 x    49 x    32             40567296       0.0%    100.0%      0.0%     
 flops    26 x    46 x    53             40821872       0.0%    100.0%      0.0%     
 flops    18 x    46 x    18             40866768       0.0%    100.0%      0.0%     
 flops    47 x   113 x    26             40873456       0.0%    100.0%      0.0%     
 flops    46 x   114 x    26             40903200       0.0%    100.0%      0.0%     
 flops    49 x   109 x    26             41104336       0.0%    100.0%      0.0%     
 flops    26 x   113 x    44             41625584       0.0%    100.0%      0.0%     
 flops    26 x    47 x    53             41709304       0.0%    100.0%      0.0%     
 flops   105 x    52 x    26             41736240       0.0%    100.0%      0.0%     
 flops    18 x    47 x    18             41755176       0.0%    100.0%      0.0%     
 flops    47 x   114 x    26             41792400       0.0%    100.0%      0.0%     
 flops    49 x    89 x    32             41865600       0.0%    100.0%      0.0%     
 flops    18 x    18 x    44             41969664       0.0%    100.0%      0.0%     
 flops    26 x   114 x    44             41993952       0.0%    100.0%      0.0%     
 flops    53 x    52 x    26             42133728       0.0%    100.0%      0.0%     
 flops    46 x    49 x    32             42411264       0.0%    100.0%      0.0%     
 flops    49 x   113 x    26             42612752       0.0%    100.0%      0.0%     
 flops    26 x    52 x    49             42663712       0.0%    100.0%      0.0%     
 flops    44 x   102 x    32             43084800       0.0%    100.0%      0.0%     
 flops    75 x    75 x    26             43290000       0.0%    100.0%      0.0%     
 flops    47 x    49 x    32             43333248       0.0%    100.0%      0.0%     
 flops   105 x    44 x    32             43464960       0.0%    100.0%      0.0%     
 flops    89 x    52 x    32             43540224       0.0%    100.0%      0.0%     
 flops    49 x   114 x    26             43570800       0.0%    100.0%      0.0%     
 flops    44 x   105 x    32             43760640       0.0%    100.0%      0.0%     
 flops    44 x    53 x    32             43878912       0.0%    100.0%      0.0%     
 flops    53 x    44 x    32             43878912       0.0%    100.0%      0.0%     
 flops    32 x    49 x    44             44430848       0.0%    100.0%      0.0%     
 flops    32 x    44 x    49             44430848       0.0%    100.0%      0.0%     
 flops    75 x    49 x    18             44452800       0.0%    100.0%      0.0%     
 flops    46 x   102 x    32             45043200       0.0%    100.0%      0.0%     
 flops    49 x    49 x    32             45177216       0.0%    100.0%      0.0%     
 flops   105 x    46 x    32             45440640       0.0%    100.0%      0.0%     
 flops    46 x   105 x    32             45749760       0.0%    100.0%      0.0%     
 flops    46 x    53 x    32             45873408       0.0%    100.0%      0.0%     
 flops    53 x    46 x    32             45873408       0.0%    100.0%      0.0%     
 flops    47 x   102 x    32             46022400       0.0%    100.0%      0.0%     
 flops    44 x   109 x    32             46041600       0.0%    100.0%      0.0%     
 flops    18 x    52 x    18             46129824       0.0%    100.0%      0.0%     
 flops    26 x    52 x    53             46146464       0.0%    100.0%      0.0%     
 flops    32 x   102 x    44             46244352       0.0%    100.0%      0.0%     
 flops    75 x   102 x    18             46267200       0.0%    100.0%      0.0%     
 flops   105 x    47 x    32             46428480       0.0%    100.0%      0.0%     
 flops    32 x    46 x    49             46450432       0.0%    100.0%      0.0%     
 flops    47 x   105 x    32             46744320       0.0%    100.0%      0.0%     
 flops    47 x    53 x    32             46870656       0.0%    100.0%      0.0%     
 flops    53 x    47 x    32             46870656       0.0%    100.0%      0.0%     
 flops    32 x    47 x    49             47460224       0.0%    100.0%      0.0%     
 flops    32 x   105 x    44             47604480       0.0%    100.0%      0.0%     
 flops    75 x   105 x    18             47628000       0.0%    100.0%      0.0%     
 flops   105 x    75 x    18             47628000       0.0%    100.0%      0.0%     
 flops    44 x   113 x    32             47731200       0.0%    100.0%      0.0%     
 flops    89 x    89 x    18             47906208       0.0%    100.0%      0.0%     
 flops    49 x   102 x    32             47980800       0.0%    100.0%      0.0%     
 flops    32 x    53 x    44             48057856       0.0%    100.0%      0.0%     
 flops    32 x    44 x    53             48057856       0.0%    100.0%      0.0%     
 flops    53 x    75 x    18             48081600       0.0%    100.0%      0.0%     
 flops    75 x    53 x    18             48081600       0.0%    100.0%      0.0%     
 flops    46 x   109 x    32             48134400       0.0%    100.0%      0.0%     
 flops    44 x   114 x    32             48153600       0.0%    100.0%      0.0%     
 flops    18 x    75 x    49             48686400       0.0%    100.0%      0.0%     
 flops    49 x   105 x    32             48733440       0.0%    100.0%      0.0%     
 flops    49 x    53 x    32             48865152       0.0%    100.0%      0.0%     
 flops    47 x   109 x    32             49180800       0.0%    100.0%      0.0%     
 flops    32 x   109 x    44             49417984       0.0%    100.0%      0.0%     
 flops    75 x   109 x    18             49442400       0.0%    100.0%      0.0%     
 flops    46 x   113 x    32             49900800       0.0%    100.0%      0.0%     
 flops    32 x    46 x    53             50242304       0.0%    100.0%      0.0%     
 flops    46 x   114 x    32             50342400       0.0%    100.0%      0.0%     
 flops    26 x    44 x    18             50368032       0.0%    100.0%      0.0%     
 flops    18 x    44 x    26             50656320       0.0%    100.0%      0.0%     
 flops    47 x   113 x    32             50985600       0.0%    100.0%      0.0%     
 flops    32 x   113 x    44             51231488       0.0%    100.0%      0.0%     
 flops    75 x   113 x    18             51256800       0.0%    100.0%      0.0%     
 flops    49 x   109 x    32             51273600       0.0%    100.0%      0.0%     
 flops    32 x    47 x    53             51334528       0.0%    100.0%      0.0%     
 flops   105 x    52 x    32             51367680       0.0%    100.0%      0.0%     
 flops    89 x    75 x    26             51370800       0.0%    100.0%      0.0%     
 flops    47 x   114 x    32             51436800       0.0%    100.0%      0.0%     
 flops    32 x   114 x    44             51684864       0.0%    100.0%      0.0%     
 flops    75 x   114 x    18             51710400       0.0%    100.0%      0.0%     
 flops    53 x    52 x    32             51856896       0.0%    100.0%      0.0%     
 flops    75 x    89 x    26             52065000       0.0%    100.0%      0.0%     
 flops    32 x    52 x    49             52509184       0.0%    100.0%      0.0%     
 flops    26 x    46 x    18             52571376       0.0%    100.0%      0.0%     
 flops    18 x    75 x    53             52660800       0.0%    100.0%      0.0%     
 flops    89 x    49 x    18             52750656       0.0%    100.0%      0.0%     
 flops    18 x    46 x    26             52829712       0.0%    100.0%      0.0%     
 flops    18 x    26 x    44             53044992       0.0%    100.0%      0.0%     
 flops    26 x    18 x    44             53044992       0.0%    100.0%      0.0%     
 flops    49 x   113 x    32             53155200       0.0%    100.0%      0.0%     
 flops    49 x   114 x    32             53625600       0.0%    100.0%      0.0%     
 flops    26 x    47 x    18             53802216       0.0%    100.0%      0.0%     
 flops    75 x    75 x    32             54000000       0.0%    100.0%      0.0%     
 flops    18 x    47 x    26             54110160       0.0%    100.0%      0.0%     
 flops    89 x   102 x    18             54903744       0.0%    100.0%      0.0%     
 flops    75 x    49 x    26             56183400       0.0%    100.0%      0.0%     
 flops    89 x   105 x    18             56518560       0.0%    100.0%      0.0%     
 flops   105 x    89 x    18             56518560       0.0%    100.0%      0.0%     
 flops     9 x     9 x    18             56739528       0.0%    100.0%      0.0%     
 flops    32 x    52 x    53             56795648       0.0%    100.0%      0.0%     
 flops    89 x    53 x    18             57056832       0.0%    100.0%      0.0%     
 flops    53 x    89 x    18             57056832       0.0%    100.0%      0.0%     
 flops    18 x    89 x    49             57774528       0.0%    100.0%      0.0%     
 flops    89 x   109 x    18             58671648       0.0%    100.0%      0.0%     
 flops    75 x   102 x    26             58874400       0.0%    100.0%      0.0%     
 flops    26 x    52 x    18             59671872       0.0%    100.0%      0.0%     
 flops    18 x    52 x    26             59963904       0.0%    100.0%      0.0%     
 flops    75 x   105 x    26             60196500       0.0%    100.0%      0.0%     
 flops   105 x    75 x    26             60606000       0.0%    100.0%      0.0%     
 flops    75 x    53 x    26             60769800       0.0%    100.0%      0.0%     
 flops    89 x   113 x    18             60824736       0.0%    100.0%      0.0%     
 flops    53 x    75 x    26             61183200       0.0%    100.0%      0.0%     
 flops    89 x   114 x    18             61363008       0.0%    100.0%      0.0%     
 flops    26 x    75 x    49             61534200       0.0%    100.0%      0.0%     
 flops    89 x    89 x    26             61783800       0.0%    100.0%      0.0%     
 flops   105 x    49 x    18             62233920       0.0%    100.0%      0.0%     
 flops    18 x    44 x    32             62244864       0.0%    100.0%      0.0%     
 flops    32 x    44 x    18             62244864       0.0%    100.0%      0.0%     
 flops    18 x    89 x    53             62490816       0.0%    100.0%      0.0%     
 flops    53 x    49 x    18             62826624       0.0%    100.0%      0.0%     
 flops    75 x   109 x    26             62914800       0.0%    100.0%      0.0%     
 flops    18 x    49 x    49             63616896       0.0%    100.0%      0.0%     
 flops    75 x    89 x    32             64080000       0.0%    100.0%      0.0%     
 flops    89 x    75 x    32             64080000       0.0%    100.0%      0.0%     
 flops    26 x    44 x    26             64128064       0.0%    100.0%      0.0%     
 flops   105 x   102 x    18             64774080       0.0%    100.0%      0.0%     
 flops    32 x    18 x    44             64880640       0.0%    100.0%      0.0%     
 flops    18 x    46 x    32             64968192       0.0%    100.0%      0.0%     
 flops    32 x    46 x    18             65074176       0.0%    100.0%      0.0%     
 flops    75 x   113 x    26             65223600       0.0%    100.0%      0.0%     
 flops    18 x    32 x    44             65286144       0.0%    100.0%      0.0%     
 flops    53 x   102 x    18             65390976       0.0%    100.0%      0.0%     
 flops    18 x   102 x    49             66213504       0.0%    100.0%      0.0%     
 flops    18 x    47 x    32             66380544       0.0%    100.0%      0.0%     
 flops    26 x    75 x    53             66557400       0.0%    100.0%      0.0%     
 flops    32 x    47 x    18             66597120       0.0%    100.0%      0.0%     
 flops    89 x    49 x    26             66670968       0.0%    100.0%      0.0%     
 flops   105 x   105 x    18             66679200       0.0%    100.0%      0.0%     
 flops    75 x   114 x    26             66690000       0.0%    100.0%      0.0%     
 flops    26 x    46 x    26             67042976       0.0%    100.0%      0.0%     
 flops    26 x    26 x    44             67042976       0.0%    100.0%      0.0%     
 flops    18 x    75 x    18             67213800       0.0%    100.0%      0.0%     
 flops   105 x    53 x    18             67314240       0.0%    100.0%      0.0%     
 flops    53 x   105 x    18             67314240       0.0%    100.0%      0.0%     
 flops    53 x    53 x    18             67955328       0.0%    100.0%      0.0%     
 flops    18 x   105 x    49             68160960       0.0%    100.0%      0.0%     
 flops    26 x    47 x    26             68500432       0.0%    100.0%      0.0%     
 flops    18 x    49 x    53             68810112       0.0%    100.0%      0.0%     
 flops    18 x    53 x    49             68810112       0.0%    100.0%      0.0%     
 flops    75 x    49 x    32             69148800       0.0%    100.0%      0.0%     
 flops   105 x   109 x    18             69219360       0.0%    100.0%      0.0%     
 flops    89 x   102 x    26             69864288       0.0%    100.0%      0.0%     
 flops    53 x   109 x    18             69878592       0.0%    100.0%      0.0%     
 flops    18 x   109 x    49             70757568       0.0%    100.0%      0.0%     
 flops    89 x   105 x    26             71433180       0.0%    100.0%      0.0%     
 flops    18 x   102 x    53             71618688       0.0%    100.0%      0.0%     
 flops   105 x   113 x    18             71759520       0.0%    100.0%      0.0%     
 flops    89 x    53 x    26             72113496       0.0%    100.0%      0.0%     
 flops   105 x   114 x    18             72394560       0.0%    100.0%      0.0%     
 flops    53 x   113 x    18             72442944       0.0%    100.0%      0.0%     
 flops   105 x    89 x    26             72891000       0.0%    100.0%      0.0%     
 flops    26 x    89 x    49             73020584       0.0%    100.0%      0.0%     
 flops    53 x   114 x    18             73084032       0.0%    100.0%      0.0%     
 flops    18 x   113 x    49             73354176       0.0%    100.0%      0.0%     
 flops     9 x     9 x    26             73356192       0.0%    100.0%      0.0%     
 flops    18 x    52 x    32             73382400       0.0%    100.0%      0.0%     
 flops    75 x   102 x    32             73440000       0.0%    100.0%      0.0%     
 flops    53 x    89 x    26             73585200       0.0%    100.0%      0.0%     
 flops    18 x   105 x    53             73725120       0.0%    100.0%      0.0%     
 flops    32 x    52 x    18             73741824       0.0%    100.0%      0.0%     
 flops    18 x   114 x    49             74003328       0.0%    100.0%      0.0%     
 flops    18 x    53 x    53             74427264       0.0%    100.0%      0.0%     
 flops    75 x   105 x    32             74592000       0.0%    100.0%      0.0%     
 flops    89 x   109 x    26             74658896       0.0%    100.0%      0.0%     
 flops    75 x    53 x    32             74793600       0.0%    100.0%      0.0%     
 flops   105 x    75 x    32             75600000       0.0%    100.0%      0.0%     
 flops    32 x    75 x    49             75734400       0.0%    100.0%      0.0%     
 flops    26 x    52 x    26             75787712       0.0%    100.0%      0.0%     
 flops    89 x    89 x    32             76041600       0.0%    100.0%      0.0%     
 flops    53 x    75 x    32             76320000       0.0%    100.0%      0.0%     
 flops    18 x   109 x    53             76533696       0.0%    100.0%      0.0%     
 flops    89 x   113 x    26             77398672       0.0%    100.0%      0.0%     
 flops    75 x   109 x    32             78480000       0.0%    100.0%      0.0%     
 flops   105 x    49 x    26             78656760       0.0%    100.0%      0.0%     
 flops    26 x    44 x    32             78926848       0.0%    100.0%      0.0%     
 flops    32 x    44 x    26             78926848       0.0%    100.0%      0.0%     
 flops    26 x    89 x    53             78981448       0.0%    100.0%      0.0%     
 flops    89 x   114 x    26             79138800       0.0%    100.0%      0.0%     
 flops    18 x   113 x    53             79342272       0.0%    100.0%      0.0%     
 flops    53 x    49 x    26             79405872       0.0%    100.0%      0.0%     
 flops    18 x    89 x    18             79875720       0.0%    100.0%      0.0%     
 flops    18 x   114 x    53             80044416       0.0%    100.0%      0.0%     
 flops    26 x    49 x    49             80404688       0.0%    100.0%      0.0%     
 flops    75 x   113 x    32             81360000       0.0%    100.0%      0.0%     
 flops    32 x    75 x    53             81916800       0.0%    100.0%      0.0%     
 flops    32 x    26 x    44             82001920       0.0%    100.0%      0.0%     
 flops    89 x    49 x    32             82056576       0.0%    100.0%      0.0%     
 flops    75 x   114 x    32             82080000       0.0%    100.0%      0.0%     
 flops   105 x   102 x    26             82424160       0.0%    100.0%      0.0%     
 flops    26 x    46 x    32             82514432       0.0%    100.0%      0.0%     
 flops    32 x    46 x    26             82514432       0.0%    100.0%      0.0%     
 flops    26 x    32 x    44             82514432       0.0%    100.0%      0.0%     
 flops    53 x   102 x    26             83209152       0.0%    100.0%      0.0%     
 flops    26 x   102 x    49             83686512       0.0%    100.0%      0.0%     
 flops   105 x   105 x    26             84275100       0.0%    100.0%      0.0%     
 flops    26 x    47 x    32             84308224       0.0%    100.0%      0.0%     
 flops    32 x    47 x    26             84308224       0.0%    100.0%      0.0%     
 flops   105 x    53 x    26             85077720       0.0%    100.0%      0.0%     
 flops    53 x   105 x    26             85077720       0.0%    100.0%      0.0%     
 flops    53 x    53 x    26             85887984       0.0%    100.0%      0.0%     
 flops    26 x   105 x    49             86147880       0.0%    100.0%      0.0%     
 flops    26 x    75 x    18             86346000       0.0%    100.0%      0.0%     
 flops    18 x    75 x    26             86486400       0.0%    100.0%      0.0%     
 flops    26 x    49 x    53             86968336       0.0%    100.0%      0.0%     
 flops    26 x    53 x    49             86968336       0.0%    100.0%      0.0%     
 flops    18 x    49 x    18             87095736       0.0%    100.0%      0.0%     
 flops    89 x   102 x    32             87148800       0.0%    100.0%      0.0%     
 flops   105 x   109 x    26             88080720       0.0%    100.0%      0.0%     
 flops    89 x   105 x    32             88515840       0.0%    100.0%      0.0%     
 flops    89 x    53 x    32             88755072       0.0%    100.0%      0.0%     
 flops    53 x   109 x    26             88919584       0.0%    100.0%      0.0%     
 flops    26 x   109 x    49             89429704       0.0%    100.0%      0.0%     
 flops   105 x    89 x    32             89712000       0.0%    100.0%      0.0%     
 flops    32 x    89 x    49             89871488       0.0%    100.0%      0.0%     
 flops     9 x     9 x    32             90326016       0.0%    100.0%      0.0%     
 flops    26 x   102 x    53             90518064       0.0%    100.0%      0.0%     
 flops    53 x    89 x    32             90566400       0.0%    100.0%      0.0%     
 flops    18 x   102 x    18             91278576       0.0%    100.0%      0.0%     
 flops   105 x   113 x    26             91313040       0.0%    100.0%      0.0%     
 flops    53 x   113 x    26             92182688       0.0%    100.0%      0.0%     
 flops    26 x   113 x    49             92711528       0.0%    100.0%      0.0%     
 flops    89 x   109 x    32             93129600       0.0%    100.0%      0.0%     
 flops    26 x   105 x    53             93180360       0.0%    100.0%      0.0%     
 flops    26 x    52 x    32             93277184       0.0%    100.0%      0.0%     
 flops    32 x    52 x    26             93277184       0.0%    100.0%      0.0%     
 flops   105 x   114 x    26             93366000       0.0%    100.0%      0.0%     
 flops    18 x    18 x    49             93477888       0.0%    100.0%      0.0%     
 flops    26 x   114 x    49             93531984       0.0%    100.0%      0.0%     
 flops    18 x   105 x    18             93759120       0.0%    100.0%      0.0%     
 flops    18 x    53 x    18             93965184       0.0%    100.0%      0.0%     
 flops    26 x    53 x    53             94067792       0.0%    100.0%      0.0%     
 flops    53 x   114 x    26             94255200       0.0%    100.0%      0.0%     
 flops    89 x   113 x    32             96547200       0.0%    100.0%      0.0%     
 flops    26 x   109 x    53             96730088       0.0%    100.0%      0.0%     
 flops   105 x    49 x    32             96808320       0.0%    100.0%      0.0%     
 flops    32 x    44 x    32             97140736       0.0%    100.0%      0.0%     
 flops    32 x    89 x    53             97207936       0.0%    100.0%      0.0%     
 flops    89 x   114 x    32             97401600       0.0%    100.0%      0.0%     
 flops    53 x    49 x    32             97730304       0.0%    100.0%      0.0%     
 flops    18 x   109 x    18             97825320       0.0%    100.0%      0.0%     
 flops    32 x    49 x    49             98959616       0.0%    100.0%      0.0%     
 flops    26 x   113 x    53            100279816       0.0%    100.0%      0.0%     
 flops    32 x    32 x    44            100925440       0.0%    100.0%      0.0%     
 flops    18 x    18 x    53            101108736       0.0%    100.0%      0.0%     
 flops    26 x   114 x    53            101167248       0.0%    100.0%      0.0%     
 flops    18 x   113 x    18            101268792       0.0%    100.0%      0.0%     
 flops    32 x    46 x    32            101556224       0.0%    100.0%      0.0%     
 flops    26 x    89 x    18            102463920       0.0%    100.0%      0.0%     
 flops    18 x   114 x    18            102534336       0.0%    100.0%      0.0%     
 flops    18 x    89 x    26            102630528       0.0%    100.0%      0.0%     
 flops   105 x   102 x    32            102816000       0.0%    100.0%      0.0%     
 flops    32 x   102 x    49            102998784       0.0%    100.0%      0.0%     
 flops    32 x    47 x    32            103763968       0.0%    100.0%      0.0%     
 flops    53 x   102 x    32            103795200       0.0%    100.0%      0.0%     
 flops   105 x   105 x    32            104428800       0.0%    100.0%      0.0%     
 flops   105 x    53 x    32            104711040       0.0%    100.0%      0.0%     
 flops    53 x   105 x    32            105423360       0.0%    100.0%      0.0%     
 flops    53 x    53 x    32            105708288       0.0%    100.0%      0.0%     
 flops    32 x   105 x    49            106028160       0.0%    100.0%      0.0%     
 flops    18 x    75 x    32            106444800       0.0%    100.0%      0.0%     
 flops    32 x    75 x    18            106444800       0.0%    100.0%      0.0%     
 flops    32 x    49 x    53            107037952       0.0%    100.0%      0.0%     
 flops    32 x    53 x    49            107037952       0.0%    100.0%      0.0%     
 flops    26 x    75 x    26            109309200       0.0%    100.0%      0.0%     
 flops   105 x   109 x    32            109872000       0.0%    100.0%      0.0%     
 flops    32 x   109 x    49            110067328       0.0%    100.0%      0.0%     
 flops    53 x   109 x    32            110918400       0.0%    100.0%      0.0%     
 flops    32 x   102 x    53            111406848       0.0%    100.0%      0.0%     
 flops    26 x    49 x    18            112412664       0.0%    100.0%      0.0%     
 flops    18 x    49 x    26            113008896       0.0%    100.0%      0.0%     
 flops   105 x   113 x    32            113904000       0.0%    100.0%      0.0%     
 flops    32 x   113 x    49            114106496       0.0%    100.0%      0.0%     
 flops    32 x   105 x    53            114683520       0.0%    100.0%      0.0%     
 flops    32 x    52 x    32            114802688       0.0%    100.0%      0.0%     
 flops   105 x   114 x    32            114912000       0.0%    100.0%      0.0%     
 flops    53 x   113 x    32            114988800       0.0%    100.0%      0.0%     
 flops    18 x     9 x    18            114989544       0.0%    100.0%      0.0%     
 flops    32 x   114 x    49            115116288       0.0%    100.0%      0.0%     
 flops    32 x    53 x    53            115775744       0.0%    100.0%      0.0%     
 flops    53 x   114 x    32            116006400       0.0%    100.0%      0.0%     
 flops    26 x   102 x    18            117430560       0.0%    100.0%      0.0%     
 flops    18 x   102 x    26            117621504       0.0%    100.0%      0.0%     
 flops    18 x    26 x    49            118145664       0.0%    100.0%      0.0%     
 flops    26 x    18 x    49            118145664       0.0%    100.0%      0.0%     
 flops    32 x   109 x    53            119052416       0.0%    100.0%      0.0%     
 flops    26 x   105 x    18            120884400       0.0%    100.0%      0.0%     
 flops    18 x   105 x    26            121080960       0.0%    100.0%      0.0%     
 flops    26 x    53 x    18            121688424       0.0%    100.0%      0.0%     
 flops    18 x    53 x    26            122234112       0.0%    100.0%      0.0%     
 flops    32 x   113 x    53            123421312       0.0%    100.0%      0.0%     
 flops    32 x   114 x    53            124513536       0.0%    100.0%      0.0%     
 flops    26 x   109 x    18            125489520       0.0%    100.0%      0.0%     
 flops    18 x   109 x    26            125693568       0.0%    100.0%      0.0%     
 flops    18 x    89 x    32            126314496       0.0%    100.0%      0.0%     
 flops    32 x    89 x    18            126314496       0.0%    100.0%      0.0%     
 flops    18 x    26 x    53            127790208       0.0%    100.0%      0.0%     
 flops    26 x    18 x    53            127790208       0.0%    100.0%      0.0%     
 flops    26 x    89 x    26            129713584       0.0%    100.0%      0.0%     
 flops    26 x   113 x    18            130094640       0.0%    100.0%      0.0%     
 flops    18 x   113 x    26            130306176       0.0%    100.0%      0.0%     
 flops    26 x   114 x    18            131245920       0.0%    100.0%      0.0%     
 flops    18 x   114 x    26            131459328       0.0%    100.0%      0.0%     
 flops    26 x    75 x    32            134534400       0.0%    100.0%      0.0%     
 flops    32 x    75 x    26            134534400       0.0%    100.0%      0.0%     
 flops    18 x    49 x    32            138523392       0.0%    100.0%      0.0%     
 flops    32 x    49 x    18            138862080       0.0%    100.0%      0.0%     
 flops    18 x     9 x     9            139285656       0.0%    100.0%      0.0%     
 flops    26 x    49 x    26            142830688       0.0%    100.0%      0.0%     
 flops    18 x   102 x    32            144764928       0.0%    100.0%      0.0%     
 flops    32 x   102 x    18            144764928       0.0%    100.0%      0.0%     
 flops    18 x    32 x    49            145410048       0.0%    100.0%      0.0%     
 flops    32 x    18 x    49            145410048       0.0%    100.0%      0.0%     
 flops    26 x     9 x    18            146459664       0.0%    100.0%      0.0%     
 flops    18 x     9 x    26            147108312       0.0%    100.0%      0.0%     
 flops    26 x   102 x    26            148660512       0.0%    100.0%      0.0%     
 flops    18 x   105 x    32            148780800       0.0%    100.0%      0.0%     
 flops    32 x   105 x    18            149022720       0.0%    100.0%      0.0%     
 flops    26 x    26 x    49            149322992       0.0%    100.0%      0.0%     
 flops    18 x    53 x    32            149587200       0.0%    100.0%      0.0%     
 flops    32 x    53 x    18            150258816       0.0%    100.0%      0.0%     
 flops    26 x   105 x    26            153032880       0.0%    100.0%      0.0%     
 flops    26 x    53 x    26            154490336       0.0%    100.0%      0.0%     
 flops    18 x   109 x    32            154699776       0.0%    100.0%      0.0%     
 flops    32 x   109 x    18            154699776       0.0%    100.0%      0.0%     
 flops    32 x    18 x    53            156791808       0.0%    100.0%      0.0%     
 flops    18 x    32 x    53            157280256       0.0%    100.0%      0.0%     
 flops    26 x   109 x    26            158862704       0.0%    100.0%      0.0%     
 flops    26 x    89 x    32            159647488       0.0%    100.0%      0.0%     
 flops    32 x    89 x    26            159647488       0.0%    100.0%      0.0%     
 flops    18 x   113 x    32            160376832       0.0%    100.0%      0.0%     
 flops    32 x   113 x    18            160376832       0.0%    100.0%      0.0%     
 flops    29 x     9 x    18            160417908       0.0%    100.0%      0.0%     
 flops    26 x    26 x    53            161512624       0.0%    100.0%      0.0%     
 flops    18 x   114 x    32            161796096       0.0%    100.0%      0.0%     
 flops    32 x   114 x    18            161796096       0.0%    100.0%      0.0%     
 flops     9 x    29 x    18            164054160       0.0%    100.0%      0.0%     
 flops    26 x   113 x    26            164692528       0.0%    100.0%      0.0%     
 flops    32 x    75 x    32            165580800       0.0%    100.0%      0.0%     
 flops    26 x   114 x    26            166149984       0.0%    100.0%      0.0%     
 flops    26 x    49 x    32            175791616       0.0%    100.0%      0.0%     
 flops    32 x    49 x    26            175791616       0.0%    100.0%      0.0%     
 flops    26 x     9 x     9            176187960       0.0%    100.0%      0.0%     
 flops    32 x     9 x    18            180320256       0.0%    100.0%      0.0%     
 flops    18 x     9 x    32            181056384       0.0%    100.0%      0.0%     
 flops    26 x   102 x    32            182966784       0.0%    100.0%      0.0%     
 flops    32 x   102 x    26            182966784       0.0%    100.0%      0.0%     
 flops    26 x    32 x    49            183782144       0.0%    100.0%      0.0%     
 flops    32 x    26 x    49            183782144       0.0%    100.0%      0.0%     
 flops    26 x     9 x    26            186036552       0.0%    100.0%      0.0%     
 flops    26 x   105 x    32            188348160       0.0%    100.0%      0.0%     
 flops    32 x   105 x    26            188348160       0.0%    100.0%      0.0%     
 flops    26 x    53 x    32            190141952       0.0%    100.0%      0.0%     
 flops    32 x    53 x    26            190141952       0.0%    100.0%      0.0%     
 flops    26 x   109 x    32            195523328       0.0%    100.0%      0.0%     
 flops    32 x   109 x    26            195523328       0.0%    100.0%      0.0%     
 flops    32 x    89 x    32            196489216       0.0%    100.0%      0.0%     
 flops    32 x    26 x    53            198167424       0.0%    100.0%      0.0%     
 flops    26 x    32 x    53            198784768       0.0%    100.0%      0.0%     
 flops    26 x   113 x    32            202698496       0.0%    100.0%      0.0%     
 flops    32 x   113 x    26            202698496       0.0%    100.0%      0.0%     
 flops    26 x   114 x    32            204492288       0.0%    100.0%      0.0%     
 flops    32 x   114 x    26            204492288       0.0%    100.0%      0.0%     
 flops    29 x     9 x    26            206823708       0.0%    100.0%      0.0%     
 flops     9 x    29 x    26            207488736       0.0%    100.0%      0.0%     
 flops    32 x    49 x    32            216358912       0.0%    100.0%      0.0%     
 flops    32 x     9 x     9            216846720       0.0%    100.0%      0.0%     
 flops    32 x   102 x    32            225189888       0.0%    100.0%      0.0%     
 flops    32 x    32 x    49            226193408       0.0%    100.0%      0.0%     
 flops    26 x     9 x    32            228953088       0.0%    100.0%      0.0%     
 flops    32 x     9 x    26            228953088       0.0%    100.0%      0.0%     
 flops    32 x   105 x    32            231813120       0.0%    100.0%      0.0%     
 flops    32 x    53 x    32            234020864       0.0%    100.0%      0.0%     
 flops    32 x   109 x    32            240644096       0.0%    100.0%      0.0%     
 flops    32 x    32 x    53            243898368       0.0%    100.0%      0.0%     
 flops    32 x   113 x    32            249475072       0.0%    100.0%      0.0%     
 flops    32 x   114 x    32            251682816       0.0%    100.0%      0.0%     
 flops    29 x     9 x    32            254669184       0.0%    100.0%      0.0%     
 flops     9 x    29 x    32            255370752       0.0%    100.0%      0.0%     
 flops    18 x    18 x     9            280810800       0.0%    100.0%      0.0%     
 flops    32 x     9 x    32            281843712       0.0%    100.0%      0.0%     
 flops    18 x    29 x    18            327864024       0.0%    100.0%      0.0%     
 flops    18 x    26 x     9            355627584       0.0%    100.0%      0.0%     
 flops    26 x    18 x     9            360564048       0.0%    100.0%      0.0%     
 flops    18 x    29 x     9            404441424       0.0%    100.0%      0.0%     
 flops    18 x     9 x    29            406207872       0.0%    100.0%      0.0%     
 flops    26 x    29 x    18            414977472       0.0%    100.0%      0.0%     
 flops    18 x    29 x    26            415004616       0.0%    100.0%      0.0%     
 flops    18 x    32 x     9            437685120       0.0%    100.0%      0.0%     
 flops    32 x    18 x     9            445782528       0.0%    100.0%      0.0%     
 flops    26 x    26 x     9            457090920       0.0%    100.0%      0.0%     
 flops    29 x    29 x    18            464131080       0.0%    100.0%      0.0%     
 flops    32 x    29 x    18            510741504       0.0%    100.0%      0.0%     
 flops    18 x    29 x    32            510975360       0.0%    100.0%      0.0%     
 flops    26 x    29 x     9            513293040       0.0%    100.0%      0.0%     
 flops    26 x     9 x    29            513401616       0.0%    100.0%      0.0%     
 flops    26 x    29 x    26            525073536       0.0%    100.0%      0.0%     
 flops    26 x    32 x     9            562498560       0.0%    100.0%      0.0%     
 flops    32 x    26 x     9            565284096       0.0%    100.0%      0.0%     
 flops    29 x    29 x    26            585002964       0.0%    100.0%      0.0%     
 flops    32 x    29 x     9            631611648       0.0%    100.0%      0.0%     
 flops    32 x     9 x    29            631878912       0.0%    100.0%      0.0%     
 flops    32 x    29 x    26            646292608       0.0%    100.0%      0.0%     
 flops    26 x    29 x    32            647885056       0.0%    100.0%      0.0%     
 flops    32 x    32 x     9            695697408       0.0%    100.0%      0.0%     
 flops    29 x    29 x    32            720003648       0.0%    100.0%      0.0%     
 flops    32 x    29 x    32            799178752       0.0%    100.0%      0.0%     
 flops    18 x    18 x    29            816869448       0.0%    100.0%      0.0%     
 flops    18 x    26 x    29           1032123456       0.0%    100.0%      0.0%     
 flops    26 x    18 x    29           1032123456       0.0%    100.0%      0.0%     
 flops    18 x    29 x    29           1151214624       0.0%    100.0%      0.0%     
 flops    18 x    32 x    29           1270305792       0.0%    100.0%      0.0%     
 flops    32 x    18 x    29           1270305792       0.0%    100.0%      0.0%     
 flops    26 x    26 x    29           1304489368       0.0%    100.0%      0.0%     
 flops    26 x    29 x    29           1455007372       0.0%    100.0%      0.0%     
 flops    26 x    32 x    29           1605525376       0.0%    100.0%      0.0%     
 flops    32 x    26 x    29           1605525376       0.0%    100.0%      0.0%     
 flops    32 x    29 x    29           1790778304       0.0%    100.0%      0.0%     
 flops    32 x    32 x    29           1976031232       0.0%    100.0%      0.0%     
 flops inhomo. stacks                108676694352     100.0%      0.0%      0.0%
 flops total                       181.848778E+09      59.8%     40.2%      0.0%
 flops max/rank                     14.963835E+09      60.1%     39.9%      0.0%
 matmuls inhomo. stacks                    228986     100.0%      0.0%      0.0%
 matmuls total                            2192002      10.4%     89.6%      0.0%
 number of processed stacks               1323882       3.5%     96.5%      0.0%
 average stack size                                     4.9       1.5       0.0
 marketing flops                   167.235912E+09
 -------------------------------------------------------------------------------
 # multiplications                            505
 max memory usage/rank              23.522058E+09
 # max total images/rank                        5
 # max 3D layers                                1
 # MPI messages exchanged                  166650
 MPI messages size (bytes):
  total size                         5.594607E+09
  min size                           0.000000E+00
  max size                         219.936000E+03
  average size                      33.570996E+03
 MPI breakdown and total messages size (bytes):
             size <=      128               22692                        0
       128 < size <=     8192               16822                 92430144
      8192 < size <=    32768               64034               1070258064
     32768 < size <=   131072               56614               3348590400
    131072 < size <=  4194304                6488               1083326336
   4194304 < size <= 16777216                   0                        0
  16777216 < size                               0                        0
 -------------------------------------------------------------------------------

 *** WARNING in dbcsr_mm.F:301 :: Using a non-square number of MPI ranks ***
 *** might lead to poor performance. Used ranks: 15 Suggested: 16 25     ***

 -------------------------------------------------------------------------------
 -                                                                             -
 -                      DBCSR MESSAGE PASSING PERFORMANCE                      -
 -                                                                             -
 -------------------------------------------------------------------------------
 ROUTINE             CALLS      AVE VOLUME [Bytes]
 MP_Bcast              644                     12.
 MP_Allreduce         3409                     19.
 MP_Alltoall          3385                  79156.
 MP_ISend            27972                  18056.
 MP_IRecv            27596                  17059.
 -------------------------------------------------------------------------------

 -------------------------------------------------------------------------------
 -                                                                             -
 -                                GRID STATISTICS                              -
 -                                                                             -
 -------------------------------------------------------------------------------
 LP    KERNEL             BACKEND                              COUNT     PERCENT
 4     collocate ortho    CPU                                   1214      23.86%
 4     integrate ortho    CPU                                   1214      23.86%
 6     collocate ortho    CPU                                    840      16.51%
 6     integrate ortho    CPU                                    840      16.51%
 2     collocate ortho    CPU                                    482       9.48%
 2     integrate ortho    CPU                                    482       9.48%
 0     collocate general  CPU                                     15       0.29%
 -------------------------------------------------------------------------------

 -------------------------------------------------------------------------------
 -                                                                             -
 -                          OFFLOAD MEMPOOL STATISTICS                         -
 -                                                                             -
 -------------------------------------------------------------------------------
 Memory consumption                Number of allocations  Used [MiB]  Size [MiB]
 Host                                                  6          97    22069228
 -------------------------------------------------------------------------------

 MEMORY| Estimated peak process memory [MiB]                                2178

 -------------------------------------------------------------------------------
 -                                                                             -
 -                         MESSAGE PASSING PERFORMANCE                         -
 -                                                                             -
 -------------------------------------------------------------------------------

 ROUTINE             CALLS      AVE VOLUME [Bytes]
 MP_Group                5
 MP_Bcast              273                 214014.
 MP_Allreduce         1949                   9358.
 MP_Sync                10
 MP_Alltoall            46               72666427.
 MP_SendRecv            56                 542720.
 MP_ISendRecv           56                 542720.
 MP_Wait               254
 MP_comm_split          10
 MP_ISend              171                2386401.
 MP_IRecv              171                2386401.
 -------------------------------------------------------------------------------


 -------------------------------------------------------------------------------
 -                                                                             -
 -                           R E F E R E N C E S                               -
 -                                                                             -
 -------------------------------------------------------------------------------
 
 CP2K version 2026.2 (Development Version), the CP2K developers group (2026).
 CP2K is freely available from https://www.cp2k.org/ .
 
 M. Iannuzzi, J. Wilhelm, F. Stein, A. Bussy, H. Elgabarty, D. Golze, A. Hehn, 
 M. Graml, S. Marek, B. Sertcan Gökmen, C. Schran, H. Forbert, R. Z. 
 Khaliullin, A. Kozhevnikov, M. Taillefumier, R. Meli, V. V. Rybkin, M. Brehm, 
 R. Schade, O. Schütt, J. V. Pototschnig, H. Mirhosseini, A. Knüpfer, D. Marx, 
 M. Krack, J. Hutter, T. D. Kühne.
 J. Phys. Chem. B 130, 1237-1310 (2026).
 The CP2K Program Package Made Simple.
 https://doi.org/10.1021/acs.jpcb.5c05851

 M. Graml, K. Zollner, D. Hernangómez-Pérez, P. E. Faria Junior, J. Wilhelm.
 J. Chem. Theory Comput. 20, 2202-2208 (2024).
 Low-scaling GW algorithm applied to twisted transition-metal dichalcogenide 
 heterobilayers.
 https://doi.org/10.1021/acs.jctc.3c01230

 T. D. Kühne, M. Iannuzzi, M. Del Ben, V. V. Rybkin, P. Seewald, F. Stein, T. 
 Laino, R. Z. Khaliullin, O. Schütt, F. Schiffmann, D. Golze, J. Wilhelm, S. 
 Chulkov, M. H. Bani-Hashemian, V. Weber, U. Borstnik, M. Taillefumier, A. S. 
 Jakobovits, A. Lazzaro, H. Pabst, T. Müller, R. Schade, M. Guidon, S. 
 Andermatt, N. Holmberg, G. K. Schenter, A. Hehn, A. Bussy, F. Belleflamme, G. 
 Tabacchi, A. Glöß, M. Lass, I. Bethune, C. J. Mundy, C. Plessl, M. Watkins, 
 J. VandeVondele, M. Krack, J. Hutter.
 J. Chem. Phys. 152, 194103 (2020).
 CP2K: An electronic structure and molecular dynamics software package - 
 Quickstep: Efficient and accurate electronic structure calculations.
 https://doi.org/10.1063/5.0007045

 O. Schuett, P. Messmer, J. Hutter, J. VandeVondele.
 Electronic Structure Calculations on Graphics Processing Units, 173-190 (2016).
 GPU-Accelerated Sparse Matrix-Matrix Multiplication for Linear Scaling Density 
 Functional Theory.
 https://doi.org/10.1002/9781118670712.ch8

 U. Borstnik, J. VandeVondele, V. Weber, J. Hutter.
 Parallel Comput. 40, 47-58 (2014).
 Sparse matrix multiplication: The distributed block-compressed sparse row 
 library.
 https://doi.org/10.1016/j.parco.2014.03.012

 J. VandeVondele, J. Hutter.
 J. Chem. Phys. 127, 114105 (2007).
 Gaussian basis sets for accurate calculations on molecular systems in gas and 
 condensed phases.
 https://doi.org/10.1063/1.2770708

 J. VandeVondele, M. Krack, F. Mohamed, M. Parrinello, T. Chassaing, J. Hutter.
 Comput. Phys. Commun. 167, 103-128 (2005).
 QUICKSTEP: Fast and accurate density functional calculations using a mixed 
 Gaussian and plane waves approach.
 https://doi.org/10.1016/j.cpc.2004.12.014

 M. Krack.
 Theor. Chem. Acc. 114, 145-152 (2005).
 Pseudopotentials for H to Kr optimized for gradient-corrected 
 exchange-correlation functionals.
 https://doi.org/10.1007/s00214-005-0655-y

 M. Frigo, S. G. Johnson.
 Proc. IEEE 93, 216-231 (2005).
 The design and implementation of FFTW3.
 https://doi.org/10.1109/JPROC.2004.840301

 J. VandeVondele, J. Hutter.
 J. Chem. Phys. 118, 4365-4369 (2003).
 An efficient orbital transformation method for electronic structure 
 calculations.
 https://doi.org/10.1063/1.1543154

 C. Hartwigsen, S. Goedecker, J. Hutter.
 Phys. Rev. B 58, 3641-3662 (1998).
 Relativistic separable dual-space Gaussian pseudopotentials from H to Rn.
 https://doi.org/10.1103/PhysRevB.58.3641

 G. Lippert, J. Hutter, M. Parrinello.
 Mol. Phys. 92, 477-487 (1997).
 A hybrid Gaussian and plane wave density functional scheme.
 https://doi.org/10.1080/002689797170220

 S. Goedecker, M. Teter, J. Hutter.
 Phys. Rev. B 54, 1703-1710 (1996).
 Separable dual-space Gaussian pseudopotentials.
 https://doi.org/10.1103/PhysRevB.54.1703

 J. P. Perdew, K. Burke, M. Ernzerhof.
 Phys. Rev. Lett. 77, 3865-3868 (1996).
 Generalized gradient approximation made simple.
 https://doi.org/10.1103/PhysRevLett.77.3865

 P. E. Blöchl.
 J. Chem. Phys. 103, 7422-7428 (1995).
 Electrostatic decoupling of periodic images of plane‐wave‐expanded 
 densities and derived atomic point charges.
 https://doi.org/10.1063/1.470314

 R. H. Byrd, P. H. Lu, J. Nocedal, C. Y. Zhu.
 SIAM J. Sci. Comput. 16, 1190-1208 (1995).
 A Limited Memory Algorithm for Bound Constrained Optimization.
 https://doi.org/10.1137/0916069


 -------------------------------------------------------------------------------
 -                                                                             -
 -                                T I M I N G                                  -
 -                                                                             -
 -------------------------------------------------------------------------------
 SUBROUTINE                       CALLS  ASD         SELF TIME        TOTAL TIME MAXRANK
                                MAXIMUM       AVERAGE  MAXIMUM  AVERAGE  MAXIMUM
 CP2K                                 1  1.0    0.069    0.076   11.904   11.905       0
 qs_energies                          1  2.0    0.016    0.016   10.986   10.986      10
 qs_energies_properties               1  3.0    0.000    0.000    7.948    7.948       0
 post_scf_bandstructure               1  4.0    0.001    0.001    7.948    7.948       7
 run_gw                               1  5.0    0.000    0.000    7.839    7.852      11
 create_and_init_bs_env_for_gw        1  6.0    0.024    0.052    4.550    4.624       7
 generate_auto_ri_basis               1  7.0    0.000    0.000    3.783    3.783       7
 gw_calc_ri_rs_non_periodic           1  6.0    0.003    0.003    3.288    3.312       1
 scf_env_do_scf                       1  3.0    0.007    0.007    2.095    2.095      10
 mp_sum_dm                          108 10.9    1.141    1.926    1.141    1.926      12
 compute_AB_optimized_RI_basis        1  8.0    0.001    0.001    1.917    1.918      12
 compute_AB_optimized_RI_basis_       1  9.0    0.000    0.000    1.797    1.914       4
 qs_ks_build_kohn_sham_matrix         2  7.5    0.023    0.053    1.901    1.901      14
 compute_B_PQ_AB                      4 10.0    0.240    0.479    0.923    1.830       1
 fft_wrap_pw1pw2                     28 10.0    0.001    0.001    1.606    1.657       6
 fft_wrap_pw1pw2_300                 16 11.2    0.079    0.083    1.545    1.600       4
 init_scf_loop                        1  4.0    0.008    0.009    1.538    1.538       6
 qs_ks_update_qs_env                  2  5.0    0.000    0.000    1.468    1.468       1
 rebuild_ks_matrix                    1  6.0    0.000    0.000    1.467    1.467       2
 cp_fm_get_submatrix                104 10.0    0.001    0.001    0.831    1.436       4
 compute_W                            1  7.0    0.000    0.000    1.339    1.340       0
 fft3d_ps                            28 12.0    0.659    0.687    1.171    1.330       7
 compute_M_pq_inv_and_V_pq            1  8.0    0.000    0.000    1.274    1.274      11
 compute_contracted_RI_matrix         2  9.0    0.001    0.001    1.145    1.146       0
 compute_optimized_RI_matrix_bl      16 10.0    0.138    0.174    0.969    1.138       3
 contract_B_PQ                       18 11.9    0.487    0.976    0.525    1.051       1
 compute_M_PQ_AB                    580 11.0    0.001    0.001    0.852    0.993       3
 compute_M_PQ                       580 12.0    0.001    0.001    0.851    0.992       4
 int_operators_r12_ab_os            580 13.0    0.000    0.000    0.850    0.991       3
 int_operator_ab_os_low             580 14.0    0.328    0.377    0.850    0.991       3
 qs_rho_update_rho_low                2  5.0    0.000    0.000    0.985    0.985       9
 calculate_rho_elec                   2  6.0    0.023    0.024    0.984    0.985       6
 compute_fm_W_freq                   30  8.0    0.000    0.000    0.957    0.963       0
 qs_vxc_create                        2  8.5    0.001    0.001    0.949    0.949       4
 xc_vxc_pw_create                     1  9.0    0.020    0.023    0.948    0.948      14
 parallel_gemm_fm_gemm              431  9.6    0.007    0.007    0.885    0.902       3
 cp_fm_gemm                         434 10.5    0.880    0.897    0.880    0.897      13
 mp_alltoall_z22v                    28 14.0    0.276    0.750    0.276    0.750      14
 dbcsr_multiply_generic             505  9.6    0.024    0.024    0.728    0.740       5
 xc_pw_derive                         6 11.0    0.000    0.000    0.686    0.739       6
 density_rs2pw                        2  7.0    0.007    0.007    0.564    0.698       1
 init_scf_run                         1  3.0    0.007    0.007    0.612    0.612       5
 compute_Sigma_c_and_QP_energie       1  7.0    0.000    0.000    0.599    0.612      12
 scf_env_initial_rho_setup            1  4.0    0.007    0.008    0.605    0.605       0
 compute_AA_optimized_RI_basis        1  8.0    0.001    0.001    0.591    0.591       6
 scf_env_do_scf_inner_loop            1  4.0    0.008    0.008    0.543    0.549       0
 qs_init_subsys                       1  2.0    0.009    0.010    0.543    0.543      14
 compute_Sigma_c                      1  8.0    0.000    0.001    0.531    0.532       0
 qs_env_setup                         1  3.0    0.003    0.003    0.529    0.529      10
 copy_dbcsr_to_fm                   104  9.5    0.001    0.001    0.267    0.528       0
 compute_B_PQ_transition              9 10.9    0.000    0.000    0.263    0.526       3
 compute_B_PQ_exchange                9 10.9    0.000    0.000    0.263    0.525       1
 qs_env_rebuild_pw_env                2  3.5    0.000    0.000    0.522    0.523      13
 pw_env_rebuild                       1  5.0    0.004    0.004    0.522    0.522      13
 compute_Z_lP                         1  7.0    0.000    0.000    0.517    0.522       7
 compute_Z_lP_auto_ri                 1  8.0    0.000    0.000    0.517    0.522       9
 xc_pw_divergence                     1 10.0    0.000    0.000    0.461    0.513       4
 pw_grid_setup                        5  5.2    0.001    0.001    0.512    0.512       7
 pw_grid_setup_internal               5  6.2    0.010    0.011    0.511    0.511       5
 mp_sum_d                           758  4.5    0.200    0.492    0.200    0.492      14
 compute_d_lp_auto_ri_batch           1  9.0    0.005    0.006    0.302    0.492      11
 mp_alltoall_i22                    369 11.4    0.217    0.488    0.217    0.488      14
 yz_to_x                             14 12.2    0.105    0.112    0.246    0.487       6
 compute_d_lp_auto_ri_atom            1 10.0    0.089    0.263    0.297    0.487      11
 xc_rho_set_and_dset_create           1 10.0    0.018    0.024    0.455    0.481       0
 dbcsr_desymmetrize_deep            104 10.5    0.003    0.004    0.214    0.476       2
 abc_contract_xsmm                  891 11.0    0.243    0.471    0.243    0.471       1
 optimize_ri_rs_grid                  1  7.0    0.000    0.000    0.448    0.468       3
 pw_grid_sort                         5  7.2    0.303    0.306    0.434    0.440       5
 compute_V_xc                         1  7.0    0.000    0.000    0.435    0.435       2
 sum_up_and_integrate                 2  8.5    0.007    0.010    0.410    0.430      14
 contract_grid_panels_sigma_c        30  9.0    0.001    0.001    0.428    0.429      11
 multiply_cannon                    505 10.6    0.030    0.031    0.411    0.426       7
 mp_bcast_dm                         70  9.1    0.380    0.416    0.380    0.416      12
 integrate_v_rspace                   2  9.5    0.001    0.001    0.392    0.411       6
 x_to_yz                             14 13.8    0.122    0.128    0.257    0.407       7
 grid_collocate_task_list             2  7.0    0.385    0.404    0.385    0.404      13
 rirs_grid_LBFGS                      1  8.0    0.043    0.065    0.366    0.380       5
 potential_pw2rs                      2 10.5    0.001    0.001    0.358    0.377      12
 operator2                       327604 15.0    0.318    0.376    0.318    0.376       3
 transfer_rs2pw                       9  7.8    0.000    0.000    0.186    0.358       7
 initialize_auto_ri_integrals         2  9.0    0.023    0.346    0.349    0.349       0
 multiply_cannon_loop               505 11.6    0.029    0.029    0.326    0.344      11
 get_mat_chi_Gamma_tau                1  7.0    0.000    0.001    0.335    0.335       0
 mp_waitany                         171 11.3    0.130    0.326    0.130    0.326      14
 transfer_rs2pw_300                   3  8.3    0.078    0.083    0.149    0.317      11
 qs_energies_init_hamiltonians        1  3.0    0.002    0.002    0.304    0.304       2
 contract_grid_panels                31  8.0    0.001    0.001    0.289    0.300       7
 evaluate_rirs_grid_cluster         301  9.0    0.021    0.035    0.137    0.273       0
 qs_ks_ddapc                          2  8.5    0.000    0.000    0.260    0.263      13
 qs_env_update_s_mstruct              1  4.0    0.001    0.001    0.247    0.247       6
 cp_fm_cholesky_invert               31  9.0    0.236    0.240    0.236    0.240       0
 ab_contract                     328590 15.0    0.205    0.239    0.205    0.239       3
 check_for_restart_files              1  7.0    0.126    0.230    0.126    0.230       8
 pw_poisson_solve                     2  8.5    0.005    0.018    0.222    0.227      14
 make_m2s                          1010 10.6    0.008    0.008    0.207    0.213       9
 calculate_rho_core                   1  5.0    0.021    0.024    0.200    0.202      14
 build_3c_integral_block_auto_r      90 11.0    0.000    0.000    0.103    0.192       1
 create_qs_kind_set                   1  2.0    0.000    0.000    0.187    0.188       8
 read_qs_kind                         2  3.0    0.043    0.048    0.187    0.188       0
 multiply_cannon_multrec           7575 12.6    0.170    0.185    0.172    0.187       5
 make_images                       1010 11.6    0.027    0.030    0.181    0.187       1
 setup_time_and_frequency_minim       1  7.0    0.000    0.001    0.168    0.181       2
 build_minimax_time_frequency_g       1  8.0    0.000    0.002    0.168    0.181       2
 build_3c_integral_block_auto_r      90 11.0    0.104    0.178    0.104    0.178       1
 fit_l_sq_weights                     3  9.0    0.167    0.178    0.167    0.178       3
 pw_copy                             28 10.5    0.152    0.158    0.152    0.158       5
 compute_B_PQ_AA                     15  9.0    0.001    0.006    0.146    0.153       0
 pw_derive                           12 11.2    0.144    0.152    0.144    0.152       6
 mp_sum_root_rm                      15 10.0    0.139    0.152    0.139    0.152      14
 parser_read_line                 22513  4.0    0.004    0.004    0.143    0.145      14
 pw_gather_p                         14 11.2    0.133    0.144    0.133    0.144       4
 parser_read_line_low                27  5.0    0.004    0.040    0.139    0.141       0
 broadcast_input_information         27  6.0    0.006    0.017    0.135    0.140       0
 cp_fm_syevd                          5  9.0    0.001    0.001    0.136    0.136       6
 transfer_pw2rs                       8 11.5    0.000    0.000    0.136    0.136       3
 cp_fm_cholesky_decompose            35  9.0    0.131    0.135    0.131    0.135       2
 sort_shells                          5  8.2    0.131    0.135    0.131    0.135       7
 cp_fm_redistribute_end               5 10.0    0.072    0.133    0.072    0.133       9
 cp_fm_geeig                          2  9.5    0.001    0.001    0.133    0.133       6
 cp_fm_uplo_to_full                  63  9.0    0.117    0.133    0.117    0.133      14
 mp_waitall_1                     24323 13.8    0.109    0.131    0.109    0.131      14
 cp_fm_syevd_base                     5 10.0    0.061    0.130    0.061    0.130       2
 pw_poisson_set                       3  8.3    0.001    0.005    0.125    0.130      14
 compute_M_pq_inv                     1  9.0    0.000    0.000    0.129    0.129      12
 dbcsr_complete_redistribute        265 10.4    0.039    0.046    0.114    0.125       0
 pw_scatter_p                        14 12.8    0.120    0.125    0.120    0.125       5
 compute_fm_chi_Gamma_freq           30  8.0    0.001    0.001    0.102    0.118       0
 build_G_ao                         121  8.5    0.000    0.000    0.106    0.118       6
 cp_ddapc_apply_CD                    2  9.5    0.000    0.000    0.067    0.108       0
 xc_functional_eval                   1 11.0    0.000    0.002    0.078    0.103      14
 pbe_lda_eval                         1 12.0    0.078    0.103    0.078    0.103       7
 transfer_pw2rs_300                   2 12.5    0.040    0.043    0.092    0.096       1
 rirs_cluster_gradient_coordina     301 10.0    0.045    0.094    0.045    0.094       5
 pw_integral_ab_c1d_c1d_gs            4 10.0    0.077    0.079    0.080    0.088       0
 compute_int_3c                       2  9.0    0.078    0.080    0.086    0.087       2
 initialize_ri_rs_grid                1  8.0    0.002    0.004    0.067    0.086      11
 mp_bcast_am_src                     27  7.0    0.071    0.085    0.071    0.085      11
 copy_fm_to_dbcsr                   161  9.3    0.000    0.000    0.075    0.085       7
 G_occ_vir                          121  9.5    0.006    0.008    0.074    0.084       0
 mp_bcast_i_src                     113  7.0    0.058    0.084    0.058    0.084       1
 make_images_data                  1010 12.6    0.008    0.008    0.074    0.081       1
 pw_axpy                             25  6.6    0.074    0.077    0.074    0.077       2
 fft_wrap_pw1pw2_100                  4 10.8    0.003    0.004    0.044    0.076      12
 local_gemm                        7016 12.9    0.039    0.076    0.039    0.076       1
 solve_AB_eigenproblem                4 10.0    0.031    0.055    0.044    0.075       1
 calculate_first_density_matrix       1  5.0    0.001    0.002    0.073    0.073       0
 eval_pw_TabLR                        1  2.0    0.038    0.038    0.071    0.071       4
 pw_copy_to_array                    14 11.2    0.064    0.070    0.064    0.070      10
 compute_QP_energies                  1  8.0    0.001    0.001    0.066    0.069       6
 eval_bandstructure_properties        1  5.0    0.001    0.001    0.068    0.069      12
 get_ddapc                            2 10.5    0.000    0.000    0.025    0.066       6
 cp_cfm_geeig                         1  6.0    0.014    0.014    0.063    0.064      12
 hybrid_alltoall_any               1114 13.4    0.009    0.013    0.056    0.062       0
 mp_alltoall_d11v                  1111 11.7    0.055    0.062    0.055    0.062      11
 make_basis_sm                        1  6.0    0.001    0.001    0.059    0.059      13
 mp_sum_l                          1707 10.5    0.043    0.057    0.043    0.057      14
 dbcsr_finalize                    2097 10.8    0.009    0.010    0.055    0.057      11
 multiply_cannon_metrocomm3        7575 12.6    0.004    0.005    0.041    0.054       0
 build_core_hamiltonian_matrix        1  4.0    0.003    0.003    0.053    0.053      10
 rirs_cluster_gradient_products     301 10.0    0.025    0.050    0.025    0.050       3
 to_Gamma_and_mo_real                62  9.0    0.001    0.001    0.050    0.050       9
 dbcsr_add_d                        935  9.0    0.001    0.001    0.037    0.048       6
 dbcsr_add_anytype                  935 10.0    0.007    0.017    0.036    0.048       7
 cp_dbcsr_sm_fm_multiply              2  7.5    0.000    0.000    0.048    0.048       4
 pw_grid_assign                       5  7.2    0.044    0.046    0.045    0.046       3
 calculate_norms                  12750 12.6    0.037    0.044    0.037    0.044       8
 qs_scf_new_mos                       1  5.0    0.000    0.000    0.041    0.041       7
 qs_scf_loop_do_ot                    1  6.0    0.000    0.000    0.041    0.041       0
 dbcsr_special_finalize            4040 12.6    0.007    0.007    0.039    0.041       7
 ot_scf_mini                          1  7.0    0.007    0.007    0.040    0.040      12
 create_and_init_bs_env               1  5.0    0.001    0.001    0.040    0.040      14
 dbcsr_create_new                 11702 12.1    0.028    0.029    0.038    0.038      11
 cp_dbcsr_sm_fm_multiply_core         2  8.5    0.000    0.000    0.038    0.038       4
 Fourier_transform_w_to_t            30  8.0    0.000    0.000    0.021    0.038       0
 cp_fm_scale_and_add                901  9.0    0.020    0.038    0.020    0.038       0
 pw_copy_from_array                  14 12.8    0.035    0.037    0.035    0.037       6
 dbcsr_merge_all                   1831 11.9    0.016    0.017    0.033    0.036       9
 ot_scf_init                          1  5.0    0.010    0.010    0.035    0.035       0
 transfer_pw2rs_100                   2 12.5    0.006    0.007    0.026    0.034      10
 rirs_cluster_AO_products           301 10.0    0.015    0.033    0.015    0.033       0
 grid_integrate_task_list             2 10.5    0.014    0.032    0.014    0.032       0
 write_mo_set_to_restart              1  5.0    0.001    0.015    0.026    0.032       0
 diamat_all                          20 11.5    0.021    0.032    0.021    0.032       1
 rirs_cluster_residual              301 10.0    0.015    0.031    0.015    0.031       2
 rirs_grid_build_clusters             1  8.0    0.009    0.019    0.015    0.031       3
 dbcsr_merge_single_wm             3960 13.6    0.017    0.019    0.028    0.030       0
 qs_create_task_list                  1  5.0    0.009    0.017    0.023    0.030      14
 dbcsr_iterator_stop               5783 12.1    0.013    0.028    0.015    0.030       0
 mp_sum_iv                          567 11.2    0.020    0.029    0.020    0.029       0
 pw_grid_remap                        4  8.0    0.007    0.007    0.015    0.028       6
 cp_cfm_cholesky_decompose            2  7.0    0.027    0.028    0.027    0.028      10
 make_images_sizes                 1010 12.6    0.001    0.001    0.020    0.027       5
 mp_alltoall_i44                   1010 13.6    0.019    0.026    0.019    0.026      10
 prepare_preconditioner               1  5.0    0.000    0.000    0.026    0.026       2
 make_preconditioner                  1  6.0    0.006    0.007    0.026    0.026      11
 rs_gather_matrices                   2 10.5    0.001    0.001    0.020    0.026       5
 write_mo_set_low                     1  6.0    0.000    0.001    0.025    0.025       0
 rs_grid_zero                         5 12.0    0.023    0.025    0.023    0.025       9
 qs_ot_get_p                          2  7.0    0.001    0.001    0.025    0.025       5
 compute_Sigma_x                      1  7.0    0.000    0.000    0.024    0.024       0
 compute_reference_M_PQ_inv_fac      14 10.8    0.000    0.001    0.015    0.024       1
 subspace_eigenvalues_ks_fm           1  7.0    0.006    0.006    0.024    0.024       2
 ot_mini                              1  8.0    0.001    0.001    0.023    0.023       4
 pw_zero                             25  4.7    0.021    0.023    0.021    0.023      12
 arnoldi_extremal                     2  8.0    0.007    0.007    0.023    0.023      11
 transfer_rs2pw_100                   2  9.0    0.007    0.008    0.019    0.023       9
 cp_ddapc_init                        1  5.0    0.000    0.000    0.022    0.023       1
 multiply_cannon_metrocomm4        6060 12.6    0.010    0.010    0.021    0.022       9
 cp_ddapc_create                      1  6.0    0.000    0.000    0.022    0.022       6
 cp_cfm_heevd                         1  7.0    0.000    0.000    0.022    0.022       7
 cp_cfm_heevd_base                    1  8.0    0.022    0.022    0.022    0.022      13
 mp_sum_im3                           5  9.0    0.009    0.022    0.009    0.022      14
 build_overlap_matrix_low             1  5.0    0.013    0.013    0.022    0.022       5
 extract_masked_blocks              244  9.6    0.010    0.012    0.019    0.021       3
 diagonalize_ks_matrix                1  6.0    0.000    0.000    0.020    0.020       7
 cp_fm_geeig_canon                    1  7.0    0.000    0.000    0.020    0.020       0
 multiply_cannon_metrocomm2        5050 12.6    0.008    0.009    0.019    0.020       0
 mp_allgather_i34                   505 11.6    0.016    0.020    0.016    0.020      14
 fft_wrap_pw1pw2_40                   4 10.8    0.001    0.001    0.013    0.020      11
 get_fft_scratch                     29 12.7    0.016    0.019    0.016    0.019      14
 transfer_pw2rs_40                    2 12.5    0.005    0.006    0.015    0.019       7
 make_full_inverse_cholesky           1  7.0    0.000    0.000    0.018    0.018      11
 rirs_cluster_d_lP                  301 10.0    0.009    0.018    0.009    0.018       3
 dbcsr_work_create                 5975 12.1    0.012    0.012    0.017    0.018       6
 fill_fm_Sigma_c_Gamma_time           1  9.0    0.000    0.000    0.017    0.017       0
 arnoldi_normal_ev                    2  9.0    0.001    0.001    0.016    0.016       4
 pw_integral_ab_r3d_r3d_rs           20  3.0    0.016    0.016    0.016    0.016       1
 check_positive_definite_overla       1  6.0    0.000    0.000    0.016    0.016       7
 dbcsr_data_release               55653 12.7    0.015    0.015    0.015    0.015       4
 dbcsr_data_new                   38192 12.5    0.015    0.015    0.015    0.015       0
 dbcsr_work_destroy_all            5975 13.1    0.010    0.010    0.015    0.015       0
 transfer_rs2pw_40                    2  9.0    0.007    0.008    0.014    0.015       5
 extract_grid_panel                 122  9.5    0.008    0.009    0.013    0.014       3
 ot_diis_step                         1  9.0    0.013    0.013    0.014    0.014       8
 fft3d_s                              1  2.0    0.007    0.007    0.014    0.014       8
 dbcsr_copy                        1156 10.5    0.004    0.004    0.013    0.014       8
 pw_multiply_with                     2  9.5    0.013    0.014    0.013    0.014      12
 generate_qs_task_list                1  6.0    0.002    0.002    0.013    0.014       7
 topology_control                     1  2.0    0.003    0.003    0.013    0.014       8
 rirs_cluster_D_ll                  301 10.0    0.006    0.013    0.006    0.013       0
 mp_sum_dv                          375  9.2    0.010    0.013    0.010    0.013      14
 dbcsr_sort_data                   4421 14.4    0.012    0.013    0.012    0.013       8
 ddapc_eval_gfunc                     1  7.0    0.012    0.013    0.012    0.013       9
 mp_isend_iv                      15134 13.6    0.012    0.013    0.012    0.013      11
 setup_buffer_matrices             1010 11.6    0.004    0.004    0.012    0.013      13
 cp_fm_triangular_multiply            7 10.0    0.013    0.013    0.013    0.013       0
 buffer_matrices_ensure_size       1010 11.6    0.010    0.013    0.010    0.013      12
 dbcsr_destroy                    11544 10.9    0.008    0.008    0.012    0.013       0
 build_core_ppl                       1  5.0    0.011    0.013    0.011    0.013       6
 mp_isend_dv                      14285 13.8    0.012    0.012    0.012    0.012       9
 scf_env_release                      1  7.0    0.006    0.012    0.006    0.012       1
 init_lebedev_grids                   1  9.0    0.007    0.012    0.007    0.012       2
 dbcsr_iterator_start              5783 12.1    0.009    0.009    0.011    0.012       0
 dbcsr_make_images_dense            114 11.5    0.001    0.001    0.011    0.012       2
 -------------------------------------------------------------------------------

 The number of warnings for this run is : 2
 
 -------------------------------------------------------------------------------
  **** **** ******  **  PROGRAM ENDED AT                 2026-10-03 18:53:10.412
 ***** ** ***  *** **   PROGRAM RAN ON                                  n2cn0937
 **    ****   ******    PROGRAM RAN BY                                  eprop2d1
 ***** **    ** ** **   PROGRAM PROCESS ID                               3181200
  **** **  *******  **  PROGRAM STOPPED IN /scratch/hpc-prf-metdyn/eprop2d1_Jan/
                                           53_benchmark_RI_opt/418_gw100_fig5_fu
                                           ll_epsfilter_1e12_20261002/calculatio
                                           ns/rc0p5/ri4_rs02/86_C7H8
