 DBCSR| CPU Multiplication driver                                           XSMM (U)
 DBCSR| Multrec recursion limit                                              512 (U)
 DBCSR| Multiplication stack size                                           1000 (D)
 DBCSR| Maximum elements for images                                    UNLIMITED (U)
 DBCSR| Multiplicative factor virtual images                                   1 (U)
 DBCSR| Use multiplication densification                                       T (D)
 DBCSR| Multiplication size stacks                                             3 (U)
 DBCSR| Use memory pool for CPU allocation                                     F (U)
 DBCSR| Number of 3D layers                                               SINGLE (U)
 DBCSR| Use MPI memory allocation                                              F (U)
 DBCSR| Use RMA algorithm                                                      F (U)
 DBCSR| Use Communication thread                                               T (U)
 DBCSR| Communication thread load                                             53 (D)
 DBCSR| MPI: My process id                                                     0
 DBCSR| MPI: Number of processes                                               5
 DBCSR| OMP: Current number of threads                                        10
 DBCSR| OMP: Max number of threads                                            10
 DBCSR| Split modifier for TAS multiplication algorithm                  1.0E+00 (U)


  **** **** ******  **  PROGRAM STARTED AT               2026-10-03 19:08:59.164
 ***** ** ***  *** **   PROGRAM STARTED ON                              n2cn1112
 **    ****   ******    PROGRAM STARTED BY                              eprop2d1
 ***** **    ** ** **   PROGRAM PROCESS ID                               1942523
  **** **  *******  **  PROGRAM STARTED IN /scratch/hpc-prf-metdyn/eprop2d1_Jan/
                                           53_benchmark_RI_opt/418_gw100_fig5_fu
                                           ll_epsfilter_1e12_20261002/calculatio
                                           ns/rc5p0/ri2_rs08/36_CCl4

 CP2K| version string:                 CP2K version 2026.2 (Development Version)
 CP2K| source code revision number:                                   0671c5aa6c
 CP2K| cp2kflags: omp libint fftw3 libxc parallel scalapack openblas            
 CP2K| is freely available from                            https://www.cp2k.org/
 CP2K| Program compiled at                                   2026-09-20 09:25:26
 CP2K| Program compiled on                                              n2login5
 CP2K| Program compiled for                                               x86_64
 CP2K| Data directory path    /scratch/hpc-prf-metdyn/eprop2d1_Jan/53_benchmark_
 CP2K| Input file name        /scratch/hpc-prf-metdyn/eprop2d1_Jan/53_benchmark_
 
 eprop2d1@n2cn1112 has created rank and process                      0   1942523
 eprop2d1@n2cn1112 has created rank and process                      1   1942524
 eprop2d1@n2cn1112 has created rank and process                      2   1942525
 eprop2d1@n2cn1112 has created rank and process                      3   1942526
 eprop2d1@n2cn1112 has created rank and process                      4   1942527
 
 eprop2d1@n2cn1112 is running                                        5 processes

 GLOBAL| Force Environment number                                              1
 GLOBAL| Basis set file name            /scratch/hpc-prf-metdyn/eprop2d1_Jan/53_
 GLOBAL| Potential file name            /scratch/hpc-prf-metdyn/eprop2d1_Jan/53_
 GLOBAL| MM Potential file name                                     MM_POTENTIAL
 GLOBAL| Coordinate file name                                      __STD_INPUT__
 GLOBAL| Method name                                                        CP2K
 GLOBAL| Project name                                             g418_e208_m036
 GLOBAL| Run type                                                         ENERGY
 GLOBAL| FFT library                                                       FFTW3
 GLOBAL| Diagonalization library                                       ScaLAPACK
 GLOBAL| Cholesky decomposition library                                ScaLAPACK
 GLOBAL| DGEMM library                                                      BLAS
 GLOBAL| Direct generalized diagonalization requested                          F
 GLOBAL| Orthonormality check for eigenvectors                          DISABLED
 GLOBAL| Matrix multiplication library                                 ScaLAPACK
 GLOBAL| All-to-all communication in single precision                          F
 GLOBAL| Grid backend                                                       AUTO
 GLOBAL| Global print level                                                  LOW
 GLOBAL| MPI I/O enabled                                                       T
 GLOBAL| Total number of message passing processes                             5
 GLOBAL| Number of distributed systems (nodes)                                 1
 GLOBAL| Number of threads for this process                                   10
 GLOBAL| This output is from process                                           0
 GLOBAL| OpenMP stack size per thread (OMP_STACKSIZE)                       512M
 GLOBAL| CPU model name                          AMD EPYC 7763 64-Core Processor

 MEMORY| system memory details [Kb]
 MEMORY|                        rank 0           min           max       average
 MEMORY| MemTotal            263897564     263897564     263897564     263897564
 MEMORY| MemFree             247811616     247811616     247811616     247811616
 MEMORY| Buffers                277672        277672        277672        277672
 MEMORY| Cached                9548860       9548860       9548860       9548860
 MEMORY| Slab                  2350480       2350480       2350480       2350480
 MEMORY| SReclaimable           669884        669884        669884        669884
 MEMORY| MemLikelyFree       258308032     258308032     258308032     258308032


 GENERATE|  Preliminary Number of Bonds generated:                             0
 GENERATE|  Achieved consistency in connectivity generation.

 *******************************************************************************
 *******************************************************************************
 **                                                                           **
 **     #####                         ##              ##                      **
 **    ##   ##            ##          ##              ##                      **
 **   ##     ##                       ##            ######                    **
 **   ##     ##  ##   ##  ##   #####  ##  ##   ####   ##    #####    #####    **
 **   ##     ##  ##   ##  ##  ##      ## ##   ##      ##   ##   ##  ##   ##   **
 **   ##  ## ##  ##   ##  ##  ##      ####     ###    ##   ######   ######    **
 **    ##  ###   ##   ##  ##  ##      ## ##      ##   ##   ##       ##        **
 **     #######   #####   ##   #####  ##  ##  ####    ##    #####   ##        **
 **           ##                                                    ##        **
 **                                                                           **
 **                                                ... make the atoms dance   **
 **                                                                           **
 **            Copyright (C) by CP2K developers group (2000-2026)             **
 **                      J. Chem. Phys. 152, 194103 (2020)                    **
 **                                                                           **
 *******************************************************************************


 TOTAL NUMBERS AND MAXIMUM NUMBERS

  Total number of            - Atomic kinds:                                   2
                             - Atoms:                                          5
                             - Shell sets:                                     5
                             - Shells:                                        45
                             - Primitive Cartesian functions:                 31
                             - Cartesian basis functions:                    170
                             - Spherical basis functions:                    145

  Maximum angular momentum of- Orbital basis functions:                        3
                             - Local part of the GTH pseudopotential:          2
                             - Non-local part of the GTH pseudopotential:      2


 SCF PARAMETERS         Density guess:                                   RESTART
                        --------------------------------------------------------
                        max_scf:                                             500
                        max_scf_history:                                       0
                        max_diis:                                              4
                        --------------------------------------------------------
                        eps_scf:                                        1.00E-08
                        eps_scf_history:                                0.00E+00
                        eps_diis:                                       0.00E+00
                        eps_eigval:                                     1.00E-05
                        --------------------------------------------------------
                        level_shift [a.u.]:                             0.000000
                        --------------------------------------------------------
                        Outer loop SCF in use 
                        No variables optimised in outer loop
                        eps_scf                                         1.00E-08
                        max_scf                                               20
                        No outer loop optimization
                        step_size                                       5.00E-01

 Extrapolation method: initial_guess

 Number of electrons:                                                         32
 Number of occupied orbitals:                                                 16
 Number of molecular orbitals:                                                16

 Number of orbital functions:                                                145
 Number of independent orbital functions:                                    145


 SCF WAVEFUNCTION OPTIMIZATION

  ----------------------------------- OT ---------------------------------------
  Minimizer      : DIIS                : direct inversion
                                         in the iterative subspace
                                         using   7 DIIS vectors
                                         safer DIIS on
  Preconditioner : FULL_KINETIC        : inversion of T + eS
  Lattice FFT   : OFF
  Precond_solver : DEFAULT
  stepsize       :    0.15000000                  energy_gap     :    0.20000000
  eps_taylor     :   0.10000E-15                  max_taylor     :             4
  ----------------------------------- OT ---------------------------------------

  Step     Update method      Time    Convergence         Total energy    Change
  ------------------------------------------------------------------------------
  Decoupling Energy:                                              -0.0000000464
     1 OT DIIS     0.15E+00    2.1     0.00000001       -65.6103223819 -6.56E+01
  Decoupling Energy:                                              -0.0000000464
     2 OT DIIS     0.15E+00    2.7     8.8435E-09       -65.6103223819 -1.42E-14

  *** SCF run converged in     2 steps ***


  Electronic density on regular grids:        -32.0000000000       -0.0000000000
  Core density on regular grids:               32.0000000000       -0.0000000000
  Total charge density on r-space grids:       -0.0000000000
  Total charge density g-space grids:          -0.0000000000

  Overlap energy of the core charge distribution:               0.00000001130241
  Self energy of the core charge distribution:               -148.19007911622893
  Core Hamiltonian energy:                                     34.91298207149340
  Hartree energy:                                              60.98448257700372
  Exchange-correlation energy:                                -13.31770792550549

  Total energy:                                               -65.61032238193489

  outer SCF iter =    1 RMS gradient =   0.88E-08 energy =        -65.6103223819
  outer SCF loop converged in   1 iterations or    2 steps

  
 -------------------------------------------------------------------------------
 -                                                                             -
 -                          BANDSTRUCTURE CALCULATION                          -
 -                                                                             -
 -------------------------------------------------------------------------------
  
 Number of occupied molecular orbitals (MOs) = Number of occupied bands       16
 Number of unoccupied (= virtual) MOs = Number of unoccupied bands           129
 Number of Gaussian basis functions for MOs                                  145
  
 -------------------------------------------------------------------------------
 -                                                                             -
 -                                GW CALCULATION                               -
 -                                                                             -
 -------------------------------------------------------------------------------
  
 Input: Number of time/freq. points                                           30
 Input: ω_max for fitting Σ(iω) (eV)                                        10.0
 Input: Filter threshold for sparse tensor operations                    1.0E-12
 Input: Apply Hedin shift                                                      F
 Detected: Available memory per MPI process                              43.2 GB
 
 Input: RI-RS Tikhonov regularization                                   1.00E-04
 Input: AO grid hard cutoff radius                                        8.00 Å
 Input: MPI ranks per atom in Z_lP solve                                      -1
 Input: Keep sparsity in χ/G/W panels                                          T
 Input: GW flavour                                                          G0W0
 
 Input: RI-RS grid optimization activated                                      T
 Input: RS points per AO function                                            8.0
 Input: Cutoff radius for atomic clusters                                  5.0 Å
 Input: Maximum grid optimization iterations                                 300
 
 Input: AUTO_RI basis optimization activated:                                  T
 Input: AUTO_RI number of RI functions per AO function:                      2.0
 Input: AUTO_RI frontier orbital window:                                  5.0 eV
 Input: AUTO_RI neighbor radius:                                           3.0 Å
 
 Cutoff radius for the truncated Coulomb operator in RI metric:            7.0 Å
 Regularization parameter of RI                                          0.0E+00
 Regularization parameter of minimax grids                               1.0E-06
 
 AUTO_RI| Number of automatic RI functions for χ, ε, W:                      290
 AUTO_RI| Total RI basis optimization time:                                1.8 s
  Decoupling Energy:                                              -0.0000000464
 
 SCF direct band gap (eV)                                                   4.83
 Max. SCF eigval diff. (eV)                                               263.46
 E-Range for minimax grid                                                  54.58
 Number of Padé parameters for analytic continuation:                         16
 
 RI-RS basis radii (Å):
     Kind  Elem     r_AO (Å)     r_RI (Å)
        1    C        15.9835       10.1279
        2    Cl        9.2884        6.2055
 
 Started RI-RS grid optimization
 RI-RS grid initial normalized error                          6.085461497955E-05
 RI-RS grid optimization completed, execution time:                       51.3 s
 Normalized 3C error:                                                    1.8E-08
 Maximum absolute 3C error:                                              6.9E-04
 Optimized points outside molecular Voronoi cells:                            47 / 1160
 Total grid points used for RI-RS:                                          1160
 
 RI-RS grid row-blocks of ϕ_μ(r_l)                                            40
 RI-RS grid points per block (max)                                            32
 
 Percentage of non-zero matrix elements in ϕ_μ(r_l)                     100.00 %
 
 RI-RS memory estimate per MPI process:
   Available memory per process (system)                                52.24 GB
   Required for Z_lP (dense upper bound; actual is sparser)              0.00 GB
   Required for χ, W, Σ panels (peak per panel step)                     0.01 GB
   Required for Z_lP solve peak (D_local+ϕ, worst-case atom)             0.02 GB
   Worst-case local-grid number of grid points:                             1160
   Worst-case memory D_local:                                            0.01 GB
 
 Started computing Z_lP
 Computed Z_lP (MPI rank 0) for atom          1 /  1,    Execution time    0.2 s
 Computed Z_lP (all MPI ranks) for all atoms,            Execution time    0.2 s

 Memory per MPI process after computing Z_lP:
 Available memory per MPI process                               52.2 GB
 Used memory per MPI process                                     1.1 GB
 Number of batches for χ, Σ matrices                                           1
 
 Percentage of non-zero matrix elements in Z_lP                         100.00 %
 Percentage of non-zero matrix elements in G_ll', χ_ll', W_ll'          100.00 %
 Percentage of non-zero matrix elements in χ_PQ for time point 1        100.00 %
 
 Computed χ(iτ,k=0) for time point            1 / 30,    Execution time    0.0 s
 Computed χ(iτ,k=0) for time point            2 / 30,    Execution time    0.0 s
 Computed χ(iτ,k=0) for time point            3 / 30,    Execution time    0.0 s
 Computed χ(iτ,k=0) for time point            4 / 30,    Execution time    0.0 s
 Computed χ(iτ,k=0) for time point            5 / 30,    Execution time    0.0 s
 Computed χ(iτ,k=0) for time point            6 / 30,    Execution time    0.0 s
 Computed χ(iτ,k=0) for time point            7 / 30,    Execution time    0.0 s
 Computed χ(iτ,k=0) for time point            8 / 30,    Execution time    0.0 s
 Computed χ(iτ,k=0) for time point            9 / 30,    Execution time    0.0 s
 Computed χ(iτ,k=0) for time point           10 / 30,    Execution time    0.0 s
 Computed χ(iτ,k=0) for time point           11 / 30,    Execution time    0.0 s
 Computed χ(iτ,k=0) for time point           12 / 30,    Execution time    0.0 s
 Computed χ(iτ,k=0) for time point           13 / 30,    Execution time    0.0 s
 Computed χ(iτ,k=0) for time point           14 / 30,    Execution time    0.0 s
 Computed χ(iτ,k=0) for time point           15 / 30,    Execution time    0.0 s
 Computed χ(iτ,k=0) for time point           16 / 30,    Execution time    0.0 s
 Computed χ(iτ,k=0) for time point           17 / 30,    Execution time    0.0 s
 Computed χ(iτ,k=0) for time point           18 / 30,    Execution time    0.0 s
 Computed χ(iτ,k=0) for time point           19 / 30,    Execution time    0.0 s
 Computed χ(iτ,k=0) for time point           20 / 30,    Execution time    0.0 s
 Computed χ(iτ,k=0) for time point           21 / 30,    Execution time    0.0 s
 Computed χ(iτ,k=0) for time point           22 / 30,    Execution time    0.0 s
 Computed χ(iτ,k=0) for time point           23 / 30,    Execution time    0.0 s
 Computed χ(iτ,k=0) for time point           24 / 30,    Execution time    0.0 s
 Computed χ(iτ,k=0) for time point           25 / 30,    Execution time    0.0 s
 Computed χ(iτ,k=0) for time point           26 / 30,    Execution time    0.0 s
 Computed χ(iτ,k=0) for time point           27 / 30,    Execution time    0.0 s
 Computed χ(iτ,k=0) for time point           28 / 30,    Execution time    0.0 s
 Computed χ(iτ,k=0) for time point           29 / 30,    Execution time    0.0 s
 Computed χ(iτ,k=0) for time point           30 / 30,    Execution time    0.0 s
 
 Computed W(iτ),                                         Execution time    0.2 s
 
 Computed Σ^x(k=0),                                      Execution time    0.0 s
 
 Computed Σ^c(iτ) for time point              1 / 30,    Execution time    0.0 s
 Computed Σ^c(iτ) for time point              2 / 30,    Execution time    0.0 s
 Computed Σ^c(iτ) for time point              3 / 30,    Execution time    0.0 s
 Computed Σ^c(iτ) for time point              4 / 30,    Execution time    0.0 s
 Computed Σ^c(iτ) for time point              5 / 30,    Execution time    0.0 s
 Computed Σ^c(iτ) for time point              6 / 30,    Execution time    0.0 s
 Computed Σ^c(iτ) for time point              7 / 30,    Execution time    0.0 s
 Computed Σ^c(iτ) for time point              8 / 30,    Execution time    0.0 s
 Computed Σ^c(iτ) for time point              9 / 30,    Execution time    0.0 s
 Computed Σ^c(iτ) for time point             10 / 30,    Execution time    0.0 s
 Computed Σ^c(iτ) for time point             11 / 30,    Execution time    0.0 s
 Computed Σ^c(iτ) for time point             12 / 30,    Execution time    0.0 s
 Computed Σ^c(iτ) for time point             13 / 30,    Execution time    0.0 s
 Computed Σ^c(iτ) for time point             14 / 30,    Execution time    0.0 s
 Computed Σ^c(iτ) for time point             15 / 30,    Execution time    0.0 s
 Computed Σ^c(iτ) for time point             16 / 30,    Execution time    0.0 s
 Computed Σ^c(iτ) for time point             17 / 30,    Execution time    0.0 s
 Computed Σ^c(iτ) for time point             18 / 30,    Execution time    0.0 s
 Computed Σ^c(iτ) for time point             19 / 30,    Execution time    0.0 s
 Computed Σ^c(iτ) for time point             20 / 30,    Execution time    0.0 s
 Computed Σ^c(iτ) for time point             21 / 30,    Execution time    0.0 s
 Computed Σ^c(iτ) for time point             22 / 30,    Execution time    0.0 s
 Computed Σ^c(iτ) for time point             23 / 30,    Execution time    0.0 s
 Computed Σ^c(iτ) for time point             24 / 30,    Execution time    0.0 s
 Computed Σ^c(iτ) for time point             25 / 30,    Execution time    0.0 s
 Computed Σ^c(iτ) for time point             26 / 30,    Execution time    0.0 s
 Computed Σ^c(iτ) for time point             27 / 30,    Execution time    0.0 s
 Computed Σ^c(iτ) for time point             28 / 30,    Execution time    0.0 s
 Computed Σ^c(iτ) for time point             29 / 30,    Execution time    0.0 s
 Computed Σ^c(iτ) for time point             30 / 30,    Execution time    0.0 s
 
 SCF valence band maximum (eV):                                           -7.635
 SCF conduction band minimum (eV):                                        -2.807
 SCF indirect band gap (eV):                                               4.827
 SCF direct band gap (eV):                                                 4.827
 
 G0W0 valence band maximum (eV):                                         -10.569
 G0W0 conduction band minimum (eV):                                        0.246
 G0W0 indirect band gap (eV):                                             10.815
 G0W0 direct band gap (eV):                                               10.815
 
 Hartree-Fock with SCF orbitals valence band maximum (eV):               -12.355
 Hartree-Fock with SCF orbitals conduction band minimum (eV)               2.599
 Hartree-Fock with SCF orbitals indirect band gap (eV):                   14.953
 Hartree-Fock with SCF orbitals direct band gap (eV):                     14.953

 ENERGY| Total FORCE_EVAL ( QS ) energy [hartree]            -65.610322381934893

 -------------------------------------------------------------------------------
 -                                                                             -
 -                                DBCSR STATISTICS                             -
 -                                                                             -
 -------------------------------------------------------------------------------
 COUNTER                                    TOTAL       BLAS       SMM       ACC
 flops    16 x    16 x    16                16384       0.0%    100.0%      0.0%     
 flops    16 x    16 x    29               519680       0.0%    100.0%      0.0%     
 flops    29 x    16 x    16               668160       0.0%    100.0%      0.0%     
 flops    29 x    29 x    16              1211040       0.0%    100.0%      0.0%     
 flops     8 x    45 x     8              3087360       0.0%    100.0%      0.0%     
 flops     8 x     8 x    45              3283200       0.0%    100.0%      0.0%     
 flops    45 x    45 x     8              3369600       0.0%    100.0%      0.0%     
 flops     8 x    45 x    45              3726000       0.0%    100.0%      0.0%     
 flops     8 x    55 x     8              3759360       0.0%    100.0%      0.0%     
 flops     8 x     8 x    55              4012800       0.0%    100.0%      0.0%     
 flops    45 x    55 x     8              4118400       0.0%    100.0%      0.0%     
 flops    55 x    45 x     8              4118400       0.0%    100.0%      0.0%     
 flops     8 x    61 x     8              4169472       0.0%    100.0%      0.0%     
 flops     8 x     8 x    61              4294400       0.0%    100.0%      0.0%     
 flops     8 x    45 x    55              4356000       0.0%    100.0%      0.0%     
 flops     8 x    55 x    45              4356000       0.0%    100.0%      0.0%     
 flops     8 x    64 x     8              4374528       0.0%    100.0%      0.0%     
 flops     8 x    65 x     8              4442880       0.0%    100.0%      0.0%     
 flops    61 x    45 x     8              4567680       0.0%    100.0%      0.0%     
 flops    45 x    61 x     8              4611600       0.0%    100.0%      0.0%     
 flops    45 x    64 x     8              4792320       0.0%    100.0%      0.0%     
 flops    45 x    65 x     8              4867200       0.0%    100.0%      0.0%     
 flops    55 x    55 x     8              5033600       0.0%    100.0%      0.0%     
 flops     8 x    45 x    61              5050800       0.0%    100.0%      0.0%     
 flops     8 x    61 x    45              5050800       0.0%    100.0%      0.0%     
 flops     8 x    64 x    45              5299200       0.0%    100.0%      0.0%     
 flops     8 x    65 x    45              5382000       0.0%    100.0%      0.0%     
 flops     8 x    55 x    55              5566000       0.0%    100.0%      0.0%     
 flops    61 x    55 x     8              5582720       0.0%    100.0%      0.0%     
 flops    55 x    61 x     8              5636400       0.0%    100.0%      0.0%     
 flops    55 x    64 x     8              5857280       0.0%    100.0%      0.0%     
 flops    55 x    65 x     8              5948800       0.0%    100.0%      0.0%     
 flops     8 x    61 x    55              6173200       0.0%    100.0%      0.0%     
 flops     8 x    55 x    61              6173200       0.0%    100.0%      0.0%     
 flops    61 x    61 x     8              6251280       0.0%    100.0%      0.0%     
 flops     8 x    64 x    55              6476800       0.0%    100.0%      0.0%     
 flops    61 x    64 x     8              6496256       0.0%    100.0%      0.0%     
 flops     8 x    65 x    55              6578000       0.0%    100.0%      0.0%     
 flops    61 x    65 x     8              6597760       0.0%    100.0%      0.0%     
 flops     8 x    61 x    61              6846640       0.0%    100.0%      0.0%     
 flops     8 x    64 x    61              7183360       0.0%    100.0%      0.0%     
 flops     8 x    65 x    61              7295600       0.0%    100.0%      0.0%     
 flops    29 x    16 x    29              7400800       0.0%    100.0%      0.0%     
 flops     8 x    29 x     8             17490944       0.0%    100.0%      0.0%     
 flops     8 x     8 x    29             44443776       0.0%    100.0%      0.0%     
 flops    29 x    29 x     8             63175920       0.0%    100.0%      0.0%     
 flops     8 x    45 x    32             86929920       0.0%    100.0%      0.0%     
 flops    32 x    45 x     8             87736320       0.0%    100.0%      0.0%     
 flops    32 x     8 x    45             91929600       0.0%    100.0%      0.0%     
 flops     8 x    32 x    45             91929600       0.0%    100.0%      0.0%     
 flops    45 x    45 x    32             95256000       0.0%    100.0%      0.0%     
 flops    32 x    45 x    45            104328000       0.0%    100.0%      0.0%     
 flops     8 x    55 x    32            105515520       0.0%    100.0%      0.0%     
 flops    32 x    55 x     8            107008000       0.0%    100.0%      0.0%     
 flops    32 x     8 x    55            112358400       0.0%    100.0%      0.0%     
 flops     8 x    32 x    55            112358400       0.0%    100.0%      0.0%     
 flops    45 x    55 x    32            116424000       0.0%    100.0%      0.0%     
 flops    55 x    45 x    32            116424000       0.0%    100.0%      0.0%     
 flops     8 x    61 x    32            117120000       0.0%    100.0%      0.0%     
 flops    32 x    61 x     8            118806528       0.0%    100.0%      0.0%     
 flops    32 x     8 x    61            120243200       0.0%    100.0%      0.0%     
 flops     8 x    32 x    61            120243200       0.0%    100.0%      0.0%     
 flops    32 x    45 x    55            121968000       0.0%    100.0%      0.0%     
 flops    32 x    55 x    45            121968000       0.0%    100.0%      0.0%     
 flops     8 x    64 x    32            122912768       0.0%    100.0%      0.0%     
 flops    32 x    64 x     8            124551168       0.0%    100.0%      0.0%     
 flops     8 x    65 x    32            124800000       0.0%    100.0%      0.0%     
 flops    32 x    65 x     8            126530560       0.0%    100.0%      0.0%     
 flops    45 x    61 x    32            129124800       0.0%    100.0%      0.0%     
 flops    61 x    45 x    32            129124800       0.0%    100.0%      0.0%     
 flops    45 x    64 x    32            135475200       0.0%    100.0%      0.0%     
 flops    45 x    65 x    32            137592000       0.0%    100.0%      0.0%     
 flops    32 x    45 x    61            141422400       0.0%    100.0%      0.0%     
 flops    32 x    61 x    45            141422400       0.0%    100.0%      0.0%     
 flops    55 x    55 x    32            142296000       0.0%    100.0%      0.0%     
 flops    32 x    64 x    45            148377600       0.0%    100.0%      0.0%     
 flops    32 x    65 x    45            150696000       0.0%    100.0%      0.0%     
 flops    32 x    55 x    55            155848000       0.0%    100.0%      0.0%     
 flops    61 x    55 x    32            157819200       0.0%    100.0%      0.0%     
 flops    55 x    61 x    32            157819200       0.0%    100.0%      0.0%     
 flops     8 x    29 x    29            163019440       0.0%    100.0%      0.0%     
 flops    55 x    64 x    32            165580800       0.0%    100.0%      0.0%     
 flops    55 x    65 x    32            168168000       0.0%    100.0%      0.0%     
 flops    32 x    61 x    55            172849600       0.0%    100.0%      0.0%     
 flops    32 x    55 x    61            172849600       0.0%    100.0%      0.0%     
 flops    61 x    61 x    32            175035840       0.0%    100.0%      0.0%     
 flops    32 x    64 x    55            181350400       0.0%    100.0%      0.0%     
 flops    61 x    64 x    32            183644160       0.0%    100.0%      0.0%     
 flops    32 x    65 x    55            184184000       0.0%    100.0%      0.0%     
 flops    61 x    65 x    32            186513600       0.0%    100.0%      0.0%     
 flops    32 x    61 x    61            191705920       0.0%    100.0%      0.0%     
 flops    32 x    64 x    61            201134080       0.0%    100.0%      0.0%     
 flops    32 x    65 x    61            204276800       0.0%    100.0%      0.0%     
 flops    32 x    29 x     8            494839296       0.0%    100.0%      0.0%     
 flops     8 x    29 x    32            500496384       0.0%    100.0%      0.0%     
 flops     8 x    32 x    29           1250350080       0.0%    100.0%      0.0%     
 flops    32 x     8 x    29           1251983360       0.0%    100.0%      0.0%     
 flops    29 x    29 x    32           1793415680       0.0%    100.0%      0.0%     
 flops    32 x    45 x    32           2461317120       0.0%    100.0%      0.0%     
 flops    32 x    32 x    45           2574028800       0.0%    100.0%      0.0%     
 flops    32 x    55 x    32           2996899840       0.0%    100.0%      0.0%     
 flops    32 x    32 x    55           3146035200       0.0%    100.0%      0.0%     
 flops    32 x    61 x    32           3323084800       0.0%    100.0%      0.0%     
 flops    32 x    32 x    61           3366809600       0.0%    100.0%      0.0%     
 flops    32 x    64 x    32           3487563776       0.0%    100.0%      0.0%     
 flops    32 x    65 x    32           3543521280       0.0%    100.0%      0.0%     
 flops    32 x    29 x    29           4564544320       0.0%    100.0%      0.0%     
 flops    32 x    29 x    32          14099066880       0.0%    100.0%      0.0%     
 flops    32 x    32 x    29          35148779520       0.0%    100.0%      0.0%     
 flops inhomo. stacks                 13616270720     100.0%      0.0%      0.0%
 flops total                       104.473391E+09      13.0%     87.0%      0.0%
 flops max/rank                     21.459291E+09      13.0%     87.0%      0.0%
 matmuls inhomo. stacks                     87992     100.0%      0.0%      0.0%
 matmuls total                            1612845       5.5%     94.5%      0.0%
 number of processed stacks                154345       3.6%     96.4%      0.0%
 average stack size                                    15.9      10.2       0.0
 marketing flops                   139.418190E+09
 -------------------------------------------------------------------------------
 # multiplications                            519
 max memory usage/rank              16.891068E+09
 # max total images/rank                        5
 # max 3D layers                                1
 # MPI messages exchanged                   10380
 MPI messages size (bytes):
  total size                         5.544738E+09
  min size                           0.000000E+00
  max size                           2.152960E+06
  average size                     534.175188E+03
 MPI breakdown and total messages size (bytes):
             size <=      128                1256                        0
       128 < size <=     8192                 148                   536064
      8192 < size <=    32768                  56                  1128448
     32768 < size <=   131072                 220                  7400800
    131072 < size <=  4194304                8700               5535703296
   4194304 < size <= 16777216                   0                        0
  16777216 < size                               0                        0
 -------------------------------------------------------------------------------

 *** WARNING in dbcsr_mm.F:301 :: Using a non-square number of MPI ranks ***
 *** might lead to poor performance. Used ranks: 5 Suggested: 4 9        ***

 -------------------------------------------------------------------------------
 -                                                                             -
 -                      DBCSR MESSAGE PASSING PERFORMANCE                      -
 -                                                                             -
 -------------------------------------------------------------------------------
 ROUTINE             CALLS      AVE VOLUME [Bytes]
 MP_Bcast              110                     12.
 MP_Allreduce         2408                     32.
 MP_Alltoall          3427                  19796.
 MP_ISend             8054                 147650.
 MP_IRecv             7974                 151658.
 -------------------------------------------------------------------------------

 -------------------------------------------------------------------------------
 -                                                                             -
 -                                GRID STATISTICS                              -
 -                                                                             -
 -------------------------------------------------------------------------------
 LP    KERNEL             BACKEND                              COUNT     PERCENT
 6     collocate ortho    CPU                                    246      49.50%
 6     integrate ortho    CPU                                    246      49.50%
 0     collocate general  CPU                                      5       1.01%
 -------------------------------------------------------------------------------

 -------------------------------------------------------------------------------
 -                                                                             -
 -                          OFFLOAD MEMPOOL STATISTICS                         -
 -                                                                             -
 -------------------------------------------------------------------------------
 Memory consumption                Number of allocations  Used [MiB]  Size [MiB]
 Host                                                  6         132    22118050
 -------------------------------------------------------------------------------

 MEMORY| Estimated peak process memory [MiB]                                3285

 -------------------------------------------------------------------------------
 -                                                                             -
 -                         MESSAGE PASSING PERFORMANCE                         -
 -                                                                             -
 -------------------------------------------------------------------------------

 ROUTINE             CALLS      AVE VOLUME [Bytes]
 MP_Group                5
 MP_Bcast              408                 297692.
 MP_Allreduce          759                  10624.
 MP_Sync                10
 MP_Alltoall            63              156714012.
 MP_SendRecv            36                3758933.
 MP_ISendRecv           36                3758933.
 MP_Wait                99
 MP_comm_split          10
 MP_ISend               49               11725714.
 MP_IRecv               49               11725714.
 -------------------------------------------------------------------------------


 -------------------------------------------------------------------------------
 -                                                                             -
 -                           R E F E R E N C E S                               -
 -                                                                             -
 -------------------------------------------------------------------------------
 
 CP2K version 2026.2 (Development Version), the CP2K developers group (2026).
 CP2K is freely available from https://www.cp2k.org/ .
 
 M. Iannuzzi, J. Wilhelm, F. Stein, A. Bussy, H. Elgabarty, D. Golze, A. Hehn, 
 M. Graml, S. Marek, B. Sertcan Gökmen, C. Schran, H. Forbert, R. Z. 
 Khaliullin, A. Kozhevnikov, M. Taillefumier, R. Meli, V. V. Rybkin, M. Brehm, 
 R. Schade, O. Schütt, J. V. Pototschnig, H. Mirhosseini, A. Knüpfer, D. Marx, 
 M. Krack, J. Hutter, T. D. Kühne.
 J. Phys. Chem. B 130, 1237-1310 (2026).
 The CP2K Program Package Made Simple.
 https://doi.org/10.1021/acs.jpcb.5c05851

 M. Graml, K. Zollner, D. Hernangómez-Pérez, P. E. Faria Junior, J. Wilhelm.
 J. Chem. Theory Comput. 20, 2202-2208 (2024).
 Low-scaling GW algorithm applied to twisted transition-metal dichalcogenide 
 heterobilayers.
 https://doi.org/10.1021/acs.jctc.3c01230

 T. D. Kühne, M. Iannuzzi, M. Del Ben, V. V. Rybkin, P. Seewald, F. Stein, T. 
 Laino, R. Z. Khaliullin, O. Schütt, F. Schiffmann, D. Golze, J. Wilhelm, S. 
 Chulkov, M. H. Bani-Hashemian, V. Weber, U. Borstnik, M. Taillefumier, A. S. 
 Jakobovits, A. Lazzaro, H. Pabst, T. Müller, R. Schade, M. Guidon, S. 
 Andermatt, N. Holmberg, G. K. Schenter, A. Hehn, A. Bussy, F. Belleflamme, G. 
 Tabacchi, A. Glöß, M. Lass, I. Bethune, C. J. Mundy, C. Plessl, M. Watkins, 
 J. VandeVondele, M. Krack, J. Hutter.
 J. Chem. Phys. 152, 194103 (2020).
 CP2K: An electronic structure and molecular dynamics software package - 
 Quickstep: Efficient and accurate electronic structure calculations.
 https://doi.org/10.1063/5.0007045

 O. Schuett, P. Messmer, J. Hutter, J. VandeVondele.
 Electronic Structure Calculations on Graphics Processing Units, 173-190 (2016).
 GPU-Accelerated Sparse Matrix-Matrix Multiplication for Linear Scaling Density 
 Functional Theory.
 https://doi.org/10.1002/9781118670712.ch8

 U. Borstnik, J. VandeVondele, V. Weber, J. Hutter.
 Parallel Comput. 40, 47-58 (2014).
 Sparse matrix multiplication: The distributed block-compressed sparse row 
 library.
 https://doi.org/10.1016/j.parco.2014.03.012

 J. VandeVondele, J. Hutter.
 J. Chem. Phys. 127, 114105 (2007).
 Gaussian basis sets for accurate calculations on molecular systems in gas and 
 condensed phases.
 https://doi.org/10.1063/1.2770708

 J. VandeVondele, M. Krack, F. Mohamed, M. Parrinello, T. Chassaing, J. Hutter.
 Comput. Phys. Commun. 167, 103-128 (2005).
 QUICKSTEP: Fast and accurate density functional calculations using a mixed 
 Gaussian and plane waves approach.
 https://doi.org/10.1016/j.cpc.2004.12.014

 M. Krack.
 Theor. Chem. Acc. 114, 145-152 (2005).
 Pseudopotentials for H to Kr optimized for gradient-corrected 
 exchange-correlation functionals.
 https://doi.org/10.1007/s00214-005-0655-y

 M. Frigo, S. G. Johnson.
 Proc. IEEE 93, 216-231 (2005).
 The design and implementation of FFTW3.
 https://doi.org/10.1109/JPROC.2004.840301

 J. VandeVondele, J. Hutter.
 J. Chem. Phys. 118, 4365-4369 (2003).
 An efficient orbital transformation method for electronic structure 
 calculations.
 https://doi.org/10.1063/1.1543154

 C. Hartwigsen, S. Goedecker, J. Hutter.
 Phys. Rev. B 58, 3641-3662 (1998).
 Relativistic separable dual-space Gaussian pseudopotentials from H to Rn.
 https://doi.org/10.1103/PhysRevB.58.3641

 G. Lippert, J. Hutter, M. Parrinello.
 Mol. Phys. 92, 477-487 (1997).
 A hybrid Gaussian and plane wave density functional scheme.
 https://doi.org/10.1080/002689797170220

 S. Goedecker, M. Teter, J. Hutter.
 Phys. Rev. B 54, 1703-1710 (1996).
 Separable dual-space Gaussian pseudopotentials.
 https://doi.org/10.1103/PhysRevB.54.1703

 J. P. Perdew, K. Burke, M. Ernzerhof.
 Phys. Rev. Lett. 77, 3865-3868 (1996).
 Generalized gradient approximation made simple.
 https://doi.org/10.1103/PhysRevLett.77.3865

 P. E. Blöchl.
 J. Chem. Phys. 103, 7422-7428 (1995).
 Electrostatic decoupling of periodic images of plane‐wave‐expanded 
 densities and derived atomic point charges.
 https://doi.org/10.1063/1.470314

 R. H. Byrd, P. H. Lu, J. Nocedal, C. Y. Zhu.
 SIAM J. Sci. Comput. 16, 1190-1208 (1995).
 A Limited Memory Algorithm for Bound Constrained Optimization.
 https://doi.org/10.1137/0916069


 -------------------------------------------------------------------------------
 -                                                                             -
 -                                T I M I N G                                  -
 -                                                                             -
 -------------------------------------------------------------------------------
 SUBROUTINE                       CALLS  ASD         SELF TIME        TOTAL TIME MAXRANK
                                MAXIMUM       AVERAGE  MAXIMUM  AVERAGE  MAXIMUM
 CP2K                                 1  1.0    0.007    0.018   66.563   66.563       0
 qs_energies                          1  2.0    0.000    0.000   65.263   65.263       1
 qs_energies_properties               1  3.0    0.000    0.000   58.786   58.786       0
 post_scf_bandstructure               1  4.0    0.000    0.000   58.786   58.786       4
 run_gw                               1  5.0    0.000    0.000   58.754   58.765       2
 gw_calc_ri_rs_non_periodic           1  6.0    0.000    0.000   55.953   56.107       3
 optimize_ri_rs_grid                  1  7.0    0.000    0.000   54.390   54.545       0
 rirs_grid_LBFGS                      1  8.0    0.736    0.772   51.276   51.282       3
 evaluate_rirs_grid_cluster          78  9.0    3.609    3.964   49.708   50.421       3
 rirs_cluster_gradient_products      78 10.0   14.748   15.205   14.748   15.205       0
 rirs_cluster_gradient_coordina      78 10.0   12.168   12.717   12.168   12.717       4
 rirs_cluster_D_ll                   78 10.0    7.101    7.419    7.101    7.419       3
 scf_env_do_scf                       1  3.0    0.000    0.000    5.480    5.480       0
 qs_ks_build_kohn_sham_matrix         3  7.3    0.001    0.001    4.734    4.734       3
 rirs_cluster_residual               78 10.0    4.471    4.676    4.471    4.676       3
 rirs_cluster_AO_products            78 10.0    4.190    4.359    4.190    4.359       2
 fft_wrap_pw1pw2                     45 10.1    0.001    0.002    4.090    4.189       3
 qs_ks_update_qs_env                  3  5.0    0.000    0.000    4.109    4.109       4
 rebuild_ks_matrix                    2  6.0    0.000    0.000    4.109    4.109       3
 fft_wrap_pw1pw2_300                 27 11.4    0.228    0.298    3.885    4.009       3
 rirs_cluster_d_lP                   78 10.0    3.422    3.483    3.422    3.483       4
 scf_env_do_scf_inner_loop            2  4.0    0.000    0.000    3.406    3.406       0
 fft3d_ps                            45 12.1    1.707    1.908    2.922    3.244       2
 create_and_init_bs_env_for_gw        1  6.0    0.005    0.005    2.802    3.066       1
 qs_vxc_create                        3  8.3    0.000    0.000    2.822    2.876       3
 xc_vxc_pw_create                     2  9.0    0.059    0.065    2.822    2.876       2
 mp_sum_d                           553  2.9    0.898    2.716    0.898    2.716       4
 rirs_grid_build_clusters             1  8.0    1.409    1.413    2.524    2.529       0
 xc_pw_derive                        12 11.0    0.000    0.000    2.087    2.229       3
 init_scf_loop                        1  4.0    0.000    0.000    2.074    2.074       3
 qs_rho_update_rho_low                3  5.0    0.000    0.000    2.058    2.058       2
 calculate_rho_elec                   3  6.0    0.060    0.060    2.058    2.058       3
 mp_alltoall_z22v                    45 14.1    0.796    1.925    0.796    1.925       4
 generate_auto_ri_basis               1  7.0    0.000    0.000    1.769    1.769       3
 xc_pw_divergence                     2 10.0    0.000    0.000    1.399    1.499       3
 xc_rho_set_and_dset_create           2 10.0    0.048    0.069    1.327    1.433       2
 abc_contract_xsmm                 3555  9.2    1.325    1.340    1.325    1.340       0
 density_rs2pw                        3  7.0    0.000    0.000    1.189    1.207       3
 yz_to_x                             22 12.5    0.193    0.229    0.627    1.156       3
 x_to_yz                             23 13.8    0.224    0.257    0.586    1.051       3
 qs_init_subsys                       1  2.0    0.001    0.001    1.029    1.030       0
 qs_env_setup                         1  3.0    0.000    0.000    1.027    1.029       4
 qs_env_rebuild_pw_env                2  3.5    0.000    0.000    1.027    1.028       3
 pw_env_rebuild                       1  5.0    0.000    0.000    1.027    1.028       0
 pw_grid_setup                        5  5.2    0.000    0.000    1.020    1.022       2
 pw_grid_setup_internal               5  6.2    0.017    0.017    1.020    1.022       3
 compute_AB_optimized_RI_basis        1  8.0    0.000    0.000    0.967    0.967       1
 compute_AB_optimized_RI_basis_       1  9.0    0.000    0.000    0.965    0.966       4
 compute_B_PQ_AB                      2 10.0    0.195    0.202    0.916    0.929       1
 dbcsr_multiply_generic             519  9.6    0.013    0.013    0.903    0.913       3
 pw_grid_sort                         5  7.2    0.602    0.610    0.881    0.891       0
 sum_up_and_integrate                 3  8.3    0.000    0.000    0.794    0.820       2
 grid_collocate_task_list             3  7.0    0.785    0.818    0.785    0.818       0
 integrate_v_rspace                   3  9.3    0.000    0.000    0.778    0.809       3
 potential_pw2rs                      3 10.3    0.003    0.004    0.760    0.793       3
 initialize_ri_rs_grid                1  8.0    0.328    0.356    0.590    0.744       0
 init_scf_run                         1  3.0    0.000    0.000    0.739    0.740       4
 scf_env_initial_rho_setup            1  4.0    0.000    0.000    0.739    0.739       0
 mp_bcast_dm                         19  9.4    0.522    0.739    0.522    0.739       4
 compute_Sigma_c_and_QP_energie       1  7.0    0.000    0.000    0.702    0.713       3
 compute_Sigma_c                      1  8.0    0.000    0.001    0.675    0.675       0
 setup_time_and_frequency_minim       1  7.0    0.000    0.000    0.372    0.637       0
 build_minimax_time_frequency_g       1  8.0    0.000    0.000    0.372    0.637       3
 fit_l_sq_weights                     3  9.0    0.372    0.637    0.372    0.637       3
 compute_V_xc                         1  7.0    0.000    0.000    0.626    0.626       4
 contract_grid_panels_sigma_c        30  9.0    0.001    0.001    0.620    0.620       3
 qs_ks_ddapc                          3  8.3    0.000    0.000    0.566    0.581       3
 contract_B_PQ                       10 11.8    0.520    0.524    0.562    0.566       0
 multiply_cannon                    519 10.6    0.023    0.025    0.502    0.530       3
 pw_poisson_solve                     3  8.3    0.000    0.000    0.481    0.501       2
 compute_AA_optimized_RI_basis        1  8.0    0.000    0.000    0.455    0.455       3
 multiply_cannon_loop               519 11.6    0.016    0.019    0.411    0.430       3
 pw_derive                           21 11.3    0.376    0.407    0.376    0.407       3
 get_mat_chi_Gamma_tau                1  7.0    0.000    0.001    0.396    0.396       0
 pw_scatter_p                        23 12.8    0.363    0.393    0.363    0.393       1
 contract_grid_panels                31  8.0    0.001    0.001    0.380    0.381       3
 pw_gather_p                         22 11.5    0.337    0.354    0.337    0.354       3
 compute_M_pq_inv_and_V_pq            1  8.0    0.000    0.000    0.348    0.348       0
 pw_copy                             44 10.5    0.330    0.346    0.330    0.346       0
 compute_contracted_RI_matrix         2  9.0    0.000    0.000    0.331    0.331       0
 compute_optimized_RI_matrix_bl       6 10.0    0.028    0.035    0.280    0.330       3
 initialize_auto_ri_integrals         2  9.0    0.065    0.324    0.324    0.324       0
 compute_M_PQ_AB                    158 11.0    0.000    0.000    0.267    0.310       1
 compute_M_PQ                       158 12.0    0.000    0.000    0.267    0.310       3
 int_operators_r12_ab_os            158 13.0    0.000    0.000    0.266    0.310       3
 int_operator_ab_os_low             158 14.0    0.104    0.120    0.266    0.309       3
 transfer_rs2pw                      13  7.8    0.000    0.000    0.255    0.303       3
 pw_poisson_set                       4  8.5    0.000    0.000    0.266    0.287       3
 make_m2s                          1038 10.6    0.007    0.007    0.261    0.285       3
 compute_B_PQ_transition              5 10.8    0.000    0.000    0.283    0.284       2
 sort_shells                          5  8.2    0.279    0.282    0.279    0.282       4
 compute_B_PQ_exchange                5 10.8    0.000    0.000    0.279    0.282       3
 xc_functional_eval                   2 11.0    0.000    0.000    0.196    0.279       3
 pbe_lda_eval                         2 12.0    0.196    0.279    0.196    0.279       2
 qs_energies_init_hamiltonians        1  3.0    0.000    0.000    0.257    0.257       4
 make_images                       1038 11.6    0.052    0.057    0.234    0.254       3
 qs_env_update_s_mstruct              1  4.0    0.000    0.000    0.253    0.253       0
 mp_waitall_1                     20810 13.9    0.187    0.252    0.187    0.252       4
 create_qs_kind_set                   1  2.0    0.000    0.000    0.239    0.242       4
 read_qs_kind                         2  3.0    0.101    0.124    0.239    0.242       0
 transfer_rs2pw_300                   4  8.5    0.090    0.096    0.190    0.239       0
 multiply_cannon_multrec           2595 12.6    0.222    0.230    0.225    0.233       2
 fft_wrap_pw1pw2_100                  6 10.7    0.011    0.016    0.169    0.233       3
 calculate_rho_core                   1  5.0    0.021    0.022    0.225    0.230       2
 pw_integral_ab_c1d_c1d_gs            6  9.8    0.202    0.208    0.212    0.229       1
 compute_W                            1  7.0    0.000    0.000    0.228    0.228       0
 transfer_pw2rs                      12 11.3    0.000    0.000    0.225    0.225       2
 compute_Z_lP                         1  7.0    0.000    0.000    0.215    0.216       1
 compute_Z_lP_auto_ri                 1  8.0    0.000    0.000    0.215    0.216       0
 compute_d_lp_auto_ri_batch           1  9.0    0.000    0.000    0.168    0.194       0
 compute_d_lp_auto_ri_atom            1 10.0    0.037    0.041    0.167    0.193       0
 cp_ddapc_apply_CD                    3  9.3    0.000    0.000    0.151    0.191       0
 mp_waitany                          49 11.1    0.143    0.184    0.143    0.184       4
 pw_axpy                             35  7.3    0.149    0.165    0.149    0.165       0
 cp_fm_gemm                         434 10.5    0.161    0.164    0.161    0.164       0
 parallel_gemm_fm_gemm              431  9.6    0.000    0.000    0.161    0.163       3
 transfer_pw2rs_300                   3 12.3    0.077    0.083    0.158    0.161       1
 pw_copy_to_array                    22 11.5    0.139    0.147    0.139    0.147       3
 multiply_cannon_metrocomm3        2595 12.6    0.004    0.004    0.115    0.146       3
 parser_read_line                 53972  4.0    0.009    0.010    0.138    0.146       4
 copy_dbcsr_to_fm                   104  9.5    0.001    0.001    0.084    0.146       3
 compute_fm_W_freq                   30  8.0    0.000    0.000    0.138    0.138       2
 parser_read_line_low                58  5.0    0.015    0.063    0.128    0.137       0
 broadcast_input_information         58  6.0    0.018    0.023    0.113    0.134       3
 mp_alltoall_i22                    371 11.4    0.059    0.123    0.059    0.123       0
 dbcsr_desymmetrize_deep            104 10.5    0.002    0.002    0.059    0.122       3
 operator2                        98750 15.0    0.098    0.113    0.098    0.113       1
 make_images_data                  1038 12.6    0.007    0.007    0.094    0.112       3
 mp_sum_dm                           24 10.6    0.044    0.107    0.044    0.107       4
 pw_copy_from_array                  23 12.8    0.087    0.102    0.087    0.102       0
 dbcsr_finalize                    2092 10.8    0.012    0.013    0.091    0.100       3
 hybrid_alltoall_any               1142 13.4    0.052    0.071    0.078    0.098       3
 pw_grid_assign                       5  7.2    0.080    0.094    0.093    0.094       2
 mp_sum_l                          1774 10.5    0.062    0.084    0.062    0.084       0
 get_ddapc                            3 10.3    0.000    0.000    0.044    0.084       3
 compute_B_PQ_AA                      5  9.0    0.000    0.000    0.068    0.083       2
 build_3c_integral_block_auto_r      30 11.0    0.067    0.079    0.067    0.079       0
 mp_bcast_i_src                     237  7.0    0.044    0.078    0.044    0.078       1
 ab_contract                     100000 14.9    0.066    0.077    0.066    0.077       3
 mp_bcast_am_src                     58  7.0    0.050    0.076    0.050    0.076       4
 build_3c_integral_block_auto_r      30 11.0    0.000    0.000    0.063    0.074       0
 mp_sum_root_rm                       5 10.0    0.057    0.072    0.057    0.072       4
 -------------------------------------------------------------------------------

 The number of warnings for this run is : 1
 
 -------------------------------------------------------------------------------
  **** **** ******  **  PROGRAM ENDED AT                 2026-10-03 19:10:07.158
 ***** ** ***  *** **   PROGRAM RAN ON                                  n2cn1112
 **    ****   ******    PROGRAM RAN BY                                  eprop2d1
 ***** **    ** ** **   PROGRAM PROCESS ID                               1942523
  **** **  *******  **  PROGRAM STOPPED IN /scratch/hpc-prf-metdyn/eprop2d1_Jan/
                                           53_benchmark_RI_opt/418_gw100_fig5_fu
                                           ll_epsfilter_1e12_20261002/calculatio
                                           ns/rc5p0/ri2_rs08/36_CCl4
