 DBCSR| CPU Multiplication driver                                           XSMM (U)
 DBCSR| Multrec recursion limit                                              512 (U)
 DBCSR| Multiplication stack size                                           1000 (D)
 DBCSR| Maximum elements for images                                    UNLIMITED (U)
 DBCSR| Multiplicative factor virtual images                                   1 (U)
 DBCSR| Use multiplication densification                                       T (D)
 DBCSR| Multiplication size stacks                                             3 (U)
 DBCSR| Use memory pool for CPU allocation                                     F (U)
 DBCSR| Number of 3D layers                                               SINGLE (U)
 DBCSR| Use MPI memory allocation                                              F (U)
 DBCSR| Use RMA algorithm                                                      F (U)
 DBCSR| Use Communication thread                                               T (U)
 DBCSR| Communication thread load                                             57 (D)
 DBCSR| MPI: My process id                                                    12
 DBCSR| MPI: Number of processes                                              25
 DBCSR| OMP: Current number of threads                                         9
 DBCSR| OMP: Max number of threads                                             9
 DBCSR| Split modifier for TAS multiplication algorithm                  1.0E+00 (U)


  **** **** ******  **  PROGRAM STARTED AT               2026-10-03 11:22:11.808
 ***** ** ***  *** **   PROGRAM STARTED ON                              n2cn1051
 **    ****   ******    PROGRAM STARTED BY                              eprop2d1
 ***** **    ** ** **   PROGRAM PROCESS ID                               1419945
  **** **  *******  **  PROGRAM STARTED IN /scratch/hpc-prf-metdyn/eprop2d1_Jan/
                                           53_benchmark_RI_opt/418_gw100_fig5_fu
                                           ll_epsfilter_1e12_20261002/calculatio
                                           ns/rc0p5/ri3_rs02/88_C6F6

 CP2K| version string:                 CP2K version 2026.2 (Development Version)
 CP2K| source code revision number:                                   0671c5aa6c
 CP2K| cp2kflags: omp libint fftw3 libxc parallel scalapack openblas            
 CP2K| is freely available from                            https://www.cp2k.org/
 CP2K| Program compiled at                                   2026-09-20 09:25:26
 CP2K| Program compiled on                                              n2login5
 CP2K| Program compiled for                                               x86_64
 CP2K| Data directory path    /scratch/hpc-prf-metdyn/eprop2d1_Jan/53_benchmark_
 CP2K| Input file name                                                 input.inp
 
 eprop2d1@n2cn1051 has created rank and process                      0   1419945
 eprop2d1@n2cn1054 has created rank and process                      1   1308567
 eprop2d1@n2cn1054 has created rank and process                      2   1308568
 eprop2d1@n2cn1054 has created rank and process                      3   1308569
 eprop2d1@n2cn1054 has created rank and process                      4   1308570
 eprop2d1@n2cn1054 has created rank and process                      5   1308571
 eprop2d1@n2cn1054 has created rank and process                      6   1308572
 eprop2d1@n2cn1054 has created rank and process                      7   1308575
 eprop2d1@n2cn1054 has created rank and process                      8   1308578
 eprop2d1@n2cn1054 has created rank and process                      9   1308574
 eprop2d1@n2cn1054 has created rank and process                     10   1308577
 eprop2d1@n2cn1054 has created rank and process                     11   1308576
 eprop2d1@n2cn1054 has created rank and process                     12   1308573
 
 eprop2d1@n2cn1051 is running                                        1 processes
 eprop2d1@n2cn1054 is running                                       12 processes

 GLOBAL| Force Environment number                                              1
 GLOBAL| Basis set file name            /scratch/hpc-prf-metdyn/eprop2d1_Jan/53_
 GLOBAL| Potential file name            /scratch/hpc-prf-metdyn/eprop2d1_Jan/53_
 GLOBAL| MM Potential file name                                     MM_POTENTIAL
 GLOBAL| Coordinate file name                                      __STD_INPUT__
 GLOBAL| Method name                                                        CP2K
 GLOBAL| Project name                                             g418_a302_m088
 GLOBAL| Run type                                                         ENERGY
 GLOBAL| FFT library                                                       FFTW3
 GLOBAL| Diagonalization library                                       ScaLAPACK
 GLOBAL| Cholesky decomposition library                                ScaLAPACK
 GLOBAL| DGEMM library                                                      BLAS
 GLOBAL| Direct generalized diagonalization requested                          F
 GLOBAL| Orthonormality check for eigenvectors                          DISABLED
 GLOBAL| Matrix multiplication library                                 ScaLAPACK
 GLOBAL| All-to-all communication in single precision                          F
 GLOBAL| Grid backend                                                       AUTO
 GLOBAL| Global print level                                                  LOW
 GLOBAL| MPI I/O enabled                                                       T
 GLOBAL| Total number of message passing processes                            13
 GLOBAL| Number of distributed systems (nodes)                                 2
 GLOBAL| Number of threads for this process                                    9
 GLOBAL| This output is from process                                           0
 GLOBAL| OpenMP stack size per thread (OMP_STACKSIZE)                       512M
 GLOBAL| CPU model name                          AMD EPYC 7763 64-Core Processor

 MEMORY| system memory details [Kb]
 MEMORY|                        rank 0           min           max       average
 MEMORY| MemTotal            263897568     263897568     263897568     263897568
 MEMORY| MemFree             182809096     182809096     235656192     231591030
 MEMORY| Buffers                257380        257380        348044        341069
 MEMORY| Cached                8902276       8902276      12187580      11934864
 MEMORY| Slab                  3845876       1737916       3845876       1900066
 MEMORY| SReclaimable          1459080        375676       1459080        459014
 MEMORY| MemLikelyFree       193427832     193427832     248567492     244325979


 GENERATE|  Preliminary Number of Bonds generated:                             0
 GENERATE|  Achieved consistency in connectivity generation.

 *******************************************************************************
 *******************************************************************************
 **                                                                           **
 **     #####                         ##              ##                      **
 **    ##   ##            ##          ##              ##                      **
 **   ##     ##                       ##            ######                    **
 **   ##     ##  ##   ##  ##   #####  ##  ##   ####   ##    #####    #####    **
 **   ##     ##  ##   ##  ##  ##      ## ##   ##      ##   ##   ##  ##   ##   **
 **   ##  ## ##  ##   ##  ##  ##      ####     ###    ##   ######   ######    **
 **    ##  ###   ##   ##  ##  ##      ## ##      ##   ##   ##       ##        **
 **     #######   #####   ##   #####  ##  ##  ####    ##    #####   ##        **
 **           ##                                                    ##        **
 **                                                                           **
 **                                                ... make the atoms dance   **
 **                                                                           **
 **            Copyright (C) by CP2K developers group (2000-2026)             **
 **                      J. Chem. Phys. 152, 194103 (2020)                    **
 **                                                                           **
 *******************************************************************************


 TOTAL NUMBERS AND MAXIMUM NUMBERS

  Total number of            - Atomic kinds:                                   2
                             - Atoms:                                         12
                             - Shell sets:                                    12
                             - Shells:                                       108
                             - Primitive Cartesian functions:                 84
                             - Cartesian basis functions:                    408
                             - Spherical basis functions:                    348

  Maximum angular momentum of- Orbital basis functions:                        3
                             - Local part of the GTH pseudopotential:          2
                             - Non-local part of the GTH pseudopotential:      0


 SCF PARAMETERS         Density guess:                                   RESTART
                        --------------------------------------------------------
                        max_scf:                                             500
                        max_scf_history:                                       0
                        max_diis:                                              4
                        --------------------------------------------------------
                        eps_scf:                                        1.00E-08
                        eps_scf_history:                                0.00E+00
                        eps_diis:                                       0.00E+00
                        eps_eigval:                                     1.00E-05
                        --------------------------------------------------------
                        level_shift [a.u.]:                             0.000000
                        --------------------------------------------------------
                        Outer loop SCF in use 
                        No variables optimised in outer loop
                        eps_scf                                         1.00E-08
                        max_scf                                               20
                        No outer loop optimization
                        step_size                                       5.00E-01

 Extrapolation method: initial_guess

 Number of electrons:                                                         66
 Number of occupied orbitals:                                                 33
 Number of molecular orbitals:                                                33

 Number of orbital functions:                                                348
 Number of independent orbital functions:                                    348


 SCF WAVEFUNCTION OPTIMIZATION

  ----------------------------------- OT ---------------------------------------
  Minimizer      : DIIS                : direct inversion
                                         in the iterative subspace
                                         using   7 DIIS vectors
                                         safer DIIS on
  Preconditioner : FULL_KINETIC        : inversion of T + eS
  Lattice FFT   : OFF
  Precond_solver : DEFAULT
  stepsize       :    0.15000000                  energy_gap     :    0.20000000
  eps_taylor     :   0.10000E-15                  max_taylor     :             4
  ----------------------------------- OT ---------------------------------------

  Step     Update method      Time    Convergence         Total energy    Change
  ------------------------------------------------------------------------------
  Decoupling Energy:                                              -0.0000018622
     1 OT DIIS     0.15E+00    1.7     8.6998E-09      -179.5414528866 -1.80E+02

  *** SCF run converged in     1 steps ***


  Electronic density on regular grids:        -65.9999999999        0.0000000001
  Core density on regular grids:               66.0000000000       -0.0000000000
  Total charge density on r-space grids:        0.0000000000
  Total charge density g-space grids:           0.0000000000

  Overlap energy of the core charge distribution:               0.00000120202408
  Self energy of the core charge distribution:               -465.88464389476843
  Core Hamiltonian energy:                                    133.72738489460053
  Hartree energy:                                             190.99739112677463
  Exchange-correlation energy:                                -38.38158621523188

  Total energy:                                              -179.54145288660112

  outer SCF iter =    1 RMS gradient =   0.87E-08 energy =       -179.5414528866
  outer SCF loop converged in   1 iterations or    1 steps

  
 -------------------------------------------------------------------------------
 -                                                                             -
 -                          BANDSTRUCTURE CALCULATION                          -
 -                                                                             -
 -------------------------------------------------------------------------------
  
 Number of occupied molecular orbitals (MOs) = Number of occupied bands       33
 Number of unoccupied (= virtual) MOs = Number of unoccupied bands           315
 Number of Gaussian basis functions for MOs                                  348
  
 -------------------------------------------------------------------------------
 -                                                                             -
 -                                GW CALCULATION                               -
 -                                                                             -
 -------------------------------------------------------------------------------
  
 Input: Number of time/freq. points                                           30
 Input: ω_max for fitting Σ(iω) (eV)                                        10.0
 Input: Filter threshold for sparse tensor operations                    1.0E-12
 Input: Apply Hedin shift                                                      F
 Detected: Available memory per MPI process                              18.5 GB
 
 Input: RI-RS Tikhonov regularization                                   1.00E-04
 Input: AO grid hard cutoff radius                                        8.00 Å
 Input: MPI ranks per atom in Z_lP solve                                      -1
 Input: Keep sparsity in χ/G/W panels                                          T
 Input: GW flavour                                                          G0W0
 
 Input: RI-RS grid optimization activated                                      T
 Input: RS points per AO function                                            2.0
 Input: Cutoff radius for atomic clusters                                  0.5 Å
 Input: Maximum grid optimization iterations                                 300
 
 Input: AUTO_RI basis optimization activated:                                  T
 Input: AUTO_RI number of RI functions per AO function:                      3.0
 Input: AUTO_RI frontier orbital window:                                  5.0 eV
 Input: AUTO_RI neighbor radius:                                           3.0 Å
 
 Cutoff radius for the truncated Coulomb operator in RI metric:            7.0 Å
 Regularization parameter of RI                                          0.0E+00
 Regularization parameter of minimax grids                               1.0E-06
 
 AUTO_RI| Number of automatic RI functions for χ, ε, W:                     1044
 AUTO_RI| Total RI basis optimization time:                                3.7 s
  Decoupling Energy:                                              -0.0000018622
 
 SCF direct band gap (eV)                                                   4.43
 Max. SCF eigval diff. (eV)                                               416.03
 E-Range for minimax grid                                                  93.98
 Number of Padé parameters for analytic continuation:                         16
 
 RI-RS basis radii (Å):
     Kind  Elem     r_AO (Å)     r_RI (Å)
        1    C        15.9835       10.1279
        2    F        12.6792        8.0227
 
 Started RI-RS grid optimization
 RI-RS grid initial normalized error                          2.253606611883E-01
 RI-RS grid optimization completed, execution time:                        0.5 s
 Normalized 3C error:                                                    2.3E-03
 Maximum absolute 3C error:                                              4.7E-01
 Optimized points outside molecular Voronoi cells:                           262 / 696
 Total grid points used for RI-RS:                                           696
 
 RI-RS grid row-blocks of ϕ_μ(r_l)                                            24
 RI-RS grid points per block (max)                                            32
 
 Percentage of non-zero matrix elements in ϕ_μ(r_l)                     100.00 %
 
 RI-RS memory estimate per MPI process:
   Available memory per process (system)                                20.75 GB
   Required for Z_lP (dense upper bound; actual is sparser)              0.00 GB
   Required for χ, W, Σ panels (peak per panel step)                     0.00 GB
   Required for Z_lP solve peak (D_local+ϕ, worst-case atom)             0.01 GB
   Worst-case local-grid number of grid points:                              696
   Worst-case memory D_local:                                            0.00 GB
 
 Started computing Z_lP
 Computed Z_lP (MPI rank 0) for atom          1 /  1,    Execution time    0.7 s
 Computed Z_lP (all MPI ranks) for all atoms,            Execution time    1.0 s

 Memory per MPI process after computing Z_lP:
 Available memory per MPI process                               20.7 GB
 Used memory per MPI process                                     1.6 GB
 Number of batches for χ, Σ matrices                                           1
 
 Percentage of non-zero matrix elements in Z_lP                         100.00 %
 Percentage of non-zero matrix elements in G_ll', χ_ll', W_ll'          100.00 %
 Percentage of non-zero matrix elements in χ_PQ for time point 1        100.00 %
 
 Computed χ(iτ,k=0) for time point            1 / 30,    Execution time    0.0 s
 Computed χ(iτ,k=0) for time point            2 / 30,    Execution time    0.0 s
 Computed χ(iτ,k=0) for time point            3 / 30,    Execution time    0.0 s
 Computed χ(iτ,k=0) for time point            4 / 30,    Execution time    0.0 s
 Computed χ(iτ,k=0) for time point            5 / 30,    Execution time    0.0 s
 Computed χ(iτ,k=0) for time point            6 / 30,    Execution time    0.0 s
 Computed χ(iτ,k=0) for time point            7 / 30,    Execution time    0.0 s
 Computed χ(iτ,k=0) for time point            8 / 30,    Execution time    0.0 s
 Computed χ(iτ,k=0) for time point            9 / 30,    Execution time    0.0 s
 Computed χ(iτ,k=0) for time point           10 / 30,    Execution time    0.0 s
 Computed χ(iτ,k=0) for time point           11 / 30,    Execution time    0.0 s
 Computed χ(iτ,k=0) for time point           12 / 30,    Execution time    0.0 s
 Computed χ(iτ,k=0) for time point           13 / 30,    Execution time    0.0 s
 Computed χ(iτ,k=0) for time point           14 / 30,    Execution time    0.0 s
 Computed χ(iτ,k=0) for time point           15 / 30,    Execution time    0.0 s
 Computed χ(iτ,k=0) for time point           16 / 30,    Execution time    0.0 s
 Computed χ(iτ,k=0) for time point           17 / 30,    Execution time    0.0 s
 Computed χ(iτ,k=0) for time point           18 / 30,    Execution time    0.0 s
 Computed χ(iτ,k=0) for time point           19 / 30,    Execution time    0.0 s
 Computed χ(iτ,k=0) for time point           20 / 30,    Execution time    0.0 s
 Computed χ(iτ,k=0) for time point           21 / 30,    Execution time    0.0 s
 Computed χ(iτ,k=0) for time point           22 / 30,    Execution time    0.0 s
 Computed χ(iτ,k=0) for time point           23 / 30,    Execution time    0.0 s
 Computed χ(iτ,k=0) for time point           24 / 30,    Execution time    0.0 s
 Computed χ(iτ,k=0) for time point           25 / 30,    Execution time    0.0 s
 Computed χ(iτ,k=0) for time point           26 / 30,    Execution time    0.0 s
 Computed χ(iτ,k=0) for time point           27 / 30,    Execution time    0.0 s
 Computed χ(iτ,k=0) for time point           28 / 30,    Execution time    0.0 s
 Computed χ(iτ,k=0) for time point           29 / 30,    Execution time    0.0 s
 Computed χ(iτ,k=0) for time point           30 / 30,    Execution time    0.0 s
 
 Computed W(iτ),                                         Execution time    2.4 s
 
 Computed Σ^x(k=0),                                      Execution time    0.0 s
 
 Computed Σ^c(iτ) for time point              1 / 30,    Execution time    0.0 s
 Computed Σ^c(iτ) for time point              2 / 30,    Execution time    0.0 s
 Computed Σ^c(iτ) for time point              3 / 30,    Execution time    0.0 s
 Computed Σ^c(iτ) for time point              4 / 30,    Execution time    0.0 s
 Computed Σ^c(iτ) for time point              5 / 30,    Execution time    0.0 s
 Computed Σ^c(iτ) for time point              6 / 30,    Execution time    0.0 s
 Computed Σ^c(iτ) for time point              7 / 30,    Execution time    0.0 s
 Computed Σ^c(iτ) for time point              8 / 30,    Execution time    0.0 s
 Computed Σ^c(iτ) for time point              9 / 30,    Execution time    0.0 s
 Computed Σ^c(iτ) for time point             10 / 30,    Execution time    0.0 s
 Computed Σ^c(iτ) for time point             11 / 30,    Execution time    0.0 s
 Computed Σ^c(iτ) for time point             12 / 30,    Execution time    0.0 s
 Computed Σ^c(iτ) for time point             13 / 30,    Execution time    0.0 s
 Computed Σ^c(iτ) for time point             14 / 30,    Execution time    0.0 s
 Computed Σ^c(iτ) for time point             15 / 30,    Execution time    0.0 s
 Computed Σ^c(iτ) for time point             16 / 30,    Execution time    0.0 s
 Computed Σ^c(iτ) for time point             17 / 30,    Execution time    0.0 s
 Computed Σ^c(iτ) for time point             18 / 30,    Execution time    0.0 s
 Computed Σ^c(iτ) for time point             19 / 30,    Execution time    0.0 s
 Computed Σ^c(iτ) for time point             20 / 30,    Execution time    0.0 s
 Computed Σ^c(iτ) for time point             21 / 30,    Execution time    0.0 s
 Computed Σ^c(iτ) for time point             22 / 30,    Execution time    0.0 s
 Computed Σ^c(iτ) for time point             23 / 30,    Execution time    0.0 s
 Computed Σ^c(iτ) for time point             24 / 30,    Execution time    0.0 s
 Computed Σ^c(iτ) for time point             25 / 30,    Execution time    0.0 s
 Computed Σ^c(iτ) for time point             26 / 30,    Execution time    0.0 s
 Computed Σ^c(iτ) for time point             27 / 30,    Execution time    0.0 s
 Computed Σ^c(iτ) for time point             28 / 30,    Execution time    0.0 s
 Computed Σ^c(iτ) for time point             29 / 30,    Execution time    0.0 s
 Computed Σ^c(iτ) for time point             30 / 30,    Execution time    0.0 s

 *** WARNING in post_scf_bandstructure_utils.F:3139 :: G0W0 reorders the   ***
 *** occupied levels: the SCF valence band maximum (SCF HOMO) is level 33, ***
 *** whereas the G0W0 valence band maximum (G0W0 HOMO) is level 32. The    ***
 *** SCF and G0W0 band edges printed below therefore belong to different   ***
 *** orbitals; see the eigenvalues in the file bandstructure_SCF_and_G0W0. ***

 
 SCF valence band maximum (eV):                                           -6.645
 SCF conduction band minimum (eV):                                        -2.218
 SCF indirect band gap (eV):                                               4.427
 SCF direct band gap (eV):                                                 4.427
 
 G0W0 valence band maximum (eV):                                          -8.661
 G0W0 conduction band minimum (eV):                                        0.472
 G0W0 indirect band gap (eV):                                              9.133
 G0W0 direct band gap (eV):                                                9.133
 
 Hartree-Fock with SCF orbitals valence band maximum (eV):                -9.615
 Hartree-Fock with SCF orbitals conduction band minimum (eV)               2.058
 Hartree-Fock with SCF orbitals indirect band gap (eV):                   11.673
 Hartree-Fock with SCF orbitals direct band gap (eV):                     11.673

 ENERGY| Total FORCE_EVAL ( QS ) energy [hartree]           -179.541452886601121

 -------------------------------------------------------------------------------
 -                                                                             -
 -                                DBCSR STATISTICS                             -
 -                                                                             -
 -------------------------------------------------------------------------------
 COUNTER                                    TOTAL       BLAS       SMM       ACC
 flops     1 x     1 x     1                    2     100.0%      0.0%      0.0%     
 flops     1 x    32 x     1                   64     100.0%      0.0%      0.0%     
 flops    32 x     1 x     1                   64     100.0%      0.0%      0.0%     
 flops     1 x     1 x    32                   64     100.0%      0.0%      0.0%     
 flops    29 x     1 x     1                 1392     100.0%      0.0%      0.0%     
 flops    58 x     1 x     1                 1392     100.0%      0.0%      0.0%     
 flops    32 x    32 x     1                 2048     100.0%      0.0%      0.0%     
 flops     1 x    32 x    32                 2048     100.0%      0.0%      0.0%     
 flops    32 x     1 x    32                 2048     100.0%      0.0%      0.0%     
 flops     1 x     1 x    29                 2088     100.0%      0.0%      0.0%     
 flops    29 x    32 x     1                22272     100.0%      0.0%      0.0%     
 flops    29 x     1 x    32                22272     100.0%      0.0%      0.0%     
 flops    58 x    32 x     1                44544     100.0%      0.0%      0.0%     
 flops    58 x     1 x    32                44544     100.0%      0.0%      0.0%     
 flops    32 x    32 x    32                65536     100.0%      0.0%      0.0%     
 flops     1 x    32 x    29                66816     100.0%      0.0%      0.0%     
 flops    32 x     1 x    29                66816     100.0%      0.0%      0.0%     
 flops    29 x    29 x     1               262392     100.0%      0.0%      0.0%     
 flops    58 x     1 x    29               322944     100.0%      0.0%      0.0%     
 flops    29 x    32 x    32              1425408     100.0%      0.0%      0.0%     
 flops    58 x    32 x    32              1425408     100.0%      0.0%      0.0%     
 flops    29 x     1 x    29              1614720     100.0%      0.0%      0.0%     
 flops    58 x    32 x    29             10334208     100.0%      0.0%      0.0%     
 flops    26 x    26 x    77             14990976     100.0%      0.0%      0.0%     
 flops    32 x    26 x    77             18450432     100.0%      0.0%      0.0%     
 flops    26 x    32 x    77             18450432     100.0%      0.0%      0.0%     
 flops    32 x    32 x    77             22708224     100.0%      0.0%      0.0%     
 flops    29 x    32 x    29             51671040     100.0%      0.0%      0.0%     
 flops    68 x    68 x    26             66363648     100.0%      0.0%      0.0%     
 flops    26 x    68 x    68             72134400     100.0%      0.0%      0.0%     
 flops    77 x    68 x    26             75147072     100.0%      0.0%      0.0%     
 flops    68 x    77 x    26             75147072     100.0%      0.0%      0.0%     
 flops    68 x    79 x    26             77098944     100.0%      0.0%      0.0%     
 flops    68 x    82 x    26             80026752     100.0%      0.0%      0.0%     
 flops    68 x    68 x    32             81678336     100.0%      0.0%      0.0%     
 flops    26 x    68 x    77             81681600     100.0%      0.0%      0.0%     
 flops    26 x    77 x    68             81681600     100.0%      0.0%      0.0%     
 flops    26 x    79 x    68             83803200     100.0%      0.0%      0.0%     
 flops    77 x    77 x    26             85093008     100.0%      0.0%      0.0%     
 flops    26 x    82 x    68             86985600     100.0%      0.0%      0.0%     
 flops    77 x    79 x    26             87303216     100.0%      0.0%      0.0%     
 flops    32 x    68 x    68             88780800     100.0%      0.0%      0.0%     
 flops    77 x    82 x    26             90618528     100.0%      0.0%      0.0%     
 flops    26 x    79 x    77             91099008     100.0%      0.0%      0.0%     
 flops    68 x    94 x    26             91737984     100.0%      0.0%      0.0%     
 flops    77 x    68 x    32             92488704     100.0%      0.0%      0.0%     
 flops    68 x    77 x    32             92488704     100.0%      0.0%      0.0%     
 flops    26 x    77 x    77             92492400     100.0%      0.0%      0.0%     
 flops    68 x    79 x    32             94891008     100.0%      0.0%      0.0%     
 flops    68 x    82 x    32             98494464     100.0%      0.0%      0.0%     
 flops    26 x    82 x    77             98498400     100.0%      0.0%      0.0%     
 flops    26 x    94 x    68             99715200     100.0%      0.0%      0.0%     
 flops    32 x    68 x    77            100531200     100.0%      0.0%      0.0%     
 flops    32 x    77 x    68            100531200     100.0%      0.0%      0.0%     
 flops    68 x   105 x    26            102473280     100.0%      0.0%      0.0%     
 flops    32 x    79 x    68            103142400     100.0%      0.0%      0.0%     
 flops    77 x    94 x    26            103879776     100.0%      0.0%      0.0%     
 flops    77 x    77 x    32            104729856     100.0%      0.0%      0.0%     
 flops    32 x    82 x    68            107059200     100.0%      0.0%      0.0%     
 flops    77 x    79 x    32            107450112     100.0%      0.0%      0.0%     
 flops    68 x   113 x    26            110280768     100.0%      0.0%      0.0%     
 flops    68 x   114 x    26            111256704     100.0%      0.0%      0.0%     
 flops    26 x   105 x    68            111384000     100.0%      0.0%      0.0%     
 flops    77 x    82 x    32            111530496     100.0%      0.0%      0.0%     
 flops    32 x    79 x    77            112121856     100.0%      0.0%      0.0%     
 flops    68 x    94 x    32            112908288     100.0%      0.0%      0.0%     
 flops    26 x    94 x    77            112912800     100.0%      0.0%      0.0%     
 flops    32 x    77 x    77            113836800     100.0%      0.0%      0.0%     
 flops    77 x   105 x    26            116035920     100.0%      0.0%      0.0%     
 flops    26 x   113 x    68            119870400     100.0%      0.0%      0.0%     
 flops    26 x   114 x    68            120931200     100.0%      0.0%      0.0%     
 flops    32 x    82 x    77            121228800     100.0%      0.0%      0.0%     
 flops    32 x    94 x    68            122726400     100.0%      0.0%      0.0%     
 flops    77 x   113 x    26            124876752     100.0%      0.0%      0.0%     
 flops    77 x   114 x    26            125981856     100.0%      0.0%      0.0%     
 flops    68 x   105 x    32            126120960     100.0%      0.0%      0.0%     
 flops    26 x   105 x    77            126126000     100.0%      0.0%      0.0%     
 flops    77 x    94 x    32            127852032     100.0%      0.0%      0.0%     
 flops    68 x   113 x    32            135730176     100.0%      0.0%      0.0%     
 flops    26 x   113 x    77            135735600     100.0%      0.0%      0.0%     
 flops    68 x   114 x    32            136931328     100.0%      0.0%      0.0%     
 flops    26 x   114 x    77            136936800     100.0%      0.0%      0.0%     
 flops    32 x   105 x    68            137088000     100.0%      0.0%      0.0%     
 flops    32 x    94 x    77            138969600     100.0%      0.0%      0.0%     
 flops    77 x   105 x    32            142813440     100.0%      0.0%      0.0%     
 flops    32 x   113 x    68            147532800     100.0%      0.0%      0.0%     
 flops    32 x   114 x    68            148838400     100.0%      0.0%      0.0%     
 flops    77 x   113 x    32            153694464     100.0%      0.0%      0.0%     
 flops    77 x   114 x    32            155054592     100.0%      0.0%      0.0%     
 flops    32 x   105 x    77            155232000     100.0%      0.0%      0.0%     
 flops    32 x   113 x    77            167059200     100.0%      0.0%      0.0%     
 flops    32 x   114 x    77            168537600     100.0%      0.0%      0.0%     
 flops    68 x    78 x    26            304492032     100.0%      0.0%      0.0%     
 flops    78 x    68 x    26            304492032     100.0%      0.0%      0.0%     
 flops    26 x    68 x    26            315156608     100.0%      0.0%      0.0%     
 flops    26 x    68 x    78            330969600     100.0%      0.0%      0.0%     
 flops    26 x    26 x    68            330969600     100.0%      0.0%      0.0%     
 flops    26 x    78 x    68            330969600     100.0%      0.0%      0.0%     
 flops    77 x    78 x    26            344792448     100.0%      0.0%      0.0%     
 flops    78 x    77 x    26            344792448     100.0%      0.0%      0.0%     
 flops    26 x    77 x    26            353433080     100.0%      0.0%      0.0%     
 flops    78 x    79 x    26            353748096     100.0%      0.0%      0.0%     
 flops    26 x    78 x    77            359783424     100.0%      0.0%      0.0%     
 flops    26 x    77 x    78            359783424     100.0%      0.0%      0.0%     
 flops    26 x    79 x    26            363040392     100.0%      0.0%      0.0%     
 flops    78 x    82 x    26            367181568     100.0%      0.0%      0.0%     
 flops    26 x    79 x    78            369128448     100.0%      0.0%      0.0%     
 flops    68 x    78 x    32            374759424     100.0%      0.0%      0.0%     
 flops    78 x    68 x    32            374759424     100.0%      0.0%      0.0%     
 flops    26 x    82 x    26            379820064     100.0%      0.0%      0.0%     
 flops    26 x    68 x    32            387885056     100.0%      0.0%      0.0%     
 flops    32 x    68 x    26            390261248     100.0%      0.0%      0.0%     
 flops    26 x    82 x    78            399110400     100.0%      0.0%      0.0%     
 flops    32 x    68 x    78            407347200     100.0%      0.0%      0.0%     
 flops    32 x    26 x    68            407347200     100.0%      0.0%      0.0%     
 flops    26 x    32 x    68            407347200     100.0%      0.0%      0.0%     
 flops    32 x    78 x    68            407347200     100.0%      0.0%      0.0%     
 flops    78 x    94 x    26            420915456     100.0%      0.0%      0.0%     
 flops    77 x    78 x    32            424359936     100.0%      0.0%      0.0%     
 flops    78 x    77 x    32            424359936     100.0%      0.0%      0.0%     
 flops    26 x    77 x    32            431791360     100.0%      0.0%      0.0%     
 flops    78 x    79 x    32            435382272     100.0%      0.0%      0.0%     
 flops    26 x    94 x    26            435530576     100.0%      0.0%      0.0%     
 flops    32 x    77 x    26            438582144     100.0%      0.0%      0.0%     
 flops    32 x    78 x    77            442810368     100.0%      0.0%      0.0%     
 flops    32 x    77 x    78            442810368     100.0%      0.0%      0.0%     
 flops    26 x    79 x    32            443401088     100.0%      0.0%      0.0%     
 flops    32 x    79 x    26            450236800     100.0%      0.0%      0.0%     
 flops    78 x    82 x    32            451915776     100.0%      0.0%      0.0%     
 flops    32 x    79 x    78            454311936     100.0%      0.0%      0.0%     
 flops    26 x    94 x    78            457516800     100.0%      0.0%      0.0%     
 flops    26 x    82 x    32            467334400     100.0%      0.0%      0.0%     
 flops    78 x   105 x    26            470171520     100.0%      0.0%      0.0%     
 flops    32 x    82 x    26            471018496     100.0%      0.0%      0.0%     
 flops    32 x    68 x    32            481017856     100.0%      0.0%      0.0%     
 flops    26 x   105 x    26            487064760     100.0%      0.0%      0.0%     
 flops    32 x    82 x    78            491212800     100.0%      0.0%      0.0%     
 flops    32 x    32 x    68            501350400     100.0%      0.0%      0.0%     
 flops    78 x   113 x    26            505994112     100.0%      0.0%      0.0%     
 flops    78 x   114 x    26            510471936     100.0%      0.0%      0.0%     
 flops    26 x   105 x    78            511056000     100.0%      0.0%      0.0%     
 flops    78 x    94 x    32            518049792     100.0%      0.0%      0.0%     
 flops    26 x   113 x    26            523410576     100.0%      0.0%      0.0%     
 flops    26 x   114 x    26            528350784     100.0%      0.0%      0.0%     
 flops    26 x    94 x    32            535411968     100.0%      0.0%      0.0%     
 flops    32 x    77 x    32            538531840     100.0%      0.0%      0.0%     
 flops    32 x    94 x    26            539791616     100.0%      0.0%      0.0%     
 flops    26 x   113 x    78            549993600     100.0%      0.0%      0.0%     
 flops    32 x    79 x    32            553005056     100.0%      0.0%      0.0%     
 flops    26 x   114 x    78            554860800     100.0%      0.0%      0.0%     
 flops    32 x    94 x    78            563097600     100.0%      0.0%      0.0%     
 flops    78 x   105 x    32            578672640     100.0%      0.0%      0.0%     
 flops    32 x    82 x    32            580050944     100.0%      0.0%      0.0%     
 flops    26 x   105 x    32            599114880     100.0%      0.0%      0.0%     
 flops    32 x   105 x    26            602784000     100.0%      0.0%      0.0%     
 flops    78 x   113 x    32            622761984     100.0%      0.0%      0.0%     
 flops    78 x   114 x    32            628273152     100.0%      0.0%      0.0%     
 flops    32 x   105 x    78            628992000     100.0%      0.0%      0.0%     
 flops    26 x   113 x    32            645325824     100.0%      0.0%      0.0%     
 flops    32 x   113 x    26            648710400     100.0%      0.0%      0.0%     
 flops    26 x   114 x    32            650467584     100.0%      0.0%      0.0%     
 flops    32 x   114 x    26            654451200     100.0%      0.0%      0.0%     
 flops    32 x    94 x    32            664936448     100.0%      0.0%      0.0%     
 flops    32 x   113 x    78            676915200     100.0%      0.0%      0.0%     
 flops    32 x   114 x    78            682905600     100.0%      0.0%      0.0%     
 flops    32 x   105 x    32            742748160     100.0%      0.0%      0.0%     
 flops    32 x   113 x    32            799569920     100.0%      0.0%      0.0%     
 flops    32 x   114 x    32            806645760     100.0%      0.0%      0.0%     
 flops    78 x    78 x    26           1397081088     100.0%      0.0%      0.0%     
 flops    26 x    78 x    26           1434096144     100.0%      0.0%      0.0%     
 flops    26 x    78 x    78           1473009408     100.0%      0.0%      0.0%     
 flops    26 x    26 x    78           1518566400     100.0%      0.0%      0.0%     
 flops    78 x    78 x    32           1719484416     100.0%      0.0%      0.0%     
 flops    26 x    78 x    32           1748557824     100.0%      0.0%      0.0%     
 flops    32 x    78 x    26           1778280192     100.0%      0.0%      0.0%     
 flops    32 x    78 x    78           1812934656     100.0%      0.0%      0.0%     
 flops    32 x    26 x    78           1869004800     100.0%      0.0%      0.0%     
 flops    26 x    32 x    78           1869004800     100.0%      0.0%      0.0%     
 flops    32 x    78 x    32           2180665344     100.0%      0.0%      0.0%     
 flops    32 x    32 x    78           2300313600     100.0%      0.0%      0.0%     
 flops    26 x    29 x    26           2883709192     100.0%      0.0%      0.0%     
 flops    29 x    29 x    26           3150803136     100.0%      0.0%      0.0%     
 flops    26 x    29 x    32           3552703232     100.0%      0.0%      0.0%     
 flops    32 x    29 x    26           3553041024     100.0%      0.0%      0.0%     
 flops    29 x    29 x    32           3911443904     100.0%      0.0%      0.0%     
 flops    32 x    29 x    32           4379090944     100.0%      0.0%      0.0%     
 flops    26 x    26 x    29           7111703872     100.0%      0.0%      0.0%     
 flops    26 x    29 x    29           7934734080     100.0%      0.0%      0.0%     
 flops    26 x    32 x    29           8753252352     100.0%      0.0%      0.0%     
 flops    32 x    26 x    29           8755568640     100.0%      0.0%      0.0%     
 flops    32 x    29 x    29           9765826560     100.0%      0.0%      0.0%     
 flops    32 x    32 x    29          10778222592     100.0%      0.0%      0.0%     
 flops inhomo. stacks                 75123949824     100.0%      0.0%      0.0%
 flops total                       214.717595E+09     100.0%      0.0%      0.0%
 flops max/rank                     19.916944E+09     100.0%      0.0%      0.0%
 matmuls inhomo. stacks                    180168     100.0%      0.0%      0.0%
 matmuls total                            2029616     100.0%      0.0%      0.0%
 number of processed stacks               1287153     100.0%      0.0%      0.0%
 average stack size                                     1.6       0.0       0.0
 marketing flops                   246.377710E+09
 -------------------------------------------------------------------------------
 # multiplications                           1010
 max memory usage/rank              27.185770E+09
 # max total images/rank                       13
 # max 3D layers                                1
 # MPI messages exchanged                   78780
 MPI messages size (bytes):
  total size                        16.415826E+09
  min size                           0.000000E+00
  max size                         634.752000E+03
  average size                     208.375547E+03
 MPI breakdown and total messages size (bytes):
             size <=      128                9948                        0
       128 < size <=     8192                 516                  3511008
      8192 < size <=    32768                  24                   306048
     32768 < size <=   131072                2688                217619712
    131072 < size <=  4194304               65604              16193993472
   4194304 < size <= 16777216                   0                        0
  16777216 < size                               0                        0
 -------------------------------------------------------------------------------

 *** WARNING in dbcsr_mm.F:301 :: Using a non-square number of MPI ranks ***
 *** might lead to poor performance. Used ranks: 13 Suggested: 16 25     ***

 -------------------------------------------------------------------------------
 -                                                                             -
 -                      DBCSR MESSAGE PASSING PERFORMANCE                      -
 -                                                                             -
 -------------------------------------------------------------------------------
 ROUTINE             CALLS      AVE VOLUME [Bytes]
 MP_Bcast              193                     12.
 MP_Allreduce         2512                     25.
 MP_Alltoall          3385                  84805.
 MP_ISend            19976                  70514.
 MP_IRecv            19390                  68823.
 -------------------------------------------------------------------------------

 -------------------------------------------------------------------------------
 -                                                                             -
 -                                GRID STATISTICS                              -
 -                                                                             -
 -------------------------------------------------------------------------------
 LP    KERNEL             BACKEND                              COUNT     PERCENT
 6     collocate ortho    CPU                                  13392      49.42%
 6     integrate ortho    CPU                                  13392      49.42%
 0     collocate general  CPU                                    312       1.15%
 -------------------------------------------------------------------------------

 -------------------------------------------------------------------------------
 -                                                                             -
 -                          OFFLOAD MEMPOOL STATISTICS                         -
 -                                                                             -
 -------------------------------------------------------------------------------
 Memory consumption                Number of allocations  Used [MiB]  Size [MiB]
 Host                                                  7         124    22349964
 -------------------------------------------------------------------------------

 MEMORY| Estimated peak process memory [MiB]                                3020

 -------------------------------------------------------------------------------
 -                                                                             -
 -                         MESSAGE PASSING PERFORMANCE                         -
 -                                                                             -
 -------------------------------------------------------------------------------

 ROUTINE             CALLS      AVE VOLUME [Bytes]
 MP_Group                5
 MP_Bcast              355                 239859.
 MP_Allreduce         1920                  11410.
 MP_Sync                10
 MP_Alltoall            46               84291646.
 MP_SendRecv            48                 657920.
 MP_ISendRecv           48                 657920.
 MP_Wait               240
 MP_comm_split          10
 MP_ISend              161                3377578.
 MP_IRecv              161                3384018.
 -------------------------------------------------------------------------------


 -------------------------------------------------------------------------------
 -                                                                             -
 -                           R E F E R E N C E S                               -
 -                                                                             -
 -------------------------------------------------------------------------------
 
 CP2K version 2026.2 (Development Version), the CP2K developers group (2026).
 CP2K is freely available from https://www.cp2k.org/ .
 
 M. Iannuzzi, J. Wilhelm, F. Stein, A. Bussy, H. Elgabarty, D. Golze, A. Hehn, 
 M. Graml, S. Marek, B. Sertcan Gökmen, C. Schran, H. Forbert, R. Z. 
 Khaliullin, A. Kozhevnikov, M. Taillefumier, R. Meli, V. V. Rybkin, M. Brehm, 
 R. Schade, O. Schütt, J. V. Pototschnig, H. Mirhosseini, A. Knüpfer, D. Marx, 
 M. Krack, J. Hutter, T. D. Kühne.
 J. Phys. Chem. B 130, 1237-1310 (2026).
 The CP2K Program Package Made Simple.
 https://doi.org/10.1021/acs.jpcb.5c05851

 M. Graml, K. Zollner, D. Hernangómez-Pérez, P. E. Faria Junior, J. Wilhelm.
 J. Chem. Theory Comput. 20, 2202-2208 (2024).
 Low-scaling GW algorithm applied to twisted transition-metal dichalcogenide 
 heterobilayers.
 https://doi.org/10.1021/acs.jctc.3c01230

 T. D. Kühne, M. Iannuzzi, M. Del Ben, V. V. Rybkin, P. Seewald, F. Stein, T. 
 Laino, R. Z. Khaliullin, O. Schütt, F. Schiffmann, D. Golze, J. Wilhelm, S. 
 Chulkov, M. H. Bani-Hashemian, V. Weber, U. Borstnik, M. Taillefumier, A. S. 
 Jakobovits, A. Lazzaro, H. Pabst, T. Müller, R. Schade, M. Guidon, S. 
 Andermatt, N. Holmberg, G. K. Schenter, A. Hehn, A. Bussy, F. Belleflamme, G. 
 Tabacchi, A. Glöß, M. Lass, I. Bethune, C. J. Mundy, C. Plessl, M. Watkins, 
 J. VandeVondele, M. Krack, J. Hutter.
 J. Chem. Phys. 152, 194103 (2020).
 CP2K: An electronic structure and molecular dynamics software package - 
 Quickstep: Efficient and accurate electronic structure calculations.
 https://doi.org/10.1063/5.0007045

 O. Schuett, P. Messmer, J. Hutter, J. VandeVondele.
 Electronic Structure Calculations on Graphics Processing Units, 173-190 (2016).
 GPU-Accelerated Sparse Matrix-Matrix Multiplication for Linear Scaling Density 
 Functional Theory.
 https://doi.org/10.1002/9781118670712.ch8

 U. Borstnik, J. VandeVondele, V. Weber, J. Hutter.
 Parallel Comput. 40, 47-58 (2014).
 Sparse matrix multiplication: The distributed block-compressed sparse row 
 library.
 https://doi.org/10.1016/j.parco.2014.03.012

 J. VandeVondele, J. Hutter.
 J. Chem. Phys. 127, 114105 (2007).
 Gaussian basis sets for accurate calculations on molecular systems in gas and 
 condensed phases.
 https://doi.org/10.1063/1.2770708

 J. VandeVondele, M. Krack, F. Mohamed, M. Parrinello, T. Chassaing, J. Hutter.
 Comput. Phys. Commun. 167, 103-128 (2005).
 QUICKSTEP: Fast and accurate density functional calculations using a mixed 
 Gaussian and plane waves approach.
 https://doi.org/10.1016/j.cpc.2004.12.014

 M. Krack.
 Theor. Chem. Acc. 114, 145-152 (2005).
 Pseudopotentials for H to Kr optimized for gradient-corrected 
 exchange-correlation functionals.
 https://doi.org/10.1007/s00214-005-0655-y

 M. Frigo, S. G. Johnson.
 Proc. IEEE 93, 216-231 (2005).
 The design and implementation of FFTW3.
 https://doi.org/10.1109/JPROC.2004.840301

 J. VandeVondele, J. Hutter.
 J. Chem. Phys. 118, 4365-4369 (2003).
 An efficient orbital transformation method for electronic structure 
 calculations.
 https://doi.org/10.1063/1.1543154

 C. Hartwigsen, S. Goedecker, J. Hutter.
 Phys. Rev. B 58, 3641-3662 (1998).
 Relativistic separable dual-space Gaussian pseudopotentials from H to Rn.
 https://doi.org/10.1103/PhysRevB.58.3641

 G. Lippert, J. Hutter, M. Parrinello.
 Mol. Phys. 92, 477-487 (1997).
 A hybrid Gaussian and plane wave density functional scheme.
 https://doi.org/10.1080/002689797170220

 S. Goedecker, M. Teter, J. Hutter.
 Phys. Rev. B 54, 1703-1710 (1996).
 Separable dual-space Gaussian pseudopotentials.
 https://doi.org/10.1103/PhysRevB.54.1703

 J. P. Perdew, K. Burke, M. Ernzerhof.
 Phys. Rev. Lett. 77, 3865-3868 (1996).
 Generalized gradient approximation made simple.
 https://doi.org/10.1103/PhysRevLett.77.3865

 P. E. Blöchl.
 J. Chem. Phys. 103, 7422-7428 (1995).
 Electrostatic decoupling of periodic images of plane‐wave‐expanded 
 densities and derived atomic point charges.
 https://doi.org/10.1063/1.470314

 R. H. Byrd, P. H. Lu, J. Nocedal, C. Y. Zhu.
 SIAM J. Sci. Comput. 16, 1190-1208 (1995).
 A Limited Memory Algorithm for Bound Constrained Optimization.
 https://doi.org/10.1137/0916069


 -------------------------------------------------------------------------------
 -                                                                             -
 -                                T I M I N G                                  -
 -                                                                             -
 -------------------------------------------------------------------------------
 SUBROUTINE                       CALLS  ASD         SELF TIME        TOTAL TIME MAXRANK
                                MAXIMUM       AVERAGE  MAXIMUM  AVERAGE  MAXIMUM
 CP2K                                 1  1.0    0.038    0.043   14.821   14.821       0
 qs_energies                          1  2.0    0.010    0.011   13.774   13.776       6
 qs_energies_properties               1  3.0    0.000    0.000   10.575   10.579       2
 post_scf_bandstructure               1  4.0    0.000    0.000   10.574   10.579       1
 run_gw                               1  5.0    0.000    0.000   10.462   10.484       2
 gw_calc_ri_rs_non_periodic           1  6.0    0.000    0.000    5.871    6.010       0
 create_and_init_bs_env_for_gw        1  6.0    0.005    0.020    4.591    4.749       0
 generate_auto_ri_basis               1  7.0    0.000    0.000    3.665    3.666       5
 compute_W                            1  7.0    0.000    0.000    2.435    2.436       0
 scf_env_do_scf                       1  3.0    0.006    0.006    2.264    2.264       8
 qs_ks_build_kohn_sham_matrix         2  7.5    0.024    0.027    2.119    2.121       6
 compute_AB_optimized_RI_basis        1  8.0    0.000    0.001    2.066    2.066       0
 compute_AB_optimized_RI_basis_       1  9.0    0.000    0.000    1.765    2.063       8
 compute_B_PQ_AB                      3 10.0    0.411    0.522    1.541    1.964       0
 fft_wrap_pw1pw2                     28 10.0    0.001    0.001    1.848    1.941       7
 fft_wrap_pw1pw2_300                 16 11.2    0.089    0.117    1.759    1.805       4
 compute_fm_W_freq                   30  8.0    0.000    0.001    1.785    1.802       0
 cp_fm_gemm                         434 10.5    1.664    1.692    1.664    1.692      11
 parallel_gemm_fm_gemm              431  9.6    0.000    0.001    1.662    1.690       0
 init_scf_loop                        1  4.0    0.008    0.009    1.668    1.673      10
 fft3d_ps                            28 12.0    0.681    0.776    1.394    1.663       9
 qs_ks_update_qs_env                  2  5.0    0.000    0.000    1.624    1.625      12
 rebuild_ks_matrix                    1  6.0    0.002    0.003    1.623    1.623      12
 mp_sum_dm                           82 10.9    0.708    1.568    0.708    1.568      12
 compute_M_pq_inv_and_V_pq            1  8.0    0.000    0.000    1.349    1.349       1
 qs_rho_update_rho_low                2  5.0    0.000    0.000    1.186    1.186      11
 calculate_rho_elec                   2  6.0    0.027    0.028    1.186    1.186       7
 compute_contracted_RI_matrix         2  9.0    0.003    0.009    1.173    1.174       0
 compute_Sigma_c_and_QP_energie       1  7.0    0.000    0.000    1.146    1.168       0
 compute_optimized_RI_matrix_bl      12 10.0    0.155    0.202    0.930    1.160       0
 contract_B_PQ                       14 11.9    0.801    1.004    0.868    1.105       0
 qs_vxc_create                        2  8.5    0.000    0.001    1.077    1.098       0
 xc_vxc_pw_create                     1  9.0    0.022    0.027    1.076    1.097       6
 mp_alltoall_z22v                    28 14.0    0.431    1.085    0.431    1.085       0
 compute_Sigma_c                      1  8.0    0.002    0.005    1.003    1.003       0
 compute_M_PQ_AB                    444 11.0    0.001    0.001    0.800    0.990       0
 compute_M_PQ                       444 12.0    0.001    0.002    0.799    0.989       0
 int_operators_r12_ab_os            444 13.0    0.001    0.001    0.798    0.987       8
 int_operator_ab_os_low             444 14.0    0.292    0.361    0.797    0.986       0
 compute_Z_lP                         1  7.0    0.000    0.000    0.950    0.950       0
 compute_Z_lP_auto_ri                 1  8.0    0.000    0.001    0.950    0.950       7
 density_rs2pw                        2  7.0    0.000    0.000    0.683    0.915       4
 compute_d_lp_auto_ri_batch           1  9.0    0.000    0.000    0.681    0.908       0
 compute_d_lp_auto_ri_atom            1 10.0    0.221    0.484    0.681    0.908       2
 xc_pw_derive                         6 11.0    0.000    0.000    0.788    0.878       4
 optimize_ri_rs_grid                  1  7.0    0.000    0.000    0.732    0.873       1
 contract_grid_panels_sigma_c        30  9.0    0.774    0.797    0.815    0.820      12
 yz_to_x                             14 12.2    0.128    0.161    0.362    0.694      11
 mp_sum_d                           724  4.7    0.220    0.678    0.220    0.678      12
 qs_init_subsys                       1  2.0    0.012    0.013    0.632    0.653      12
 init_scf_run                         1  3.0    0.001    0.001    0.653    0.653      10
 scf_env_initial_rho_setup            1  4.0    0.001    0.001    0.652    0.652       0
 qs_env_setup                         1  3.0    0.001    0.002    0.610    0.631       6
 qs_env_rebuild_pw_env                2  3.5    0.001    0.001    0.606    0.627       1
 pw_env_rebuild                       1  5.0    0.005    0.005    0.605    0.627       8
 abc_contract_xsmm                  685 11.0    0.497    0.617    0.497    0.617       3
 pw_grid_setup                        5  5.2    0.001    0.001    0.592    0.613      12
 pw_grid_setup_internal               5  6.2    0.011    0.012    0.591    0.612       7
 xc_pw_divergence                     1 10.0    0.000    0.000    0.530    0.606       7
 scf_env_do_scf_inner_loop            1  4.0    0.002    0.002    0.589    0.590      11
 rirs_grid_LBFGS                      1  8.0    0.068    0.091    0.546    0.572       0
 get_mat_chi_Gamma_tau                1  7.0    0.000    0.002    0.565    0.567       0
 transfer_rs2pw                       9  7.8    0.000    0.000    0.268    0.556       6
 compute_B_PQ_exchange                7 10.9    0.000    0.000    0.435    0.554       0
 compute_B_PQ_transition              7 10.9    0.000    0.000    0.434    0.553       0
 x_to_yz                             14 13.8    0.151    0.175    0.348    0.550      10
 xc_rho_set_and_dset_create           1 10.0    0.017    0.033    0.508    0.545       4
 mp_waitany                         161 11.4    0.205    0.544    0.205    0.544       0
 cp_fm_cholesky_invert               31  9.0    0.529    0.535    0.529    0.535       2
 setup_time_and_frequency_minim       1  7.0    0.000    0.000    0.363    0.521       0
 build_minimax_time_frequency_g       1  8.0    0.001    0.008    0.363    0.521       0
 fit_l_sq_weights                     3  9.0    0.361    0.521    0.361    0.521       7
 grid_collocate_task_list             2  7.0    0.460    0.520    0.460    0.520       8
 pw_grid_sort                         5  7.2    0.347    0.356    0.502    0.513       4
 transfer_rs2pw_300                   3  8.3    0.082    0.095    0.223    0.511       9
 compute_V_xc                         1  7.0    0.000    0.000    0.500    0.501       6
 sum_up_and_integrate                 2  8.5    0.000    0.001    0.463    0.479      12
 contract_grid_panels                31  8.0    0.438    0.452    0.465    0.476      12
 integrate_v_rspace                   2  9.5    0.000    0.000    0.457    0.474      12
 copy_dbcsr_to_fm                   104  9.5    0.361    0.465    0.367    0.471       1
 potential_pw2rs                      2 10.5    0.001    0.002    0.423    0.439       5
 evaluate_rirs_grid_cluster         301  9.0    0.039    0.056    0.285    0.408       0
 operator2                       263871 15.0    0.315    0.393    0.315    0.393       0
 build_3c_integral_block_auto_r      72 11.0    0.000    0.000    0.250    0.357       6
 qs_ks_ddapc                          2  8.5    0.000    0.000    0.296    0.339      12
 initialize_ri_rs_grid                1  8.0    0.003    0.011    0.160    0.300       1
 build_3c_integral_block_auto_r      72 11.0    0.209    0.293    0.209    0.293       3
 mp_bcast_dm                         53  9.1    0.158    0.290    0.158    0.290       8
 create_qs_kind_set                   1  2.0    0.000    0.000    0.280    0.285       9
 read_qs_kind                         2  3.0    0.075    0.099    0.279    0.285       0
 cp_fm_get_submatrix                 78 10.0    0.001    0.002    0.169    0.277       0
 qs_energies_init_hamiltonians        1  3.0    0.002    0.003    0.265    0.266       6
 qs_env_update_s_mstruct              1  4.0    0.006    0.007    0.246    0.253       8
 build_G_ao                         121  8.5    0.004    0.007    0.238    0.251       5
 compute_AA_optimized_RI_basis        1  8.0    0.008    0.011    0.250    0.250       8
 cp_fm_cholesky_decompose            35  9.0    0.245    0.249    0.245    0.249       5
 pw_poisson_solve                     2  8.5    0.003    0.009    0.226    0.240      12
 ab_contract                     264980 15.0    0.191    0.233    0.191    0.233       0
 G_occ_vir                          121  9.5    0.011    0.017    0.204    0.228       0
 calculate_rho_core                   1  5.0    0.020    0.022    0.208    0.211       6
 parser_read_line                 37795  4.0    0.006    0.007    0.205    0.206       0
 parser_read_line_low                41  5.0    0.007    0.071    0.198    0.200       0
 broadcast_input_information         41  6.0    0.006    0.007    0.191    0.198      10
 cp_fm_geeig                          2  9.5    0.000    0.000    0.192    0.192       0
 cp_fm_syevd                          5  9.0    0.000    0.000    0.189    0.189       0
 cp_fm_redistribute_end               5 10.0    0.101    0.186    0.102    0.187      12
 cp_fm_syevd_base                     5 10.0    0.085    0.184    0.085    0.184       4
 compute_B_PQ_AA                     12  9.0    0.000    0.001    0.159    0.182       1
 pw_gather_p                         14 11.2    0.142    0.181    0.142    0.181      11
 compute_M_pq_inv                     1  9.0    0.000    0.000    0.175    0.176       0
 mp_sum_root_rm                      12 10.0    0.148    0.174    0.148    0.174      11
 compute_fm_chi_Gamma_freq           30  8.0    0.047    0.065    0.141    0.169       0
 cp_fm_uplo_to_full                  63  9.0    0.151    0.167    0.151    0.167      12
 transfer_pw2rs                       8 11.5    0.000    0.000    0.162    0.163       5
 pw_derive                           12 11.2    0.138    0.160    0.138    0.160       8
 pw_copy                             28 10.5    0.145    0.159    0.145    0.159       5
 sort_shells                          5  8.2    0.156    0.159    0.156    0.159       9
 compute_QP_energies                  1  8.0    0.000    0.000    0.142    0.153       0
 cp_ddapc_apply_CD                    2  9.5    0.000    0.001    0.080    0.153       0
 pw_scatter_p                        14 12.8    0.127    0.147    0.127    0.147      11
 pw_poisson_set                       3  8.3    0.000    0.001    0.122    0.136       0
 pw_integral_ab_c1d_c1d_gs            4 10.0    0.085    0.087    0.094    0.127       4
 rirs_cluster_gradient_coordina     301 10.0    0.086    0.125    0.086    0.125       0
 transfer_pw2rs_300                   2 12.5    0.051    0.058    0.120    0.124       9
 xc_functional_eval                   1 11.0    0.000    0.001    0.084    0.118       0
 pbe_lda_eval                         1 12.0    0.084    0.118    0.084    0.118       6
 to_Gamma_and_mo_real                62  9.0    0.001    0.001    0.114    0.114       0
 fft_wrap_pw1pw2_100                  4 10.8    0.003    0.007    0.069    0.108       6
 get_ddapc                            2 10.5    0.000    0.000    0.033    0.106       7
 local_gemm                        5544 12.9    0.068    0.103    0.068    0.103       0
 mp_bcast_am_src                     41  7.0    0.100    0.101    0.100    0.101       7
 copy_fm_to_dbcsr                   161  9.3    0.073    0.085    0.083    0.097       4
 mp_bcast_i_src                     169  7.0    0.085    0.096    0.085    0.096       1
 solve_AB_eigenproblem                3 10.0    0.038    0.054    0.055    0.078       0
 rirs_cluster_gradient_products     301 10.0    0.052    0.075    0.052    0.075       0
 mp_sum_iv                          142 10.0    0.041    0.073    0.041    0.073      12
 pw_copy_to_array                    14 11.2    0.058    0.069    0.058    0.069       9
 pw_axpy                             25  6.6    0.056    0.068    0.056    0.068       9
 eval_bandstructure_properties        1  5.0    0.000    0.000    0.066    0.068       0
 Fourier_transform_w_to_t            30  8.0    0.000    0.001    0.028    0.067       0
 cp_fm_scale_and_add                901  9.0    0.028    0.067    0.028    0.067       2
 cp_cfm_geeig                         1  6.0    0.000    0.000    0.057    0.059       0
 compute_int_3c                       2  9.0    0.039    0.044    0.052    0.056       0
 rirs_cluster_AO_products           301 10.0    0.038    0.053    0.038    0.053       0
 rirs_cluster_residual              301 10.0    0.036    0.052    0.036    0.052       0
 compute_V_MinvVsqrt                  1  8.0    0.000    0.000    0.048    0.051       0
 create_and_init_bs_env               1  5.0    0.000    0.000    0.046    0.051       1
 check_for_restart_files              1  7.0    0.043    0.046    0.043    0.046       6
 mp_waitall_1                        79 12.7    0.023    0.045    0.023    0.045       7
 eval_pw_TabLR                        1  2.0    0.027    0.028    0.043    0.044      10
 pw_grid_assign                       5  7.2    0.037    0.042    0.043    0.044      12
 pw_grid_remap                        4  8.0    0.008    0.008    0.025    0.043       9
 rirs_grid_build_clusters             1  8.0    0.016    0.025    0.026    0.043       0
 compute_Sigma_x                      1  7.0    0.000    0.000    0.040    0.041       0
 diamat_all                          16 11.5    0.027    0.040    0.027    0.040       0
 diagonalize_ks_matrix                1  6.0    0.000    0.000    0.040    0.040       9
 cp_fm_geeig_canon                    1  7.0    0.000    0.000    0.040    0.040       4
 pw_copy_from_array                  14 12.8    0.033    0.039    0.033    0.039       3
 mp_sum_dv                          375  9.2    0.025    0.038    0.025    0.038      12
 mp_sum_im3                           5  9.0    0.018    0.036    0.018    0.036       0
 transfer_pw2rs_100                   2 12.5    0.007    0.010    0.026    0.035       4
 collect_used_col_blocks             92  9.7    0.000    0.000    0.012    0.035       0
 extract_masked_blocks              244  9.6    0.025    0.034    0.025    0.034       0
 ot_scf_init                          1  5.0    0.010    0.010    0.029    0.033      12
 grid_integrate_task_list             2 10.5    0.014    0.032    0.014    0.032       0
 cp_cfm_cholesky_decompose            2  7.0    0.028    0.030    0.028    0.030      12
 compute_reference_M_PQ_inv_fac      11 10.8    0.001    0.001    0.020    0.029       0
 rs_grid_zero                         5 12.0    0.025    0.029    0.025    0.029       3
 get_fft_scratch                     29 12.7    0.027    0.029    0.027    0.029       2
 extract_grid_panel                 122  9.5    0.020    0.028    0.020    0.028       0
 mp_sum_l                            21  4.2    0.011    0.027    0.011    0.027       0
 fill_fm_Sigma_c_Gamma_time           1  9.0    0.000    0.000    0.026    0.026       0
 pw_zero                             25  4.7    0.022    0.026    0.022    0.026      10
 rirs_cluster_d_lP                  301 10.0    0.019    0.026    0.019    0.026       4
 cp_cfm_heevd                         1  7.0    0.000    0.000    0.026    0.026       0
 cp_cfm_heevd_base                    1  8.0    0.026    0.026    0.026    0.026      11
 transfer_rs2pw_100                   2  9.0    0.006    0.008    0.021    0.026      12
 fft3d_s                              1  2.0    0.000    0.000    0.024    0.025       8
 mp_alltoall_d11v                     4  9.8    0.020    0.024    0.020    0.024       1
 rs_gather_matrices                   2 10.5    0.000    0.001    0.020    0.024       8
 qs_create_task_list                  1  5.0    0.000    0.002    0.012    0.024       0
 calculate_first_density_matrix       1  5.0    0.002    0.006    0.023    0.023       0
 fft_wrap_pw1pw2_40                   4 10.8    0.001    0.001    0.015    0.023       5
 generate_qs_task_list                1  6.0    0.001    0.002    0.012    0.022      12
 get_RI_basis                         1  7.0    0.002    0.009    0.012    0.022       0
 rirs_cluster_D_ll                  301 10.0    0.015    0.022    0.015    0.022       0
 transfer_rs2pw_40                    2  9.0    0.009    0.010    0.021    0.022       1
 cp_fm_triangular_multiply            7 10.0    0.020    0.021    0.020    0.021       1
 qs_ot_get_p                          2  7.0    0.008    0.009    0.019    0.021       3
 mp_isend_dv                        117 11.3    0.004    0.020    0.004    0.020       0
 distribute_tasks                     1  7.0    0.001    0.001    0.010    0.020      12
 cp_ddapc_init                        1  5.0    0.000    0.000    0.019    0.019       2
 topology_control                     1  2.0    0.005    0.005    0.019    0.019      10
 cp_ddapc_create                      1  6.0    0.000    0.000    0.018    0.019      12
 qs_scf_new_mos                       1  5.0    0.000    0.000    0.018    0.019      11
 qs_scf_loop_do_ot                    1  6.0    0.000    0.000    0.018    0.018       0
 mp_sendrecv_dv                      48 10.0    0.014    0.018    0.014    0.018       0
 load_balance_distributed             2  8.0    0.000    0.000    0.008    0.018       0
 ot_scf_mini                          1  7.0    0.002    0.002    0.017    0.017       6
 get_current_loads                   12  9.0    0.001    0.006    0.007    0.017       8
 compute_load_list                    4  9.0    0.001    0.001    0.007    0.017       2
 copy_fm_to_dbcsr_bc                161 10.3    0.005    0.009    0.009    0.016       0
 arnoldi_extremal                     2  8.0    0.001    0.001    0.011    0.016       0
 mp_sum_i                           604  9.0    0.009    0.016    0.009    0.016       0
 mp_alltoall_l                       13  9.9    0.005    0.016    0.005    0.016       0
 build_core_hamiltonian_matrix        1  4.0    0.002    0.006    0.015    0.015       6
 pw_multiply_with                     2  9.5    0.013    0.015    0.013    0.015       3
 transfer_pw2rs_40                    2 12.5    0.005    0.006    0.013    0.015       6
 -------------------------------------------------------------------------------

 The number of warnings for this run is : 1
 
 -------------------------------------------------------------------------------
  **** **** ******  **  PROGRAM ENDED AT                 2026-10-03 11:22:26.760
 ***** ** ***  *** **   PROGRAM RAN ON                                  n2cn1051
 **    ****   ******    PROGRAM RAN BY                                  eprop2d1
 ***** **    ** ** **   PROGRAM PROCESS ID                               1419945
  **** **  *******  **  PROGRAM STOPPED IN /scratch/hpc-prf-metdyn/eprop2d1_Jan/
                                           53_benchmark_RI_opt/418_gw100_fig5_fu
                                           ll_epsfilter_1e12_20261002/calculatio
                                           ns/rc0p5/ri3_rs02/88_C6F6
