 DBCSR| CPU Multiplication driver                                           XSMM (U)
 DBCSR| Multrec recursion limit                                              512 (U)
 DBCSR| Multiplication stack size                                           1000 (D)
 DBCSR| Maximum elements for images                                    UNLIMITED (U)
 DBCSR| Multiplicative factor virtual images                                   1 (U)
 DBCSR| Use multiplication densification                                       T (D)
 DBCSR| Multiplication size stacks                                             3 (U)
 DBCSR| Use memory pool for CPU allocation                                     F (U)
 DBCSR| Number of 3D layers                                               SINGLE (U)
 DBCSR| Use MPI memory allocation                                              F (U)
 DBCSR| Use RMA algorithm                                                      F (U)
 DBCSR| Use Communication thread                                               T (U)
 DBCSR| Communication thread load                                             60 (D)
 DBCSR| MPI: My process id                                                     1
 DBCSR| MPI: Number of processes                                              16
 DBCSR| OMP: Current number of threads                                         8
 DBCSR| OMP: Max number of threads                                             8
 DBCSR| Split modifier for TAS multiplication algorithm                  1.0E+00 (U)


  **** **** ******  **  PROGRAM STARTED AT               2026-09-17 07:34:22.237
 ***** ** ***  *** **   PROGRAM STARTED ON                              n2cn0265
 **    ****   ******    PROGRAM STARTED BY                              eprop2d1
 ***** **    ** ** **   PROGRAM PROCESS ID                                410101
  **** **  *******  **  PROGRAM STARTED IN /scratch/hpc-prf-metdyn/eprop2d1_Jan/
                                           53_benchmark_RI_opt/106_GW100_GTH_RIR
                                           S_riao5_7_c7/extensions/lebedev_riao2
                                           /calculations/88_C6F6/leb_r09

 CP2K| version string:                 CP2K version 2026.2 (Development Version)
 CP2K| source code revision number:                                      unknown
 CP2K| cp2kflags: omp libint fftw3 libxc parallel scalapack openblas            
 CP2K| is freely available from                            https://www.cp2k.org/
 CP2K| Program compiled at                                   2026-09-15 17:57:52
 CP2K| Program compiled on                                              n2login6
 CP2K| Program compiled for                                               x86_64
 CP2K| Data directory path    /scratch/hpc-prf-metdyn/eprop2d1_Jan/53_benchmark_
 CP2K| Input file name                                                 input.inp
 
 eprop2d1@n2cn0265 has created rank and process                      0    410101
 eprop2d1@n2cn0265 has created rank and process                      1    410102
 eprop2d1@n2cn0265 has created rank and process                      2    410103
 eprop2d1@n2cn0265 has created rank and process                      3    410104
 eprop2d1@n2cn0265 has created rank and process                      4    410105
 eprop2d1@n2cn0265 has created rank and process                      5    410106
 eprop2d1@n2cn0265 has created rank and process                      6    410107
 eprop2d1@n2cn0265 has created rank and process                      7    410108
 eprop2d1@n2cn0265 has created rank and process                      8    410109
 eprop2d1@n2cn0265 has created rank and process                      9    410110
 eprop2d1@n2cn0265 has created rank and process                     10    410111
 eprop2d1@n2cn0265 has created rank and process                     11    410112
 eprop2d1@n2cn0265 has created rank and process                     12    410113
 eprop2d1@n2cn0265 has created rank and process                     13    410114
 eprop2d1@n2cn0265 has created rank and process                     14    410115
 
 eprop2d1@n2cn0265 is running                                       15 processes

 GLOBAL| Force Environment number                                              1
 GLOBAL| Basis set file name            /scratch/hpc-prf-metdyn/eprop2d1_Jan/53_
 GLOBAL| Potential file name            /scratch/hpc-prf-metdyn/eprop2d1_Jan/53_
 GLOBAL| MM Potential file name                                     MM_POTENTIAL
 GLOBAL| Coordinate file name                                      __STD_INPUT__
 GLOBAL| Method name                                                        CP2K
 GLOBAL| Project name                               gw100_106_88_C6F6_a2_leb_r09
 GLOBAL| Run type                                                         ENERGY
 GLOBAL| FFT library                                                       FFTW3
 GLOBAL| Diagonalization library                                       ScaLAPACK
 GLOBAL| Cholesky decomposition library                                ScaLAPACK
 GLOBAL| DGEMM library                                                      BLAS
 GLOBAL| Direct generalized diagonalization requested                          F
 GLOBAL| Orthonormality check for eigenvectors                          DISABLED
 GLOBAL| Matrix multiplication library                                 ScaLAPACK
 GLOBAL| All-to-all communication in single precision                          F
 GLOBAL| Grid backend                                                       AUTO
 GLOBAL| Global print level                                                  LOW
 GLOBAL| MPI I/O enabled                                                       T
 GLOBAL| Total number of message passing processes                            15
 GLOBAL| Number of distributed systems (nodes)                                 1
 GLOBAL| Number of threads for this process                                    8
 GLOBAL| This output is from process                                           0
 GLOBAL| OpenMP stack size per thread (OMP_STACKSIZE)                       128M
 GLOBAL| CPU model name                          AMD EPYC 7763 64-Core Processor

 MEMORY| system memory details [Kb]
 MEMORY|                        rank 0           min           max       average
 MEMORY| MemTotal            263897632     263897632     263897632     263897632
 MEMORY| MemFree             238002472     238002472     238002472     238002472
 MEMORY| Buffers                241508        241508        241508        241508
 MEMORY| Cached               18296780      18296780      18296780      18296780
 MEMORY| Slab                  1422908       1422908       1422908       1422908
 MEMORY| SReclaimable           300300        300300        300300        300300
 MEMORY| MemLikelyFree       256841060     256841060     256841060     256841060


 GENERATE|  Preliminary Number of Bonds generated:                             0
 GENERATE|  Achieved consistency in connectivity generation.

 *******************************************************************************
 *******************************************************************************
 **                                                                           **
 **     #####                         ##              ##                      **
 **    ##   ##            ##          ##              ##                      **
 **   ##     ##                       ##            ######                    **
 **   ##     ##  ##   ##  ##   #####  ##  ##   ####   ##    #####    #####    **
 **   ##     ##  ##   ##  ##  ##      ## ##   ##      ##   ##   ##  ##   ##   **
 **   ##  ## ##  ##   ##  ##  ##      ####     ###    ##   ######   ######    **
 **    ##  ###   ##   ##  ##  ##      ## ##      ##   ##   ##       ##        **
 **     #######   #####   ##   #####  ##  ##  ####    ##    #####   ##        **
 **           ##                                                    ##        **
 **                                                                           **
 **                                                ... make the atoms dance   **
 **                                                                           **
 **            Copyright (C) by CP2K developers group (2000-2026)             **
 **                      J. Chem. Phys. 152, 194103 (2020)                    **
 **                                                                           **
 *******************************************************************************


 TOTAL NUMBERS AND MAXIMUM NUMBERS

  Total number of            - Atomic kinds:                                   2
                             - Atoms:                                         12
                             - Shell sets:                                    12
                             - Shells:                                        60
                             - Primitive Cartesian functions:                 78
                             - Cartesian basis functions:                    168
                             - Spherical basis functions:                    156

  Maximum angular momentum of- Orbital basis functions:                        2
                             - Local part of the GTH pseudopotential:          2
                             - Non-local part of the GTH pseudopotential:      0


 SCF PARAMETERS         Density guess:                                    ATOMIC
                        --------------------------------------------------------
                        max_scf:                                             500
                        max_scf_history:                                       0
                        max_diis:                                              4
                        --------------------------------------------------------
                        eps_scf:                                        1.00E-08
                        eps_scf_history:                                0.00E+00
                        eps_diis:                                       0.00E+00
                        eps_eigval:                                     1.00E-05
                        --------------------------------------------------------
                        level_shift [a.u.]:                             0.000000
                        --------------------------------------------------------
                        Outer loop SCF in use 
                        No variables optimised in outer loop
                        eps_scf                                         1.00E-08
                        max_scf                                               20
                        No outer loop optimization
                        step_size                                       5.00E-01

 Extrapolation method: initial_guess

 Number of electrons:                                                         66
 Number of occupied orbitals:                                                 33
 Number of molecular orbitals:                                                33

 Number of orbital functions:                                                156
 Number of independent orbital functions:                                    156


 SCF WAVEFUNCTION OPTIMIZATION

  ----------------------------------- OT ---------------------------------------
  Minimizer      : DIIS                : direct inversion
                                         in the iterative subspace
                                         using   7 DIIS vectors
                                         safer DIIS on
  Preconditioner : FULL_KINETIC        : inversion of T + eS
  Lattice FFT   : OFF
  Precond_solver : DEFAULT
  stepsize       :    0.15000000                  energy_gap     :    0.20000000
  eps_taylor     :   0.10000E-15                  max_taylor     :             4
  ----------------------------------- OT ---------------------------------------

  Step     Update method      Time    Convergence         Total energy    Change
  ------------------------------------------------------------------------------
  Decoupling Energy:                                               0.0001907600
     1 OT DIIS     0.15E+00    2.2     0.05086301      -174.7524105433 -1.75E+02
  Decoupling Energy:                                               0.0000496188
     2 OT DIIS     0.15E+00    1.8     0.03081276      -176.1880446755 -1.44E+00
  Decoupling Energy:                                               0.0000358361
     3 OT DIIS     0.15E+00    1.8     0.02454400      -176.8685527123 -6.81E-01
  Decoupling Energy:                                               0.0000274424
     4 OT DIIS     0.15E+00    1.8     0.01927741      -177.3368052818 -4.68E-01
  Decoupling Energy:                                               0.0000193345
     5 OT DIIS     0.15E+00    1.8     0.01502524      -177.7945708783 -4.58E-01
  Decoupling Energy:                                               0.0000121603
     6 OT DIIS     0.15E+00    1.8     0.01249124      -178.1664666028 -3.72E-01
  Decoupling Energy:                                               0.0000088009
     7 OT DIIS     0.15E+00    1.8     0.01075754      -178.4133654882 -2.47E-01
  Decoupling Energy:                                               0.0000067520
     8 OT DIIS     0.15E+00    1.8     0.00898244      -178.6454479089 -2.32E-01
  Decoupling Energy:                                               0.0000058528
     9 OT DIIS     0.15E+00    1.8     0.00767188      -178.8381209154 -1.93E-01
  Decoupling Energy:                                               0.0000052726
    10 OT DIIS     0.15E+00    1.8     0.00686150      -178.9513134625 -1.13E-01
  Decoupling Energy:                                               0.0000048435
    11 OT DIIS     0.15E+00    1.8     0.00588774      -179.0660471911 -1.15E-01
  Decoupling Energy:                                               0.0000040051
    12 OT DIIS     0.15E+00    1.8     0.00515783      -179.1576637370 -9.16E-02
  Decoupling Energy:                                               0.0000034230
    13 OT DIIS     0.15E+00    1.8     0.00460980      -179.2188835506 -6.12E-02
  Decoupling Energy:                                               0.0000025226
    14 OT DIIS     0.15E+00    1.8     0.00396383      -179.2778782485 -5.90E-02
  Decoupling Energy:                                               0.0000016659
    15 OT DIIS     0.15E+00    1.8     0.00344327      -179.3234154471 -4.55E-02
  Decoupling Energy:                                               0.0000009355
    16 OT DIIS     0.15E+00    1.8     0.00303430      -179.3550521800 -3.16E-02
  Decoupling Energy:                                               0.0000002850
    17 OT DIIS     0.15E+00    1.8     0.00262182      -179.3805273127 -2.55E-02
  Decoupling Energy:                                              -0.0000003253
    18 OT DIIS     0.15E+00    1.8     0.00225274      -179.4021368379 -2.16E-02
  Decoupling Energy:                                              -0.0000007151
    19 OT DIIS     0.15E+00    1.8     0.00197514      -179.4160209909 -1.39E-02
  Decoupling Energy:                                              -0.0000009823
    20 OT DIIS     0.15E+00    1.8     0.00175186      -179.4258681692 -9.85E-03
  Decoupling Energy:                                              -0.0000012202
    21 OT DIIS     0.15E+00    1.9     0.00155966      -179.4345951284 -8.73E-03
  Decoupling Energy:                                              -0.0000013867
    22 OT DIIS     0.15E+00    1.8     0.00138289      -179.4413485605 -6.75E-03
  Decoupling Energy:                                              -0.0000015192
    23 OT DIIS     0.15E+00    1.8     0.00122509      -179.4469477718 -5.60E-03
  Decoupling Energy:                                              -0.0000016116
    24 OT DIIS     0.15E+00    1.8     0.00108714      -179.4514871398 -4.54E-03
  Decoupling Energy:                                              -0.0000016768
    25 OT DIIS     0.15E+00    1.8     0.00095867      -179.4551087337 -3.62E-03
  Decoupling Energy:                                              -0.0000017175
    26 OT DIIS     0.15E+00    1.8     0.00083950      -179.4581338002 -3.03E-03
  Decoupling Energy:                                              -0.0000017467
    27 OT DIIS     0.15E+00    1.8     0.00072685      -179.4605749908 -2.44E-03
  Decoupling Energy:                                              -0.0000017602
    28 OT DIIS     0.15E+00    1.8     0.00063895      -179.4622407151 -1.67E-03
  Decoupling Energy:                                              -0.0000017715
    29 OT DIIS     0.15E+00    1.9     0.00055916      -179.4635909371 -1.35E-03
  Decoupling Energy:                                              -0.0000017792
    30 OT DIIS     0.15E+00    1.8     0.00049386      -179.4645353985 -9.44E-04
  Decoupling Energy:                                              -0.0000017848
    31 OT DIIS     0.15E+00    1.8     0.00044145      -179.4652069017 -6.72E-04
  Decoupling Energy:                                              -0.0000017909
    32 OT DIIS     0.15E+00    1.8     0.00039652      -179.4657274528 -5.21E-04
  Decoupling Energy:                                              -0.0000017961
    33 OT DIIS     0.15E+00    1.8     0.00035704      -179.4661332659 -4.06E-04
  Decoupling Energy:                                              -0.0000018014
    34 OT DIIS     0.15E+00    1.8     0.00032315      -179.4664452988 -3.12E-04
  Decoupling Energy:                                              -0.0000018072
    35 OT DIIS     0.15E+00    1.8     0.00029150      -179.4667227273 -2.77E-04
  Decoupling Energy:                                              -0.0000018130
    36 OT DIIS     0.15E+00    1.8     0.00026604      -179.4669336697 -2.11E-04
  Decoupling Energy:                                              -0.0000018192
    37 OT DIIS     0.15E+00    1.8     0.00024110      -179.4671181190 -1.84E-04
  Decoupling Energy:                                              -0.0000018252
    38 OT DIIS     0.15E+00    1.9     0.00021951      -179.4672688654 -1.51E-04
  Decoupling Energy:                                              -0.0000018308
    39 OT DIIS     0.15E+00    1.8     0.00020109      -179.4673872669 -1.18E-04
  Decoupling Energy:                                              -0.0000018357
    40 OT DIIS     0.15E+00    1.8     0.00018455      -179.4674873053 -1.00E-04
  Decoupling Energy:                                              -0.0000018400
    41 OT DIIS     0.15E+00    1.8     0.00016950      -179.4675720920 -8.48E-05
  Decoupling Energy:                                              -0.0000018429
    42 OT DIIS     0.15E+00    1.8     0.00015660      -179.4676364851 -6.44E-05
  Decoupling Energy:                                              -0.0000018452
    43 OT DIIS     0.15E+00    1.8     0.00014395      -179.4676972858 -6.08E-05
  Decoupling Energy:                                              -0.0000018463
    44 OT DIIS     0.15E+00    1.8     0.00013320      -179.4677476851 -5.04E-05
  Decoupling Energy:                                              -0.0000018468
    45 OT DIIS     0.15E+00    1.9     0.00012279      -179.4677925978 -4.49E-05
  Decoupling Energy:                                              -0.0000018466
    46 OT DIIS     0.15E+00    1.8     0.00011300      -179.4678330005 -4.04E-05
  Decoupling Energy:                                              -0.0000018461
    47 OT DIIS     0.15E+00    1.8     0.00010404      -179.4678670606 -3.41E-05
  Decoupling Energy:                                              -0.0000018455
    48 OT DIIS     0.15E+00    1.8     0.00009590      -179.4678951331 -2.81E-05
  Decoupling Energy:                                              -0.0000018450
    49 OT DIIS     0.15E+00    1.8     0.00008814      -179.4679197165 -2.46E-05
  Decoupling Energy:                                              -0.0000018448
    50 OT DIIS     0.15E+00    1.8     0.00008161      -179.4679384378 -1.87E-05
  Decoupling Energy:                                              -0.0000018448
    51 OT DIIS     0.15E+00    1.8     0.00007504      -179.4679555873 -1.71E-05
  Decoupling Energy:                                              -0.0000018451
    52 OT DIIS     0.15E+00    1.8     0.00006944      -179.4679695510 -1.40E-05
  Decoupling Energy:                                              -0.0000018456
    53 OT DIIS     0.15E+00    1.8     0.00006439      -179.4679810488 -1.15E-05
  Decoupling Energy:                                              -0.0000018463
    54 OT DIIS     0.15E+00    1.8     0.00005956      -179.4679913778 -1.03E-05
  Decoupling Energy:                                              -0.0000018471
    55 OT DIIS     0.15E+00    1.8     0.00005516      -179.4680003686 -8.99E-06
  Decoupling Energy:                                              -0.0000018478
    56 OT DIIS     0.15E+00    1.8     0.00005121      -179.4680078064 -7.44E-06
  Decoupling Energy:                                              -0.0000018484
    57 OT DIIS     0.15E+00    1.8     0.00004740      -179.4680144092 -6.60E-06
  Decoupling Energy:                                              -0.0000018487
    58 OT DIIS     0.15E+00    1.8     0.00004421      -179.4680195515 -5.14E-06
  Decoupling Energy:                                              -0.0000018490
    59 OT DIIS     0.15E+00    1.8     0.00004106      -179.4680241785 -4.63E-06
  Decoupling Energy:                                              -0.0000018490
    60 OT DIIS     0.15E+00    1.8     0.00003836      -179.4680280798 -3.90E-06
  Decoupling Energy:                                              -0.0000018490
    61 OT DIIS     0.15E+00    1.8     0.00003598      -179.4680313997 -3.32E-06
  Decoupling Energy:                                              -0.0000018488
    62 OT DIIS     0.15E+00    1.8     0.00003363      -179.4680345126 -3.11E-06
  Decoupling Energy:                                              -0.0000018486
    63 OT DIIS     0.15E+00    1.8     0.00003146      -179.4680372832 -2.77E-06
  Decoupling Energy:                                              -0.0000018484
    64 OT DIIS     0.15E+00    1.8     0.00002948      -179.4680396918 -2.41E-06
  Decoupling Energy:                                              -0.0000018483
    65 OT DIIS     0.15E+00    1.8     0.00002752      -179.4680419317 -2.24E-06
  Decoupling Energy:                                              -0.0000018483
    66 OT DIIS     0.15E+00    1.8     0.00002576      -179.4680438278 -1.90E-06
  Decoupling Energy:                                              -0.0000018483
    67 OT DIIS     0.15E+00    1.8     0.00002399      -179.4680455565 -1.73E-06
  Decoupling Energy:                                              -0.0000018484
    68 OT DIIS     0.15E+00    1.8     0.00002243      -179.4680470141 -1.46E-06
  Decoupling Energy:                                              -0.0000018486
    69 OT DIIS     0.15E+00    1.9     0.00002108      -179.4680482229 -1.21E-06
  Decoupling Energy:                                              -0.0000018488
    70 OT DIIS     0.15E+00    1.8     0.00001975      -179.4680493465 -1.12E-06
  Decoupling Energy:                                              -0.0000018489
    71 OT DIIS     0.15E+00    1.8     0.00001852      -179.4680503342 -9.88E-07
  Decoupling Energy:                                              -0.0000018491
    72 OT DIIS     0.15E+00    1.8     0.00001736      -179.4680512177 -8.83E-07
  Decoupling Energy:                                              -0.0000018492
    73 OT DIIS     0.15E+00    1.8     0.00001623      -179.4680520250 -8.07E-07
  Decoupling Energy:                                              -0.0000018492
    74 OT DIIS     0.15E+00    1.8     0.00001521      -179.4680526951 -6.70E-07
  Decoupling Energy:                                              -0.0000018492
    75 OT DIIS     0.15E+00    1.8     0.00001424      -179.4680532841 -5.89E-07
  Decoupling Energy:                                              -0.0000018492
    76 OT DIIS     0.15E+00    1.8     0.00001340      -179.4680537814 -4.97E-07
  Decoupling Energy:                                              -0.0000018491
    77 OT DIIS     0.15E+00    1.9     0.00001268      -179.4680541891 -4.08E-07
  Decoupling Energy:                                              -0.0000018491
    78 OT DIIS     0.15E+00    1.8     0.00001198      -179.4680545743 -3.85E-07
  Decoupling Energy:                                              -0.0000018490
    79 OT DIIS     0.15E+00    1.8     0.00001135      -179.4680549124 -3.38E-07
  Decoupling Energy:                                              -0.0000018490
    80 OT DIIS     0.15E+00    1.8     0.00001075      -179.4680552248 -3.12E-07
  Decoupling Energy:                                              -0.0000018489
    81 OT DIIS     0.15E+00    1.8     0.00001018      -179.4680555234 -2.99E-07
  Decoupling Energy:                                              -0.0000018489
    82 OT DIIS     0.15E+00    1.8     0.00000965      -179.4680557833 -2.60E-07
  Decoupling Energy:                                              -0.0000018490
    83 OT DIIS     0.15E+00    1.8     0.00000915      -179.4680560176 -2.34E-07
  Decoupling Energy:                                              -0.0000018490
    84 OT DIIS     0.15E+00    1.8     0.00000870      -179.4680562315 -2.14E-07
  Decoupling Energy:                                              -0.0000018491
    85 OT DIIS     0.15E+00    1.8     0.00000830      -179.4680564114 -1.80E-07
  Decoupling Energy:                                              -0.0000018491
    86 OT DIIS     0.15E+00    1.8     0.00000790      -179.4680565906 -1.79E-07
  Decoupling Energy:                                              -0.0000018492
    87 OT DIIS     0.15E+00    1.8     0.00000754      -179.4680567549 -1.64E-07
  Decoupling Energy:                                              -0.0000018492
    88 OT DIIS     0.15E+00    1.8     0.00000719      -179.4680569082 -1.53E-07
  Decoupling Energy:                                              -0.0000018493
    89 OT DIIS     0.15E+00    1.8     0.00000685      -179.4680570559 -1.48E-07
  Decoupling Energy:                                              -0.0000018492
    90 OT DIIS     0.15E+00    1.8     0.00000654      -179.4680571855 -1.30E-07
  Decoupling Energy:                                              -0.0000018492
    91 OT DIIS     0.15E+00    1.8     0.00000625      -179.4680573014 -1.16E-07
  Decoupling Energy:                                              -0.0000018492
    92 OT DIIS     0.15E+00    1.8     0.00000597      -179.4680574135 -1.12E-07
  Decoupling Energy:                                              -0.0000018491
    93 OT DIIS     0.15E+00    1.8     0.00000573      -179.4680575077 -9.42E-08
  Decoupling Energy:                                              -0.0000018491
    94 OT DIIS     0.15E+00    1.8     0.00000549      -179.4680575995 -9.18E-08
  Decoupling Energy:                                              -0.0000018491
    95 OT DIIS     0.15E+00    1.8     0.00000528      -179.4680576822 -8.27E-08
  Decoupling Energy:                                              -0.0000018490
    96 OT DIIS     0.15E+00    1.8     0.00000509      -179.4680577573 -7.51E-08
  Decoupling Energy:                                              -0.0000018490
    97 OT DIIS     0.15E+00    1.8     0.00000491      -179.4680578302 -7.29E-08
  Decoupling Energy:                                              -0.0000018490
    98 OT DIIS     0.15E+00    1.8     0.00000474      -179.4680578969 -6.68E-08
  Decoupling Energy:                                              -0.0000018491
    99 OT DIIS     0.15E+00    1.8     0.00000458      -179.4680579570 -6.00E-08
  Decoupling Energy:                                              -0.0000018491
   100 OT DIIS     0.15E+00    1.8     0.00000443      -179.4680580181 -6.12E-08
  Decoupling Energy:                                              -0.0000018491
   101 OT DIIS     0.15E+00    1.8     0.00000430      -179.4680580710 -5.29E-08
  Decoupling Energy:                                              -0.0000018491
   102 OT DIIS     0.15E+00    1.8     0.00000417      -179.4680581234 -5.23E-08
  Decoupling Energy:                                              -0.0000018491
   103 OT DIIS     0.15E+00    1.8     0.00000406      -179.4680581728 -4.95E-08
  Decoupling Energy:                                              -0.0000018491
   104 OT DIIS     0.15E+00    1.8     0.00000395      -179.4680582197 -4.69E-08
  Decoupling Energy:                                              -0.0000018491
   105 OT DIIS     0.15E+00    1.8     0.00000384      -179.4680582667 -4.71E-08
  Decoupling Energy:                                              -0.0000018491
   106 OT DIIS     0.15E+00    1.8     0.00000374      -179.4680583127 -4.59E-08
  Decoupling Energy:                                              -0.0000018491
   107 OT DIIS     0.15E+00    1.8     0.00000365      -179.4680583553 -4.27E-08
  Decoupling Energy:                                              -0.0000018491
   108 OT DIIS     0.15E+00    1.8     0.00000355      -179.4680584005 -4.52E-08
  Decoupling Energy:                                              -0.0000018491
   109 OT DIIS     0.15E+00    1.8     0.00000346      -179.4680584406 -4.01E-08
  Decoupling Energy:                                              -0.0000018490
   110 OT DIIS     0.15E+00    1.8     0.00000338      -179.4680584803 -3.97E-08
  Decoupling Energy:                                              -0.0000018490
   111 OT DIIS     0.15E+00    1.8     0.00000330      -179.4680585183 -3.80E-08
  Decoupling Energy:                                              -0.0000018490
   112 OT DIIS     0.15E+00    1.8     0.00000322      -179.4680585549 -3.66E-08
  Decoupling Energy:                                              -0.0000018490
   113 OT DIIS     0.15E+00    1.8     0.00000315      -179.4680585914 -3.65E-08
  Decoupling Energy:                                              -0.0000018490
   114 OT DIIS     0.15E+00    1.8     0.00000307      -179.4680586270 -3.56E-08
  Decoupling Energy:                                              -0.0000018490
   115 OT DIIS     0.15E+00    1.8     0.00000301      -179.4680586595 -3.25E-08
  Decoupling Energy:                                              -0.0000018490
   116 OT DIIS     0.15E+00    1.8     0.00000294      -179.4680586934 -3.38E-08
  Decoupling Energy:                                              -0.0000018490
   117 OT DIIS     0.15E+00    1.9     0.00000287      -179.4680587231 -2.98E-08
  Decoupling Energy:                                              -0.0000018490
   118 OT DIIS     0.15E+00    1.8     0.00000281      -179.4680587526 -2.94E-08
  Decoupling Energy:                                              -0.0000018490
   119 OT DIIS     0.15E+00    1.8     0.00000276      -179.4680587806 -2.80E-08
  Decoupling Energy:                                              -0.0000018490
   120 OT DIIS     0.15E+00    1.8     0.00000270      -179.4680588074 -2.68E-08
  Decoupling Energy:                                              -0.0000018490
   121 OT DIIS     0.15E+00    1.8     0.00000265      -179.4680588338 -2.65E-08
  Decoupling Energy:                                              -0.0000018490
   122 OT DIIS     0.15E+00    1.8     0.00000260      -179.4680588599 -2.61E-08
  Decoupling Energy:                                              -0.0000018490
   123 OT DIIS     0.15E+00    1.8     0.00000255      -179.4680588841 -2.42E-08
  Decoupling Energy:                                              -0.0000018490
   124 OT DIIS     0.15E+00    1.8     0.00000250      -179.4680589098 -2.57E-08
  Decoupling Energy:                                              -0.0000018489
   125 OT DIIS     0.15E+00    1.8     0.00000245      -179.4680589326 -2.28E-08
  Decoupling Energy:                                              -0.0000018489
   126 OT DIIS     0.15E+00    1.8     0.00000240      -179.4680589555 -2.29E-08
  Decoupling Energy:                                              -0.0000018489
   127 OT DIIS     0.15E+00    1.8     0.00000236      -179.4680589774 -2.19E-08
  Decoupling Energy:                                              -0.0000018489
   128 OT DIIS     0.15E+00    1.8     0.00000232      -179.4680589986 -2.11E-08
  Decoupling Energy:                                              -0.0000018489
   129 OT DIIS     0.15E+00    1.8     0.00000227      -179.4680590198 -2.12E-08
  Decoupling Energy:                                              -0.0000018489
   130 OT DIIS     0.15E+00    1.8     0.00000223      -179.4680590410 -2.12E-08
  Decoupling Energy:                                              -0.0000018489
   131 OT DIIS     0.15E+00    1.8     0.00000219      -179.4680590607 -1.97E-08
  Decoupling Energy:                                              -0.0000018489
   132 OT DIIS     0.15E+00    1.8     0.00000214      -179.4680590817 -2.11E-08
  Decoupling Energy:                                              -0.0000018489
   133 OT DIIS     0.15E+00    1.8     0.00000210      -179.4680591002 -1.85E-08
  Decoupling Energy:                                              -0.0000018489
   134 OT DIIS     0.15E+00    1.8     0.00000206      -179.4680591186 -1.84E-08
  Decoupling Energy:                                              -0.0000018489
   135 OT DIIS     0.15E+00    1.8     0.00000202      -179.4680591359 -1.73E-08
  Decoupling Energy:                                              -0.0000018489
   136 OT DIIS     0.15E+00    1.8     0.00000198      -179.4680591522 -1.63E-08
  Decoupling Energy:                                              -0.0000018489
   137 OT DIIS     0.15E+00    1.8     0.00000194      -179.4680591682 -1.61E-08
  Decoupling Energy:                                              -0.0000018489
   138 OT DIIS     0.15E+00    1.8     0.00000191      -179.4680591841 -1.59E-08
  Decoupling Energy:                                              -0.0000018488
   139 OT DIIS     0.15E+00    1.8     0.00000187      -179.4680591985 -1.43E-08
  Decoupling Energy:                                              -0.0000018488
   140 OT DIIS     0.15E+00    1.8     0.00000183      -179.4680592135 -1.50E-08
  Decoupling Energy:                                              -0.0000018488
   141 OT DIIS     0.15E+00    1.9     0.00000180      -179.4680592262 -1.27E-08
  Decoupling Energy:                                              -0.0000018488
   142 OT DIIS     0.15E+00    1.8     0.00000176      -179.4680592386 -1.24E-08
  Decoupling Energy:                                              -0.0000018488
   143 OT DIIS     0.15E+00    1.8     0.00000173      -179.4680592504 -1.17E-08
  Decoupling Energy:                                              -0.0000018488
   144 OT DIIS     0.15E+00    1.8     0.00000170      -179.4680592613 -1.09E-08
  Decoupling Energy:                                              -0.0000018488
   145 OT DIIS     0.15E+00    1.8     0.00000167      -179.4680592720 -1.07E-08
  Decoupling Energy:                                              -0.0000018488
   146 OT DIIS     0.15E+00    1.8     0.00000164      -179.4680592827 -1.07E-08
  Decoupling Energy:                                              -0.0000018488
   147 OT DIIS     0.15E+00    1.8     0.00000162      -179.4680592922 -9.47E-09
  Decoupling Energy:                                              -0.0000018488
   148 OT DIIS     0.15E+00    1.8     0.00000159      -179.4680593022 -1.00E-08
  Decoupling Energy:                                              -0.0000018488
   149 OT DIIS     0.15E+00    1.9     0.00000156      -179.4680593109 -8.69E-09
  Decoupling Energy:                                              -0.0000018488
   150 OT DIIS     0.15E+00    1.8     0.00000153      -179.4680593195 -8.63E-09
  Decoupling Energy:                                              -0.0000018488
   151 OT DIIS     0.15E+00    1.8     0.00000151      -179.4680593280 -8.43E-09
  Decoupling Energy:                                              -0.0000018488
   152 OT DIIS     0.15E+00    1.8     0.00000148      -179.4680593359 -7.98E-09
  Decoupling Energy:                                              -0.0000018488
   153 OT DIIS     0.15E+00    1.8     0.00000146      -179.4680593439 -7.97E-09
  Decoupling Energy:                                              -0.0000018488
   154 OT DIIS     0.15E+00    1.8     0.00000144      -179.4680593521 -8.20E-09
  Decoupling Energy:                                              -0.0000018488
   155 OT DIIS     0.15E+00    1.8     0.00000141      -179.4680593595 -7.34E-09
  Decoupling Energy:                                              -0.0000018488
   156 OT DIIS     0.15E+00    1.8     0.00000139      -179.4680593674 -7.94E-09
  Decoupling Energy:                                              -0.0000018487
   157 OT DIIS     0.15E+00    1.9     0.00000136      -179.4680593745 -7.05E-09
  Decoupling Energy:                                              -0.0000018487
   158 OT DIIS     0.15E+00    1.8     0.00000134      -179.4680593815 -7.03E-09
  Decoupling Energy:                                              -0.0000018487
   159 OT DIIS     0.15E+00    1.8     0.00000132      -179.4680593884 -6.96E-09
  Decoupling Energy:                                              -0.0000018487
   160 OT DIIS     0.15E+00    1.8     0.00000130      -179.4680593950 -6.54E-09
  Decoupling Energy:                                              -0.0000018487
   161 OT DIIS     0.15E+00    1.9     0.00000127      -179.4680594014 -6.39E-09
  Decoupling Energy:                                              -0.0000018487
   162 OT DIIS     0.15E+00    1.8     0.00000125      -179.4680594079 -6.54E-09
  Decoupling Energy:                                              -0.0000018487
   163 OT DIIS     0.15E+00    1.8     0.00000123      -179.4680594137 -5.77E-09
  Decoupling Energy:                                              -0.0000018487
   164 OT DIIS     0.15E+00    2.2     0.00000121      -179.4680594198 -6.15E-09
  Decoupling Energy:                                              -0.0000018487
   165 OT DIIS     0.15E+00    2.0     0.00000119      -179.4680594253 -5.46E-09
  Decoupling Energy:                                              -0.0000018487
   166 OT DIIS     0.15E+00    1.9     0.00000116      -179.4680594306 -5.27E-09
  Decoupling Energy:                                              -0.0000018487
   167 OT DIIS     0.15E+00    1.8     0.00000114      -179.4680594357 -5.08E-09
  Decoupling Energy:                                              -0.0000018487
   168 OT DIIS     0.15E+00    1.8     0.00000112      -179.4680594403 -4.65E-09
  Decoupling Energy:                                              -0.0000018487
   169 OT DIIS     0.15E+00    1.8     0.00000111      -179.4680594447 -4.41E-09
  Decoupling Energy:                                              -0.0000018487
   170 OT DIIS     0.15E+00    1.8     0.00000109      -179.4680594492 -4.49E-09
  Decoupling Energy:                                              -0.0000018487
   171 OT DIIS     0.15E+00    1.8     0.00000107      -179.4680594532 -3.95E-09
  Decoupling Energy:                                              -0.0000018487
   172 OT DIIS     0.15E+00    1.8     0.00000105      -179.4680594573 -4.17E-09
  Decoupling Energy:                                              -0.0000018487
   173 OT DIIS     0.15E+00    1.8     0.00000104      -179.4680594611 -3.77E-09
  Decoupling Energy:                                              -0.0000018487
   174 OT DIIS     0.15E+00    1.8     0.00000102      -179.4680594647 -3.64E-09
  Decoupling Energy:                                              -0.0000018487
   175 OT DIIS     0.15E+00    1.8     0.00000100      -179.4680594683 -3.53E-09
  Decoupling Energy:                                              -0.0000018487
   176 OT DIIS     0.15E+00    1.8     0.00000099      -179.4680594715 -3.28E-09
  Decoupling Energy:                                              -0.0000018487
   177 OT DIIS     0.15E+00    1.8     0.00000097      -179.4680594747 -3.13E-09
  Decoupling Energy:                                              -0.0000018487
   178 OT DIIS     0.15E+00    1.8     0.00000096      -179.4680594779 -3.27E-09
  Decoupling Energy:                                              -0.0000018486
   179 OT DIIS     0.15E+00    1.8     0.00000094      -179.4680594809 -2.99E-09
  Decoupling Energy:                                              -0.0000018486
   180 OT DIIS     0.15E+00    1.8     0.00000093      -179.4680594841 -3.21E-09
  Decoupling Energy:                                              -0.0000018486
   181 OT DIIS     0.15E+00    1.9     0.00000091      -179.4680594871 -3.00E-09
  Decoupling Energy:                                              -0.0000018486
   182 OT DIIS     0.15E+00    1.8     0.00000090      -179.4680594901 -2.95E-09
  Decoupling Energy:                                              -0.0000018486
   183 OT DIIS     0.15E+00    1.8     0.00000088      -179.4680594930 -2.90E-09
  Decoupling Energy:                                              -0.0000018486
   184 OT DIIS     0.15E+00    1.8     0.00000087      -179.4680594957 -2.73E-09
  Decoupling Energy:                                              -0.0000018486
   185 OT DIIS     0.15E+00    1.8     0.00000086      -179.4680594983 -2.63E-09
  Decoupling Energy:                                              -0.0000018486
   186 OT DIIS     0.15E+00    1.8     0.00000084      -179.4680595011 -2.74E-09
  Decoupling Energy:                                              -0.0000018486
   187 OT DIIS     0.15E+00    1.8     0.00000083      -179.4680595036 -2.52E-09
  Decoupling Energy:                                              -0.0000018486
   188 OT DIIS     0.15E+00    1.8     0.00000082      -179.4680595063 -2.65E-09
  Decoupling Energy:                                              -0.0000018486
   189 OT DIIS     0.15E+00    1.9     0.00000080      -179.4680595087 -2.45E-09
  Decoupling Energy:                                              -0.0000018486
   190 OT DIIS     0.15E+00    1.8     0.00000079      -179.4680595111 -2.37E-09
  Decoupling Energy:                                              -0.0000018486
   191 OT DIIS     0.15E+00    1.8     0.00000078      -179.4680595134 -2.28E-09
  Decoupling Energy:                                              -0.0000018486
   192 OT DIIS     0.15E+00    1.8     0.00000076      -179.4680595154 -2.10E-09
  Decoupling Energy:                                              -0.0000018486
   193 OT DIIS     0.15E+00    1.8     0.00000075      -179.4680595174 -1.98E-09
  Decoupling Energy:                                              -0.0000018486
   194 OT DIIS     0.15E+00    1.8     0.00000074      -179.4680595194 -2.01E-09
  Decoupling Energy:                                              -0.0000018486
   195 OT DIIS     0.15E+00    1.8     0.00000073      -179.4680595213 -1.83E-09
  Decoupling Energy:                                              -0.0000018486
   196 OT DIIS     0.15E+00    1.8     0.00000072      -179.4680595231 -1.87E-09
  Decoupling Energy:                                              -0.0000018486
   197 OT DIIS     0.15E+00    1.8     0.00000070      -179.4680595248 -1.71E-09
  Decoupling Energy:                                              -0.0000018486
   198 OT DIIS     0.15E+00    1.8     0.00000069      -179.4680595265 -1.64E-09
  Decoupling Energy:                                              -0.0000018486
   199 OT DIIS     0.15E+00    1.8     0.00000068      -179.4680595280 -1.57E-09
  Decoupling Energy:                                              -0.0000018486
   200 OT DIIS     0.15E+00    1.8     0.00000067      -179.4680595295 -1.45E-09
  Decoupling Energy:                                              -0.0000018486
   201 OT DIIS     0.15E+00    1.8     0.00000066      -179.4680595309 -1.39E-09
  Decoupling Energy:                                              -0.0000018486
   202 OT DIIS     0.15E+00    1.8     0.00000065      -179.4680595323 -1.42E-09
  Decoupling Energy:                                              -0.0000018486
   203 OT DIIS     0.15E+00    1.8     0.00000064      -179.4680595336 -1.32E-09
  Decoupling Energy:                                              -0.0000018486
   204 OT DIIS     0.15E+00    1.8     0.00000063      -179.4680595350 -1.38E-09
  Decoupling Energy:                                              -0.0000018486
   205 OT DIIS     0.15E+00    1.9     0.00000063      -179.4680595363 -1.30E-09
  Decoupling Energy:                                              -0.0000018486
   206 OT DIIS     0.15E+00    1.8     0.00000062      -179.4680595376 -1.28E-09
  Decoupling Energy:                                              -0.0000018486
   207 OT DIIS     0.15E+00    1.8     0.00000061      -179.4680595389 -1.27E-09
  Decoupling Energy:                                              -0.0000018486
   208 OT DIIS     0.15E+00    1.8     0.00000060      -179.4680595401 -1.19E-09
  Decoupling Energy:                                              -0.0000018486
   209 OT DIIS     0.15E+00    1.8     0.00000059      -179.4680595412 -1.16E-09
  Decoupling Energy:                                              -0.0000018486
   210 OT DIIS     0.15E+00    1.8     0.00000058      -179.4680595424 -1.21E-09
  Decoupling Energy:                                              -0.0000018486
   211 OT DIIS     0.15E+00    1.8     0.00000057      -179.4680595435 -1.12E-09
  Decoupling Energy:                                              -0.0000018486
   212 OT DIIS     0.15E+00    1.8     0.00000056      -179.4680595447 -1.19E-09
  Decoupling Energy:                                              -0.0000018486
   213 OT DIIS     0.15E+00    1.9     0.00000055      -179.4680595458 -1.12E-09
  Decoupling Energy:                                              -0.0000018486
   214 OT DIIS     0.15E+00    1.8     0.00000055      -179.4680595469 -1.09E-09
  Decoupling Energy:                                              -0.0000018486
   215 OT DIIS     0.15E+00    1.8     0.00000054      -179.4680595480 -1.07E-09
  Decoupling Energy:                                              -0.0000018486
   216 OT DIIS     0.15E+00    1.8     0.00000053      -179.4680595490 -9.78E-10
  Decoupling Energy:                                              -0.0000018486
   217 OT DIIS     0.15E+00    1.8     0.00000052      -179.4680595499 -9.34E-10
  Decoupling Energy:                                              -0.0000018486
   218 OT DIIS     0.15E+00    1.8     0.00000051      -179.4680595509 -9.47E-10
  Decoupling Energy:                                              -0.0000018486
   219 OT DIIS     0.15E+00    1.8     0.00000050      -179.4680595517 -8.53E-10
  Decoupling Energy:                                              -0.0000018486
   220 OT DIIS     0.15E+00    1.8     0.00000050      -179.4680595526 -8.82E-10
  Decoupling Energy:                                              -0.0000018485
   221 OT DIIS     0.15E+00    1.8     0.00000049      -179.4680595534 -8.15E-10
  Decoupling Energy:                                              -0.0000018485
   222 OT DIIS     0.15E+00    1.9     0.00000048      -179.4680595542 -7.75E-10
  Decoupling Energy:                                              -0.0000018485
   223 OT DIIS     0.15E+00    1.8     0.00000047      -179.4680595549 -7.55E-10
  Decoupling Energy:                                              -0.0000018485
   224 OT DIIS     0.15E+00    1.8     0.00000047      -179.4680595556 -6.89E-10
  Decoupling Energy:                                              -0.0000018485
   225 OT DIIS     0.15E+00    1.8     0.00000046      -179.4680595563 -6.53E-10
  Decoupling Energy:                                              -0.0000018485
   226 OT DIIS     0.15E+00    1.8     0.00000045      -179.4680595569 -6.67E-10
  Decoupling Energy:                                              -0.0000018485
   227 OT DIIS     0.15E+00    1.8     0.00000045      -179.4680595575 -6.03E-10
  Decoupling Energy:                                              -0.0000018485
   228 OT DIIS     0.15E+00    1.8     0.00000044      -179.4680595582 -6.29E-10
  Decoupling Energy:                                              -0.0000018485
   229 OT DIIS     0.15E+00    1.8     0.00000044      -179.4680595588 -5.99E-10
  Decoupling Energy:                                              -0.0000018485
   230 OT DIIS     0.15E+00    1.8     0.00000043      -179.4680595594 -5.81E-10
  Decoupling Energy:                                              -0.0000018485
   231 OT DIIS     0.15E+00    1.8     0.00000042      -179.4680595599 -5.84E-10
  Decoupling Energy:                                              -0.0000018485
   232 OT DIIS     0.15E+00    1.8     0.00000042      -179.4680595605 -5.53E-10
  Decoupling Energy:                                              -0.0000018485
   233 OT DIIS     0.15E+00    1.8     0.00000041      -179.4680595610 -5.31E-10
  Decoupling Energy:                                              -0.0000018485
   234 OT DIIS     0.15E+00    1.8     0.00000041      -179.4680595616 -5.55E-10
  Decoupling Energy:                                              -0.0000018485
   235 OT DIIS     0.15E+00    1.8     0.00000040      -179.4680595621 -5.12E-10
  Decoupling Energy:                                              -0.0000018485
   236 OT DIIS     0.15E+00    1.8     0.00000039      -179.4680595626 -5.39E-10
  Decoupling Energy:                                              -0.0000018485
   237 OT DIIS     0.15E+00    1.9     0.00000039      -179.4680595632 -5.25E-10
  Decoupling Energy:                                              -0.0000018485
   238 OT DIIS     0.15E+00    1.8     0.00000038      -179.4680595637 -5.09E-10
  Decoupling Energy:                                              -0.0000018485
   239 OT DIIS     0.15E+00    1.8     0.00000038      -179.4680595642 -5.07E-10
  Decoupling Energy:                                              -0.0000018485
   240 OT DIIS     0.15E+00    1.8     0.00000037      -179.4680595646 -4.77E-10
  Decoupling Energy:                                              -0.0000018485
   241 OT DIIS     0.15E+00    1.8     0.00000037      -179.4680595651 -4.49E-10
  Decoupling Energy:                                              -0.0000018485
   242 OT DIIS     0.15E+00    1.8     0.00000036      -179.4680595656 -4.60E-10
  Decoupling Energy:                                              -0.0000018485
   243 OT DIIS     0.15E+00    1.8     0.00000035      -179.4680595660 -4.17E-10
  Decoupling Energy:                                              -0.0000018485
   244 OT DIIS     0.15E+00    1.8     0.00000035      -179.4680595664 -4.25E-10
  Decoupling Energy:                                              -0.0000018485
   245 OT DIIS     0.15E+00    1.9     0.00000034      -179.4680595668 -4.04E-10
  Decoupling Energy:                                              -0.0000018485
   246 OT DIIS     0.15E+00    1.8     0.00000034      -179.4680595672 -3.83E-10
  Decoupling Energy:                                              -0.0000018485
   247 OT DIIS     0.15E+00    1.8     0.00000033      -179.4680595676 -3.69E-10
  Decoupling Energy:                                              -0.0000018485
   248 OT DIIS     0.15E+00    1.8     0.00000033      -179.4680595679 -3.43E-10
  Decoupling Energy:                                              -0.0000018485
   249 OT DIIS     0.15E+00    1.8     0.00000032      -179.4680595682 -3.18E-10
  Decoupling Energy:                                              -0.0000018485
   250 OT DIIS     0.15E+00    1.8     0.00000032      -179.4680595685 -3.23E-10
  Decoupling Energy:                                              -0.0000018485
   251 OT DIIS     0.15E+00    1.8     0.00000032      -179.4680595688 -2.97E-10
  Decoupling Energy:                                              -0.0000018485
   252 OT DIIS     0.15E+00    1.8     0.00000031      -179.4680595691 -3.02E-10
  Decoupling Energy:                                              -0.0000018485
   253 OT DIIS     0.15E+00    1.9     0.00000031      -179.4680595694 -2.91E-10
  Decoupling Energy:                                              -0.0000018485
   254 OT DIIS     0.15E+00    1.8     0.00000030      -179.4680595697 -2.80E-10
  Decoupling Energy:                                              -0.0000018485
   255 OT DIIS     0.15E+00    1.8     0.00000030      -179.4680595700 -2.73E-10
  Decoupling Energy:                                              -0.0000018485
   256 OT DIIS     0.15E+00    1.8     0.00000029      -179.4680595702 -2.61E-10
  Decoupling Energy:                                              -0.0000018485
   257 OT DIIS     0.15E+00    1.8     0.00000029      -179.4680595705 -2.51E-10
  Decoupling Energy:                                              -0.0000018485
   258 OT DIIS     0.15E+00    1.8     0.00000029      -179.4680595708 -2.61E-10
  Decoupling Energy:                                              -0.0000018485
   259 OT DIIS     0.15E+00    1.8     0.00000028      -179.4680595710 -2.49E-10
  Decoupling Energy:                                              -0.0000018485
   260 OT DIIS     0.15E+00    1.8     0.00000028      -179.4680595713 -2.58E-10
  Decoupling Energy:                                              -0.0000018485
   261 OT DIIS     0.15E+00    1.9     0.00000027      -179.4680595715 -2.52E-10
  Decoupling Energy:                                              -0.0000018485
   262 OT DIIS     0.15E+00    1.8     0.00000027      -179.4680595718 -2.46E-10
  Decoupling Energy:                                              -0.0000018485
   263 OT DIIS     0.15E+00    1.8     0.00000027      -179.4680595720 -2.40E-10
  Decoupling Energy:                                              -0.0000018485
   264 OT DIIS     0.15E+00    1.8     0.00000026      -179.4680595722 -2.29E-10
  Decoupling Energy:                                              -0.0000018485
   265 OT DIIS     0.15E+00    1.8     0.00000026      -179.4680595724 -2.20E-10
  Decoupling Energy:                                              -0.0000018485
   266 OT DIIS     0.15E+00    1.8     0.00000026      -179.4680595727 -2.26E-10
  Decoupling Energy:                                              -0.0000018485
   267 OT DIIS     0.15E+00    1.8     0.00000025      -179.4680595729 -2.11E-10
  Decoupling Energy:                                              -0.0000018485
   268 OT DIIS     0.15E+00    1.8     0.00000025      -179.4680595731 -2.15E-10
  Decoupling Energy:                                              -0.0000018485
   269 OT DIIS     0.15E+00    1.9     0.00000024      -179.4680595733 -2.03E-10
  Decoupling Energy:                                              -0.0000018485
   270 OT DIIS     0.15E+00    1.8     0.00000024      -179.4680595735 -1.92E-10
  Decoupling Energy:                                              -0.0000018485
   271 OT DIIS     0.15E+00    1.8     0.00000024      -179.4680595737 -1.83E-10
  Decoupling Energy:                                              -0.0000018485
   272 OT DIIS     0.15E+00    1.8     0.00000023      -179.4680595738 -1.70E-10
  Decoupling Energy:                                              -0.0000018485
   273 OT DIIS     0.15E+00    1.8     0.00000023      -179.4680595740 -1.61E-10
  Decoupling Energy:                                              -0.0000018485
   274 OT DIIS     0.15E+00    1.8     0.00000023      -179.4680595742 -1.63E-10
  Decoupling Energy:                                              -0.0000018485
   275 OT DIIS     0.15E+00    1.8     0.00000022      -179.4680595743 -1.50E-10
  Decoupling Energy:                                              -0.0000018485
   276 OT DIIS     0.15E+00    1.8     0.00000022      -179.4680595745 -1.53E-10
  Decoupling Energy:                                              -0.0000018485
   277 OT DIIS     0.15E+00    1.9     0.00000022      -179.4680595746 -1.44E-10
  Decoupling Energy:                                              -0.0000018485
   278 OT DIIS     0.15E+00    1.9     0.00000021      -179.4680595748 -1.37E-10
  Decoupling Energy:                                              -0.0000018485
   279 OT DIIS     0.15E+00    1.8     0.00000021      -179.4680595749 -1.34E-10
  Decoupling Energy:                                              -0.0000018485
   280 OT DIIS     0.15E+00    1.8     0.00000021      -179.4680595750 -1.26E-10
  Decoupling Energy:                                              -0.0000018485
   281 OT DIIS     0.15E+00    1.8     0.00000021      -179.4680595751 -1.23E-10
  Decoupling Energy:                                              -0.0000018485
   282 OT DIIS     0.15E+00    1.8     0.00000020      -179.4680595753 -1.28E-10
  Decoupling Energy:                                              -0.0000018485
   283 OT DIIS     0.15E+00    1.8     0.00000020      -179.4680595754 -1.22E-10
  Decoupling Energy:                                              -0.0000018485
   284 OT DIIS     0.15E+00    1.8     0.00000020      -179.4680595755 -1.26E-10
  Decoupling Energy:                                              -0.0000018485
   285 OT DIIS     0.15E+00    1.9     0.00000020      -179.4680595756 -1.24E-10
  Decoupling Energy:                                              -0.0000018485
   286 OT DIIS     0.15E+00    1.8     0.00000019      -179.4680595758 -1.18E-10
  Decoupling Energy:                                              -0.0000018485
   287 OT DIIS     0.15E+00    1.8     0.00000019      -179.4680595759 -1.18E-10
  Decoupling Energy:                                              -0.0000018485
   288 OT DIIS     0.15E+00    1.8     0.00000019      -179.4680595760 -1.12E-10
  Decoupling Energy:                                              -0.0000018485
   289 OT DIIS     0.15E+00    1.8     0.00000019      -179.4680595761 -1.09E-10
  Decoupling Energy:                                              -0.0000018485
   290 OT DIIS     0.15E+00    1.8     0.00000018      -179.4680595762 -1.14E-10
  Decoupling Energy:                                              -0.0000018485
   291 OT DIIS     0.15E+00    1.8     0.00000018      -179.4680595763 -1.07E-10
  Decoupling Energy:                                              -0.0000018485
   292 OT DIIS     0.15E+00    1.8     0.00000018      -179.4680595764 -1.09E-10
  Decoupling Energy:                                              -0.0000018485
   293 OT DIIS     0.15E+00    1.9     0.00000017      -179.4680595765 -1.05E-10
  Decoupling Energy:                                              -0.0000018485
   294 OT DIIS     0.15E+00    1.8     0.00000017      -179.4680595766 -9.62E-11
  Decoupling Energy:                                              -0.0000018485
   295 OT DIIS     0.15E+00    1.8     0.00000017      -179.4680595767 -9.38E-11
  Decoupling Energy:                                              -0.0000018485
   296 OT DIIS     0.15E+00    1.8     0.00000017      -179.4680595768 -8.69E-11
  Decoupling Energy:                                              -0.0000018485
   297 OT DIIS     0.15E+00    1.8     0.00000016      -179.4680595769 -8.22E-11
  Decoupling Energy:                                              -0.0000018485
   298 OT DIIS     0.15E+00    1.8     0.00000016      -179.4680595770 -8.41E-11
  Decoupling Energy:                                              -0.0000018485
   299 OT DIIS     0.15E+00    1.8     0.00000016      -179.4680595771 -7.75E-11
  Decoupling Energy:                                              -0.0000018485
   300 OT DIIS     0.15E+00    1.8     0.00000016      -179.4680595771 -7.75E-11
  Decoupling Energy:                                              -0.0000018485
   301 OT DIIS     0.15E+00    1.8     0.00000016      -179.4680595772 -7.49E-11
  Decoupling Energy:                                              -0.0000018485
   302 OT DIIS     0.15E+00    1.8     0.00000015      -179.4680595773 -6.82E-11
  Decoupling Energy:                                              -0.0000018485
   303 OT DIIS     0.15E+00    1.8     0.00000015      -179.4680595773 -6.70E-11
  Decoupling Energy:                                              -0.0000018485
   304 OT DIIS     0.15E+00    1.8     0.00000015      -179.4680595774 -6.37E-11
  Decoupling Energy:                                              -0.0000018485
   305 OT DIIS     0.15E+00    1.8     0.00000015      -179.4680595775 -6.08E-11
  Decoupling Energy:                                              -0.0000018485
   306 OT DIIS     0.15E+00    1.8     0.00000015      -179.4680595775 -6.41E-11
  Decoupling Energy:                                              -0.0000018485
   307 OT DIIS     0.15E+00    1.8     0.00000014      -179.4680595776 -6.13E-11
  Decoupling Energy:                                              -0.0000018485
   308 OT DIIS     0.15E+00    1.8     0.00000014      -179.4680595777 -6.25E-11
  Decoupling Energy:                                              -0.0000018485
   309 OT DIIS     0.15E+00    1.8     0.00000014      -179.4680595777 -6.28E-11
  Decoupling Energy:                                              -0.0000018485
   310 OT DIIS     0.15E+00    1.8     0.00000014      -179.4680595778 -5.80E-11
  Decoupling Energy:                                              -0.0000018485
   311 OT DIIS     0.15E+00    1.8     0.00000014      -179.4680595778 -5.84E-11
  Decoupling Energy:                                              -0.0000018485
   312 OT DIIS     0.15E+00    1.8     0.00000013      -179.4680595779 -5.65E-11
  Decoupling Energy:                                              -0.0000018485
   313 OT DIIS     0.15E+00    1.8     0.00000013      -179.4680595779 -5.47E-11
  Decoupling Energy:                                              -0.0000018485
   314 OT DIIS     0.15E+00    1.8     0.00000013      -179.4680595780 -5.75E-11
  Decoupling Energy:                                              -0.0000018485
   315 OT DIIS     0.15E+00    1.8     0.00000013      -179.4680595781 -5.51E-11
  Decoupling Energy:                                              -0.0000018485
   316 OT DIIS     0.15E+00    1.8     0.00000013      -179.4680595781 -5.52E-11
  Decoupling Energy:                                              -0.0000018485
   317 OT DIIS     0.15E+00    1.9     0.00000013      -179.4680595782 -5.44E-11
  Decoupling Energy:                                              -0.0000018485
   318 OT DIIS     0.15E+00    1.9     0.00000012      -179.4680595782 -4.97E-11
  Decoupling Energy:                                              -0.0000018485
   319 OT DIIS     0.15E+00    1.8     0.00000012      -179.4680595783 -4.79E-11
  Decoupling Energy:                                              -0.0000018485
   320 OT DIIS     0.15E+00    1.8     0.00000012      -179.4680595783 -4.55E-11
  Decoupling Energy:                                              -0.0000018485
   321 OT DIIS     0.15E+00    1.8     0.00000012      -179.4680595783 -4.26E-11
  Decoupling Energy:                                              -0.0000018485
   322 OT DIIS     0.15E+00    1.8     0.00000012      -179.4680595784 -4.37E-11
  Decoupling Energy:                                              -0.0000018485
   323 OT DIIS     0.15E+00    1.8     0.00000012      -179.4680595784 -4.11E-11
  Decoupling Energy:                                              -0.0000018485
   324 OT DIIS     0.15E+00    1.8     0.00000011      -179.4680595785 -4.01E-11
  Decoupling Energy:                                              -0.0000018485
   325 OT DIIS     0.15E+00    1.9     0.00000011      -179.4680595785 -3.90E-11
  Decoupling Energy:                                              -0.0000018485
   326 OT DIIS     0.15E+00    1.8     0.00000011      -179.4680595785 -3.52E-11
  Decoupling Energy:                                              -0.0000018485
   327 OT DIIS     0.15E+00    1.8     0.00000011      -179.4680595786 -3.46E-11
  Decoupling Energy:                                              -0.0000018485
   328 OT DIIS     0.15E+00    1.8     0.00000011      -179.4680595786 -3.24E-11
  Decoupling Energy:                                              -0.0000018485
   329 OT DIIS     0.15E+00    1.8     0.00000011      -179.4680595786 -3.13E-11
  Decoupling Energy:                                              -0.0000018485
   330 OT DIIS     0.15E+00    1.8     0.00000011      -179.4680595787 -3.23E-11
  Decoupling Energy:                                              -0.0000018485
   331 OT DIIS     0.15E+00    2.3     0.00000010      -179.4680595787 -3.14E-11
  Decoupling Energy:                                              -0.0000018485
   332 OT DIIS     0.15E+00    1.9     0.00000010      -179.4680595787 -3.14E-11
  Decoupling Energy:                                              -0.0000018485
   333 OT DIIS     0.15E+00    1.8     0.00000010      -179.4680595788 -3.17E-11
  Decoupling Energy:                                              -0.0000018485
   334 OT DIIS     0.15E+00    1.8     0.00000010      -179.4680595788 -2.95E-11
  Decoupling Energy:                                              -0.0000018485
   335 OT DIIS     0.15E+00    1.8     0.00000010      -179.4680595788 -2.96E-11
  Decoupling Energy:                                              -0.0000018485
   336 OT DIIS     0.15E+00    1.8     0.00000010      -179.4680595789 -2.86E-11
  Decoupling Energy:                                              -0.0000018485
   337 OT DIIS     0.15E+00    1.8     0.00000010      -179.4680595789 -2.81E-11
  Decoupling Energy:                                              -0.0000018485
   338 OT DIIS     0.15E+00    1.8     0.00000009      -179.4680595789 -2.92E-11
  Decoupling Energy:                                              -0.0000018485
   339 OT DIIS     0.15E+00    1.8     0.00000009      -179.4680595789 -2.82E-11
  Decoupling Energy:                                              -0.0000018485
   340 OT DIIS     0.15E+00    1.8     0.00000009      -179.4680595790 -2.84E-11
  Decoupling Energy:                                              -0.0000018485
   341 OT DIIS     0.15E+00    1.8     0.00000009      -179.4680595790 -2.81E-11
  Decoupling Energy:                                              -0.0000018485
   342 OT DIIS     0.15E+00    1.8     0.00000009      -179.4680595790 -2.58E-11
  Decoupling Energy:                                              -0.0000018485
   343 OT DIIS     0.15E+00    1.8     0.00000009      -179.4680595791 -2.53E-11
  Decoupling Energy:                                              -0.0000018485
   344 OT DIIS     0.15E+00    1.8     0.00000009      -179.4680595791 -2.39E-11
  Decoupling Energy:                                              -0.0000018485
   345 OT DIIS     0.15E+00    1.8     0.00000009      -179.4680595791 -2.26E-11
  Decoupling Energy:                                              -0.0000018485
   346 OT DIIS     0.15E+00    1.8     0.00000008      -179.4680595791 -2.30E-11
  Decoupling Energy:                                              -0.0000018485
   347 OT DIIS     0.15E+00    1.8     0.00000008      -179.4680595791 -2.13E-11
  Decoupling Energy:                                              -0.0000018485
   348 OT DIIS     0.15E+00    1.8     0.00000008      -179.4680595792 -2.13E-11
  Decoupling Energy:                                              -0.0000018485
   349 OT DIIS     0.15E+00    1.8     0.00000008      -179.4680595792 -2.03E-11
  Decoupling Energy:                                              -0.0000018485
   350 OT DIIS     0.15E+00    1.9     0.00000008      -179.4680595792 -1.86E-11
  Decoupling Energy:                                              -0.0000018485
   351 OT DIIS     0.15E+00    1.8     0.00000008      -179.4680595792 -1.81E-11
  Decoupling Energy:                                              -0.0000018485
   352 OT DIIS     0.15E+00    1.8     0.00000008      -179.4680595792 -1.69E-11
  Decoupling Energy:                                              -0.0000018485
   353 OT DIIS     0.15E+00    1.8     0.00000008      -179.4680595793 -1.64E-11
  Decoupling Energy:                                              -0.0000018485
   354 OT DIIS     0.15E+00    1.8     0.00000008      -179.4680595793 -1.69E-11
  Decoupling Energy:                                              -0.0000018485
   355 OT DIIS     0.15E+00    1.8     0.00000008      -179.4680595793 -1.59E-11
  Decoupling Energy:                                              -0.0000018485
   356 OT DIIS     0.15E+00    1.8     0.00000007      -179.4680595793 -1.62E-11
  Decoupling Energy:                                              -0.0000018485
   357 OT DIIS     0.15E+00    1.9     0.00000007      -179.4680595793 -1.62E-11
  Decoupling Energy:                                              -0.0000018485
   358 OT DIIS     0.15E+00    1.8     0.00000007      -179.4680595793 -1.50E-11
  Decoupling Energy:                                              -0.0000018485
   359 OT DIIS     0.15E+00    1.8     0.00000007      -179.4680595794 -1.53E-11
  Decoupling Energy:                                              -0.0000018485
   360 OT DIIS     0.15E+00    1.8     0.00000007      -179.4680595794 -1.49E-11
  Decoupling Energy:                                              -0.0000018485
   361 OT DIIS     0.15E+00    1.8     0.00000007      -179.4680595794 -1.43E-11
  Decoupling Energy:                                              -0.0000018485
   362 OT DIIS     0.15E+00    1.8     0.00000007      -179.4680595794 -1.53E-11
  Decoupling Energy:                                              -0.0000018485
   363 OT DIIS     0.15E+00    1.8     0.00000007      -179.4680595794 -1.45E-11
  Decoupling Energy:                                              -0.0000018485
   364 OT DIIS     0.15E+00    1.8     0.00000007      -179.4680595794 -1.46E-11
  Decoupling Energy:                                              -0.0000018485
   365 OT DIIS     0.15E+00    1.9     0.00000007      -179.4680595794 -1.47E-11
  Decoupling Energy:                                              -0.0000018485
   366 OT DIIS     0.15E+00    1.9     0.00000007      -179.4680595795 -1.35E-11
  Decoupling Energy:                                              -0.0000018485
   367 OT DIIS     0.15E+00    1.8     0.00000006      -179.4680595795 -1.34E-11
  Decoupling Energy:                                              -0.0000018485
   368 OT DIIS     0.15E+00    1.8     0.00000006      -179.4680595795 -1.27E-11
  Decoupling Energy:                                              -0.0000018485
   369 OT DIIS     0.15E+00    1.8     0.00000006      -179.4680595795 -1.21E-11
  Decoupling Energy:                                              -0.0000018485
   370 OT DIIS     0.15E+00    1.8     0.00000006      -179.4680595795 -1.24E-11
  Decoupling Energy:                                              -0.0000018485
   371 OT DIIS     0.15E+00    1.8     0.00000006      -179.4680595795 -1.13E-11
  Decoupling Energy:                                              -0.0000018485
   372 OT DIIS     0.15E+00    1.8     0.00000006      -179.4680595795 -1.11E-11
  Decoupling Energy:                                              -0.0000018485
   373 OT DIIS     0.15E+00    1.9     0.00000006      -179.4680595795 -1.09E-11
  Decoupling Energy:                                              -0.0000018485
   374 OT DIIS     0.15E+00    1.8     0.00000006      -179.4680595795 -9.81E-12
  Decoupling Energy:                                              -0.0000018485
   375 OT DIIS     0.15E+00    1.8     0.00000006      -179.4680595796 -9.46E-12
  Decoupling Energy:                                              -0.0000018485
   376 OT DIIS     0.15E+00    1.8     0.00000006      -179.4680595796 -9.38E-12
  Decoupling Energy:                                              -0.0000018485
   377 OT DIIS     0.15E+00    1.8     0.00000006      -179.4680595796 -8.58E-12
  Decoupling Energy:                                              -0.0000018485
   378 OT DIIS     0.15E+00    1.8     0.00000006      -179.4680595796 -8.70E-12
  Decoupling Energy:                                              -0.0000018485
   379 OT DIIS     0.15E+00    1.8     0.00000005      -179.4680595796 -8.36E-12
  Decoupling Energy:                                              -0.0000018485
   380 OT DIIS     0.15E+00    1.8     0.00000005      -179.4680595796 -8.36E-12
  Decoupling Energy:                                              -0.0000018485
   381 OT DIIS     0.15E+00    1.8     0.00000005      -179.4680595796 -8.58E-12
  Decoupling Energy:                                              -0.0000018485
   382 OT DIIS     0.15E+00    1.9     0.00000005      -179.4680595796 -7.70E-12
  Decoupling Energy:                                              -0.0000018485
   383 OT DIIS     0.15E+00    1.8     0.00000005      -179.4680595796 -7.90E-12
  Decoupling Energy:                                              -0.0000018485
   384 OT DIIS     0.15E+00    1.8     0.00000005      -179.4680595796 -7.93E-12
  Decoupling Energy:                                              -0.0000018485
   385 OT DIIS     0.15E+00    1.8     0.00000005      -179.4680595796 -7.36E-12
  Decoupling Energy:                                              -0.0000018485
   386 OT DIIS     0.15E+00    1.8     0.00000005      -179.4680595796 -7.99E-12
  Decoupling Energy:                                              -0.0000018485
   387 OT DIIS     0.15E+00    1.8     0.00000005      -179.4680595797 -7.56E-12
  Decoupling Energy:                                              -0.0000018485
   388 OT DIIS     0.15E+00    1.8     0.00000005      -179.4680595797 -7.65E-12
  Decoupling Energy:                                              -0.0000018485
   389 OT DIIS     0.15E+00    1.8     0.00000005      -179.4680595797 -7.65E-12
  Decoupling Energy:                                              -0.0000018485
   390 OT DIIS     0.15E+00    1.8     0.00000005      -179.4680595797 -7.08E-12
  Decoupling Energy:                                              -0.0000018485
   391 OT DIIS     0.15E+00    1.8     0.00000005      -179.4680595797 -7.22E-12
  Decoupling Energy:                                              -0.0000018485
   392 OT DIIS     0.15E+00    1.8     0.00000005      -179.4680595797 -6.74E-12
  Decoupling Energy:                                              -0.0000018485
   393 OT DIIS     0.15E+00    1.8     0.00000005      -179.4680595797 -6.59E-12
  Decoupling Energy:                                              -0.0000018485
   394 OT DIIS     0.15E+00    1.8     0.00000004      -179.4680595797 -6.54E-12
  Decoupling Energy:                                              -0.0000018485
   395 OT DIIS     0.15E+00    1.8     0.00000004      -179.4680595797 -6.03E-12
  Decoupling Energy:                                              -0.0000018485
   396 OT DIIS     0.15E+00    1.8     0.00000004      -179.4680595797 -5.85E-12
  Decoupling Energy:                                              -0.0000018485
   397 OT DIIS     0.15E+00    1.9     0.00000004      -179.4680595797 -5.94E-12
  Decoupling Energy:                                              -0.0000018485
   398 OT DIIS     0.15E+00    1.8     0.00000004      -179.4680595797 -5.29E-12
  Decoupling Energy:                                              -0.0000018485
   399 OT DIIS     0.15E+00    1.8     0.00000004      -179.4680595797 -5.29E-12
  Decoupling Energy:                                              -0.0000018485
   400 OT DIIS     0.15E+00    1.8     0.00000004      -179.4680595797 -5.00E-12
  Decoupling Energy:                                              -0.0000018485
   401 OT DIIS     0.15E+00    1.8     0.00000004      -179.4680595797 -4.55E-12
  Decoupling Energy:                                              -0.0000018485
   402 OT DIIS     0.15E+00    1.8     0.00000004      -179.4680595797 -4.58E-12
  Decoupling Energy:                                              -0.0000018485
   403 OT DIIS     0.15E+00    1.8     0.00000004      -179.4680595798 -4.49E-12
  Decoupling Energy:                                              -0.0000018485
   404 OT DIIS     0.15E+00    1.8     0.00000004      -179.4680595798 -4.32E-12
  Decoupling Energy:                                              -0.0000018485
   405 OT DIIS     0.15E+00    1.9     0.00000004      -179.4680595798 -4.63E-12
  Decoupling Energy:                                              -0.0000018485
   406 OT DIIS     0.15E+00    1.8     0.00000004      -179.4680595798 -4.21E-12
  Decoupling Energy:                                              -0.0000018485
   407 OT DIIS     0.15E+00    1.8     0.00000004      -179.4680595798 -4.04E-12
  Decoupling Energy:                                              -0.0000018485
   408 OT DIIS     0.15E+00    1.8     0.00000004      -179.4680595798 -4.18E-12
  Decoupling Energy:                                              -0.0000018485
   409 OT DIIS     0.15E+00    1.8     0.00000004      -179.4680595798 -3.98E-12
  Decoupling Energy:                                              -0.0000018485
   410 OT DIIS     0.15E+00    1.8     0.00000004      -179.4680595798 -4.04E-12
  Decoupling Energy:                                              -0.0000018485
   411 OT DIIS     0.15E+00    1.8     0.00000004      -179.4680595798 -3.95E-12
  Decoupling Energy:                                              -0.0000018485
   412 OT DIIS     0.15E+00    1.8     0.00000004      -179.4680595798 -4.12E-12
  Decoupling Energy:                                              -0.0000018485
   413 OT DIIS     0.15E+00    1.9     0.00000004      -179.4680595798 -4.09E-12
  Decoupling Energy:                                              -0.0000018485
   414 OT DIIS     0.15E+00    1.8     0.00000003      -179.4680595798 -3.92E-12
  Decoupling Energy:                                              -0.0000018485
   415 OT DIIS     0.15E+00    1.8     0.00000003      -179.4680595798 -3.81E-12
  Decoupling Energy:                                              -0.0000018485
   416 OT DIIS     0.15E+00    1.8     0.00000003      -179.4680595798 -3.69E-12
  Decoupling Energy:                                              -0.0000018485
   417 OT DIIS     0.15E+00    1.8     0.00000003      -179.4680595798 -3.52E-12
  Decoupling Energy:                                              -0.0000018485
   418 OT DIIS     0.15E+00    1.8     0.00000003      -179.4680595798 -3.38E-12
  Decoupling Energy:                                              -0.0000018485
   419 OT DIIS     0.15E+00    1.8     0.00000003      -179.4680595798 -3.38E-12
  Decoupling Energy:                                              -0.0000018485
   420 OT DIIS     0.15E+00    1.8     0.00000003      -179.4680595798 -3.13E-12
  Decoupling Energy:                                              -0.0000018485
   421 OT DIIS     0.15E+00    1.9     0.00000003      -179.4680595798 -3.30E-12
  Decoupling Energy:                                              -0.0000018485
   422 OT DIIS     0.15E+00    1.8     0.00000003      -179.4680595798 -2.93E-12
  Decoupling Energy:                                              -0.0000018485
   423 OT DIIS     0.15E+00    1.8     0.00000003      -179.4680595798 -2.76E-12
  Decoupling Energy:                                              -0.0000018485
   424 OT DIIS     0.15E+00    1.8     0.00000003      -179.4680595798 -2.84E-12
  Decoupling Energy:                                              -0.0000018485
   425 OT DIIS     0.15E+00    1.8     0.00000003      -179.4680595798 -2.61E-12
  Decoupling Energy:                                              -0.0000018485
   426 OT DIIS     0.15E+00    1.8     0.00000003      -179.4680595798 -2.27E-12
  Decoupling Energy:                                              -0.0000018485
   427 OT DIIS     0.15E+00    1.8     0.00000003      -179.4680595798 -2.39E-12
  Decoupling Energy:                                              -0.0000018485
   428 OT DIIS     0.15E+00    1.8     0.00000003      -179.4680595798 -2.50E-12
  Decoupling Energy:                                              -0.0000018485
   429 OT DIIS     0.15E+00    1.9     0.00000003      -179.4680595798 -2.39E-12
  Decoupling Energy:                                              -0.0000018485
   430 OT DIIS     0.15E+00    1.8     0.00000003      -179.4680595798 -2.27E-12
  Decoupling Energy:                                              -0.0000018485
   431 OT DIIS     0.15E+00    1.8     0.00000003      -179.4680595798 -2.19E-12
  Decoupling Energy:                                              -0.0000018485
   432 OT DIIS     0.15E+00    1.8     0.00000003      -179.4680595798 -2.30E-12
  Decoupling Energy:                                              -0.0000018485
   433 OT DIIS     0.15E+00    1.8     0.00000003      -179.4680595799 -2.10E-12
  Decoupling Energy:                                              -0.0000018485
   434 OT DIIS     0.15E+00    1.8     0.00000003      -179.4680595799 -2.10E-12
  Decoupling Energy:                                              -0.0000018485
   435 OT DIIS     0.15E+00    1.8     0.00000003      -179.4680595799 -2.22E-12
  Decoupling Energy:                                              -0.0000018485
   436 OT DIIS     0.15E+00    1.8     0.00000003      -179.4680595799 -2.22E-12
  Decoupling Energy:                                              -0.0000018485
   437 OT DIIS     0.15E+00    1.9     0.00000003      -179.4680595799 -2.27E-12
  Decoupling Energy:                                              -0.0000018485
   438 OT DIIS     0.15E+00    1.8     0.00000003      -179.4680595799 -1.99E-12
  Decoupling Energy:                                              -0.0000018485
   439 OT DIIS     0.15E+00    1.8     0.00000002      -179.4680595799 -2.27E-12
  Decoupling Energy:                                              -0.0000018485
   440 OT DIIS     0.15E+00    1.8     0.00000002      -179.4680595799 -2.05E-12
  Decoupling Energy:                                              -0.0000018485
   441 OT DIIS     0.15E+00    1.8     0.00000002      -179.4680595799 -1.76E-12
  Decoupling Energy:                                              -0.0000018485
   442 OT DIIS     0.15E+00    1.8     0.00000002      -179.4680595799 -2.05E-12
  Decoupling Energy:                                              -0.0000018485
   443 OT DIIS     0.15E+00    1.8     0.00000002      -179.4680595799 -1.76E-12
  Decoupling Energy:                                              -0.0000018485
   444 OT DIIS     0.15E+00    1.8     0.00000002      -179.4680595799 -1.82E-12
  Decoupling Energy:                                              -0.0000018485
   445 OT DIIS     0.15E+00    1.9     0.00000002      -179.4680595799 -1.71E-12
  Decoupling Energy:                                              -0.0000018485
   446 OT DIIS     0.15E+00    1.8     0.00000002      -179.4680595799 -1.76E-12
  Decoupling Energy:                                              -0.0000018485
   447 OT DIIS     0.15E+00    1.8     0.00000002      -179.4680595799 -1.48E-12
  Decoupling Energy:                                              -0.0000018485
   448 OT DIIS     0.15E+00    1.8     0.00000002      -179.4680595799 -1.56E-12
  Decoupling Energy:                                              -0.0000018485
   449 OT DIIS     0.15E+00    1.8     0.00000002      -179.4680595799 -1.25E-12
  Decoupling Energy:                                              -0.0000018485
   450 OT DIIS     0.15E+00    1.8     0.00000002      -179.4680595799 -1.56E-12
  Decoupling Energy:                                              -0.0000018485
   451 OT DIIS     0.15E+00    1.8     0.00000002      -179.4680595799 -1.34E-12
  Decoupling Energy:                                              -0.0000018485
   452 OT DIIS     0.15E+00    1.8     0.00000002      -179.4680595799 -1.19E-12
  Decoupling Energy:                                              -0.0000018485
   453 OT DIIS     0.15E+00    1.8     0.00000002      -179.4680595799 -1.48E-12
  Decoupling Energy:                                              -0.0000018485
   454 OT DIIS     0.15E+00    1.9     0.00000002      -179.4680595799 -1.22E-12
  Decoupling Energy:                                              -0.0000018485
   455 OT DIIS     0.15E+00    1.8     0.00000002      -179.4680595799 -1.22E-12
  Decoupling Energy:                                              -0.0000018485
   456 OT DIIS     0.15E+00    1.8     0.00000002      -179.4680595799 -1.28E-12
  Decoupling Energy:                                              -0.0000018485
   457 OT DIIS     0.15E+00    1.8     0.00000002      -179.4680595799 -1.02E-12
  Decoupling Energy:                                              -0.0000018485
   458 OT DIIS     0.15E+00    1.8     0.00000002      -179.4680595799 -1.19E-12
  Decoupling Energy:                                              -0.0000018485
   459 OT DIIS     0.15E+00    1.8     0.00000002      -179.4680595799 -1.36E-12
  Decoupling Energy:                                              -0.0000018485
   460 OT DIIS     0.15E+00    1.8     0.00000002      -179.4680595799 -1.02E-12
  Decoupling Energy:                                              -0.0000018485
   461 OT DIIS     0.15E+00    1.9     0.00000002      -179.4680595799 -1.19E-12
  Decoupling Energy:                                              -0.0000018485
   462 OT DIIS     0.15E+00    1.8     0.00000002      -179.4680595799 -1.31E-12
  Decoupling Energy:                                              -0.0000018485
   463 OT DIIS     0.15E+00    1.8     0.00000002      -179.4680595799 -1.19E-12
  Decoupling Energy:                                              -0.0000018485
   464 OT DIIS     0.15E+00    1.8     0.00000002      -179.4680595799 -1.11E-12
  Decoupling Energy:                                              -0.0000018485
   465 OT DIIS     0.15E+00    1.8     0.00000002      -179.4680595799 -1.05E-12
  Decoupling Energy:                                              -0.0000018485
   466 OT DIIS     0.15E+00    1.8     0.00000002      -179.4680595799 -1.02E-12
  Decoupling Energy:                                              -0.0000018484
   467 OT DIIS     0.15E+00    1.8     0.00000002      -179.4680595799 -1.08E-12
  Decoupling Energy:                                              -0.0000018484
   468 OT DIIS     0.15E+00    1.8     0.00000002      -179.4680595799 -1.05E-12
  Decoupling Energy:                                              -0.0000018485
   469 OT DIIS     0.15E+00    1.9     0.00000002      -179.4680595799 -1.05E-12
  Decoupling Energy:                                              -0.0000018484
   470 OT DIIS     0.15E+00    1.8     0.00000002      -179.4680595799 -8.81E-13
  Decoupling Energy:                                              -0.0000018484
   471 OT DIIS     0.15E+00    1.8     0.00000002      -179.4680595799 -7.39E-13
  Decoupling Energy:                                              -0.0000018484
   472 OT DIIS     0.15E+00    1.8     0.00000002      -179.4680595799 -8.24E-13
  Decoupling Energy:                                              -0.0000018484
   473 OT DIIS     0.15E+00    1.8     0.00000002      -179.4680595799 -9.66E-13
  Decoupling Energy:                                              -0.0000018484
   474 OT DIIS     0.15E+00    1.8     0.00000002      -179.4680595799 -7.39E-13
  Decoupling Energy:                                              -0.0000018484
   475 OT DIIS     0.15E+00    1.8     0.00000002      -179.4680595799 -7.39E-13
  Decoupling Energy:                                              -0.0000018484
   476 OT DIIS     0.15E+00    1.8     0.00000002      -179.4680595799 -8.81E-13
  Decoupling Energy:                                              -0.0000018484
   477 OT DIIS     0.15E+00    1.9     0.00000002      -179.4680595799 -5.97E-13
  Decoupling Energy:                                              -0.0000018484
   478 OT DIIS     0.15E+00    1.9     0.00000002      -179.4680595799 -8.53E-13
  Decoupling Energy:                                              -0.0000018484
   479 OT DIIS     0.15E+00    1.8     0.00000001      -179.4680595799 -7.96E-13
  Decoupling Energy:                                              -0.0000018484
   480 OT DIIS     0.15E+00    1.8     0.00000001      -179.4680595799 -5.12E-13
  Decoupling Energy:                                              -0.0000018484
   481 OT DIIS     0.15E+00    1.8     0.00000001      -179.4680595799 -7.96E-13
  Decoupling Energy:                                              -0.0000018484
   482 OT DIIS     0.15E+00    1.8     0.00000001      -179.4680595799 -5.68E-13
  Decoupling Energy:                                              -0.0000018484
   483 OT DIIS     0.15E+00    1.8     0.00000001      -179.4680595799 -7.67E-13
  Decoupling Energy:                                              -0.0000018484
   484 OT DIIS     0.15E+00    1.8     0.00000001      -179.4680595799 -5.97E-13
  Decoupling Energy:                                              -0.0000018484
   485 OT DIIS     0.15E+00    1.9     0.00000001      -179.4680595799 -8.24E-13
  Decoupling Energy:                                              -0.0000018484
   486 OT DIIS     0.15E+00    1.8     0.00000001      -179.4680595799 -5.97E-13
  Decoupling Energy:                                              -0.0000018484
   487 OT DIIS     0.15E+00    1.8     0.00000001      -179.4680595799 -5.97E-13
  Decoupling Energy:                                              -0.0000018484
   488 OT DIIS     0.15E+00    1.8     0.00000001      -179.4680595799 -7.67E-13
  Decoupling Energy:                                              -0.0000018484
   489 OT DIIS     0.15E+00    1.8     0.00000001      -179.4680595799 -7.39E-13
  Decoupling Energy:                                              -0.0000018484
   490 OT DIIS     0.15E+00    1.8     0.00000001      -179.4680595799 -6.25E-13
  Decoupling Energy:                                              -0.0000018484
   491 OT DIIS     0.15E+00    1.8     0.00000001      -179.4680595799 -4.55E-13
  Decoupling Energy:                                              -0.0000018484
   492 OT DIIS     0.15E+00    1.8     0.00000001      -179.4680595799 -5.68E-13
  Decoupling Energy:                                              -0.0000018484
   493 OT DIIS     0.15E+00    1.9     0.00000001      -179.4680595799 -5.68E-13
  Decoupling Energy:                                              -0.0000018484
   494 OT DIIS     0.15E+00    1.8     0.00000001      -179.4680595799 -6.54E-13
  Decoupling Energy:                                              -0.0000018484
   495 OT DIIS     0.15E+00    2.3     0.00000001      -179.4680595799 -5.68E-13
  Decoupling Energy:                                              -0.0000018484
   496 OT DIIS     0.15E+00    1.9     0.00000001      -179.4680595799 -5.12E-13
  Decoupling Energy:                                              -0.0000018484
   497 OT DIIS     0.15E+00    1.9     0.00000001      -179.4680595799 -5.40E-13
  Decoupling Energy:                                              -0.0000018484
   498 OT DIIS     0.15E+00    1.8     0.00000001      -179.4680595799 -4.26E-13
  Decoupling Energy:                                              -0.0000018484
   499 OT DIIS     0.15E+00    1.8     0.00000001      -179.4680595799 -4.26E-13
  Decoupling Energy:                                              -0.0000018484
   500 OT DIIS     0.15E+00    1.8     0.00000001      -179.4680595799 -5.97E-13

  Leaving inner SCF loop after reaching   500 steps.


  Electronic density on regular grids:        -66.0000000000        0.0000000000
  Core density on regular grids:               66.0000000000       -0.0000000000
  Total charge density on r-space grids:       -0.0000000000
  Total charge density g-space grids:          -0.0000000000

  Overlap energy of the core charge distribution:               0.00000120202408
  Self energy of the core charge distribution:               -465.88464389476843
  Core Hamiltonian energy:                                    133.64477465914391
  Hartree energy:                                             191.08907727235189
  Exchange-correlation energy:                                -38.31726881867769

  Total energy:                                              -179.46805957992629

  outer SCF iter =    1 RMS gradient =   0.11E-07 energy =       -179.4680595799

  ----------------------------------- OT ---------------------------------------
  Minimizer      : DIIS                : direct inversion
                                         in the iterative subspace
                                         using   7 DIIS vectors
                                         safer DIIS on
  Preconditioner : FULL_KINETIC        : inversion of T + eS
  Lattice FFT   : OFF
  Precond_solver : DEFAULT
  stepsize       :    0.15000000                  energy_gap     :    0.20000000
  eps_taylor     :   0.10000E-15                  max_taylor     :             4
  ----------------------------------- OT ---------------------------------------

  Step     Update method      Time    Convergence         Total energy    Change
  ------------------------------------------------------------------------------
  Decoupling Energy:                                              -0.0000018484
     1 OT DIIS     0.15E+00    3.9     0.00000007      -179.4680595799 -3.69E-13
  Decoupling Energy:                                              -0.0000018484
     2 OT DIIS     0.15E+00    1.8     0.00000005      -179.4680595799  5.47E-11
  Decoupling Energy:                                              -0.0000018484
     3 OT DIIS     0.15E+00    1.8     0.00000004      -179.4680595799 -3.21E-12
  Decoupling Energy:                                              -0.0000018484
     4 OT DIIS     0.15E+00    1.8     0.00000003      -179.4680595799 -1.62E-12
  Decoupling Energy:                                              -0.0000018484
     5 OT DIIS     0.15E+00    1.8     0.00000003      -179.4680595799 -2.33E-12
  Decoupling Energy:                                              -0.0000018484
     6 OT DIIS     0.15E+00    1.8     0.00000002      -179.4680595799 -1.82E-12
  Decoupling Energy:                                              -0.0000018484
     7 OT DIIS     0.15E+00    1.8     0.00000001      -179.4680595799 -1.02E-12
  Decoupling Energy:                                              -0.0000018484
     8 OT DIIS     0.15E+00    1.8     9.9575E-09      -179.4680595799 -3.98E-13

  *** SCF run converged in     8 steps ***


  Electronic density on regular grids:        -65.9999999999        0.0000000001
  Core density on regular grids:               66.0000000000       -0.0000000000
  Total charge density on r-space grids:        0.0000000000
  Total charge density g-space grids:           0.0000000000

  Overlap energy of the core charge distribution:               0.00000120202408
  Self energy of the core charge distribution:               -465.88464389476843
  Core Hamiltonian energy:                                    133.64477419018786
  Hartree energy:                                             191.08907758304136
  Exchange-correlation energy:                                -38.31726866036716

  Total energy:                                              -179.46805957988232

  outer SCF iter =    2 RMS gradient =   0.10E-07 energy =       -179.4680595799
  outer SCF loop converged in   2 iterations or  508 steps

  
 -------------------------------------------------------------------------------
 -                                                                             -
 -                          BANDSTRUCTURE CALCULATION                          -
 -                                                                             -
 -------------------------------------------------------------------------------
  
 Number of occupied molecular orbitals (MOs) = Number of occupied bands       33
 Number of unoccupied (= virtual) MOs = Number of unoccupied bands           123
 Number of Gaussian basis functions for MOs                                  156
  
 -------------------------------------------------------------------------------
 -                                                                             -
 -                                GW CALCULATION                               -
 -                                                                             -
 -------------------------------------------------------------------------------
  
 Input: Number of time/freq. points                                           30
 Input: ω_max for fitting Σ(iω) (eV)                                        10.0
 Input: Filter threshold for sparse tensor operations                    1.0E-07
 Input: Apply Hedin shift                                                      F
 Input: Available memory per MPI process                                  8.0 GB
 
 Input: RI-RS Tikhonov regularization                                   1.00E-04
 Input: AO grid hard cutoff radius                                        8.00 Å
 Input: MPI ranks per atom in Z_lP solve                                      -1
 Input: Keep sparsity in χ/G/W panels                                          T
 Input: GW flavour                                                          G0W0
 
 Input: RI-RS grid optimization activated                                      T
 Input: Initial RI-RS grid                                              CHOLESKY
 Input: RS points per AO function                                         9.0000
 Input: Initial RS candidates per AO function                            30.0000
 Input: Additional Lebedev degree                                              2
 Input: Cholesky selection matrix                                        D_PRIME
 Input: Cholesky candidate domain                                      FULL_ATOM
 Input: Initial radial quadrature                                       GAPW_LOG
 Input: Cutoff radius for atomic clusters                                  5.0 Å
 Input: Maximum grid optimization iterations                                 300
 Input: L-BFGS history size                                                    7
 Input: L-BFGS relative-function factor                              0.00000E+00
 Input: L-BFGS projected-gradient tolerance                          1.00000E-09
 
 Input: AUTO_RI basis optimization activated:                                  T
 Input: AUTO_RI requested RI/AO ratio:                                       2.0
 Input: AUTO_RI frontier orbital window:                                  5.0 eV
 Input: AUTO_RI neighbor radius:                                           3.0 Å
 
 Cutoff radius for the truncated Coulomb operator in RI metric:            7.0 Å
 Regularization parameter of RI                                          0.0E+00
 Regularization parameter of minimax grids                               1.0E-06
 
 AUTO_RI| Number of automatic RI functions for χ, ε, W:                      312
 AUTO_RI| Total RI basis optimization time:                                1.9 s
  Decoupling Energy:                                              -0.0000018484
 
 SCF direct band gap (eV)                                                   4.60
 Max. SCF eigval diff. (eV)                                               223.99
 E-Range for minimax grid                                                  48.68
 Number of Padé parameters for analytic continuation:                         16
 
 RI-RS basis radii (Å):
     Kind  Elem     r_AO (Å)     r_RI (Å)
        1    C         8.0299        5.0785
        2    F         9.6839        6.1246
 
 RI-RS initialization: atomic kind                                             1
 RI-RS initialization: Lebedev degree                                         11
 RI-RS initialization: radial shells                                           8
 RI-RS initialization: candidates per atom                                   400
 RI-RS initialization: retained points per atom                              117
 RI-RS initialization: atomic kind                                             2
 RI-RS initialization: Lebedev degree                                          9
 RI-RS initialization: radial shells                                          11
 RI-RS initialization: candidates per atom                                   418
 RI-RS initialization: retained points per atom                              117
 RI-RS initialization: largest cluster candidate count                      4908
 RI-RS initialization: most pivots in one cluster                           2063
 RI-RS initialization: most stored AO values in one cluster               757458
 RI-RS initialization: wall time [s]                                       2.392
 Started RI-RS grid optimization
 RI-RS grid initial normalized error                          5.294921530276E-05
 RI-RS grid optimization completed, execution time:                      471.3 s
 Normalized 3C error:                                                    2.1E-08
 Maximum absolute 3C error:                                              2.3E-03
 Optimized points outside molecular Voronoi cells:                           238 / 1404
 Total grid points used for RI-RS:                                          1404
 
 RI-RS grid row-blocks of Φ_μ(r_l)                                            48
 RI-RS grid points per block (max)                                            32
 
 Percentage of non-zero matrix elements in Φ_μ(r_l)                     100.00 %
 
 RI-RS memory estimate per MPI process:
   Available memory per process (system)                                16.95 GB
   Required for Z_lP (dense upper bound; actual is sparser)              0.00 GB
   Required for χ, W, Σ panels (peak per panel step)                     0.00 GB
   Required for Z_lP solve peak (D_local+φ, worst-case atom)             0.02 GB
   Worst-case local-grid number of grid points:                             1404
   Worst-case memory D_local:                                            0.02 GB
 
 Started computing Z_lP
 Computed Z_lP (MPI rank 0) for atom          1 /  1,    Execution time    0.1 s
 Computed Z_lP (all MPI ranks) for all atoms,            Execution time    0.3 s

 Number of batches for χ, Σ matrices                                           1
 
 Percentage of non-zero matrix elements in Z_lP                         100.00 %
 Percentage of non-zero matrix elements in G_ll', χ_ll', W_ll'          100.00 %
 Percentage of non-zero matrix elements in χ_PQ for time point 1        100.00 %
 
 Computed χ(iτ,k=0) for time point            1 / 30,    Execution time    0.1 s
 Computed χ(iτ,k=0) for time point            2 / 30,    Execution time    0.0 s
 Computed χ(iτ,k=0) for time point            3 / 30,    Execution time    0.0 s
 Computed χ(iτ,k=0) for time point            4 / 30,    Execution time    0.0 s
 Computed χ(iτ,k=0) for time point            5 / 30,    Execution time    0.0 s
 Computed χ(iτ,k=0) for time point            6 / 30,    Execution time    0.0 s
 Computed χ(iτ,k=0) for time point            7 / 30,    Execution time    0.0 s
 Computed χ(iτ,k=0) for time point            8 / 30,    Execution time    0.0 s
 Computed χ(iτ,k=0) for time point            9 / 30,    Execution time    0.0 s
 Computed χ(iτ,k=0) for time point           10 / 30,    Execution time    0.0 s
 Computed χ(iτ,k=0) for time point           11 / 30,    Execution time    0.0 s
 Computed χ(iτ,k=0) for time point           12 / 30,    Execution time    0.0 s
 Computed χ(iτ,k=0) for time point           13 / 30,    Execution time    0.0 s
 Computed χ(iτ,k=0) for time point           14 / 30,    Execution time    0.0 s
 Computed χ(iτ,k=0) for time point           15 / 30,    Execution time    0.0 s
 Computed χ(iτ,k=0) for time point           16 / 30,    Execution time    0.0 s
 Computed χ(iτ,k=0) for time point           17 / 30,    Execution time    0.0 s
 Computed χ(iτ,k=0) for time point           18 / 30,    Execution time    0.0 s
 Computed χ(iτ,k=0) for time point           19 / 30,    Execution time    0.0 s
 Computed χ(iτ,k=0) for time point           20 / 30,    Execution time    0.0 s
 Computed χ(iτ,k=0) for time point           21 / 30,    Execution time    0.0 s
 Computed χ(iτ,k=0) for time point           22 / 30,    Execution time    0.0 s
 Computed χ(iτ,k=0) for time point           23 / 30,    Execution time    0.0 s
 Computed χ(iτ,k=0) for time point           24 / 30,    Execution time    0.0 s
 Computed χ(iτ,k=0) for time point           25 / 30,    Execution time    0.0 s
 Computed χ(iτ,k=0) for time point           26 / 30,    Execution time    0.0 s
 Computed χ(iτ,k=0) for time point           27 / 30,    Execution time    0.0 s
 Computed χ(iτ,k=0) for time point           28 / 30,    Execution time    0.0 s
 Computed χ(iτ,k=0) for time point           29 / 30,    Execution time    0.0 s
 Computed χ(iτ,k=0) for time point           30 / 30,    Execution time    0.0 s
 
 Computed W(iτ),                                         Execution time    0.2 s
 
 Computed Σ^x(k=0),                                      Execution time    0.0 s
 
 Computed Σ^c(iτ) for time point              1 / 30,    Execution time    0.0 s
 Computed Σ^c(iτ) for time point              2 / 30,    Execution time    0.0 s
 Computed Σ^c(iτ) for time point              3 / 30,    Execution time    0.0 s
 Computed Σ^c(iτ) for time point              4 / 30,    Execution time    0.0 s
 Computed Σ^c(iτ) for time point              5 / 30,    Execution time    0.0 s
 Computed Σ^c(iτ) for time point              6 / 30,    Execution time    0.0 s
 Computed Σ^c(iτ) for time point              7 / 30,    Execution time    0.0 s
 Computed Σ^c(iτ) for time point              8 / 30,    Execution time    0.0 s
 Computed Σ^c(iτ) for time point              9 / 30,    Execution time    0.0 s
 Computed Σ^c(iτ) for time point             10 / 30,    Execution time    0.0 s
 Computed Σ^c(iτ) for time point             11 / 30,    Execution time    0.0 s
 Computed Σ^c(iτ) for time point             12 / 30,    Execution time    0.0 s
 Computed Σ^c(iτ) for time point             13 / 30,    Execution time    0.0 s
 Computed Σ^c(iτ) for time point             14 / 30,    Execution time    0.0 s
 Computed Σ^c(iτ) for time point             15 / 30,    Execution time    0.0 s
 Computed Σ^c(iτ) for time point             16 / 30,    Execution time    0.0 s
 Computed Σ^c(iτ) for time point             17 / 30,    Execution time    0.0 s
 Computed Σ^c(iτ) for time point             18 / 30,    Execution time    0.0 s
 Computed Σ^c(iτ) for time point             19 / 30,    Execution time    0.0 s
 Computed Σ^c(iτ) for time point             20 / 30,    Execution time    0.0 s
 Computed Σ^c(iτ) for time point             21 / 30,    Execution time    0.0 s
 Computed Σ^c(iτ) for time point             22 / 30,    Execution time    0.0 s
 Computed Σ^c(iτ) for time point             23 / 30,    Execution time    0.0 s
 Computed Σ^c(iτ) for time point             24 / 30,    Execution time    0.0 s
 Computed Σ^c(iτ) for time point             25 / 30,    Execution time    0.0 s
 Computed Σ^c(iτ) for time point             26 / 30,    Execution time    0.0 s
 Computed Σ^c(iτ) for time point             27 / 30,    Execution time    0.0 s
 Computed Σ^c(iτ) for time point             28 / 30,    Execution time    0.0 s
 Computed Σ^c(iτ) for time point             29 / 30,    Execution time    0.0 s
 Computed Σ^c(iτ) for time point             30 / 30,    Execution time    0.0 s
 
 SCF valence band maximum (eV):                                           -6.839
 SCF conduction band minimum (eV):                                        -2.238
 SCF indirect band gap (eV):                                               4.601
 SCF direct band gap (eV):                                                 4.601
 
 G0W0 valence band maximum (eV):                                          -8.785
 G0W0 conduction band minimum (eV):                                        1.045
 G0W0 indirect band gap (eV):                                              9.831
 G0W0 direct band gap (eV):                                                9.831
 
 Hartree-Fock with SCF orbitals valence band maximum (eV):               -10.213
 Hartree-Fock with SCF orbitals conduction band minimum (eV)               2.980
 Hartree-Fock with SCF orbitals indirect band gap (eV):                   13.193
 Hartree-Fock with SCF orbitals direct band gap (eV):                     13.193

 ENERGY| Total FORCE_EVAL ( QS ) energy [hartree]           -179.468059579882322

 -------------------------------------------------------------------------------
 -                                                                             -
 -                                DBCSR STATISTICS                             -
 -                                                                             -
 -------------------------------------------------------------------------------
 COUNTER                                    TOTAL       BLAS       SMM       ACC
 flops    26 x     1 x     1               263744     100.0%      0.0%      0.0%     
 flops    32 x     1 x     1               288128     100.0%      0.0%      0.0%     
 flops    13 x     1 x     1               528112     100.0%      0.0%      0.0%     
 flops    19 x    19 x    21              3441774     100.0%      0.0%      0.0%     
 flops    23 x    19 x    21              4166358     100.0%      0.0%      0.0%     
 flops    19 x    23 x    21              4184712     100.0%      0.0%      0.0%     
 flops    23 x    23 x    21              5065704     100.0%      0.0%      0.0%     
 flops    26 x     1 x    13              8274240     100.0%      0.0%      0.0%     
 flops    26 x    32 x     1              8439808     100.0%      0.0%      0.0%     
 flops    26 x     1 x    32              8439808     100.0%      0.0%      0.0%     
 flops    32 x    32 x     1              9220096     100.0%      0.0%      0.0%     
 flops    32 x     1 x    32              9220096     100.0%      0.0%      0.0%     
 flops    13 x    13 x     1             13419276     100.0%      0.0%      0.0%     
 flops    26 x    19 x    21             14129388     100.0%      0.0%      0.0%     
 flops    19 x    26 x    21             14150136     100.0%      0.0%      0.0%     
 flops    19 x    28 x    21             14881104     100.0%      0.0%      0.0%     
 flops    28 x    19 x    21             15216264     100.0%      0.0%      0.0%     
 flops    21 x    19 x    26             15685488     100.0%      0.0%      0.0%     
 flops    19 x    19 x    32             15780032     100.0%      0.0%      0.0%     
 flops    13 x    32 x     1             16879616     100.0%      0.0%      0.0%     
 flops    13 x     1 x    32             16879616     100.0%      0.0%      0.0%     
 flops    21 x    19 x    28             16892064     100.0%      0.0%      0.0%     
 flops    23 x    26 x    21             17129112     100.0%      0.0%      0.0%     
 flops    26 x    23 x    21             17179344     100.0%      0.0%      0.0%     
 flops    23 x    28 x    21             18013968     100.0%      0.0%      0.0%     
 flops    28 x    23 x    21             18500832     100.0%      0.0%      0.0%     
 flops    21 x    23 x    26             18987696     100.0%      0.0%      0.0%     
 flops    23 x    19 x    32             19102144     100.0%      0.0%      0.0%     
 flops    19 x    23 x    32             19102144     100.0%      0.0%      0.0%     
 flops    19 x    27 x    21             19175940     100.0%      0.0%      0.0%     
 flops    27 x    19 x    21             19563768     100.0%      0.0%      0.0%     
 flops    32 x     1 x    13             20267520     100.0%      0.0%      0.0%     
 flops    21 x    23 x    28             20448288     100.0%      0.0%      0.0%     
 flops    21 x    19 x    27             21718368     100.0%      0.0%      0.0%     
 flops    23 x    23 x    32             23123648     100.0%      0.0%      0.0%     
 flops    23 x    27 x    21             23212980     100.0%      0.0%      0.0%     
 flops    27 x    23 x    21             23786784     100.0%      0.0%      0.0%     
 flops    21 x    23 x    27             26290656     100.0%      0.0%      0.0%     
 flops    21 x    19 x    21             49201488     100.0%      0.0%      0.0%     
 flops    26 x    26 x    21             58090032     100.0%      0.0%      0.0%     
 flops    21 x    23 x    21             59539410     100.0%      0.0%      0.0%     
 flops    26 x    28 x    21             61090848     100.0%      0.0%      0.0%     
 flops    28 x    26 x    21             62558496     100.0%      0.0%      0.0%     
 flops    21 x    26 x    26             64393056     100.0%      0.0%      0.0%     
 flops    26 x    19 x    32             64781184     100.0%      0.0%      0.0%     
 flops    19 x    26 x    32             64812800     100.0%      0.0%      0.0%     
 flops    28 x    28 x    21             65790144     100.0%      0.0%      0.0%     
 flops    13 x     1 x    13             67605408     100.0%      0.0%      0.0%     
 flops    19 x    28 x    32             68674816     100.0%      0.0%      0.0%     
 flops    21 x    28 x    26             69346368     100.0%      0.0%      0.0%     
 flops    21 x    26 x    28             69346368     100.0%      0.0%      0.0%     
 flops    28 x    19 x    32             69764352     100.0%      0.0%      0.0%     
 flops    32 x    19 x    26             71705088     100.0%      0.0%      0.0%     
 flops    21 x    28 x    28             74680704     100.0%      0.0%      0.0%     
 flops    32 x    19 x    28             77220864     100.0%      0.0%      0.0%     
 flops    26 x    23 x    32             78419328     100.0%      0.0%      0.0%     
 flops    23 x    26 x    32             78457600     100.0%      0.0%      0.0%     
 flops    26 x    27 x    21             78722280     100.0%      0.0%      0.0%     
 flops    27 x    26 x    21             80432352     100.0%      0.0%      0.0%     
 flops    23 x    28 x    32             83132672     100.0%      0.0%      0.0%     
 flops    28 x    23 x    32             84451584     100.0%      0.0%      0.0%     
 flops    27 x    28 x    21             84587328     100.0%      0.0%      0.0%     
 flops    28 x    27 x    21             84777840     100.0%      0.0%      0.0%     
 flops    32 x    23 x    26             86800896     100.0%      0.0%      0.0%     
 flops    19 x    27 x    32             88679232     100.0%      0.0%      0.0%     
 flops    21 x    27 x    26             89159616     100.0%      0.0%      0.0%     
 flops    21 x    26 x    27             89159616     100.0%      0.0%      0.0%     
 flops    27 x    19 x    32             89697024     100.0%      0.0%      0.0%     
 flops    32 x    23 x    28             93477888     100.0%      0.0%      0.0%     
 flops    21 x    28 x    27             96018048     100.0%      0.0%      0.0%     
 flops    21 x    27 x    28             96018048     100.0%      0.0%      0.0%     
 flops    32 x    19 x    27             99283968     100.0%      0.0%      0.0%     
 flops    23 x    27 x    32            107348544     100.0%      0.0%      0.0%     
 flops    27 x    23 x    32            108580608     100.0%      0.0%      0.0%     
 flops    27 x    27 x    21            109000080     100.0%      0.0%      0.0%     
 flops    32 x    23 x    27            120185856     100.0%      0.0%      0.0%     
 flops    21 x    27 x    27            123451776     100.0%      0.0%      0.0%     
 flops    21 x    26 x    21            201526416     100.0%      0.0%      0.0%     
 flops    21 x    21 x    26            208039104     100.0%      0.0%      0.0%     
 flops    21 x    28 x    21            216114696     100.0%      0.0%      0.0%     
 flops    32 x    19 x    21            225865920     100.0%      0.0%      0.0%     
 flops    21 x    19 x    32            226938432     100.0%      0.0%      0.0%     
 flops    26 x    32 x    13            264775680     100.0%      0.0%      0.0%     
 flops    26 x    26 x    32            266073600     100.0%      0.0%      0.0%     
 flops    26 x    32 x    32            270073856     100.0%      0.0%      0.0%     
 flops    32 x    23 x    21            273231168     100.0%      0.0%      0.0%     
 flops    21 x    23 x    32            274653120     100.0%      0.0%      0.0%     
 flops    21 x    27 x    21            278838126     100.0%      0.0%      0.0%     
 flops    26 x    28 x    32            281928192     100.0%      0.0%      0.0%     
 flops    28 x    26 x    32            286540800     100.0%      0.0%      0.0%     
 flops    21 x    21 x    27            288054144     100.0%      0.0%      0.0%     
 flops    32 x    26 x    26            294368256     100.0%      0.0%      0.0%     
 flops    32 x    32 x    32            295043072     100.0%      0.0%      0.0%     
 flops    28 x    28 x    32            303614976     100.0%      0.0%      0.0%     
 flops    32 x    28 x    26            317011968     100.0%      0.0%      0.0%     
 flops    32 x    26 x    28            317011968     100.0%      0.0%      0.0%     
 flops    32 x    28 x    28            341397504     100.0%      0.0%      0.0%     
 flops    26 x    27 x    32            364051584     100.0%      0.0%      0.0%     
 flops    27 x    26 x    32            368409600     100.0%      0.0%      0.0%     
 flops    13 x    13 x    21            377627796     100.0%      0.0%      0.0%     
 flops    27 x    28 x    32            390362112     100.0%      0.0%      0.0%     
 flops    28 x    27 x    32            392055552     100.0%      0.0%      0.0%     
 flops    32 x    27 x    26            407586816     100.0%      0.0%      0.0%     
 flops    32 x    26 x    27            407586816     100.0%      0.0%      0.0%     
 flops    32 x    28 x    27            438939648     100.0%      0.0%      0.0%     
 flops    32 x    27 x    28            438939648     100.0%      0.0%      0.0%     
 flops    27 x    27 x    32            504071424     100.0%      0.0%      0.0%     
 flops    13 x    32 x    32            540786688     100.0%      0.0%      0.0%     
 flops    32 x    27 x    27            564350976     100.0%      0.0%      0.0%     
 flops    21 x    13 x    21            621411336     100.0%      0.0%      0.0%     
 flops    32 x    26 x    21            925352064     100.0%      0.0%      0.0%     
 flops    21 x    26 x    32            930943104     100.0%      0.0%      0.0%     
 flops    32 x    21 x    26            951035904     100.0%      0.0%      0.0%     
 flops    21 x    32 x    26            951035904     100.0%      0.0%      0.0%     
 flops    32 x    28 x    21            991828992     100.0%      0.0%      0.0%     
 flops    21 x    28 x    32            999505920     100.0%      0.0%      0.0%     
 flops    32 x    19 x    32           1039650816     100.0%      0.0%      0.0%     
 flops    21 x    13 x    13           1046955000     100.0%      0.0%      0.0%     
 flops    32 x    23 x    32           1258760192     100.0%      0.0%      0.0%     
 flops    32 x    27 x    21           1279805184     100.0%      0.0%      0.0%     
 flops    21 x    27 x    32           1287389376     100.0%      0.0%      0.0%     
 flops    32 x    21 x    27           1316818944     100.0%      0.0%      0.0%     
 flops    21 x    32 x    27           1316818944     100.0%      0.0%      0.0%     
 flops    21 x    21 x    13           1684550322     100.0%      0.0%      0.0%     
 flops    13 x    32 x    13           2163373056     100.0%      0.0%      0.0%     
 flops    13 x    13 x    32           2167969856     100.0%      0.0%      0.0%     
 flops    32 x    13 x    21           2866368960     100.0%      0.0%      0.0%     
 flops    21 x    13 x    32           2881866624     100.0%      0.0%      0.0%     
 flops    32 x    26 x    32           4268732416     100.0%      0.0%      0.0%     
 flops    32 x    32 x    26           4347592704     100.0%      0.0%      0.0%     
 flops    32 x    28 x    32           4585340928     100.0%      0.0%      0.0%     
 flops    32 x    13 x    13           4786642432     100.0%      0.0%      0.0%     
 flops    32 x    27 x    32           5904506880     100.0%      0.0%      0.0%     
 flops    32 x    32 x    27           6019743744     100.0%      0.0%      0.0%     
 flops    21 x    32 x    13           7701640128     100.0%      0.0%      0.0%     
 flops    32 x    21 x    13           7710044160     100.0%      0.0%      0.0%     
 flops    32 x    13 x    32          13272702976     100.0%      0.0%      0.0%     
 flops    32 x    32 x    13          35903528960     100.0%      0.0%      0.0%     
 flops inhomo. stacks                 15111984912     100.0%      0.0%      0.0%
 flops total                       150.629263E+09     100.0%      0.0%      0.0%
 flops max/rank                     13.549038E+09     100.0%      0.0%      0.0%
 matmuls inhomo. stacks                    332840     100.0%      0.0%      0.0%
 matmuls total                            6201138     100.0%      0.0%      0.0%
 number of processed stacks               1815497     100.0%      0.0%      0.0%
 average stack size                                     3.4       0.0       0.0
 marketing flops                   221.274718E+09
 -------------------------------------------------------------------------------
 # multiplications                          11626
 max memory usage/rank              23.035638E+09
 # max total images/rank                        5
 # max 3D layers                                1
 # MPI messages exchanged                 3836580
 MPI messages size (bytes):
  total size                        11.106670E+09
  min size                           0.000000E+00
  max size                         438.048000E+03
  average size                       2.894940E+03
 MPI breakdown and total messages size (bytes):
             size <=      128             3131950                 19454480
       128 < size <=     8192              557746               2166424368
      8192 < size <=    32768               72952               1343849248
     32768 < size <=   131072               62412               3540308528
    131072 < size <=  4194304               11520               4037050368
   4194304 < size <= 16777216                   0                        0
  16777216 < size                               0                        0
 -------------------------------------------------------------------------------

 *** WARNING in dbcsr_mm.F:301 :: Using a non-square number of MPI ranks ***
 *** might lead to poor performance. Used ranks: 15 Suggested: 16 25     ***

 -------------------------------------------------------------------------------
 -                                                                             -
 -                      DBCSR MESSAGE PASSING PERFORMANCE                      -
 -                                                                             -
 -------------------------------------------------------------------------------
 ROUTINE             CALLS      AVE VOLUME [Bytes]
 MP_Bcast              139                     12.
 MP_Allreduce        55914                      8.
 MP_Alltoall         39626                   2816.
 MP_ISend           570040                   2214.
 MP_IRecv           572484                   1745.
 -------------------------------------------------------------------------------

 -------------------------------------------------------------------------------
 -                                                                             -
 -                                GRID STATISTICS                              -
 -                                                                             -
 -------------------------------------------------------------------------------
 LP    KERNEL             BACKEND                              COUNT     PERCENT
 4     collocate ortho    CPU                                1435380      50.00%
 4     integrate ortho    CPU                                1435380      50.00%
 0     collocate general  CPU                                    180       0.01%
 -------------------------------------------------------------------------------

 -------------------------------------------------------------------------------
 -                                                                             -
 -                          OFFLOAD MEMPOOL STATISTICS                         -
 -                                                                             -
 -------------------------------------------------------------------------------
 Memory consumption                Number of allocations  Used [MiB]  Size [MiB]
 Host                                                  7          95    22368218
 -------------------------------------------------------------------------------

 MEMORY| Estimated peak process memory [MiB]                                2291

 -------------------------------------------------------------------------------
 -                                                                             -
 -                         MESSAGE PASSING PERFORMANCE                         -
 -                                                                             -
 -------------------------------------------------------------------------------

 ROUTINE             CALLS      AVE VOLUME [Bytes]
 MP_Group                5
 MP_Bcast            31872                   2902.
 MP_Allreduce        90229                    341.
 MP_Sync               535
 MP_Alltoall          9679              119135372.
 MP_SendRecv         14252                 542720.
 MP_ISendRecv        14252                 542720.
 MP_Wait             59066
 MP_comm_split         532
 MP_ISend            38703                2211648.
 MP_IRecv            38703                2211648.
 -------------------------------------------------------------------------------


 -------------------------------------------------------------------------------
 -                                                                             -
 -                           R E F E R E N C E S                               -
 -                                                                             -
 -------------------------------------------------------------------------------
 
 CP2K version 2026.2 (Development Version), the CP2K developers group (2026).
 CP2K is freely available from https://www.cp2k.org/ .
 
 M. Iannuzzi, J. Wilhelm, F. Stein, A. Bussy, H. Elgabarty, D. Golze, A. Hehn, 
 M. Graml, S. Marek, B. Sertcan Gökmen, C. Schran, H. Forbert, R. Z. 
 Khaliullin, A. Kozhevnikov, M. Taillefumier, R. Meli, V. V. Rybkin, M. Brehm, 
 R. Schade, O. Schütt, J. V. Pototschnig, H. Mirhosseini, A. Knüpfer, D. Marx, 
 M. Krack, J. Hutter, T. D. Kühne.
 J. Phys. Chem. B 130, 1237-1310 (2026).
 The CP2K Program Package Made Simple.
 https://doi.org/10.1021/acs.jpcb.5c05851

 M. Graml, K. Zollner, D. Hernangómez-Pérez, P. E. Faria Junior, J. Wilhelm.
 J. Chem. Theory Comput. 20, 2202-2208 (2024).
 Low-scaling GW algorithm applied to twisted transition-metal dichalcogenide 
 heterobilayers.
 https://doi.org/10.1021/acs.jctc.3c01230

 T. D. Kühne, M. Iannuzzi, M. Del Ben, V. V. Rybkin, P. Seewald, F. Stein, T. 
 Laino, R. Z. Khaliullin, O. Schütt, F. Schiffmann, D. Golze, J. Wilhelm, S. 
 Chulkov, M. H. Bani-Hashemian, V. Weber, U. Borstnik, M. Taillefumier, A. S. 
 Jakobovits, A. Lazzaro, H. Pabst, T. Müller, R. Schade, M. Guidon, S. 
 Andermatt, N. Holmberg, G. K. Schenter, A. Hehn, A. Bussy, F. Belleflamme, G. 
 Tabacchi, A. Glöß, M. Lass, I. Bethune, C. J. Mundy, C. Plessl, M. Watkins, 
 J. VandeVondele, M. Krack, J. Hutter.
 J. Chem. Phys. 152, 194103 (2020).
 CP2K: An electronic structure and molecular dynamics software package - 
 Quickstep: Efficient and accurate electronic structure calculations.
 https://doi.org/10.1063/5.0007045

 O. Schuett, P. Messmer, J. Hutter, J. VandeVondele.
 Electronic Structure Calculations on Graphics Processing Units, 173-190 (2016).
 GPU-Accelerated Sparse Matrix-Matrix Multiplication for Linear Scaling Density 
 Functional Theory.
 https://doi.org/10.1002/9781118670712.ch8

 U. Borstnik, J. VandeVondele, V. Weber, J. Hutter.
 Parallel Comput. 40, 47-58 (2014).
 Sparse matrix multiplication: The distributed block-compressed sparse row 
 library.
 https://doi.org/10.1016/j.parco.2014.03.012

 J. VandeVondele, J. Hutter.
 J. Chem. Phys. 127, 114105 (2007).
 Gaussian basis sets for accurate calculations on molecular systems in gas and 
 condensed phases.
 https://doi.org/10.1063/1.2770708

 J. VandeVondele, M. Krack, F. Mohamed, M. Parrinello, T. Chassaing, J. Hutter.
 Comput. Phys. Commun. 167, 103-128 (2005).
 QUICKSTEP: Fast and accurate density functional calculations using a mixed 
 Gaussian and plane waves approach.
 https://doi.org/10.1016/j.cpc.2004.12.014

 M. Krack.
 Theor. Chem. Acc. 114, 145-152 (2005).
 Pseudopotentials for H to Kr optimized for gradient-corrected 
 exchange-correlation functionals.
 https://doi.org/10.1007/s00214-005-0655-y

 M. Frigo, S. G. Johnson.
 Proc. IEEE 93, 216-231 (2005).
 The design and implementation of FFTW3.
 https://doi.org/10.1109/JPROC.2004.840301

 J. VandeVondele, J. Hutter.
 J. Chem. Phys. 118, 4365-4369 (2003).
 An efficient orbital transformation method for electronic structure 
 calculations.
 https://doi.org/10.1063/1.1543154

 C. Hartwigsen, S. Goedecker, J. Hutter.
 Phys. Rev. B 58, 3641-3662 (1998).
 Relativistic separable dual-space Gaussian pseudopotentials from H to Rn.
 https://doi.org/10.1103/PhysRevB.58.3641

 G. Lippert, J. Hutter, M. Parrinello.
 Mol. Phys. 92, 477-487 (1997).
 A hybrid Gaussian and plane wave density functional scheme.
 https://doi.org/10.1080/002689797170220

 S. Goedecker, M. Teter, J. Hutter.
 Phys. Rev. B 54, 1703-1710 (1996).
 Separable dual-space Gaussian pseudopotentials.
 https://doi.org/10.1103/PhysRevB.54.1703

 J. P. Perdew, K. Burke, M. Ernzerhof.
 Phys. Rev. Lett. 77, 3865-3868 (1996).
 Generalized gradient approximation made simple.
 https://doi.org/10.1103/PhysRevLett.77.3865

 P. E. Blöchl.
 J. Chem. Phys. 103, 7422-7428 (1995).
 Electrostatic decoupling of periodic images of plane‐wave‐expanded 
 densities and derived atomic point charges.
 https://doi.org/10.1063/1.470314

 R. H. Byrd, P. H. Lu, J. Nocedal, C. Y. Zhu.
 SIAM J. Sci. Comput. 16, 1190-1208 (1995).
 A Limited Memory Algorithm for Bound Constrained Optimization.
 https://doi.org/10.1137/0916069


 -------------------------------------------------------------------------------
 -                                                                             -
 -                                T I M I N G                                  -
 -                                                                             -
 -------------------------------------------------------------------------------
 SUBROUTINE                       CALLS  ASD         SELF TIME        TOTAL TIME MAXRANK
                                MAXIMUM       AVERAGE  MAXIMUM  AVERAGE  MAXIMUM
 CP2K                                 1  1.0    0.629    0.632 1417.303 1417.306       0
 qs_energies                          1  2.0    0.035    0.035 1415.669 1415.669       8
 scf_env_do_scf                       1  3.0    0.023    0.024  936.233  936.233      12
 scf_env_do_scf_inner_loop          508  4.0    0.081    0.156  932.670  932.677       0
 qs_ks_build_kohn_sham_matrix       509  7.0    0.887    0.906  695.595  695.609       2
 qs_ks_update_qs_env                510  5.0    0.009    0.010  695.295  695.312       8
 rebuild_ks_matrix                  508  6.0    0.004    0.005  695.175  695.189       6
 fft_wrap_pw1pw2                   8647 10.4    0.234    0.263  556.348  606.220      10
 fft_wrap_pw1pw2_300               5593 11.8   27.168   28.722  541.874  579.204      12
 fft3d_ps                          8647 12.4  227.731  239.813  408.791  512.254       9
 qs_vxc_create                      509  8.0    0.023    0.028  475.983  485.559       0
 xc_vxc_pw_create                   508  9.0   10.101   11.132  475.960  485.531       7
 qs_energies_properties               1  3.0    0.005    0.005  478.279  478.279      12
 post_scf_bandstructure               1  4.0    0.005    0.005  478.274  478.274       6
 gw                                   1  5.0    0.001    0.002  478.109  478.113      10
 gw_calc_non_periodic_ri_rs           1  6.0    0.030    0.032  475.426  475.431      10
 ri_rs_grid_assembler                 1  7.0    0.014    0.016  473.736  473.739       4
 mp_sum_d                         26858 11.2  157.072  473.561  157.072  473.561      13
 optimize_ri_rs_grid                  1  8.0    0.002    0.006  471.328  471.331       0
 rirs_grid_LBFGS                      1  9.0    2.587    3.625  466.252  471.326       3
 evaluate_rirs_grid_cluster         301 10.0   21.263   31.105  311.759  459.865       5
 xc_pw_derive                      3048 11.0    0.030    0.032  351.497  394.849      10
 mp_alltoall_z22v                  8647 14.4  104.143  322.598  104.143  322.598       0
 xc_pw_divergence                   508 10.0    0.023    0.035  238.154  273.356      10
 xc_rho_set_and_dset_create         508 10.0    6.503    8.070  221.829  238.399       4
 qs_rho_update_rho_low              509  5.0    0.006    0.006  230.803  230.813       1
 calculate_rho_elec                 509  6.0    5.960    5.962  230.797  230.807       4
 yz_to_x                           4070 12.9   30.933   33.947   85.401  195.639       1
 x_to_yz                           4577 13.8   45.837   48.056   95.512  170.775       4
 density_rs2pw                      509  7.0    0.026    0.028  134.913  164.609       9
 rirs_cluster_gradient_products     301 11.0  107.588  161.659  107.588  161.659       2
 sum_up_and_integrate               509  8.0    0.070    0.075   97.260   97.312       0
 integrate_v_rspace                 509  9.0    0.079    0.082   94.492   96.134      10
 grid_collocate_task_list           509  7.0   88.635   92.821   88.635   92.821       7
 potential_pw2rs                    509 10.0    0.173    0.184   89.419   91.050      13
 rirs_cluster_gradient_coordina     301 11.0   48.262   71.902   48.262   71.902       0
 mp_waitany                       38703 11.5   25.513   71.579   25.513   71.579       0
 qs_ks_ddapc                        509  8.0    0.010    0.011   63.855   67.894       0
 transfer_rs2pw                    2037  8.0    0.033    0.036   27.654   67.161       9
 rirs_cluster_residual              301 11.0   41.265   61.966   41.265   61.966       4
 transfer_rs2pw_300                 510  9.0    8.786    9.353   19.867   57.762       1
 rirs_cluster_D_ll                  301 11.0   37.275   57.755   37.275   57.755       5
 pw_derive                         4575 11.3   53.900   56.258   53.900   56.258       3
 pw_poisson_solve                   509  8.0    0.014    0.023   50.071   51.193       0
 rirs_cluster_d_lP                  301 11.0   33.024   49.905   33.024   49.905       1
 xc_functional_eval                 508 11.0    0.057    0.064   33.726   49.805       0
 pbe_lda_eval                       508 12.0   33.669   49.748   33.669   49.748       7
 pw_scatter_p                      4577 12.8   46.134   47.685   46.134   47.685       6
 pw_copy                           8140 10.6   42.485   43.993   42.485   43.993       6
 pw_gather_p                       4070 11.9   39.375   41.896   39.375   41.896      14
 transfer_pw2rs                    2036 11.0    0.020    0.021   33.556   33.584      12
 rirs_cluster_AO_products           301 11.0   23.083   33.374   23.083   33.374       1
 pw_poisson_set                     510  9.0    0.011    0.012   29.775   30.897       2
 cp_ddapc_apply_CD                  509  9.0    0.022    0.035   14.962   28.614       0
 transfer_pw2rs_300                 509 12.0   10.421   10.892   23.652   24.353       4
 pw_integral_ab_c1d_c1d_gs         1018  9.5   18.539   18.759   19.366   23.803       3
 pw_axpy                           5095  9.3   22.399   23.616   22.399   23.616      12
 pw_copy_to_array                  4070 11.9   21.037   22.916   21.037   22.916       7
 fft_wrap_pw1pw2_100               1018 10.5    0.653    0.738   10.639   21.473       6
 get_ddapc                          509 10.0    0.023    0.031    4.955   18.603       0
 pw_copy_from_array                4577 12.8   12.770   13.336   12.770   13.336      14
 qs_scf_new_mos                     508  5.0    0.009    0.009    9.524    9.540      10
 qs_scf_loop_do_ot                  508  6.0    0.011    0.011    9.515    9.531       4
 ot_scf_mini                        508  7.0    0.291    0.310    9.141    9.153       0
 pw_zero                           2560 10.3    7.395    8.202    7.395    8.202       8
 transfer_pw2rs_100                 509 12.0    1.406    1.489    5.719    7.234      12
 rirs_grid_build_clusters             1  9.0    3.305    4.681    5.074    7.209       4
 mp_waitall_1                     20363 12.6    4.146    6.729    4.146    6.729       0
 transfer_rs2pw_100                 509  9.0    1.367    1.504    3.939    5.364       8
 ot_mini                            508  8.0    0.034    0.034    5.025    5.038       4
 grid_integrate_task_list           509 10.0    1.509    4.949    1.509    4.949       7
 fft_wrap_pw1pw2_40                1018 10.5    0.164    0.184    3.094    4.596      10
 pw_scale                          2033  9.8    3.688    4.552    3.688    4.552       8
 mp_alltoall_d11v                  1018  9.5    3.561    4.243    3.561    4.243       2
 qs_ot_get_derivative               508  9.0    0.952    0.952    4.220    4.232       4
 rs_gather_matrices                 509 10.0    0.037    0.041    3.483    4.127       4
 rs_grid_zero                      1019 13.0    3.914    4.100    3.914    4.100       8
 transfer_pw2rs_40                  509 12.0    1.391    1.509    3.492    3.805       5
 pw_multiply_with                   509  9.0    3.504    3.645    3.504    3.645       6
 init_scf_loop                        2  4.0    0.044    0.044    3.532    3.533      11
 transfer_rs2pw_40                  509  9.0    1.158    1.217    3.072    3.302      13
 qs_ot_get_derivative_diag          499 10.0    3.213    3.236    3.235    3.246      11
 qs_ot_get_p                        510  8.0    0.361    0.368    3.202    3.220      12
 mp_sendrecv_dv                   14252 10.0    2.436    2.742    2.436    2.742       0
 create_and_init_bs_env_for_gw        1  6.0    0.034    0.039    2.681    2.682       1
 mp_bcast_dm                        563 11.7    1.665    2.633    1.665    2.633      12
 abc_contract_xsmm                45623 10.0    1.820    2.593    1.820    2.593       4
 build_grid_cache                     1  8.0    0.001    0.001    2.393    2.393       2
 initialize_cholesky_rirs_grids       1  9.0    0.952    2.388    2.392    2.392       2
 generate_auto_ri_basis               1  7.0    0.003    0.003    1.909    1.910       5
 qs_ot_p2m_diag                     500  9.0    0.664    0.692    1.840    1.890       0
 xc_pw_smooth                       508 10.0    0.002    0.002    1.578    1.722       9
 -------------------------------------------------------------------------------

 The number of warnings for this run is : 0
 
 -------------------------------------------------------------------------------
  **** **** ******  **  PROGRAM ENDED AT                 2026-09-17 07:58:02.069
 ***** ** ***  *** **   PROGRAM RAN ON                                  n2cn0265
 **    ****   ******    PROGRAM RAN BY                                  eprop2d1
 ***** **    ** ** **   PROGRAM PROCESS ID                                410101
  **** **  *******  **  PROGRAM STOPPED IN /scratch/hpc-prf-metdyn/eprop2d1_Jan/
                                           53_benchmark_RI_opt/106_GW100_GTH_RIR
                                           S_riao5_7_c7/extensions/lebedev_riao2
                                           /calculations/88_C6F6/leb_r09
