 DBCSR| CPU Multiplication driver                                           XSMM (U)
 DBCSR| Multrec recursion limit                                              512 (U)
 DBCSR| Multiplication stack size                                           1000 (D)
 DBCSR| Maximum elements for images                                    UNLIMITED (U)
 DBCSR| Multiplicative factor virtual images                                   1 (U)
 DBCSR| Use multiplication densification                                       T (D)
 DBCSR| Multiplication size stacks                                             3 (U)
 DBCSR| Use memory pool for CPU allocation                                     F (U)
 DBCSR| Number of 3D layers                                               SINGLE (U)
 DBCSR| Use MPI memory allocation                                              F (U)
 DBCSR| Use RMA algorithm                                                      F (U)
 DBCSR| Use Communication thread                                               T (U)
 DBCSR| Communication thread load                                              0 (D)
 DBCSR| MPI: My process id                                                     1
 DBCSR| MPI: Number of processes                                               2
 DBCSR| OMP: Current number of threads                                        64
 DBCSR| OMP: Max number of threads                                            64
 DBCSR| Split modifier for TAS multiplication algorithm                  1.0E+00 (U)


  **** **** ******  **  PROGRAM STARTED AT               2026-09-15 23:24:01.512
 ***** ** ***  *** **   PROGRAM STARTED ON                              n2cn0954
 **    ****   ******    PROGRAM STARTED BY                              eprop2d1
 ***** **    ** ** **   PROGRAM PROCESS ID                                574602
  **** **  *******  **  PROGRAM STARTED IN /scratch/hpc-prf-metdyn/eprop2d1_Jan/
                                           53_benchmark_RI_opt/106_GW100_GTH_RIR
                                           S_riao5_7_c7/calculations/42_Si5H12/r
                                           iao5/leb_r06

 CP2K| version string:                 CP2K version 2026.2 (Development Version)
 CP2K| source code revision number:                                      unknown
 CP2K| cp2kflags: omp libint fftw3 libxc parallel scalapack openblas            
 CP2K| is freely available from                            https://www.cp2k.org/
 CP2K| Program compiled at                                   2026-09-15 17:57:52
 CP2K| Program compiled on                                              n2login6
 CP2K| Program compiled for                                               x86_64
 CP2K| Data directory path    /scratch/hpc-prf-metdyn/eprop2d1_Jan/53_benchmark_
 CP2K| Input file name                                                 input.inp
 
 eprop2d1@n2cn0954 has created rank and process                      0    574602
 
 eprop2d1@n2cn0954 is running                                        1 processes

 GLOBAL| Force Environment number                                              1
 GLOBAL| Basis set file name            /scratch/hpc-prf-metdyn/eprop2d1_Jan/53_
 GLOBAL| Potential file name            /scratch/hpc-prf-metdyn/eprop2d1_Jan/53_
 GLOBAL| MM Potential file name                                     MM_POTENTIAL
 GLOBAL| Coordinate file name                                      __STD_INPUT__
 GLOBAL| Method name                                                        CP2K
 GLOBAL| Project name                             gw100_106_42_Si5H12_a5_leb_r06
 GLOBAL| Run type                                                         ENERGY
 GLOBAL| FFT library                                                       FFTW3
 GLOBAL| Diagonalization library                                       ScaLAPACK
 GLOBAL| Cholesky decomposition library                                ScaLAPACK
 GLOBAL| DGEMM library                                                      BLAS
 GLOBAL| Direct generalized diagonalization requested                          F
 GLOBAL| Orthonormality check for eigenvectors                          DISABLED
 GLOBAL| Matrix multiplication library                                 ScaLAPACK
 GLOBAL| All-to-all communication in single precision                          F
 GLOBAL| Grid backend                                                       AUTO
 GLOBAL| Global print level                                                  LOW
 GLOBAL| MPI I/O enabled                                                       T
 GLOBAL| Total number of message passing processes                             1
 GLOBAL| Number of distributed systems (nodes)                                 1
 GLOBAL| Number of threads for this process                                   64
 GLOBAL| This output is from process                                           0
 GLOBAL| OpenMP stack size per thread (OMP_STACKSIZE)                       128M
 GLOBAL| CPU model name                          AMD EPYC 7763 64-Core Processor

 MEMORY| system memory details [Kb]
 MEMORY|                        rank 0           min           max       average
 MEMORY| MemTotal            263897600     263897600     263897600     263897600
 MEMORY| MemFree             251694384     251694384     251694384     251694384
 MEMORY| Buffers                323068        323068        323068        323068
 MEMORY| Cached                7352752       7352752       7352752       7352752
 MEMORY| Slab                  1577064       1577064       1577064       1577064
 MEMORY| SReclaimable           349352        349352        349352        349352
 MEMORY| MemLikelyFree       259719556     259719556     259719556     259719556


 GENERATE|  Preliminary Number of Bonds generated:                             0
 GENERATE|  Achieved consistency in connectivity generation.

 *******************************************************************************
 *******************************************************************************
 **                                                                           **
 **     #####                         ##              ##                      **
 **    ##   ##            ##          ##              ##                      **
 **   ##     ##                       ##            ######                    **
 **   ##     ##  ##   ##  ##   #####  ##  ##   ####   ##    #####    #####    **
 **   ##     ##  ##   ##  ##  ##      ## ##   ##      ##   ##   ##  ##   ##   **
 **   ##  ## ##  ##   ##  ##  ##      ####     ###    ##   ######   ######    **
 **    ##  ###   ##   ##  ##  ##      ## ##      ##   ##   ##       ##        **
 **     #######   #####   ##   #####  ##  ##  ####    ##    #####   ##        **
 **           ##                                                    ##        **
 **                                                                           **
 **                                                ... make the atoms dance   **
 **                                                                           **
 **            Copyright (C) by CP2K developers group (2000-2026)             **
 **                      J. Chem. Phys. 152, 194103 (2020)                    **
 **                                                                           **
 *******************************************************************************


 TOTAL NUMBERS AND MAXIMUM NUMBERS

  Total number of            - Atomic kinds:                                   2
                             - Atoms:                                         17
                             - Shell sets:                                    17
                             - Shells:                                        73
                             - Primitive Cartesian functions:                114
                             - Cartesian basis functions:                    142
                             - Spherical basis functions:                    137

  Maximum angular momentum of- Orbital basis functions:                        2
                             - Local part of the GTH pseudopotential:          2
                             - Non-local part of the GTH pseudopotential:      2


 SCF PARAMETERS         Density guess:                                    ATOMIC
                        --------------------------------------------------------
                        max_scf:                                             500
                        max_scf_history:                                       0
                        max_diis:                                              4
                        --------------------------------------------------------
                        eps_scf:                                        1.00E-08
                        eps_scf_history:                                0.00E+00
                        eps_diis:                                       0.00E+00
                        eps_eigval:                                     1.00E-05
                        --------------------------------------------------------
                        level_shift [a.u.]:                             0.000000
                        --------------------------------------------------------
                        Outer loop SCF in use 
                        No variables optimised in outer loop
                        eps_scf                                         1.00E-08
                        max_scf                                               20
                        No outer loop optimization
                        step_size                                       5.00E-01

 Extrapolation method: initial_guess

 Number of electrons:                                                         32
 Number of occupied orbitals:                                                 16
 Number of molecular orbitals:                                                16

 Number of orbital functions:                                                137
 Number of independent orbital functions:                                    137


 SCF WAVEFUNCTION OPTIMIZATION

  ----------------------------------- OT ---------------------------------------
  Minimizer      : DIIS                : direct inversion
                                         in the iterative subspace
                                         using   7 DIIS vectors
                                         safer DIIS on
  Preconditioner : FULL_KINETIC        : inversion of T + eS
  Lattice FFT   : OFF
  Precond_solver : DEFAULT
  stepsize       :    0.15000000                  energy_gap     :    0.20000000
  eps_taylor     :   0.10000E-15                  max_taylor     :             4
  ----------------------------------- OT ---------------------------------------

  Step     Update method      Time    Convergence         Total energy    Change
  ------------------------------------------------------------------------------
  Decoupling Energy:                                               0.0001991953
     1 OT DIIS     0.15E+00   11.9     0.05255015       -25.1610069271 -2.52E+01
  Decoupling Energy:                                               0.0000562278
     2 OT DIIS     0.15E+00   15.1     0.03195606       -25.8473371128 -6.86E-01
  Decoupling Energy:                                               0.0000063320
     3 OT DIIS     0.15E+00   15.0     0.02186620       -26.2394618051 -3.92E-01
  Decoupling Energy:                                              -0.0000001032
     4 OT DIIS     0.15E+00   15.3     0.01162019       -26.5049686737 -2.66E-01
  Decoupling Energy:                                              -0.0000001833
     5 OT DIIS     0.15E+00   15.1     0.00616752       -26.5794043915 -7.44E-02
  Decoupling Energy:                                              -0.0000002227
     6 OT DIIS     0.15E+00   14.7     0.00322057       -26.6021105400 -2.27E-02
  Decoupling Energy:                                              -0.0000002321
     7 OT DIIS     0.15E+00   15.3     0.00145734       -26.6094155568 -7.31E-03
  Decoupling Energy:                                              -0.0000002665
     8 OT DIIS     0.15E+00   15.3     0.00076254       -26.6106022064 -1.19E-03
  Decoupling Energy:                                              -0.0000002237
     9 OT DIIS     0.15E+00   15.3     0.00043201       -26.6109736361 -3.71E-04
  Decoupling Energy:                                              -0.0000002231
    10 OT DIIS     0.15E+00   15.3     0.00025612       -26.6111003542 -1.27E-04
  Decoupling Energy:                                              -0.0000002294
    11 OT DIIS     0.15E+00   15.3     0.00012497       -26.6111544929 -5.41E-05
  Decoupling Energy:                                              -0.0000002318
    12 OT DIIS     0.15E+00   15.3     0.00006301       -26.6111668221 -1.23E-05
  Decoupling Energy:                                              -0.0000002307
    13 OT DIIS     0.15E+00   15.2     0.00003532       -26.6111695953 -2.77E-06
  Decoupling Energy:                                              -0.0000002306
    14 OT DIIS     0.15E+00   14.7     0.00001983       -26.6111704888 -8.93E-07
  Decoupling Energy:                                              -0.0000002307
    15 OT DIIS     0.15E+00   15.3     0.00001133       -26.6111707822 -2.93E-07
  Decoupling Energy:                                              -0.0000002305
    16 OT DIIS     0.15E+00   15.3     0.00000637       -26.6111708842 -1.02E-07
  Decoupling Energy:                                              -0.0000002302
    17 OT DIIS     0.15E+00   15.3     0.00000421       -26.6111709113 -2.70E-08
  Decoupling Energy:                                              -0.0000002300
    18 OT DIIS     0.15E+00   15.6     0.00000242       -26.6111709245 -1.32E-08
  Decoupling Energy:                                              -0.0000002299
    19 OT DIIS     0.15E+00   15.5     0.00000135       -26.6111709289 -4.34E-09
  Decoupling Energy:                                              -0.0000002299
    20 OT DIIS     0.15E+00   15.3     0.00000066       -26.6111709303 -1.41E-09
  Decoupling Energy:                                              -0.0000002299
    21 OT DIIS     0.15E+00   15.2     0.00000034       -26.6111709306 -3.11E-10
  Decoupling Energy:                                              -0.0000002299
    22 OT DIIS     0.15E+00   14.7     0.00000020       -26.6111709307 -7.52E-11
  Decoupling Energy:                                              -0.0000002299
    23 OT DIIS     0.15E+00   15.3     0.00000011       -26.6111709307 -2.69E-11
  Decoupling Energy:                                              -0.0000002299
    24 OT DIIS     0.15E+00   15.3     0.00000006       -26.6111709307 -8.62E-12
  Decoupling Energy:                                              -0.0000002299
    25 OT DIIS     0.15E+00   15.3     0.00000002       -26.6111709307 -2.10E-12
  Decoupling Energy:                                              -0.0000002299
    26 OT DIIS     0.15E+00   15.3     0.00000001       -26.6111709307 -3.55E-13
  Decoupling Energy:                                              -0.0000002299
    27 OT DIIS     0.15E+00   15.3     7.7871E-09       -26.6111709307 -1.28E-13

  *** SCF run converged in    27 steps ***


  Electronic density on regular grids:        -32.0000000000        0.0000000000
  Core density on regular grids:               32.0000000000       -0.0000000000
  Total charge density on r-space grids:       -0.0000000000
  Total charge density g-space grids:          -0.0000000000

  Overlap energy of the core charge distribution:               0.00000008072635
  Self energy of the core charge distribution:                -68.21564964713781
  Core Hamiltonian energy:                                     16.48462558033558
  Hartree energy:                                              35.15382119986610
  Exchange-correlation energy:                                -10.03396814449204

  Total energy:                                               -26.61117093070182

  outer SCF iter =    1 RMS gradient =   0.78E-08 energy =        -26.6111709307
  outer SCF loop converged in   1 iterations or   27 steps

  
 -------------------------------------------------------------------------------
 -                                                                             -
 -                          BANDSTRUCTURE CALCULATION                          -
 -                                                                             -
 -------------------------------------------------------------------------------
  
 Number of occupied molecular orbitals (MOs) = Number of occupied bands       16
 Number of unoccupied (= virtual) MOs = Number of unoccupied bands           121
 Number of Gaussian basis functions for MOs                                  137
  
 -------------------------------------------------------------------------------
 -                                                                             -
 -                                GW CALCULATION                               -
 -                                                                             -
 -------------------------------------------------------------------------------
  
 Input: Number of time/freq. points                                           30
 Input: ω_max for fitting Σ(iω) (eV)                                        10.0
 Input: Filter threshold for sparse tensor operations                    1.0E-07
 Input: Apply Hedin shift                                                      F
 Input: Available memory per MPI process                                  8.0 GB
 
 Input: RI-RS Tikhonov regularization                                   1.00E-04
 Input: AO grid hard cutoff radius                                        8.00 Å
 Input: MPI ranks per atom in Z_lP solve                                      -1
 Input: Keep sparsity in χ/G/W panels                                          T
 Input: GW flavour                                                          G0W0
 
 Input: RI-RS grid optimization activated                                      T
 Input: Initial RI-RS grid                                              CHOLESKY
 Input: RS points per AO function                                         6.0000
 Input: Initial RS candidates per AO function                            30.0000
 Input: Additional Lebedev degree                                              2
 Input: Cholesky selection matrix                                        D_PRIME
 Input: Cholesky candidate domain                                      FULL_ATOM
 Input: Initial radial quadrature                                       GAPW_LOG
 Input: Cutoff radius for atomic clusters                                  5.0 Å
 Input: Maximum grid optimization iterations                                 300
 Input: L-BFGS history size                                                    7
 Input: L-BFGS relative-function factor                              0.00000E+00
 Input: L-BFGS projected-gradient tolerance                          1.00000E-09
 
 Input: AUTO_RI basis optimization activated:                                  T
 Input: AUTO_RI requested RI/AO ratio:                                       5.0
 Input: AUTO_RI frontier orbital window:                                  5.0 eV
 Input: AUTO_RI neighbor radius:                                           3.0 Å
 
 Cutoff radius for the truncated Coulomb operator in RI metric:            7.0 Å
 Regularization parameter of RI                                          0.0E+00
 Regularization parameter of minimax grids                               1.0E-06
 
 AUTO_RI| Number of automatic RI functions for χ, ε, W:                      685
 AUTO_RI| Total RI basis optimization time:                                4.4 s
  Decoupling Energy:                                              -0.0000002299
 
 SCF direct band gap (eV)                                                   5.12
 Max. SCF eigval diff. (eV)                                                87.95
 E-Range for minimax grid                                                  17.16
 Number of Padé parameters for analytic continuation:                         16
 
 RI-RS basis radii (Å):
     Kind  Elem     r_AO (Å)     r_RI (Å)
        1    Si        8.1344        5.3202
        2    H         9.5011        6.0090
 
 RI-RS initialization: atomic kind                                             1
 RI-RS initialization: Lebedev degree                                          9
 RI-RS initialization: radial shells                                          11
 RI-RS initialization: candidates per atom                                   418
 RI-RS initialization: retained points per atom                               78
 RI-RS initialization: atomic kind                                             2
 RI-RS initialization: Lebedev degree                                          7
 RI-RS initialization: radial shells                                           7
 RI-RS initialization: candidates per atom                                   182
 RI-RS initialization: retained points per atom                               36
 RI-RS initialization: largest cluster candidate count                      3910
 RI-RS initialization: most pivots in one cluster                           1236
 RI-RS initialization: most stored AO values in one cluster               474658
 RI-RS initialization: wall time [s]                                       1.417
 Started RI-RS grid optimization
 RI-RS grid initial normalized error                          1.999786785690E-04
 RI-RS grid optimization completed, execution time:                      684.0 s
 Normalized 3C error:                                                    1.5E-07
 Maximum absolute 3C error:                                              3.4E-03
 Optimized points outside molecular Voronoi cells:                           270 / 822
 Total grid points used for RI-RS:                                           822
 
 RI-RS grid row-blocks of Φ_μ(r_l)                                            39
 RI-RS grid points per block (max)                                            32
 
 Percentage of non-zero matrix elements in Φ_μ(r_l)                      97.65 %
 
 RI-RS memory estimate per MPI process:
   Available memory per process (system)                               265.00 GB
   Required for Z_lP (dense upper bound; actual is sparser)              0.00 GB
   Required for χ, W, Σ panels (peak per panel step)                     0.03 GB
   Required for Z_lP solve peak (D_local+φ, worst-case atom)             0.03 GB
   Worst-case local-grid number of grid points:                              822
   Worst-case memory D_local:                                            0.01 GB
 
 Started computing Z_lP
 Computed Z_lP (MPI rank 0) for atom          1 / 17,    Execution time    0.1 s
 Computed Z_lP (MPI rank 0) for atom          2 / 17,    Execution time    0.0 s
 Computed Z_lP (MPI rank 0) for atom          3 / 17,    Execution time    0.0 s
 Computed Z_lP (MPI rank 0) for atom          4 / 17,    Execution time    0.0 s
 Computed Z_lP (MPI rank 0) for atom          5 / 17,    Execution time    0.1 s
 Computed Z_lP (MPI rank 0) for atom          6 / 17,    Execution time    0.1 s
 Computed Z_lP (MPI rank 0) for atom          7 / 17,    Execution time    0.0 s
 Computed Z_lP (MPI rank 0) for atom          8 / 17,    Execution time    0.0 s
 Computed Z_lP (MPI rank 0) for atom          9 / 17,    Execution time    0.1 s
 Computed Z_lP (MPI rank 0) for atom         10 / 17,    Execution time    0.0 s
 Computed Z_lP (MPI rank 0) for atom         11 / 17,    Execution time    0.0 s
 Computed Z_lP (MPI rank 0) for atom         12 / 17,    Execution time    0.1 s
 Computed Z_lP (MPI rank 0) for atom         13 / 17,    Execution time    0.0 s
 Computed Z_lP (MPI rank 0) for atom         14 / 17,    Execution time    0.0 s
 Computed Z_lP (MPI rank 0) for atom         15 / 17,    Execution time    0.0 s
 Computed Z_lP (MPI rank 0) for atom         16 / 17,    Execution time    0.0 s
 Computed Z_lP (MPI rank 0) for atom         17 / 17,    Execution time    0.0 s
 Computed Z_lP (all MPI ranks) for all atoms,            Execution time    0.9 s

 Number of batches for χ, Σ matrices                                           1
 
 Percentage of non-zero matrix elements in Z_lP                         100.00 %
 Percentage of non-zero matrix elements in G_ll', χ_ll', W_ll'          100.00 %
 Percentage of non-zero matrix elements in χ_PQ for time point 1        100.00 %
 
 Computed χ(iτ,k=0) for time point            1 / 30,    Execution time    0.1 s
 Computed χ(iτ,k=0) for time point            2 / 30,    Execution time    0.1 s
 Computed χ(iτ,k=0) for time point            3 / 30,    Execution time    0.0 s
 Computed χ(iτ,k=0) for time point            4 / 30,    Execution time    0.0 s
 Computed χ(iτ,k=0) for time point            5 / 30,    Execution time    0.1 s
 Computed χ(iτ,k=0) for time point            6 / 30,    Execution time    0.0 s
 Computed χ(iτ,k=0) for time point            7 / 30,    Execution time    0.0 s
 Computed χ(iτ,k=0) for time point            8 / 30,    Execution time    0.0 s
 Computed χ(iτ,k=0) for time point            9 / 30,    Execution time    0.0 s
 Computed χ(iτ,k=0) for time point           10 / 30,    Execution time    0.0 s
 Computed χ(iτ,k=0) for time point           11 / 30,    Execution time    0.0 s
 Computed χ(iτ,k=0) for time point           12 / 30,    Execution time    0.1 s
 Computed χ(iτ,k=0) for time point           13 / 30,    Execution time    0.1 s
 Computed χ(iτ,k=0) for time point           14 / 30,    Execution time    0.0 s
 Computed χ(iτ,k=0) for time point           15 / 30,    Execution time    0.0 s
 Computed χ(iτ,k=0) for time point           16 / 30,    Execution time    0.0 s
 Computed χ(iτ,k=0) for time point           17 / 30,    Execution time    0.0 s
 Computed χ(iτ,k=0) for time point           18 / 30,    Execution time    0.0 s
 Computed χ(iτ,k=0) for time point           19 / 30,    Execution time    0.0 s
 Computed χ(iτ,k=0) for time point           20 / 30,    Execution time    0.0 s
 Computed χ(iτ,k=0) for time point           21 / 30,    Execution time    0.0 s
 Computed χ(iτ,k=0) for time point           22 / 30,    Execution time    0.0 s
 Computed χ(iτ,k=0) for time point           23 / 30,    Execution time    0.0 s
 Computed χ(iτ,k=0) for time point           24 / 30,    Execution time    0.0 s
 Computed χ(iτ,k=0) for time point           25 / 30,    Execution time    0.0 s
 Computed χ(iτ,k=0) for time point           26 / 30,    Execution time    0.0 s
 Computed χ(iτ,k=0) for time point           27 / 30,    Execution time    0.0 s
 Computed χ(iτ,k=0) for time point           28 / 30,    Execution time    0.0 s
 Computed χ(iτ,k=0) for time point           29 / 30,    Execution time    0.0 s
 Computed χ(iτ,k=0) for time point           30 / 30,    Execution time    0.0 s
 
 Computed W(iτ),                                         Execution time    1.8 s
 
 Computed Σ^x(k=0),                                      Execution time    0.1 s
 
 Computed Σ^c(iτ) for time point              1 / 30,    Execution time    0.1 s
 Computed Σ^c(iτ) for time point              2 / 30,    Execution time    0.1 s
 Computed Σ^c(iτ) for time point              3 / 30,    Execution time    0.1 s
 Computed Σ^c(iτ) for time point              4 / 30,    Execution time    0.1 s
 Computed Σ^c(iτ) for time point              5 / 30,    Execution time    0.1 s
 Computed Σ^c(iτ) for time point              6 / 30,    Execution time    0.1 s
 Computed Σ^c(iτ) for time point              7 / 30,    Execution time    0.1 s
 Computed Σ^c(iτ) for time point              8 / 30,    Execution time    0.1 s
 Computed Σ^c(iτ) for time point              9 / 30,    Execution time    0.1 s
 Computed Σ^c(iτ) for time point             10 / 30,    Execution time    0.1 s
 Computed Σ^c(iτ) for time point             11 / 30,    Execution time    0.1 s
 Computed Σ^c(iτ) for time point             12 / 30,    Execution time    0.1 s
 Computed Σ^c(iτ) for time point             13 / 30,    Execution time    0.1 s
 Computed Σ^c(iτ) for time point             14 / 30,    Execution time    0.1 s
 Computed Σ^c(iτ) for time point             15 / 30,    Execution time    0.1 s
 Computed Σ^c(iτ) for time point             16 / 30,    Execution time    0.1 s
 Computed Σ^c(iτ) for time point             17 / 30,    Execution time    0.1 s
 Computed Σ^c(iτ) for time point             18 / 30,    Execution time    0.0 s
 Computed Σ^c(iτ) for time point             19 / 30,    Execution time    0.0 s
 Computed Σ^c(iτ) for time point             20 / 30,    Execution time    0.0 s
 Computed Σ^c(iτ) for time point             21 / 30,    Execution time    0.0 s
 Computed Σ^c(iτ) for time point             22 / 30,    Execution time    0.0 s
 Computed Σ^c(iτ) for time point             23 / 30,    Execution time    0.0 s
 Computed Σ^c(iτ) for time point             24 / 30,    Execution time    0.0 s
 Computed Σ^c(iτ) for time point             25 / 30,    Execution time    0.0 s
 Computed Σ^c(iτ) for time point             26 / 30,    Execution time    0.0 s
 Computed Σ^c(iτ) for time point             27 / 30,    Execution time    0.0 s
 Computed Σ^c(iτ) for time point             28 / 30,    Execution time    0.0 s
 Computed Σ^c(iτ) for time point             29 / 30,    Execution time    0.0 s
 Computed Σ^c(iτ) for time point             30 / 30,    Execution time    0.0 s
 
 SCF valence band maximum (eV):                                           -6.661
 SCF conduction band minimum (eV):                                        -1.536
 SCF indirect band gap (eV):                                               5.125
 SCF direct band gap (eV):                                                 5.125
 
 G0W0 valence band maximum (eV):                                          -8.469
 G0W0 conduction band minimum (eV):                                        0.851
 G0W0 indirect band gap (eV):                                              9.321
 G0W0 direct band gap (eV):                                                9.321
 
 Hartree-Fock with SCF orbitals valence band maximum (eV):                -9.315
 Hartree-Fock with SCF orbitals conduction band minimum (eV)               2.376
 Hartree-Fock with SCF orbitals indirect band gap (eV):                   11.691
 Hartree-Fock with SCF orbitals direct band gap (eV):                     11.691

 ENERGY| Total FORCE_EVAL ( QS ) energy [hartree]            -26.611170930701817

 -------------------------------------------------------------------------------
 -                                                                             -
 -                                DBCSR STATISTICS                             -
 -                                                                             -
 -------------------------------------------------------------------------------
 COUNTER                                    TOTAL       BLAS       SMM       ACC
 flops     4 x    38 x    99               361152     100.0%      0.0%      0.0%     
 flops     4 x    40 x    99               380160     100.0%      0.0%      0.0%     
 flops    14 x    14 x    38               387296     100.0%      0.0%      0.0%     
 flops    14 x    14 x    37               522144     100.0%      0.0%      0.0%     
 flops    14 x    38 x    99               526680     100.0%      0.0%      0.0%     
 flops    14 x    40 x    99               554400     100.0%      0.0%      0.0%     
 flops    14 x    14 x    40               611520     100.0%      0.0%      0.0%     
 flops     4 x    38 x    49              1072512     100.0%      0.0%      0.0%     
 flops     4 x    37 x    41              1165056     100.0%      0.0%      0.0%     
 flops     4 x    40 x    49              1505280     100.0%      0.0%      0.0%     
 flops    14 x    38 x    49              1564080     100.0%      0.0%      0.0%     
 flops    14 x    37 x    41              1699040     100.0%      0.0%      0.0%     
 flops     4 x    37 x    99              1758240     100.0%      0.0%      0.0%     
 flops    16 x    16 x    16              1941504     100.0%      0.0%      0.0%     
 flops    13 x     6 x    16              2096640     100.0%      0.0%      0.0%     
 flops     6 x    13 x    16              2096640     100.0%      0.0%      0.0%     
 flops    14 x    40 x    49              2195200     100.0%      0.0%      0.0%     
 flops    13 x    13 x    16              2271360     100.0%      0.0%      0.0%     
 flops     6 x     6 x    16              2515968     100.0%      0.0%      0.0%     
 flops    14 x    37 x    99              2564100     100.0%      0.0%      0.0%     
 flops    14 x    32 x    38              3813376     100.0%      0.0%      0.0%     
 flops    32 x    14 x    38              4426240     100.0%      0.0%      0.0%     
 flops    13 x    16 x    16              4459520     100.0%      0.0%      0.0%     
 flops     6 x    16 x    16              4939776     100.0%      0.0%      0.0%     
 flops    14 x    32 x    37              5171712     100.0%      0.0%      0.0%     
 flops    32 x    38 x    99              5296896     100.0%      0.0%      0.0%     
 flops    32 x    40 x    99              5575680     100.0%      0.0%      0.0%     
 flops     4 x    13 x     4              5754944     100.0%      0.0%      0.0%     
 flops    32 x    14 x    37              5801600     100.0%      0.0%      0.0%     
 flops    14 x    32 x    40              6021120     100.0%      0.0%      0.0%     
 flops     4 x     6 x     4              6212928     100.0%      0.0%      0.0%     
 flops    32 x    14 x    40              6451200     100.0%      0.0%      0.0%     
 flops     4 x    38 x     4              6750016     100.0%      0.0%      0.0%     
 flops     4 x    40 x     4              7004160     100.0%      0.0%      0.0%     
 flops    16 x    16 x   137              7505408     100.0%      0.0%      0.0%     
 flops    13 x    16 x   137              7978880     100.0%      0.0%      0.0%     
 flops    13 x    16 x    13              8247200     100.0%      0.0%      0.0%     
 flops    13 x    13 x     4              8502728     100.0%      0.0%      0.0%     
 flops     6 x    16 x   137              8838144     100.0%      0.0%      0.0%     
 flops    14 x    13 x     4              8957312     100.0%      0.0%      0.0%     
 flops    13 x     6 x     4              9021792     100.0%      0.0%      0.0%     
 flops    13 x    16 x     6              9135360     100.0%      0.0%      0.0%     
 flops     6 x    16 x    13              9135360     100.0%      0.0%      0.0%     
 flops     6 x    13 x     4              9293232     100.0%      0.0%      0.0%     
 flops    14 x     6 x     4              9700992     100.0%      0.0%      0.0%     
 flops     6 x     6 x     4              9840960     100.0%      0.0%      0.0%     
 flops     6 x    16 x     6             10119168     100.0%      0.0%      0.0%     
 flops     4 x    13 x    14             10637536     100.0%      0.0%      0.0%     
 flops     4 x    38 x    14             10733632     100.0%      0.0%      0.0%     
 flops     4 x    37 x     4             11073952     100.0%      0.0%      0.0%     
 flops    14 x    38 x     4             11116672     100.0%      0.0%      0.0%     
 flops     4 x    40 x    14             11285120     100.0%      0.0%      0.0%     
 flops     4 x     6 x    14             11481120     100.0%      0.0%      0.0%     
 flops    14 x    40 x     4             11598720     100.0%      0.0%      0.0%     
 flops    13 x    13 x    14             14711788     100.0%      0.0%      0.0%     
 flops    32 x    38 x    49             15730176     100.0%      0.0%      0.0%     
 flops    13 x     6 x    14             15768480     100.0%      0.0%      0.0%     
 flops     6 x    13 x    14             16163784     100.0%      0.0%      0.0%     
 flops    14 x    13 x    14             16363256     100.0%      0.0%      0.0%     
 flops    38 x    38 x     4             16461600     100.0%      0.0%      0.0%     
 flops    32 x    37 x    41             17087488     100.0%      0.0%      0.0%     
 flops    38 x    40 x     4             17328000     100.0%      0.0%      0.0%     
 flops    40 x    38 x     4             17328000     100.0%      0.0%      0.0%     
 flops     6 x     6 x    14             17382960     100.0%      0.0%      0.0%     
 flops    14 x    38 x    14             17413424     100.0%      0.0%      0.0%     
 flops     4 x    37 x    14             17524976     100.0%      0.0%      0.0%     
 flops    14 x     6 x    14             17759952     100.0%      0.0%      0.0%     
 flops     4 x     4 x    13             17969120     100.0%      0.0%      0.0%     
 flops    14 x    37 x     4             18100992     100.0%      0.0%      0.0%     
 flops    14 x    40 x    14             18204480     100.0%      0.0%      0.0%     
 flops    40 x    40 x     4             18240000     100.0%      0.0%      0.0%     
 flops     4 x     4 x     6             19085376     100.0%      0.0%      0.0%     
 flops    32 x    40 x    49             22077440     100.0%      0.0%      0.0%     
 flops     4 x    38 x    38             22457088     100.0%      0.0%      0.0%     
 flops     4 x    38 x    40             23930880     100.0%      0.0%      0.0%     
 flops     4 x    40 x    38             23930880     100.0%      0.0%      0.0%     
 flops    32 x    32 x    38             24281088     100.0%      0.0%      0.0%     
 flops     4 x    40 x    40             25344000     100.0%      0.0%      0.0%     
 flops    32 x    37 x    99             25787520     100.0%      0.0%      0.0%     
 flops    38 x    37 x     4             26691504     100.0%      0.0%      0.0%     
 flops    37 x    38 x     4             26714000     100.0%      0.0%      0.0%     
 flops     4 x    13 x    13             26985920     100.0%      0.0%      0.0%     
 flops    38 x    38 x    14             27291600     100.0%      0.0%      0.0%     
 flops    14 x     4 x    13             27991600     100.0%      0.0%      0.0%     
 flops    40 x    37 x     4             28096320     100.0%      0.0%      0.0%     
 flops    37 x    40 x     4             28120000     100.0%      0.0%      0.0%     
 flops    14 x    37 x    14             28514864     100.0%      0.0%      0.0%     
 flops    38 x    40 x    14             28728000     100.0%      0.0%      0.0%     
 flops    40 x    38 x    14             28728000     100.0%      0.0%      0.0%     
 flops     4 x    13 x     6             28738320     100.0%      0.0%      0.0%     
 flops     4 x     6 x    13             29221920     100.0%      0.0%      0.0%     
 flops     4 x    14 x    13             29382080     100.0%      0.0%      0.0%     
 flops    14 x     4 x     6             29871072     100.0%      0.0%      0.0%     
 flops    40 x    40 x    14             30240000     100.0%      0.0%      0.0%     
 flops     4 x     6 x     6             30773376     100.0%      0.0%      0.0%     
 flops     4 x    14 x     6             31536288     100.0%      0.0%      0.0%     
 flops    32 x    32 x    37             31825920     100.0%      0.0%      0.0%     
 flops    14 x    38 x    38             32749920     100.0%      0.0%      0.0%     
 flops    14 x    38 x    40             34899200     100.0%      0.0%      0.0%     
 flops    14 x    40 x    38             34899200     100.0%      0.0%      0.0%     
 flops    32 x    32 x    40             35389440     100.0%      0.0%      0.0%     
 flops     4 x    37 x    38             36443520     100.0%      0.0%      0.0%     
 flops     4 x    38 x    37             36443520     100.0%      0.0%      0.0%     
 flops    14 x    40 x    40             36960000     100.0%      0.0%      0.0%     
 flops     4 x    37 x    40             38645760     100.0%      0.0%      0.0%     
 flops     4 x    40 x    37             38645760     100.0%      0.0%      0.0%     
 flops    14 x    13 x    13             42791476     100.0%      0.0%      0.0%     
 flops    37 x    37 x     4             43315160     100.0%      0.0%      0.0%     
 flops    38 x    37 x    14             44289000     100.0%      0.0%      0.0%     
 flops    37 x    38 x    14             44289000     100.0%      0.0%      0.0%     
 flops    14 x    14 x    13             45410456     100.0%      0.0%      0.0%     
 flops    14 x    13 x     6             46610928     100.0%      0.0%      0.0%     
 flops    40 x    37 x    14             46620000     100.0%      0.0%      0.0%     
 flops    37 x    40 x    14             46620000     100.0%      0.0%      0.0%     
 flops    14 x     6 x    13             46833696     100.0%      0.0%      0.0%     
 flops    14 x    14 x     6             48691104     100.0%      0.0%      0.0%     
 flops    14 x     6 x     6             50244768     100.0%      0.0%      0.0%     
 flops    14 x    37 x    38             53146800     100.0%      0.0%      0.0%     
 flops    14 x    38 x    37             53146800     100.0%      0.0%      0.0%     
 flops     4 x     4 x   685             53725920     100.0%      0.0%      0.0%     
 flops    14 x    37 x    40             56358400     100.0%      0.0%      0.0%     
 flops    14 x    40 x    37             56358400     100.0%      0.0%      0.0%     
 flops     4 x    37 x    37             59535072     100.0%      0.0%      0.0%     
 flops    37 x    37 x    14             71872500     100.0%      0.0%      0.0%     
 flops     4 x    14 x   685             82704160     100.0%      0.0%      0.0%     
 flops    14 x     4 x   685             82704160     100.0%      0.0%      0.0%     
 flops    14 x    37 x    37             86821980     100.0%      0.0%      0.0%     
 flops    32 x    13 x     4             91057408     100.0%      0.0%      0.0%     
 flops    32 x     6 x     4             98918400     100.0%      0.0%      0.0%     
 flops     4 x    13 x    32            104732160     100.0%      0.0%      0.0%     
 flops    32 x    38 x     4            110947840     100.0%      0.0%      0.0%     
 flops     4 x    38 x    32            113175552     100.0%      0.0%      0.0%     
 flops     4 x     6 x    32            113475072     100.0%      0.0%      0.0%     
 flops    32 x    40 x     4            115906560     100.0%      0.0%      0.0%     
 flops     4 x    40 x    32            118835200     100.0%      0.0%      0.0%     
 flops    14 x    14 x   685            120834000     100.0%      0.0%      0.0%     
 flops    13 x    13 x    32            144620736     100.0%      0.0%      0.0%     
 flops    13 x     6 x    32            155231232     100.0%      0.0%      0.0%     
 flops     6 x    13 x    32            158770560     100.0%      0.0%      0.0%     
 flops    14 x    13 x    32            160101760     100.0%      0.0%      0.0%     
 flops    32 x    13 x    14            164306688     100.0%      0.0%      0.0%     
 flops     6 x     6 x    32            170507520     100.0%      0.0%      0.0%     
 flops    32 x    38 x    14            172214784     100.0%      0.0%      0.0%     
 flops    14 x     6 x    32            173591040     100.0%      0.0%      0.0%     
 flops    32 x     6 x    14            178424064     100.0%      0.0%      0.0%     
 flops    14 x    38 x    32            179228672     100.0%      0.0%      0.0%     
 flops    32 x    40 x    14            180705280     100.0%      0.0%      0.0%     
 flops    32 x    37 x     4            180934144     100.0%      0.0%      0.0%     
 flops     4 x    37 x    32            184192512     100.0%      0.0%      0.0%     
 flops    14 x    40 x    32            188160000     100.0%      0.0%      0.0%     
 flops    38 x    38 x    32            266435328     100.0%      0.0%      0.0%     
 flops    40 x    38 x    32            280458240     100.0%      0.0%      0.0%     
 flops    32 x     4 x    13            280640256     100.0%      0.0%      0.0%     
 flops    38 x    40 x    32            280750080     100.0%      0.0%      0.0%     
 flops    32 x    37 x    14            281460480     100.0%      0.0%      0.0%     
 flops     4 x    32 x    13            289386240     100.0%      0.0%      0.0%     
 flops    14 x    37 x    32            292566400     100.0%      0.0%      0.0%     
 flops    40 x    40 x    32            295526400     100.0%      0.0%      0.0%     
 flops    32 x     4 x     6            299888640     100.0%      0.0%      0.0%     
 flops     4 x    32 x     6            309136896     100.0%      0.0%      0.0%     
 flops    32 x    38 x    38            329370624     100.0%      0.0%      0.0%     
 flops    32 x    38 x    40            350986240     100.0%      0.0%      0.0%     
 flops    32 x    40 x    38            350986240     100.0%      0.0%      0.0%     
 flops    32 x    40 x    40            371712000     100.0%      0.0%      0.0%     
 flops    32 x    13 x    13            420764032     100.0%      0.0%      0.0%     
 flops    37 x    38 x    32            432373120     100.0%      0.0%      0.0%     
 flops    38 x    37 x    32            433272960     100.0%      0.0%      0.0%     
 flops    14 x    32 x    13            448529536     100.0%      0.0%      0.0%     
 flops    32 x    14 x    13            453712896     100.0%      0.0%      0.0%     
 flops    37 x    40 x    32            455603200     100.0%      0.0%      0.0%     
 flops    32 x    13 x     6            455654784     100.0%      0.0%      0.0%     
 flops    40 x    37 x    32            456076800     100.0%      0.0%      0.0%     
 flops    32 x     6 x    13            461280768     100.0%      0.0%      0.0%     
 flops    14 x    32 x     6            476646912     100.0%      0.0%      0.0%     
 flops    32 x     6 x     6            490470912     100.0%      0.0%      0.0%     
 flops    32 x    14 x     6            490522368     100.0%      0.0%      0.0%     
 flops    32 x    37 x    38            534504960     100.0%      0.0%      0.0%     
 flops    32 x    38 x    37            534504960     100.0%      0.0%      0.0%     
 flops    32 x    37 x    40            566804480     100.0%      0.0%      0.0%     
 flops    32 x    40 x    37            566804480     100.0%      0.0%      0.0%     
 flops    37 x    37 x    32            703118400     100.0%      0.0%      0.0%     
 flops    32 x     4 x   685            819983360     100.0%      0.0%      0.0%     
 flops     4 x    32 x   685            820334080     100.0%      0.0%      0.0%     
 flops    32 x    37 x    37            873181056     100.0%      0.0%      0.0%     
 flops    32 x    14 x   685           1215244800     100.0%      0.0%      0.0%     
 flops    14 x    32 x   685           1215244800     100.0%      0.0%      0.0%     
 flops    32 x    13 x    32           1614772224     100.0%      0.0%      0.0%     
 flops    32 x     6 x    32           1751322624     100.0%      0.0%      0.0%     
 flops    32 x    38 x    32           1776955392     100.0%      0.0%      0.0%     
 flops    32 x    40 x    32           1869004800     100.0%      0.0%      0.0%     
 flops    32 x    37 x    32           2894946304     100.0%      0.0%      0.0%     
 flops    32 x    32 x    13           4455819264     100.0%      0.0%      0.0%     
 flops    32 x    32 x     6           4785770496     100.0%      0.0%      0.0%     
 flops    32 x    32 x   685          12221890560     100.0%      0.0%      0.0%     
 flops inhomo. stacks                 43782297280     100.0%      0.0%      0.0%
 flops total                        98.918309E+09     100.0%      0.0%      0.0%
 flops max/rank                     98.918309E+09     100.0%      0.0%      0.0%
 matmuls inhomo. stacks                    352498     100.0%      0.0%      0.0%
 matmuls total                            4102646     100.0%      0.0%      0.0%
 number of processed stacks                 60663     100.0%      0.0%      0.0%
 average stack size                                    67.6       0.0       0.0
 marketing flops                   144.079864E+09
 -------------------------------------------------------------------------------
 # multiplications                           1083
 max memory usage/rank              87.221109E+09
 # max total images/rank                        1
 # max 3D layers                                1
 # MPI messages exchanged                       0
 -------------------------------------------------------------------------------
 -                                                                             -
 -                      DBCSR MESSAGE PASSING PERFORMANCE                      -
 -                                                                             -
 -------------------------------------------------------------------------------
 ROUTINE             CALLS      AVE VOLUME [Bytes]
 MP_Bcast              195                     12.
 MP_Allreduce         5279                     20.
 MP_Alltoall          5305                 292041.
 MP_ISend             3918                   5493.
 MP_IRecv             3918                   5493.
 -------------------------------------------------------------------------------

 -------------------------------------------------------------------------------
 -                                                                             -
 -                                GRID STATISTICS                              -
 -                                                                             -
 -------------------------------------------------------------------------------
 LP    KERNEL             BACKEND                              COUNT     PERCENT
 2     collocate ortho    CPU                                  84336      27.00%
 2     integrate ortho    CPU                                  84336      27.00%
 3     collocate ortho    CPU                                  58156      18.62%
 3     integrate ortho    CPU                                  58156      18.62%
 4     collocate ortho    CPU                                  13692       4.38%
 4     integrate ortho    CPU                                  13692       4.38%
 0     collocate general  CPU                                     17       0.01%
 -------------------------------------------------------------------------------

 -------------------------------------------------------------------------------
 -                                                                             -
 -                          OFFLOAD MEMPOOL STATISTICS                         -
 -                                                                             -
 -------------------------------------------------------------------------------
 Memory consumption                Number of allocations  Used [MiB]  Size [MiB]
 Host                                                  6         617    22259113
 -------------------------------------------------------------------------------

 MEMORY| Estimated peak process memory [MiB]                               51392

 -------------------------------------------------------------------------------
 -                                                                             -
 -                         MESSAGE PASSING PERFORMANCE                         -
 -                                                                             -
 -------------------------------------------------------------------------------

 ROUTINE             CALLS      AVE VOLUME [Bytes]
 MP_Group                5
 MP_Bcast              954                   2225.
 MP_Allreduce         4454                   2813.
 MP_Sync                38
 MP_comm_split          36
 -------------------------------------------------------------------------------


 -------------------------------------------------------------------------------
 -                                                                             -
 -                           R E F E R E N C E S                               -
 -                                                                             -
 -------------------------------------------------------------------------------
 
 CP2K version 2026.2 (Development Version), the CP2K developers group (2026).
 CP2K is freely available from https://www.cp2k.org/ .
 
 M. Iannuzzi, J. Wilhelm, F. Stein, A. Bussy, H. Elgabarty, D. Golze, A. Hehn, 
 M. Graml, S. Marek, B. Sertcan Gökmen, C. Schran, H. Forbert, R. Z. 
 Khaliullin, A. Kozhevnikov, M. Taillefumier, R. Meli, V. V. Rybkin, M. Brehm, 
 R. Schade, O. Schütt, J. V. Pototschnig, H. Mirhosseini, A. Knüpfer, D. Marx, 
 M. Krack, J. Hutter, T. D. Kühne.
 J. Phys. Chem. B 130, 1237-1310 (2026).
 The CP2K Program Package Made Simple.
 https://doi.org/10.1021/acs.jpcb.5c05851

 M. Graml, K. Zollner, D. Hernangómez-Pérez, P. E. Faria Junior, J. Wilhelm.
 J. Chem. Theory Comput. 20, 2202-2208 (2024).
 Low-scaling GW algorithm applied to twisted transition-metal dichalcogenide 
 heterobilayers.
 https://doi.org/10.1021/acs.jctc.3c01230

 T. D. Kühne, M. Iannuzzi, M. Del Ben, V. V. Rybkin, P. Seewald, F. Stein, T. 
 Laino, R. Z. Khaliullin, O. Schütt, F. Schiffmann, D. Golze, J. Wilhelm, S. 
 Chulkov, M. H. Bani-Hashemian, V. Weber, U. Borstnik, M. Taillefumier, A. S. 
 Jakobovits, A. Lazzaro, H. Pabst, T. Müller, R. Schade, M. Guidon, S. 
 Andermatt, N. Holmberg, G. K. Schenter, A. Hehn, A. Bussy, F. Belleflamme, G. 
 Tabacchi, A. Glöß, M. Lass, I. Bethune, C. J. Mundy, C. Plessl, M. Watkins, 
 J. VandeVondele, M. Krack, J. Hutter.
 J. Chem. Phys. 152, 194103 (2020).
 CP2K: An electronic structure and molecular dynamics software package - 
 Quickstep: Efficient and accurate electronic structure calculations.
 https://doi.org/10.1063/5.0007045

 O. Schuett, P. Messmer, J. Hutter, J. VandeVondele.
 Electronic Structure Calculations on Graphics Processing Units, 173-190 (2016).
 GPU-Accelerated Sparse Matrix-Matrix Multiplication for Linear Scaling Density 
 Functional Theory.
 https://doi.org/10.1002/9781118670712.ch8

 U. Borstnik, J. VandeVondele, V. Weber, J. Hutter.
 Parallel Comput. 40, 47-58 (2014).
 Sparse matrix multiplication: The distributed block-compressed sparse row 
 library.
 https://doi.org/10.1016/j.parco.2014.03.012

 J. VandeVondele, J. Hutter.
 J. Chem. Phys. 127, 114105 (2007).
 Gaussian basis sets for accurate calculations on molecular systems in gas and 
 condensed phases.
 https://doi.org/10.1063/1.2770708

 J. VandeVondele, M. Krack, F. Mohamed, M. Parrinello, T. Chassaing, J. Hutter.
 Comput. Phys. Commun. 167, 103-128 (2005).
 QUICKSTEP: Fast and accurate density functional calculations using a mixed 
 Gaussian and plane waves approach.
 https://doi.org/10.1016/j.cpc.2004.12.014

 M. Krack.
 Theor. Chem. Acc. 114, 145-152 (2005).
 Pseudopotentials for H to Kr optimized for gradient-corrected 
 exchange-correlation functionals.
 https://doi.org/10.1007/s00214-005-0655-y

 M. Frigo, S. G. Johnson.
 Proc. IEEE 93, 216-231 (2005).
 The design and implementation of FFTW3.
 https://doi.org/10.1109/JPROC.2004.840301

 J. VandeVondele, J. Hutter.
 J. Chem. Phys. 118, 4365-4369 (2003).
 An efficient orbital transformation method for electronic structure 
 calculations.
 https://doi.org/10.1063/1.1543154

 C. Hartwigsen, S. Goedecker, J. Hutter.
 Phys. Rev. B 58, 3641-3662 (1998).
 Relativistic separable dual-space Gaussian pseudopotentials from H to Rn.
 https://doi.org/10.1103/PhysRevB.58.3641

 G. Lippert, J. Hutter, M. Parrinello.
 Mol. Phys. 92, 477-487 (1997).
 A hybrid Gaussian and plane wave density functional scheme.
 https://doi.org/10.1080/002689797170220

 S. Goedecker, M. Teter, J. Hutter.
 Phys. Rev. B 54, 1703-1710 (1996).
 Separable dual-space Gaussian pseudopotentials.
 https://doi.org/10.1103/PhysRevB.54.1703

 J. P. Perdew, K. Burke, M. Ernzerhof.
 Phys. Rev. Lett. 77, 3865-3868 (1996).
 Generalized gradient approximation made simple.
 https://doi.org/10.1103/PhysRevLett.77.3865

 P. E. Blöchl.
 J. Chem. Phys. 103, 7422-7428 (1995).
 Electrostatic decoupling of periodic images of plane‐wave‐expanded 
 densities and derived atomic point charges.
 https://doi.org/10.1063/1.470314

 R. H. Byrd, P. H. Lu, J. Nocedal, C. Y. Zhu.
 SIAM J. Sci. Comput. 16, 1190-1208 (1995).
 A Limited Memory Algorithm for Bound Constrained Optimization.
 https://doi.org/10.1137/0916069


 -------------------------------------------------------------------------------
 -                                                                             -
 -                                T I M I N G                                  -
 -                                                                             -
 -------------------------------------------------------------------------------
 SUBROUTINE                       CALLS  ASD         SELF TIME        TOTAL TIME MAXRANK
                                MAXIMUM       AVERAGE  MAXIMUM  AVERAGE  MAXIMUM
 CP2K                                 1  1.0    0.227    0.227 1139.305 1139.305       0
 qs_energies                          1  2.0    0.124    0.124 1122.140 1122.140       0
 qs_energies_properties               1  3.0    0.005    0.005  699.949  699.949       0
 post_scf_bandstructure               1  4.0    0.003    0.003  699.943  699.943       0
 gw                                   1  5.0    0.001    0.001  699.697  699.697       0
 gw_calc_non_periodic_ri_rs           1  6.0    0.026    0.026  691.118  691.118       0
 ri_rs_grid_assembler                 1  7.0    0.010    0.010  685.426  685.426       0
 optimize_ri_rs_grid                  1  8.0    0.006    0.006  683.985  683.985       0
 rirs_grid_LBFGS                      1  9.0    4.718    4.718  657.640  657.640       0
 evaluate_rirs_grid_cluster        5117 10.0   81.205   81.205  652.919  652.919       0
 scf_env_do_scf                       1  3.0    0.013    0.013  411.500  411.500       0
 scf_env_do_scf_inner_loop           27  4.0    0.029    0.029  399.650  399.650       0
 qs_ks_build_kohn_sham_matrix        28  7.0    0.186    0.186  318.586  318.586       0
 qs_ks_update_qs_env                 28  5.0    0.000    0.000  315.164  315.164       0
 rebuild_ks_matrix                   27  6.0    0.001    0.001  315.160  315.160       0
 fft_wrap_pw1pw2                    470 10.3    0.017    0.017  289.661  289.661       0
 fft_wrap_pw1pw2_300                302 11.8   33.878   33.878  279.076  279.076       0
 qs_vxc_create                       28  8.0    0.012    0.012  221.888  221.888       0
 xc_vxc_pw_create                    27  9.0    9.720    9.720  221.876  221.876       0
 rirs_cluster_gradient_coordina    5117 11.0  216.864  216.864  216.864  216.864       0
 xc_pw_derive                       162 11.0    0.001    0.001  163.168  163.168       0
 fft3d_s                            471 12.3  139.921  139.921  139.932  139.932       0
 rirs_cluster_AO_products          5117 11.0  121.041  121.041  121.041  121.041       0
 xc_pw_divergence                    27 10.0    0.001    0.001  109.402  109.402       0
 rirs_cluster_gradient_products    5117 11.0  100.885  100.885  100.885  100.885       0
 xc_rho_set_and_dset_create          27 10.0    7.438    7.438   99.683   99.683       0
 qs_rho_update_rho_low               28  5.0    0.001    0.001   98.526   98.526       0
 calculate_rho_elec                  28  6.0    6.597    6.597   98.526   98.526       0
 rirs_cluster_residual             5117 11.0   70.729   70.729   70.729   70.729       0
 pw_scatter_s                       248 12.8   70.392   70.392   70.392   70.392       0
 density_rs2pw                       28  7.0    0.016    0.016   59.981   59.981       0
 qs_ks_ddapc                         28  8.0    0.006    0.006   38.231   38.231       0
 sum_up_and_integrate                28  8.0    0.011    0.011   36.080   36.080       0
 integrate_v_rspace                  28  9.0    0.024    0.024   34.672   34.672       0
 potential_pw2rs                     28 10.0    0.344    0.344   34.415   34.415       0
 grid_collocate_task_list            28  7.0   31.947   31.947   31.947   31.947       0
 rirs_cluster_d_lP                 5117 11.0   31.733   31.733   31.733   31.733       0
 rirs_cluster_D_ll                 5117 11.0   30.462   30.462   30.462   30.462       0
 rirs_grid_build_clusters             1  9.0   19.318   19.318   26.340   26.340       0
 pw_gather_s                        222 11.8   25.490   25.490   25.490   25.490       0
 pw_integral_ab_c1d_c1d_gs           56  9.5   22.666   22.666   22.666   22.666       0
 pw_poisson_solve                    28  8.0    0.016    0.016   21.081   21.081       0
 qs_init_subsys                       1  2.0    0.031    0.031   16.640   16.640       0
 qs_env_setup                         1  3.0    0.022    0.022   16.594   16.594       0
 qs_env_rebuild_pw_env                2  3.5    0.004    0.004   16.493   16.493       0
 pw_env_rebuild                       1  5.0    0.039    0.039   16.489   16.489       0
 pw_grid_setup                        5  5.2    0.003    0.003   16.444   16.444       0
 pw_grid_setup_internal               5  6.2    0.187    0.187   16.441   16.441       0
 pw_derive                          246 11.3   16.089   16.089   16.089   16.089       0
 pw_grid_sort                         5  7.2   12.217   12.217   15.560   15.560       0
 cp_ddapc_apply_CD                   28  9.0    0.003    0.003   13.189   13.189       0
 init_scf_loop                        1  4.0    0.016    0.016   11.837   11.837       0
 pw_copy                            444 10.6    9.896    9.896    9.896    9.896       0
 pw_copy_to_array                   222 11.8    9.331    9.331    9.331    9.331       0
 fft_wrap_pw1pw2_100                 56 10.5    1.500    1.500    8.890    8.890       0
 pw_copy_from_array                 248 12.8    8.787    8.787    8.787    8.787       0
 create_and_init_bs_env_for_gw        1  6.0    0.182    0.182    8.578    8.578       0
 xc_functional_eval                  27 11.0    0.002    0.002    7.623    7.623       0
 pbe_lda_eval                        27 12.0    7.621    7.621    7.621    7.621       0
 pw_poisson_set                      29  8.9    0.001    0.001    7.228    7.228       0
 abc_contract_xsmm               591090 10.0    7.114    7.114    7.114    7.114       0
 pw_axpy                            285  9.1    5.623    5.623    5.623    5.623       0
 qs_energies_init_hamiltonians        1  3.0    0.029    0.029    5.282    5.282       0
 init_scf_run                         1  3.0    0.019    0.019    5.209    5.209       0
 scf_env_initial_rho_setup            1  4.0    0.003    0.003    5.184    5.184       0
 generate_auto_ri_basis               1  7.0    0.006    0.006    4.420    4.420       0
 qs_env_update_s_mstruct              1  4.0    0.003    0.003    3.978    3.978       0
 compute_V_xc                         1  7.0    0.001    0.001    3.435    3.435       0
 sort_shells                          5  8.2    3.343    3.343    3.343    3.343       0
 compute_M_pq_inv_and_V_pq            1  8.0    0.000    0.000    3.091    3.091       0
 compute_contracted_RI_matrix         2  9.0    0.004    0.004    2.970    2.970       0
 compute_optimized_RI_matrix_bl     306 10.0    0.197    0.197    2.949    2.949       0
 compute_M_PQ_AB                   3406 11.0    0.003    0.003    2.854    2.854       0
 compute_M_PQ                      3406 12.0    0.005    0.005    2.852    2.852       0
 int_operators_r12_ab_os           3406 13.0    0.002    0.002    2.847    2.847       0
 int_operator_ab_os_low            3406 14.0    1.288    1.288    2.845    2.845       0
 calculate_rho_core                   1  5.0    0.481    0.481    2.746    2.746       0
 pw_zero                            155  9.5    2.680    2.680    2.680    2.680       0
 pw_scale                           109  9.8    2.183    2.183    2.183    2.183       0
 compute_Sigma_c_and_QP_energie       1  7.0    0.001    0.001    1.774    1.774       0
 compute_W                            1  7.0    0.023    0.023    1.764    1.764       0
 transfer_rs2pw                     113  8.0    0.048    0.048    1.751    1.751       0
 compute_Sigma_c                      1  8.0    0.023    0.023    1.685    1.685       0
 fft_wrap_pw1pw2_40                  56 10.5    0.316    0.316    1.454    1.454       0
 transfer_rs2pw_300                  29  8.9    1.444    1.444    1.444    1.444       0
 qs_scf_new_mos                      27  5.0    0.002    0.002    1.421    1.421       0
 qs_scf_loop_do_ot                   27  6.0    0.007    0.007    1.419    1.419       0
 build_grid_cache                     1  8.0    0.001    0.001    1.418    1.418       0
 initialize_cholesky_rirs_grids       1  9.0    1.413    1.413    1.417    1.417       0
 contract_grid_panels_sigma_c        30  9.0    1.180    1.180    1.412    1.412       0
 ot_scf_mini                         27  7.0    0.046    0.046    1.360    1.360       0
 calculate_first_density_matrix       1  5.0    0.009    0.009    1.356    1.356       0
 parallel_gemm_fm_gemm              433  9.5    0.002    0.002    1.350    1.350       0
 cp_fm_gemm                         436 10.5    1.349    1.349    1.349    1.349       0
 transfer_pw2rs                     112 11.0    0.001    0.001    1.244    1.244       0
 -------------------------------------------------------------------------------

 The number of warnings for this run is : 0
 
 -------------------------------------------------------------------------------
  **** **** ******  **  PROGRAM ENDED AT                 2026-09-15 23:43:03.152
 ***** ** ***  *** **   PROGRAM RAN ON                                  n2cn0954
 **    ****   ******    PROGRAM RAN BY                                  eprop2d1
 ***** **    ** ** **   PROGRAM PROCESS ID                                574602
  **** **  *******  **  PROGRAM STOPPED IN /scratch/hpc-prf-metdyn/eprop2d1_Jan/
                                           53_benchmark_RI_opt/106_GW100_GTH_RIR
                                           S_riao5_7_c7/calculations/42_Si5H12/r
                                           iao5/leb_r06
