 DBCSR| CPU Multiplication driver                                           XSMM (U)
 DBCSR| Multrec recursion limit                                              512 (U)
 DBCSR| Multiplication stack size                                           1000 (D)
 DBCSR| Maximum elements for images                                    UNLIMITED (U)
 DBCSR| Multiplicative factor virtual images                                   1 (U)
 DBCSR| Use multiplication densification                                       T (D)
 DBCSR| Multiplication size stacks                                             3 (U)
 DBCSR| Use memory pool for CPU allocation                                     F (U)
 DBCSR| Number of 3D layers                                               SINGLE (U)
 DBCSR| Use MPI memory allocation                                              F (U)
 DBCSR| Use RMA algorithm                                                      F (U)
 DBCSR| Use Communication thread                                               T (U)
 DBCSR| Communication thread load                                              0 (D)
 DBCSR| MPI: My process id                                                     1
 DBCSR| MPI: Number of processes                                               2
 DBCSR| OMP: Current number of threads                                        64
 DBCSR| OMP: Max number of threads                                            64
 DBCSR| Split modifier for TAS multiplication algorithm                  1.0E+00 (U)


  **** **** ******  **  PROGRAM STARTED AT               2026-09-16 23:39:54.797
 ***** ** ***  *** **   PROGRAM STARTED ON                              n2cn0535
 **    ****   ******    PROGRAM STARTED BY                              eprop2d1
 ***** **    ** ** **   PROGRAM PROCESS ID                                272639
  **** **  *******  **  PROGRAM STARTED IN /scratch/hpc-prf-metdyn/eprop2d1_Jan/
                                           53_benchmark_RI_opt/106_GW100_GTH_RIR
                                           S_riao5_7_c7/calculations/27_C3H6/ria
                                           o3/leb_r08

 CP2K| version string:                 CP2K version 2026.2 (Development Version)
 CP2K| source code revision number:                                      unknown
 CP2K| cp2kflags: omp libint fftw3 libxc parallel scalapack openblas            
 CP2K| is freely available from                            https://www.cp2k.org/
 CP2K| Program compiled at                                   2026-09-15 17:57:52
 CP2K| Program compiled on                                              n2login6
 CP2K| Program compiled for                                               x86_64
 CP2K| Data directory path    /scratch/hpc-prf-metdyn/eprop2d1_Jan/53_benchmark_
 CP2K| Input file name                                                 input.inp
 
 eprop2d1@n2cn0535 has created rank and process                      0    272639
 
 eprop2d1@n2cn0535 is running                                        1 processes

 GLOBAL| Force Environment number                                              1
 GLOBAL| Basis set file name            /scratch/hpc-prf-metdyn/eprop2d1_Jan/53_
 GLOBAL| Potential file name            /scratch/hpc-prf-metdyn/eprop2d1_Jan/53_
 GLOBAL| MM Potential file name                                     MM_POTENTIAL
 GLOBAL| Coordinate file name                                      __STD_INPUT__
 GLOBAL| Method name                                                        CP2K
 GLOBAL| Project name                               gw100_106_27_C3H6_a3_leb_r08
 GLOBAL| Run type                                                         ENERGY
 GLOBAL| FFT library                                                       FFTW3
 GLOBAL| Diagonalization library                                       ScaLAPACK
 GLOBAL| Cholesky decomposition library                                ScaLAPACK
 GLOBAL| DGEMM library                                                      BLAS
 GLOBAL| Direct generalized diagonalization requested                          F
 GLOBAL| Orthonormality check for eigenvectors                          DISABLED
 GLOBAL| Matrix multiplication library                                 ScaLAPACK
 GLOBAL| All-to-all communication in single precision                          F
 GLOBAL| Grid backend                                                       AUTO
 GLOBAL| Global print level                                                  LOW
 GLOBAL| MPI I/O enabled                                                       T
 GLOBAL| Total number of message passing processes                             1
 GLOBAL| Number of distributed systems (nodes)                                 1
 GLOBAL| Number of threads for this process                                   64
 GLOBAL| This output is from process                                           0
 GLOBAL| OpenMP stack size per thread (OMP_STACKSIZE)                       128M
 GLOBAL| CPU model name                          AMD EPYC 7763 64-Core Processor

 MEMORY| system memory details [Kb]
 MEMORY|                        rank 0           min           max       average
 MEMORY| MemTotal            263897556     263897556     263897556     263897556
 MEMORY| MemFree             252225016     252225016     252225016     252225016
 MEMORY| Buffers                319932        319932        319932        319932
 MEMORY| Cached                6895792       6895792       6895792       6895792
 MEMORY| Slab                  1363176       1363176       1363176       1363176
 MEMORY| SReclaimable           290544        290544        290544        290544
 MEMORY| MemLikelyFree       259731284     259731284     259731284     259731284


 GENERATE|  Preliminary Number of Bonds generated:                             0
 GENERATE|  Achieved consistency in connectivity generation.

 *******************************************************************************
 *******************************************************************************
 **                                                                           **
 **     #####                         ##              ##                      **
 **    ##   ##            ##          ##              ##                      **
 **   ##     ##                       ##            ######                    **
 **   ##     ##  ##   ##  ##   #####  ##  ##   ####   ##    #####    #####    **
 **   ##     ##  ##   ##  ##  ##      ## ##   ##      ##   ##   ##  ##   ##   **
 **   ##  ## ##  ##   ##  ##  ##      ####     ###    ##   ######   ######    **
 **    ##  ###   ##   ##  ##  ##      ## ##      ##   ##   ##       ##        **
 **     #######   #####   ##   #####  ##  ##  ####    ##    #####   ##        **
 **           ##                                                    ##        **
 **                                                                           **
 **                                                ... make the atoms dance   **
 **                                                                           **
 **            Copyright (C) by CP2K developers group (2000-2026)             **
 **                      J. Chem. Phys. 152, 194103 (2020)                    **
 **                                                                           **
 *******************************************************************************


 TOTAL NUMBERS AND MAXIMUM NUMBERS

  Total number of            - Atomic kinds:                                   2
                             - Atoms:                                          9
                             - Shell sets:                                     9
                             - Shells:                                        39
                             - Primitive Cartesian functions:                 60
                             - Cartesian basis functions:                     78
                             - Spherical basis functions:                     75

  Maximum angular momentum of- Orbital basis functions:                        2
                             - Local part of the GTH pseudopotential:          2
                             - Non-local part of the GTH pseudopotential:      0


 SCF PARAMETERS         Density guess:                                    ATOMIC
                        --------------------------------------------------------
                        max_scf:                                             500
                        max_scf_history:                                       0
                        max_diis:                                              4
                        --------------------------------------------------------
                        eps_scf:                                        1.00E-08
                        eps_scf_history:                                0.00E+00
                        eps_diis:                                       0.00E+00
                        eps_eigval:                                     1.00E-05
                        --------------------------------------------------------
                        level_shift [a.u.]:                             0.000000
                        --------------------------------------------------------
                        Outer loop SCF in use 
                        No variables optimised in outer loop
                        eps_scf                                         1.00E-08
                        max_scf                                               20
                        No outer loop optimization
                        step_size                                       5.00E-01

 Extrapolation method: initial_guess

 Number of electrons:                                                         18
 Number of occupied orbitals:                                                  9
 Number of molecular orbitals:                                                 9

 Number of orbital functions:                                                 75
 Number of independent orbital functions:                                     75


 SCF WAVEFUNCTION OPTIMIZATION

  ----------------------------------- OT ---------------------------------------
  Minimizer      : DIIS                : direct inversion
                                         in the iterative subspace
                                         using   7 DIIS vectors
                                         safer DIIS on
  Preconditioner : FULL_KINETIC        : inversion of T + eS
  Lattice FFT   : OFF
  Precond_solver : DEFAULT
  stepsize       :    0.15000000                  energy_gap     :    0.20000000
  eps_taylor     :   0.10000E-15                  max_taylor     :             4
  ----------------------------------- OT ---------------------------------------

  Step     Update method      Time    Convergence         Total energy    Change
  ------------------------------------------------------------------------------
  Decoupling Energy:                                               0.0001279626
     1 OT DIIS     0.15E+00    4.3     0.09343975       -18.6953574155 -1.87E+01
  Decoupling Energy:                                               0.0000290672
     2 OT DIIS     0.15E+00    5.2     0.05654618       -19.3155623934 -6.20E-01
  Decoupling Energy:                                               0.0000119743
     3 OT DIIS     0.15E+00    5.2     0.04719176       -19.6289852760 -3.13E-01
  Decoupling Energy:                                               0.0000162515
     4 OT DIIS     0.15E+00    5.3     0.03878152       -19.9184688395 -2.89E-01
  Decoupling Energy:                                               0.0000186877
     5 OT DIIS     0.15E+00    5.2     0.03162669       -20.1389100287 -2.20E-01
  Decoupling Energy:                                               0.0000103335
     6 OT DIIS     0.15E+00    5.3     0.02636982       -20.2927684593 -1.54E-01
  Decoupling Energy:                                               0.0000012458
     7 OT DIIS     0.15E+00    5.3     0.01695299       -20.4539283359 -1.61E-01
  Decoupling Energy:                                               0.0000021898
     8 OT DIIS     0.15E+00    5.3     0.01339029       -20.4961713760 -4.22E-02
  Decoupling Energy:                                               0.0000006243
     9 OT DIIS     0.15E+00    5.3     0.00864538       -20.5431269131 -4.70E-02
  Decoupling Energy:                                               0.0000001488
    10 OT DIIS     0.15E+00    5.3     0.00632953       -20.5626093997 -1.95E-02
  Decoupling Energy:                                               0.0000007301
    11 OT DIIS     0.15E+00    5.3     0.00482773       -20.5680796109 -5.47E-03
  Decoupling Energy:                                               0.0000002126
    12 OT DIIS     0.15E+00    5.3     0.00285769       -20.5736678892 -5.59E-03
  Decoupling Energy:                                               0.0000000425
    13 OT DIIS     0.15E+00    5.3     0.00173016       -20.5757707496 -2.10E-03
  Decoupling Energy:                                               0.0000000187
    14 OT DIIS     0.15E+00    5.3     0.00114539       -20.5765650300 -7.94E-04
  Decoupling Energy:                                               0.0000000099
    15 OT DIIS     0.15E+00    5.3     0.00079210       -20.5768856681 -3.21E-04
  Decoupling Energy:                                               0.0000000073
    16 OT DIIS     0.15E+00    5.3     0.00051970       -20.5770556830 -1.70E-04
  Decoupling Energy:                                               0.0000000064
    17 OT DIIS     0.15E+00    5.3     0.00035798       -20.5771244954 -6.88E-05
  Decoupling Energy:                                               0.0000000062
    18 OT DIIS     0.15E+00    5.3     0.00023764       -20.5771587512 -3.43E-05
  Decoupling Energy:                                               0.0000000061
    19 OT DIIS     0.15E+00    5.3     0.00015428       -20.5771751389 -1.64E-05
  Decoupling Energy:                                               0.0000000059
    20 OT DIIS     0.15E+00    5.3     0.00011458       -20.5771806090 -5.47E-06
  Decoupling Energy:                                               0.0000000057
    21 OT DIIS     0.15E+00    5.3     0.00008008       -20.5771839202 -3.31E-06
  Decoupling Energy:                                               0.0000000055
    22 OT DIIS     0.15E+00    5.3     0.00005415       -20.5771855886 -1.67E-06
  Decoupling Energy:                                               0.0000000055
    23 OT DIIS     0.15E+00    5.3     0.00004208       -20.5771861851 -5.97E-07
  Decoupling Energy:                                               0.0000000055
    24 OT DIIS     0.15E+00    5.3     0.00003533       -20.5771864628 -2.78E-07
  Decoupling Energy:                                               0.0000000054
    25 OT DIIS     0.15E+00    5.3     0.00002887       -20.5771867189 -2.56E-07
  Decoupling Energy:                                               0.0000000054
    26 OT DIIS     0.15E+00    5.2     0.00002142       -20.5771869548 -2.36E-07
  Decoupling Energy:                                               0.0000000053
    27 OT DIIS     0.15E+00    5.3     0.00001606       -20.5771870723 -1.17E-07
  Decoupling Energy:                                               0.0000000052
    28 OT DIIS     0.15E+00    5.3     0.00001235       -20.5771871288 -5.65E-08
  Decoupling Energy:                                               0.0000000051
    29 OT DIIS     0.15E+00    5.3     0.00000946       -20.5771871583 -2.95E-08
  Decoupling Energy:                                               0.0000000051
    30 OT DIIS     0.15E+00    5.3     0.00000715       -20.5771871760 -1.77E-08
  Decoupling Energy:                                               0.0000000051
    31 OT DIIS     0.15E+00    5.3     0.00000541       -20.5771871869 -1.09E-08
  Decoupling Energy:                                               0.0000000051
    32 OT DIIS     0.15E+00    5.3     0.00000420       -20.5771871923 -5.41E-09
  Decoupling Energy:                                               0.0000000051
    33 OT DIIS     0.15E+00    5.3     0.00000314       -20.5771871959 -3.63E-09
  Decoupling Energy:                                               0.0000000051
    34 OT DIIS     0.15E+00    5.3     0.00000247       -20.5771871977 -1.75E-09
  Decoupling Energy:                                               0.0000000051
    35 OT DIIS     0.15E+00    5.3     0.00000209       -20.5771871986 -8.98E-10
  Decoupling Energy:                                               0.0000000051
    36 OT DIIS     0.15E+00    5.3     0.00000178       -20.5771871993 -7.60E-10
  Decoupling Energy:                                               0.0000000051
    37 OT DIIS     0.15E+00    5.3     0.00000152       -20.5771872000 -6.16E-10
  Decoupling Energy:                                               0.0000000051
    38 OT DIIS     0.15E+00    5.3     0.00000124       -20.5771872005 -5.73E-10
  Decoupling Energy:                                               0.0000000051
    39 OT DIIS     0.15E+00    5.3     0.00000095       -20.5771872010 -4.80E-10
  Decoupling Energy:                                               0.0000000051
    40 OT DIIS     0.15E+00    5.3     0.00000074       -20.5771872013 -2.43E-10
  Decoupling Energy:                                               0.0000000051
    41 OT DIIS     0.15E+00    5.3     0.00000057       -20.5771872014 -1.34E-10
  Decoupling Energy:                                               0.0000000051
    42 OT DIIS     0.15E+00    5.3     0.00000044       -20.5771872015 -7.55E-11
  Decoupling Energy:                                               0.0000000051
    43 OT DIIS     0.15E+00    5.3     0.00000034       -20.5771872015 -4.17E-11
  Decoupling Energy:                                               0.0000000051
    44 OT DIIS     0.15E+00    5.3     0.00000026       -20.5771872015 -2.45E-11
  Decoupling Energy:                                               0.0000000051
    45 OT DIIS     0.15E+00    5.3     0.00000020       -20.5771872015 -1.28E-11
  Decoupling Energy:                                               0.0000000051
    46 OT DIIS     0.15E+00    5.3     0.00000015       -20.5771872016 -7.25E-12
  Decoupling Energy:                                               0.0000000051
    47 OT DIIS     0.15E+00    5.3     0.00000012       -20.5771872016 -3.80E-12
  Decoupling Energy:                                               0.0000000051
    48 OT DIIS     0.15E+00    5.3     0.00000010       -20.5771872016 -2.17E-12
  Decoupling Energy:                                               0.0000000051
    49 OT DIIS     0.15E+00    5.3     0.00000009       -20.5771872016 -1.65E-12
  Decoupling Energy:                                               0.0000000051
    50 OT DIIS     0.15E+00    5.3     0.00000007       -20.5771872016 -1.59E-12
  Decoupling Energy:                                               0.0000000051
    51 OT DIIS     0.15E+00    5.3     0.00000006       -20.5771872016 -1.29E-12
  Decoupling Energy:                                               0.0000000051
    52 OT DIIS     0.15E+00    5.3     0.00000005       -20.5771872016 -9.31E-13
  Decoupling Energy:                                               0.0000000051
    53 OT DIIS     0.15E+00    5.3     0.00000004       -20.5771872016 -6.04E-13
  Decoupling Energy:                                               0.0000000051
    54 OT DIIS     0.15E+00    5.3     0.00000003       -20.5771872016 -3.16E-13
  Decoupling Energy:                                               0.0000000051
    55 OT DIIS     0.15E+00   16.1     0.00000002       -20.5771872016 -1.78E-13
  Decoupling Energy:                                               0.0000000051
    56 OT DIIS     0.15E+00    5.3     0.00000002       -20.5771872016 -1.67E-13
  Decoupling Energy:                                               0.0000000051
    57 OT DIIS     0.15E+00    5.3     0.00000002       -20.5771872016 -1.03E-13
  Decoupling Energy:                                               0.0000000051
    58 OT DIIS     0.15E+00    5.3     0.00000001       -20.5771872016 -4.62E-14
  Decoupling Energy:                                               0.0000000051
    59 OT DIIS     0.15E+00    5.3     9.4131E-09       -20.5771872016 -2.13E-14

  *** SCF run converged in    59 steps ***


  Electronic density on regular grids:        -18.0000000000       -0.0000000000
  Core density on regular grids:               18.0000000000       -0.0000000000
  Total charge density on r-space grids:       -0.0000000000
  Total charge density g-space grids:          -0.0000000000

  Overlap energy of the core charge distribution:               0.00000230277750
  Self energy of the core charge distribution:                -48.46786753351198
  Core Hamiltonian energy:                                     15.61876324225861
  Hartree energy:                                              19.65991881233028
  Exchange-correlation energy:                                 -7.38800402542054

  Total energy:                                               -20.57718720156614

  outer SCF iter =    1 RMS gradient =   0.94E-08 energy =        -20.5771872016
  outer SCF loop converged in   1 iterations or   59 steps

  
 -------------------------------------------------------------------------------
 -                                                                             -
 -                          BANDSTRUCTURE CALCULATION                          -
 -                                                                             -
 -------------------------------------------------------------------------------
  
 Number of occupied molecular orbitals (MOs) = Number of occupied bands        9
 Number of unoccupied (= virtual) MOs = Number of unoccupied bands            66
 Number of Gaussian basis functions for MOs                                   75
  
 -------------------------------------------------------------------------------
 -                                                                             -
 -                                GW CALCULATION                               -
 -                                                                             -
 -------------------------------------------------------------------------------
  
 Input: Number of time/freq. points                                           30
 Input: ω_max for fitting Σ(iω) (eV)                                        10.0
 Input: Filter threshold for sparse tensor operations                    1.0E-07
 Input: Apply Hedin shift                                                      F
 Input: Available memory per MPI process                                  8.0 GB
 
 Input: RI-RS Tikhonov regularization                                   1.00E-04
 Input: AO grid hard cutoff radius                                        8.00 Å
 Input: MPI ranks per atom in Z_lP solve                                      -1
 Input: Keep sparsity in χ/G/W panels                                          T
 Input: GW flavour                                                          G0W0
 
 Input: RI-RS grid optimization activated                                      T
 Input: Initial RI-RS grid                                              CHOLESKY
 Input: RS points per AO function                                         8.0000
 Input: Initial RS candidates per AO function                            30.0000
 Input: Additional Lebedev degree                                              2
 Input: Cholesky selection matrix                                        D_PRIME
 Input: Cholesky candidate domain                                      FULL_ATOM
 Input: Initial radial quadrature                                       GAPW_LOG
 Input: Cutoff radius for atomic clusters                                  5.0 Å
 Input: Maximum grid optimization iterations                                 300
 Input: L-BFGS history size                                                    7
 Input: L-BFGS relative-function factor                              0.00000E+00
 Input: L-BFGS projected-gradient tolerance                          1.00000E-09
 
 Input: AUTO_RI basis optimization activated:                                  T
 Input: AUTO_RI requested RI/AO ratio:                                       3.0
 Input: AUTO_RI frontier orbital window:                                  5.0 eV
 Input: AUTO_RI neighbor radius:                                           3.0 Å
 
 Cutoff radius for the truncated Coulomb operator in RI metric:            7.0 Å
 Regularization parameter of RI                                          0.0E+00
 Regularization parameter of minimax grids                               1.0E-06
 
 AUTO_RI| Number of automatic RI functions for χ, ε, W:                      225
 AUTO_RI| Total RI basis optimization time:                               10.1 s
  Decoupling Energy:                                               0.0000000051
 
 SCF direct band gap (eV)                                                   6.97
 Max. SCF eigval diff. (eV)                                               208.30
 E-Range for minimax grid                                                  29.87
 Number of Padé parameters for analytic continuation:                         16
 
 RI-RS basis radii (Å):
     Kind  Elem     r_AO (Å)     r_RI (Å)
        1    C         8.0299        5.0785
        2    H         9.5011        6.0090
 
 RI-RS initialization: atomic kind                                             1
 RI-RS initialization: Lebedev degree                                         11
 RI-RS initialization: radial shells                                           8
 RI-RS initialization: candidates per atom                                   400
 RI-RS initialization: retained points per atom                              104
 RI-RS initialization: atomic kind                                             2
 RI-RS initialization: Lebedev degree                                          7
 RI-RS initialization: radial shells                                           7
 RI-RS initialization: candidates per atom                                   182
 RI-RS initialization: retained points per atom                               48
 RI-RS initialization: largest cluster candidate count                      2292
 RI-RS initialization: most pivots in one cluster                           1204
 RI-RS initialization: most stored AO values in one cluster               171900
 RI-RS initialization: wall time [s]                                       0.604
 Started RI-RS grid optimization
 RI-RS grid initial normalized error                          7.075294056414E-06
 RI-RS grid optimization completed, execution time:                      125.1 s
 Normalized 3C error:                                                    9.7E-09
 Maximum absolute 3C error:                                              7.1E-04
 Optimized points outside molecular Voronoi cells:                           102 / 600
 Total grid points used for RI-RS:                                           600
 
 RI-RS grid row-blocks of Φ_μ(r_l)                                            24
 RI-RS grid points per block (max)                                            32
 
 Percentage of non-zero matrix elements in Φ_μ(r_l)                     100.00 %
 
 RI-RS memory estimate per MPI process:
   Available memory per process (system)                               265.28 GB
   Required for Z_lP (dense upper bound; actual is sparser)              0.00 GB
   Required for χ, W, Σ panels (peak per panel step)                     0.01 GB
   Required for Z_lP solve peak (D_local+φ, worst-case atom)             0.01 GB
   Worst-case local-grid number of grid points:                              600
   Worst-case memory D_local:                                            0.00 GB
 
 Started computing Z_lP
 Computed Z_lP (MPI rank 0) for atom          1 /  9,    Execution time    0.0 s
 Computed Z_lP (MPI rank 0) for atom          2 /  9,    Execution time    0.0 s
 Computed Z_lP (MPI rank 0) for atom          3 /  9,    Execution time    0.0 s
 Computed Z_lP (MPI rank 0) for atom          4 /  9,    Execution time    0.0 s
 Computed Z_lP (MPI rank 0) for atom          5 /  9,    Execution time    0.0 s
 Computed Z_lP (MPI rank 0) for atom          6 /  9,    Execution time    0.0 s
 Computed Z_lP (MPI rank 0) for atom          7 /  9,    Execution time    0.0 s
 Computed Z_lP (MPI rank 0) for atom          8 /  9,    Execution time    0.0 s
 Computed Z_lP (MPI rank 0) for atom          9 /  9,    Execution time    0.0 s
 Computed Z_lP (all MPI ranks) for all atoms,            Execution time    0.2 s

 Number of batches for χ, Σ matrices                                           1
 
 Percentage of non-zero matrix elements in Z_lP                         100.00 %
 Percentage of non-zero matrix elements in G_ll', χ_ll', W_ll'          100.00 %
 Percentage of non-zero matrix elements in χ_PQ for time point 1        100.00 %
 
 Computed χ(iτ,k=0) for time point            1 / 30,    Execution time    0.0 s
 Computed χ(iτ,k=0) for time point            2 / 30,    Execution time    0.0 s
 Computed χ(iτ,k=0) for time point            3 / 30,    Execution time    0.0 s
 Computed χ(iτ,k=0) for time point            4 / 30,    Execution time    0.0 s
 Computed χ(iτ,k=0) for time point            5 / 30,    Execution time    0.0 s
 Computed χ(iτ,k=0) for time point            6 / 30,    Execution time    0.0 s
 Computed χ(iτ,k=0) for time point            7 / 30,    Execution time    0.0 s
 Computed χ(iτ,k=0) for time point            8 / 30,    Execution time    0.0 s
 Computed χ(iτ,k=0) for time point            9 / 30,    Execution time    0.0 s
 Computed χ(iτ,k=0) for time point           10 / 30,    Execution time    0.0 s
 Computed χ(iτ,k=0) for time point           11 / 30,    Execution time    0.0 s
 Computed χ(iτ,k=0) for time point           12 / 30,    Execution time    0.0 s
 Computed χ(iτ,k=0) for time point           13 / 30,    Execution time    0.0 s
 Computed χ(iτ,k=0) for time point           14 / 30,    Execution time    0.0 s
 Computed χ(iτ,k=0) for time point           15 / 30,    Execution time    0.0 s
 Computed χ(iτ,k=0) for time point           16 / 30,    Execution time    0.0 s
 Computed χ(iτ,k=0) for time point           17 / 30,    Execution time    0.0 s
 Computed χ(iτ,k=0) for time point           18 / 30,    Execution time    0.0 s
 Computed χ(iτ,k=0) for time point           19 / 30,    Execution time    0.0 s
 Computed χ(iτ,k=0) for time point           20 / 30,    Execution time    0.0 s
 Computed χ(iτ,k=0) for time point           21 / 30,    Execution time    0.0 s
 Computed χ(iτ,k=0) for time point           22 / 30,    Execution time    0.0 s
 Computed χ(iτ,k=0) for time point           23 / 30,    Execution time    0.0 s
 Computed χ(iτ,k=0) for time point           24 / 30,    Execution time    0.0 s
 Computed χ(iτ,k=0) for time point           25 / 30,    Execution time    0.0 s
 Computed χ(iτ,k=0) for time point           26 / 30,    Execution time    0.0 s
 Computed χ(iτ,k=0) for time point           27 / 30,    Execution time    0.0 s
 Computed χ(iτ,k=0) for time point           28 / 30,    Execution time    0.0 s
 Computed χ(iτ,k=0) for time point           29 / 30,    Execution time    0.0 s
 Computed χ(iτ,k=0) for time point           30 / 30,    Execution time    0.0 s
 
 Computed W(iτ),                                         Execution time    0.3 s
 
 Computed Σ^x(k=0),                                      Execution time    0.0 s
 
 Computed Σ^c(iτ) for time point              1 / 30,    Execution time    0.0 s
 Computed Σ^c(iτ) for time point              2 / 30,    Execution time    0.0 s
 Computed Σ^c(iτ) for time point              3 / 30,    Execution time    0.0 s
 Computed Σ^c(iτ) for time point              4 / 30,    Execution time    0.0 s
 Computed Σ^c(iτ) for time point              5 / 30,    Execution time    0.0 s
 Computed Σ^c(iτ) for time point              6 / 30,    Execution time    0.0 s
 Computed Σ^c(iτ) for time point              7 / 30,    Execution time    0.0 s
 Computed Σ^c(iτ) for time point              8 / 30,    Execution time    0.0 s
 Computed Σ^c(iτ) for time point              9 / 30,    Execution time    0.0 s
 Computed Σ^c(iτ) for time point             10 / 30,    Execution time    0.0 s
 Computed Σ^c(iτ) for time point             11 / 30,    Execution time    0.0 s
 Computed Σ^c(iτ) for time point             12 / 30,    Execution time    0.0 s
 Computed Σ^c(iτ) for time point             13 / 30,    Execution time    0.0 s
 Computed Σ^c(iτ) for time point             14 / 30,    Execution time    0.0 s
 Computed Σ^c(iτ) for time point             15 / 30,    Execution time    0.0 s
 Computed Σ^c(iτ) for time point             16 / 30,    Execution time    0.0 s
 Computed Σ^c(iτ) for time point             17 / 30,    Execution time    0.0 s
 Computed Σ^c(iτ) for time point             18 / 30,    Execution time    0.0 s
 Computed Σ^c(iτ) for time point             19 / 30,    Execution time    0.0 s
 Computed Σ^c(iτ) for time point             20 / 30,    Execution time    0.0 s
 Computed Σ^c(iτ) for time point             21 / 30,    Execution time    0.0 s
 Computed Σ^c(iτ) for time point             22 / 30,    Execution time    0.0 s
 Computed Σ^c(iτ) for time point             23 / 30,    Execution time    0.0 s
 Computed Σ^c(iτ) for time point             24 / 30,    Execution time    0.0 s
 Computed Σ^c(iτ) for time point             25 / 30,    Execution time    0.0 s
 Computed Σ^c(iτ) for time point             26 / 30,    Execution time    0.0 s
 Computed Σ^c(iτ) for time point             27 / 30,    Execution time    0.0 s
 Computed Σ^c(iτ) for time point             28 / 30,    Execution time    0.0 s
 Computed Σ^c(iτ) for time point             29 / 30,    Execution time    0.0 s
 Computed Σ^c(iτ) for time point             30 / 30,    Execution time    0.0 s
 
 SCF valence band maximum (eV):                                           -7.083
 SCF conduction band minimum (eV):                                        -0.110
 SCF indirect band gap (eV):                                               6.973
 SCF direct band gap (eV):                                                 6.973
 
 G0W0 valence band maximum (eV):                                          -9.815
 G0W0 conduction band minimum (eV):                                        1.691
 G0W0 indirect band gap (eV):                                             11.506
 G0W0 direct band gap (eV):                                               11.506
 
 Hartree-Fock with SCF orbitals valence band maximum (eV):               -11.107
 Hartree-Fock with SCF orbitals conduction band minimum (eV)               2.287
 Hartree-Fock with SCF orbitals indirect band gap (eV):                   13.394
 Hartree-Fock with SCF orbitals direct band gap (eV):                     13.394

 ENERGY| Total FORCE_EVAL ( QS ) energy [hartree]            -20.577187201566140

 -------------------------------------------------------------------------------
 -                                                                             -
 -                                DBCSR STATISTICS                             -
 -                                                                             -
 -------------------------------------------------------------------------------
 COUNTER                                    TOTAL       BLAS       SMM       ACC
 flops     8 x     8 x    24                27648     100.0%      0.0%      0.0%     
 flops     8 x     8 x    23                52992     100.0%      0.0%      0.0%     
 flops     8 x     8 x    25                96000     100.0%      0.0%      0.0%     
 flops    16 x     8 x    24               110592     100.0%      0.0%      0.0%     
 flops     8 x    16 x    24               110592     100.0%      0.0%      0.0%     
 flops    16 x     8 x    23               211968     100.0%      0.0%      0.0%     
 flops     8 x    16 x    23               211968     100.0%      0.0%      0.0%     
 flops     8 x    16 x    25               384000     100.0%      0.0%      0.0%     
 flops    16 x    16 x    24               442368     100.0%      0.0%      0.0%     
 flops    16 x     8 x    25               460800     100.0%      0.0%      0.0%     
 flops    24 x    24 x     8               470016     100.0%      0.0%      0.0%     
 flops     8 x    24 x     8               482304     100.0%      0.0%      0.0%     
 flops     8 x    24 x    24               525312     100.0%      0.0%      0.0%     
 flops    32 x     8 x    24               552960     100.0%      0.0%      0.0%     
 flops     8 x    32 x    24               552960     100.0%      0.0%      0.0%     
 flops    13 x     6 x     9               758160     100.0%      0.0%      0.0%     
 flops     6 x    13 x     9               758160     100.0%      0.0%      0.0%     
 flops     9 x     9 x     9               765450     100.0%      0.0%      0.0%     
 flops     6 x     6 x     9               816480     100.0%      0.0%      0.0%     
 flops    16 x    16 x    23               847872     100.0%      0.0%      0.0%     
 flops    24 x    23 x     8               892032     100.0%      0.0%      0.0%     
 flops    23 x    24 x     8               900864     100.0%      0.0%      0.0%     
 flops     8 x    23 x     8               924416     100.0%      0.0%      0.0%     
 flops     8 x    23 x    24              1006848     100.0%      0.0%      0.0%     
 flops     8 x    24 x    23              1006848     100.0%      0.0%      0.0%     
 flops    32 x     8 x    23              1059840     100.0%      0.0%      0.0%     
 flops     8 x    32 x    23              1059840     100.0%      0.0%      0.0%     
 flops    13 x    13 x     9              1095120     100.0%      0.0%      0.0%     
 flops     8 x     6 x     8              1145088     100.0%      0.0%      0.0%     
 flops     8 x    13 x     8              1276288     100.0%      0.0%      0.0%     
 flops     8 x     8 x    75              1641600     100.0%      0.0%      0.0%     
 flops     6 x     6 x     8              1686528     100.0%      0.0%      0.0%     
 flops    23 x    23 x     8              1709728     100.0%      0.0%      0.0%     
 flops     6 x     9 x     9              1714608     100.0%      0.0%      0.0%     
 flops    24 x    24 x    16              1769472     100.0%      0.0%      0.0%     
 flops    13 x     6 x     8              1827072     100.0%      0.0%      0.0%     
 flops    16 x    16 x    25              1843200     100.0%      0.0%      0.0%     
 flops    13 x     9 x     9              1857492     100.0%      0.0%      0.0%     
 flops    16 x    24 x     8              1880064     100.0%      0.0%      0.0%     
 flops     6 x    13 x     8              1894464     100.0%      0.0%      0.0%     
 flops     8 x    32 x    25              1920000     100.0%      0.0%      0.0%     
 flops    24 x    25 x     8              1929600     100.0%      0.0%      0.0%     
 flops     8 x    23 x    23              1929792     100.0%      0.0%      0.0%     
 flops    25 x    24 x     8              1958400     100.0%      0.0%      0.0%     
 flops     8 x    24 x    16              1990656     100.0%      0.0%      0.0%     
 flops     8 x    25 x     8              2012800     100.0%      0.0%      0.0%     
 flops    13 x    13 x     8              2052336     100.0%      0.0%      0.0%     
 flops    16 x    24 x    24              2101248     100.0%      0.0%      0.0%     
 flops     8 x    25 x    24              2188800     100.0%      0.0%      0.0%     
 flops     8 x    24 x    25              2188800     100.0%      0.0%      0.0%     
 flops    32 x    16 x    24              2211840     100.0%      0.0%      0.0%     
 flops    16 x    32 x    24              2211840     100.0%      0.0%      0.0%     
 flops    32 x     8 x    25              2304000     100.0%      0.0%      0.0%     
 flops     8 x     8 x     6              2515968     100.0%      0.0%      0.0%     
 flops     8 x     8 x    13              2755584     100.0%      0.0%      0.0%     
 flops     9 x     9 x    75              2855250     100.0%      0.0%      0.0%     
 flops     6 x     9 x    75              2916000     100.0%      0.0%      0.0%     
 flops     6 x     9 x     6              2939328     100.0%      0.0%      0.0%     
 flops    13 x     9 x    75              3159000     100.0%      0.0%      0.0%     
 flops    13 x     9 x     6              3184272     100.0%      0.0%      0.0%     
 flops     6 x     9 x    13              3184272     100.0%      0.0%      0.0%     
 flops    23 x    24 x    16              3391488     100.0%      0.0%      0.0%     
 flops    24 x    23 x    16              3391488     100.0%      0.0%      0.0%     
 flops    13 x     9 x    13              3449628     100.0%      0.0%      0.0%     
 flops    16 x    23 x     8              3603456     100.0%      0.0%      0.0%     
 flops    23 x    25 x     8              3698400     100.0%      0.0%      0.0%     
 flops    25 x    23 x     8              3716800     100.0%      0.0%      0.0%     
 flops     8 x    23 x    16              3815424     100.0%      0.0%      0.0%     
 flops    16 x    23 x    24              4027392     100.0%      0.0%      0.0%     
 flops    16 x    24 x    23              4027392     100.0%      0.0%      0.0%     
 flops     8 x    25 x    23              4195200     100.0%      0.0%      0.0%     
 flops     8 x    23 x    25              4195200     100.0%      0.0%      0.0%     
 flops    32 x    16 x    23              4239360     100.0%      0.0%      0.0%     
 flops    16 x    32 x    23              4239360     100.0%      0.0%      0.0%     
 flops     8 x     6 x    16              4626432     100.0%      0.0%      0.0%     
 flops     8 x     8 x   225              4665600     100.0%      0.0%      0.0%     
 flops    16 x     6 x     8              4674048     100.0%      0.0%      0.0%     
 flops     8 x     6 x     6              4914432     100.0%      0.0%      0.0%     
 flops     8 x    13 x    16              5075200     100.0%      0.0%      0.0%     
 flops    16 x    13 x     8              5228288     100.0%      0.0%      0.0%     
 flops     8 x     6 x    13              5458752     100.0%      0.0%      0.0%     
 flops     8 x    13 x     6              5458752     100.0%      0.0%      0.0%     
 flops     8 x    13 x    13              5913648     100.0%      0.0%      0.0%     
 flops    23 x    23 x    16              6500352     100.0%      0.0%      0.0%     
 flops    16 x     8 x    75              6566400     100.0%      0.0%      0.0%     
 flops     8 x    16 x    75              6566400     100.0%      0.0%      0.0%     
 flops     6 x     6 x    16              7022592     100.0%      0.0%      0.0%     
 flops    25 x    24 x    16              7372800     100.0%      0.0%      0.0%     
 flops    24 x    25 x    16              7372800     100.0%      0.0%      0.0%     
 flops    13 x     6 x    16              7607808     100.0%      0.0%      0.0%     
 flops     6 x    13 x    16              7637760     100.0%      0.0%      0.0%     
 flops    16 x    24 x    16              7716864     100.0%      0.0%      0.0%     
 flops    16 x    23 x    23              7719168     100.0%      0.0%      0.0%     
 flops    16 x    25 x     8              7833600     100.0%      0.0%      0.0%     
 flops    25 x    25 x     8              8040000     100.0%      0.0%      0.0%     
 flops    13 x    13 x    16              8274240     100.0%      0.0%      0.0%     
 flops     8 x    25 x    16              8294400     100.0%      0.0%      0.0%     
 flops    16 x    25 x    24              8755200     100.0%      0.0%      0.0%     
 flops    16 x    24 x    25              8755200     100.0%      0.0%      0.0%     
 flops     8 x    25 x    25              9120000     100.0%      0.0%      0.0%     
 flops    24 x    24 x    32              9179136     100.0%      0.0%      0.0%     
 flops    32 x    16 x    25              9216000     100.0%      0.0%      0.0%     
 flops    16 x    32 x    25              9216000     100.0%      0.0%      0.0%     
 flops    32 x    24 x     8              9633792     100.0%      0.0%      0.0%     
 flops    16 x     8 x     6              9673728     100.0%      0.0%      0.0%     
 flops     8 x    16 x     6              9928704     100.0%      0.0%      0.0%     
 flops     8 x    24 x    32              9953280     100.0%      0.0%      0.0%     
 flops    32 x    24 x    24             10506240     100.0%      0.0%      0.0%     
 flops    16 x     8 x    13             10782720     100.0%      0.0%      0.0%     
 flops     8 x    16 x    13             10972416     100.0%      0.0%      0.0%     
 flops    32 x    32 x    24             11059200     100.0%      0.0%      0.0%     
 flops    25 x    23 x    16             14131200     100.0%      0.0%      0.0%     
 flops    23 x    25 x    16             14131200     100.0%      0.0%      0.0%     
 flops    16 x    23 x    16             14884864     100.0%      0.0%      0.0%     
 flops    16 x    25 x    23             16780800     100.0%      0.0%      0.0%     
 flops    16 x    23 x    25             16780800     100.0%      0.0%      0.0%     
 flops    23 x    24 x    32             17593344     100.0%      0.0%      0.0%     
 flops    24 x    23 x    32             17593344     100.0%      0.0%      0.0%     
 flops    32 x    23 x     8             18476544     100.0%      0.0%      0.0%     
 flops    16 x     8 x   225             18662400     100.0%      0.0%      0.0%     
 flops     8 x    16 x   225             18662400     100.0%      0.0%      0.0%     
 flops     8 x    23 x    32             19077120     100.0%      0.0%      0.0%     
 flops    16 x     6 x    16             19307520     100.0%      0.0%      0.0%     
 flops    16 x     6 x     6             19657728     100.0%      0.0%      0.0%     
 flops    32 x    23 x    24             20136960     100.0%      0.0%      0.0%     
 flops    32 x    24 x    23             20136960     100.0%      0.0%      0.0%     
 flops    16 x    13 x    16             21192704     100.0%      0.0%      0.0%     
 flops    32 x    32 x    23             21196800     100.0%      0.0%      0.0%     
 flops    16 x    13 x     6             21820032     100.0%      0.0%      0.0%     
 flops    16 x     6 x    13             21835008     100.0%      0.0%      0.0%     
 flops    32 x     6 x     8             23531520     100.0%      0.0%      0.0%     
 flops    16 x    13 x    13             23654592     100.0%      0.0%      0.0%     
 flops     8 x     6 x    32             23740416     100.0%      0.0%      0.0%     
 flops    32 x    13 x     8             26084864     100.0%      0.0%      0.0%     
 flops     8 x    13 x    32             26231296     100.0%      0.0%      0.0%     
 flops    16 x    16 x    75             26265600     100.0%      0.0%      0.0%     
 flops    25 x    25 x    16             30720000     100.0%      0.0%      0.0%     
 flops    16 x    25 x    16             32230400     100.0%      0.0%      0.0%     
 flops    32 x     8 x    75             32832000     100.0%      0.0%      0.0%     
 flops     8 x    32 x    75             32832000     100.0%      0.0%      0.0%     
 flops    23 x    23 x    32             33720576     100.0%      0.0%      0.0%     
 flops     6 x     6 x    32             35334144     100.0%      0.0%      0.0%     
 flops    16 x    25 x    25             36480000     100.0%      0.0%      0.0%     
 flops    16 x    24 x    32             38240256     100.0%      0.0%      0.0%     
 flops    25 x    24 x    32             38246400     100.0%      0.0%      0.0%     
 flops    24 x    25 x    32             38246400     100.0%      0.0%      0.0%     
 flops    13 x     6 x    32             38278656     100.0%      0.0%      0.0%     
 flops    16 x    16 x     6             38519808     100.0%      0.0%      0.0%     
 flops    32 x    23 x    23             38595840     100.0%      0.0%      0.0%     
 flops     6 x    13 x    32             38817792     100.0%      0.0%      0.0%     
 flops    32 x    24 x    16             39444480     100.0%      0.0%      0.0%     
 flops    32 x    25 x     8             40089600     100.0%      0.0%      0.0%     
 flops     8 x    25 x    32             41472000     100.0%      0.0%      0.0%     
 flops    13 x    13 x    32             42052608     100.0%      0.0%      0.0%     
 flops    16 x    16 x    13             42585088     100.0%      0.0%      0.0%     
 flops    32 x    25 x    24             43776000     100.0%      0.0%      0.0%     
 flops    32 x    24 x    25             43776000     100.0%      0.0%      0.0%     
 flops    32 x    32 x    25             46080000     100.0%      0.0%      0.0%     
 flops     8 x    32 x     6             50205696     100.0%      0.0%      0.0%     
 flops    32 x     8 x     6             50654208     100.0%      0.0%      0.0%     
 flops     8 x    32 x    13             55031808     100.0%      0.0%      0.0%     
 flops    32 x     8 x    13             55537664     100.0%      0.0%      0.0%     
 flops    25 x    23 x    32             73305600     100.0%      0.0%      0.0%     
 flops    23 x    25 x    32             73305600     100.0%      0.0%      0.0%     
 flops    16 x    23 x    32             73623552     100.0%      0.0%      0.0%     
 flops    16 x    16 x   225             74649600     100.0%      0.0%      0.0%     
 flops    32 x    23 x    16             75860992     100.0%      0.0%      0.0%     
 flops    32 x    25 x    23             83904000     100.0%      0.0%      0.0%     
 flops    32 x    23 x    25             83904000     100.0%      0.0%      0.0%     
 flops    32 x     8 x   225             93312000     100.0%      0.0%      0.0%     
 flops     8 x    32 x   225             93312000     100.0%      0.0%      0.0%     
 flops    32 x     6 x    16             96301056     100.0%      0.0%      0.0%     
 flops    16 x     6 x    32             98027520     100.0%      0.0%      0.0%     
 flops    32 x     6 x     6             98288640     100.0%      0.0%      0.0%     
 flops    32 x    13 x    16            105577472     100.0%      0.0%      0.0%     
 flops    16 x    13 x    32            108173312     100.0%      0.0%      0.0%     
 flops    32 x     6 x    13            109175040     100.0%      0.0%      0.0%     
 flops    32 x    13 x     6            109175040     100.0%      0.0%      0.0%     
 flops    32 x    13 x    13            118272960     100.0%      0.0%      0.0%     
 flops    32 x    16 x    75            131328000     100.0%      0.0%      0.0%     
 flops    16 x    32 x    75            131328000     100.0%      0.0%      0.0%     
 flops    25 x    25 x    32            159360000     100.0%      0.0%      0.0%     
 flops    16 x    25 x    32            159641600     100.0%      0.0%      0.0%     
 flops    32 x    25 x    16            164608000     100.0%      0.0%      0.0%     
 flops    32 x    25 x    25            182400000     100.0%      0.0%      0.0%     
 flops    16 x    32 x     6            193775616     100.0%      0.0%      0.0%     
 flops    32 x    24 x    32            196509696     100.0%      0.0%      0.0%     
 flops    32 x    16 x     6            201216000     100.0%      0.0%      0.0%     
 flops    16 x    32 x    13            215414784     100.0%      0.0%      0.0%     
 flops    32 x    16 x    13            220659712     100.0%      0.0%      0.0%     
 flops    32 x    16 x   225            373248000     100.0%      0.0%      0.0%     
 flops    16 x    32 x   225            373248000     100.0%      0.0%      0.0%     
 flops    32 x    23 x    32            377161728     100.0%      0.0%      0.0%     
 flops    32 x     6 x    32            490070016     100.0%      0.0%      0.0%     
 flops    32 x    13 x    32            540813312     100.0%      0.0%      0.0%     
 flops    32 x    32 x    75            656640000     100.0%      0.0%      0.0%     
 flops    32 x    25 x    32            819302400     100.0%      0.0%      0.0%     
 flops    32 x    32 x     6           1011179520     100.0%      0.0%      0.0%     
 flops    32 x    32 x    13           1108783104     100.0%      0.0%      0.0%     
 flops    32 x    32 x   225           1866240000     100.0%      0.0%      0.0%     
 flops inhomo. stacks                  2600665088     100.0%      0.0%      0.0%
 flops total                        15.721749E+09     100.0%      0.0%      0.0%
 flops max/rank                     15.721749E+09     100.0%      0.0%      0.0%
 matmuls inhomo. stacks                     48759     100.0%      0.0%      0.0%
 matmuls total                             880286     100.0%      0.0%      0.0%
 number of processed stacks                 42736     100.0%      0.0%      0.0%
 average stack size                                    20.6       0.0       0.0
 marketing flops                    24.676348E+09
 -------------------------------------------------------------------------------
 # multiplications                           1787
 max memory usage/rank              51.978879E+09
 # max total images/rank                        1
 # max 3D layers                                1
 # MPI messages exchanged                       0
 -------------------------------------------------------------------------------
 -                                                                             -
 -                      DBCSR MESSAGE PASSING PERFORMANCE                      -
 -                                                                             -
 -------------------------------------------------------------------------------
 ROUTINE             CALLS      AVE VOLUME [Bytes]
 MP_Bcast              201                     12.
 MP_Allreduce         8685                     13.
 MP_Alltoall          7576                  25349.
 MP_ISend             6788                   1204.
 MP_IRecv             6788                   1204.
 -------------------------------------------------------------------------------

 -------------------------------------------------------------------------------
 -                                                                             -
 -                                GRID STATISTICS                              -
 -                                                                             -
 -------------------------------------------------------------------------------
 LP    KERNEL             BACKEND                              COUNT     PERCENT
 2     collocate ortho    CPU                                  58800      25.57%
 2     integrate ortho    CPU                                  58800      25.57%
 3     collocate ortho    CPU                                  43200      18.79%
 3     integrate ortho    CPU                                  43200      18.79%
 4     collocate ortho    CPU                                  12960       5.64%
 4     integrate ortho    CPU                                  12960       5.64%
 0     collocate general  CPU                                      9       0.00%
 -------------------------------------------------------------------------------

 -------------------------------------------------------------------------------
 -                                                                             -
 -                          OFFLOAD MEMPOOL STATISTICS                         -
 -                                                                             -
 -------------------------------------------------------------------------------
 Memory consumption                Number of allocations  Used [MiB]  Size [MiB]
 Host                                                  6         260    22203388
 -------------------------------------------------------------------------------

 MEMORY| Estimated peak process memory [MiB]                               22089

 -------------------------------------------------------------------------------
 -                                                                             -
 -                         MESSAGE PASSING PERFORMANCE                         -
 -                                                                             -
 -------------------------------------------------------------------------------

 ROUTINE             CALLS      AVE VOLUME [Bytes]
 MP_Group                5
 MP_Bcast             1288                   1900.
 MP_Allreduce         5086                   1045.
 MP_Sync                71
 MP_comm_split          68
 -------------------------------------------------------------------------------


 -------------------------------------------------------------------------------
 -                                                                             -
 -                           R E F E R E N C E S                               -
 -                                                                             -
 -------------------------------------------------------------------------------
 
 CP2K version 2026.2 (Development Version), the CP2K developers group (2026).
 CP2K is freely available from https://www.cp2k.org/ .
 
 M. Iannuzzi, J. Wilhelm, F. Stein, A. Bussy, H. Elgabarty, D. Golze, A. Hehn, 
 M. Graml, S. Marek, B. Sertcan Gökmen, C. Schran, H. Forbert, R. Z. 
 Khaliullin, A. Kozhevnikov, M. Taillefumier, R. Meli, V. V. Rybkin, M. Brehm, 
 R. Schade, O. Schütt, J. V. Pototschnig, H. Mirhosseini, A. Knüpfer, D. Marx, 
 M. Krack, J. Hutter, T. D. Kühne.
 J. Phys. Chem. B 130, 1237-1310 (2026).
 The CP2K Program Package Made Simple.
 https://doi.org/10.1021/acs.jpcb.5c05851

 M. Graml, K. Zollner, D. Hernangómez-Pérez, P. E. Faria Junior, J. Wilhelm.
 J. Chem. Theory Comput. 20, 2202-2208 (2024).
 Low-scaling GW algorithm applied to twisted transition-metal dichalcogenide 
 heterobilayers.
 https://doi.org/10.1021/acs.jctc.3c01230

 T. D. Kühne, M. Iannuzzi, M. Del Ben, V. V. Rybkin, P. Seewald, F. Stein, T. 
 Laino, R. Z. Khaliullin, O. Schütt, F. Schiffmann, D. Golze, J. Wilhelm, S. 
 Chulkov, M. H. Bani-Hashemian, V. Weber, U. Borstnik, M. Taillefumier, A. S. 
 Jakobovits, A. Lazzaro, H. Pabst, T. Müller, R. Schade, M. Guidon, S. 
 Andermatt, N. Holmberg, G. K. Schenter, A. Hehn, A. Bussy, F. Belleflamme, G. 
 Tabacchi, A. Glöß, M. Lass, I. Bethune, C. J. Mundy, C. Plessl, M. Watkins, 
 J. VandeVondele, M. Krack, J. Hutter.
 J. Chem. Phys. 152, 194103 (2020).
 CP2K: An electronic structure and molecular dynamics software package - 
 Quickstep: Efficient and accurate electronic structure calculations.
 https://doi.org/10.1063/5.0007045

 O. Schuett, P. Messmer, J. Hutter, J. VandeVondele.
 Electronic Structure Calculations on Graphics Processing Units, 173-190 (2016).
 GPU-Accelerated Sparse Matrix-Matrix Multiplication for Linear Scaling Density 
 Functional Theory.
 https://doi.org/10.1002/9781118670712.ch8

 U. Borstnik, J. VandeVondele, V. Weber, J. Hutter.
 Parallel Comput. 40, 47-58 (2014).
 Sparse matrix multiplication: The distributed block-compressed sparse row 
 library.
 https://doi.org/10.1016/j.parco.2014.03.012

 J. VandeVondele, J. Hutter.
 J. Chem. Phys. 127, 114105 (2007).
 Gaussian basis sets for accurate calculations on molecular systems in gas and 
 condensed phases.
 https://doi.org/10.1063/1.2770708

 J. VandeVondele, M. Krack, F. Mohamed, M. Parrinello, T. Chassaing, J. Hutter.
 Comput. Phys. Commun. 167, 103-128 (2005).
 QUICKSTEP: Fast and accurate density functional calculations using a mixed 
 Gaussian and plane waves approach.
 https://doi.org/10.1016/j.cpc.2004.12.014

 M. Krack.
 Theor. Chem. Acc. 114, 145-152 (2005).
 Pseudopotentials for H to Kr optimized for gradient-corrected 
 exchange-correlation functionals.
 https://doi.org/10.1007/s00214-005-0655-y

 M. Frigo, S. G. Johnson.
 Proc. IEEE 93, 216-231 (2005).
 The design and implementation of FFTW3.
 https://doi.org/10.1109/JPROC.2004.840301

 J. VandeVondele, J. Hutter.
 J. Chem. Phys. 118, 4365-4369 (2003).
 An efficient orbital transformation method for electronic structure 
 calculations.
 https://doi.org/10.1063/1.1543154

 C. Hartwigsen, S. Goedecker, J. Hutter.
 Phys. Rev. B 58, 3641-3662 (1998).
 Relativistic separable dual-space Gaussian pseudopotentials from H to Rn.
 https://doi.org/10.1103/PhysRevB.58.3641

 G. Lippert, J. Hutter, M. Parrinello.
 Mol. Phys. 92, 477-487 (1997).
 A hybrid Gaussian and plane wave density functional scheme.
 https://doi.org/10.1080/002689797170220

 S. Goedecker, M. Teter, J. Hutter.
 Phys. Rev. B 54, 1703-1710 (1996).
 Separable dual-space Gaussian pseudopotentials.
 https://doi.org/10.1103/PhysRevB.54.1703

 J. P. Perdew, K. Burke, M. Ernzerhof.
 Phys. Rev. Lett. 77, 3865-3868 (1996).
 Generalized gradient approximation made simple.
 https://doi.org/10.1103/PhysRevLett.77.3865

 P. E. Blöchl.
 J. Chem. Phys. 103, 7422-7428 (1995).
 Electrostatic decoupling of periodic images of plane‐wave‐expanded 
 densities and derived atomic point charges.
 https://doi.org/10.1063/1.470314

 R. H. Byrd, P. H. Lu, J. Nocedal, C. Y. Zhu.
 SIAM J. Sci. Comput. 16, 1190-1208 (1995).
 A Limited Memory Algorithm for Bound Constrained Optimization.
 https://doi.org/10.1137/0916069


 -------------------------------------------------------------------------------
 -                                                                             -
 -                                T I M I N G                                  -
 -                                                                             -
 -------------------------------------------------------------------------------
 SUBROUTINE                       CALLS  ASD         SELF TIME        TOTAL TIME MAXRANK
                                MAXIMUM       AVERAGE  MAXIMUM  AVERAGE  MAXIMUM
 CP2K                                 1  1.0    5.140    5.140  494.397  494.397       0
 qs_energies                          1  2.0    0.030    0.030  469.545  469.545       0
 scf_env_do_scf                       1  3.0    0.008    0.008  322.809  322.809       0
 scf_env_do_scf_inner_loop           59  4.0    0.050    0.050  318.556  318.556       0
 qs_ks_build_kohn_sham_matrix        60  7.0    0.521    0.521  234.722  234.722       0
 qs_ks_update_qs_env                 60  5.0    0.012    0.012  233.601  233.601       0
 rebuild_ks_matrix                   59  6.0    0.001    0.001  233.548  233.548       0
 fft_wrap_pw1pw2                   1014 10.3    0.018    0.018  208.554  208.554       0
 fft_wrap_pw1pw2_300                654 11.8   13.692   13.692  202.122  202.122       0
 qs_vxc_create                       60  8.0    0.005    0.005  163.119  163.119       0
 xc_vxc_pw_create                    59  9.0    8.553    8.553  163.114  163.114       0
 qs_energies_properties               1  3.0    0.005    0.005  143.852  143.852       0
 post_scf_bandstructure               1  4.0    0.003    0.003  143.846  143.846       0
 gw                                   1  5.0    0.002    0.002  142.578  142.578       0
 gw_calc_non_periodic_ri_rs           1  6.0    0.513    0.513  129.334  129.334       0
 ri_rs_grid_assembler                 1  7.0    0.005    0.005  125.756  125.756       0
 optimize_ri_rs_grid                  1  8.0    0.000    0.000  125.142  125.142       0
 rirs_grid_LBFGS                      1  9.0    1.087    1.087  117.415  117.415       0
 xc_pw_derive                       354 11.0    0.002    0.002  117.043  117.043       0
 evaluate_rirs_grid_cluster        1575 10.0   18.943   18.943  116.327  116.327       0
 fft3d_s                           1015 12.3  109.730  109.730  109.753  109.753       0
 qs_rho_update_rho_low               60  5.0    0.010    0.010   85.702   85.702       0
 calculate_rho_elec                  60  6.0    6.398    6.398   85.692   85.692       0
 xc_pw_divergence                    59 10.0    0.001    0.001   77.954   77.954       0
 xc_rho_set_and_dset_create          59 10.0    5.216    5.216   73.931   73.931       0
 density_rs2pw                       60  7.0    0.005    0.005   50.207   50.207       0
 pw_scatter_s                       536 12.8   47.643   47.643   47.643   47.643       0
 rirs_cluster_gradient_coordina    1575 11.0   39.042   39.042   39.042   39.042       0
 grid_collocate_task_list            60  7.0   29.088   29.088   29.088   29.088       0
 qs_ks_ddapc                         60  8.0    0.006    0.006   27.152   27.152       0
 sum_up_and_integrate                60  8.0    0.004    0.004   25.065   25.065       0
 integrate_v_rspace                  60  9.0    0.022    0.022   24.049   24.049       0
 potential_pw2rs                     60 10.0    0.250    0.250   23.724   23.724       0
 pw_gather_s                        478 11.9   19.406   19.406   19.406   19.406       0
 pw_integral_ab_c1d_c1d_gs          120  9.5   18.328   18.328   18.328   18.328       0
 pw_poisson_solve                    60  8.0    0.001    0.001   17.844   17.844       0
 rirs_cluster_gradient_products    1575 11.0   17.456   17.456   17.456   17.456       0
 rirs_cluster_AO_products          1575 11.0   16.217   16.217   16.217   16.217       0
 pw_derive                          534 11.3   14.381   14.381   14.381   14.381       0
 create_and_init_bs_env_for_gw        1  6.0    1.144    1.144   13.242   13.242       0
 rirs_cluster_residual             1575 11.0   10.846   10.846   10.846   10.846       0
 qs_init_subsys                       1  2.0    0.040    0.040   10.442   10.442       0
 generate_auto_ri_basis               1  7.0    0.001    0.001   10.104   10.104       0
 cp_ddapc_apply_CD                   60  9.0    0.012    0.012   10.006   10.006       0
 pw_grid_setup                        5  5.2    2.226    2.226    9.572    9.572       0
 pw_copy                            956 10.6    9.277    9.277    9.277    9.277       0
 pw_copy_from_array                 536 12.8    9.110    9.110    9.110    9.110       0
 qs_env_setup                         1  3.0    0.001    0.001    8.273    8.273       0
 qs_env_rebuild_pw_env                2  3.5    0.640    0.640    8.268    8.268       0
 rirs_cluster_d_lP                 1575 11.0    8.110    8.110    8.110    8.110       0
 pw_copy_to_array                   478 11.9    8.104    8.104    8.104    8.104       0
 rirs_grid_build_clusters             1  9.0    5.648    5.648    7.727    7.727       0
 pw_env_rebuild                       1  5.0    1.185    1.185    7.628    7.628       0
 pw_grid_setup_internal               5  6.2    0.080    0.080    7.346    7.346       0
 xc_functional_eval                  59 11.0    0.002    0.002    6.829    6.829       0
 pbe_lda_eval                        59 12.0    6.827    6.827    6.827    6.827       0
 pw_poisson_set                      61  9.0    0.007    0.007    6.385    6.385       0
 pw_grid_sort                         5  7.2    4.696    4.696    6.064    6.064       0
 rirs_cluster_D_ll                 1575 11.0    5.711    5.711    5.711    5.711       0
 fft_wrap_pw1pw2_100                120 10.5    0.776    0.776    5.621    5.621       0
 compute_AA_optimized_RI_basis        1  8.0    0.009    0.009    4.799    4.799       0
 pw_axpy                            605  9.2    4.676    4.676    4.676    4.676       0
 eval_pw_TabLR                        1  2.0    4.504    4.504    4.519    4.519       0
 init_scf_loop                        1  4.0    0.057    0.057    4.244    4.244       0
 qs_scf_new_mos                      59  5.0    0.000    0.000    3.494    3.494       0
 qs_scf_loop_do_ot                   59  6.0    0.004    0.004    3.494    3.494       0
 ot_scf_mini                         59  7.0    0.072    0.072    3.107    3.107       0
 compute_M_pq_inv_and_V_pq            1  8.0    0.000    0.000    3.045    3.045       0
 compute_M_PQ_AB                   2472 11.0    0.003    0.003    3.038    3.038       0
 compute_M_PQ                      2472 12.0    0.004    0.004    3.035    3.035       0
 int_operators_r12_ab_os           2472 13.0    0.002    0.002    3.031    3.031       0
 int_operator_ab_os_low            2472 14.0    1.256    1.256    3.029    3.029       0
 compute_contracted_RI_matrix         2  9.0    0.008    0.008    3.017    3.017       0
 compute_optimized_RI_matrix_bl      90 10.0    0.116    0.116    3.007    3.007       0
 pw_zero                            315  9.9    2.485    2.485    2.485    2.485       0
 compute_AB_optimized_RI_basis        1  8.0    0.001    0.001    2.258    2.258       0
 compute_AB_optimized_RI_basis_       1  9.0    0.002    0.002    2.251    2.251       0
 abc_contract_xsmm               143041 10.0    2.216    2.216    2.216    2.216       0
 init_scf_run                         1  3.0    0.001    0.001    2.077    2.077       0
 scf_env_initial_rho_setup            1  4.0    0.001    0.001    2.075    2.075       0
 ot_mini                             59  8.0    0.005    0.005    2.040    2.040       0
 compute_int_3c                       2  9.0    2.013    2.013    2.017    2.017       0
 compute_B_PQ_AB                     30 10.0    1.062    1.062    1.985    1.985       0
 compute_Sigma_c_and_QP_energie       1  7.0    0.000    0.000    1.965    1.965       0
 compute_B_PQ_transition             69 10.9    1.292    1.292    1.893    1.893       0
 pw_scale                           237  9.8    1.883    1.883    1.883    1.883       0
 compute_B_PQ_AA                      9  9.0    0.120    0.120    1.786    1.786       0
 create_qs_kind_set                   1  2.0    0.000    0.000    1.575    1.575       0
 read_qs_kind                         2  3.0    0.820    0.820    1.575    1.575       0
 qs_ot_get_derivative                59  9.0    0.335    0.335    1.464    1.464       0
 sort_shells                          5  8.2    1.368    1.368    1.368    1.368       0
 create_and_init_bs_env               1  5.0    0.007    0.007    1.228    1.228       0
 compute_V_xc                         1  7.0    0.001    0.001    1.178    1.178       0
 transfer_rs2pw                     241  8.0    0.006    0.006    1.174    1.174       0
 compute_QP_energies                  1  8.0    0.000    0.000    1.142    1.142       0
 analyt_conti_and_print               1  9.0    0.845    0.845    1.135    1.135       0
 qs_ot_get_derivative_diag           58 10.0    1.104    1.104    1.124    1.124       0
 transfer_pw2rs                     240 11.0    0.002    0.002    1.071    1.071       0
 pw_multiply_with                    60  9.0    1.018    1.018    1.018    1.018       0
 write_mo_set_to_restart             59  5.0    0.536    0.536    0.944    0.944       0
 xc_pw_smooth                        59 10.0    0.000    0.000    0.926    0.926       0
 transfer_rs2pw_300                  61  9.0    0.926    0.926    0.926    0.926       0
 pw_grid_distribute                   5  7.2    0.907    0.907    0.907    0.907       0
 operator2                      1248534 15.0    0.904    0.904    0.904    0.904       0
 transfer_pw2rs_300                  60 12.0    0.872    0.872    0.872    0.872       0
 ab_contract                    1249587 15.0    0.870    0.870    0.870    0.870       0
 write_qs_particle_coordinates        1  3.0    0.835    0.835    0.835    0.835       0
 compute_Sigma_c                      1  8.0    0.013    0.013    0.811    0.811       0
 qs_ot_get_p                         60  8.0    0.107    0.107    0.776    0.776       0
 scf_c_read_parameters                1  3.0    0.767    0.767    0.767    0.767       0
 parser_read_line                 21388  4.0    0.004    0.004    0.754    0.754       0
 parser_read_line_low                25  5.0    0.751    0.751    0.751    0.751       0
 initialize_AA_optimization           1  9.0    0.729    0.729    0.729    0.729       0
 qs_energies_init_hamiltonians        1  3.0    0.004    0.004    0.716    0.716       0
 setup_time_and_frequency_minim       1  7.0    0.073    0.073    0.697    0.697       0
 contract_grid_panels_sigma_c        30  9.0    0.604    0.604    0.697    0.697       0
 contract_B_PQ                      138 11.9    0.637    0.637    0.681    0.681       0
 get_ddapc                           60 10.0    0.005    0.005    0.668    0.668       0
 calculate_first_density_matrix       1  5.0    0.002    0.002    0.651    0.651       0
 calculate_atomic_block_dm            1  6.0    0.620    0.620    0.631    0.631       0
 get_parameters_from_qs_env           1  6.0    0.624    0.624    0.624    0.624       0
 qs_env_update_s_mstruct              1  4.0    0.001    0.001    0.624    0.624       0
 build_grid_cache                     1  8.0    0.005    0.005    0.609    0.609       0
 initialize_cholesky_rirs_grids       1  9.0    0.593    0.593    0.604    0.604       0
 fft_wrap_pw1pw2_40                 120 10.5    0.044    0.044    0.587    0.587       0
 ot_diis_step                        59  9.0    0.229    0.229    0.570    0.570       0
 check_positive_definite_overla       1  6.0    0.007    0.007    0.526    0.526       0
 qs_ot_p2m_diag                      59  9.0    0.225    0.225    0.520    0.520       0
 write_particle_distances             1  3.0    0.519    0.519    0.519    0.519       0
 get_mat_chi_Gamma_tau                1  7.0    0.001    0.001    0.507    0.507       0
 cfm_ikp_from_fm_Gamma                3  6.3    0.497    0.497    0.497    0.497       0
 -------------------------------------------------------------------------------

 The number of warnings for this run is : 0
 
 -------------------------------------------------------------------------------
  **** **** ******  **  PROGRAM ENDED AT                 2026-09-16 23:48:14.142
 ***** ** ***  *** **   PROGRAM RAN ON                                  n2cn0535
 **    ****   ******    PROGRAM RAN BY                                  eprop2d1
 ***** **    ** ** **   PROGRAM PROCESS ID                                272639
  **** **  *******  **  PROGRAM STOPPED IN /scratch/hpc-prf-metdyn/eprop2d1_Jan/
                                           53_benchmark_RI_opt/106_GW100_GTH_RIR
                                           S_riao5_7_c7/calculations/27_C3H6/ria
                                           o3/leb_r08
