 DBCSR| CPU Multiplication driver                                           XSMM (U)
 DBCSR| Multrec recursion limit                                              512 (U)
 DBCSR| Multiplication stack size                                           1000 (D)
 DBCSR| Maximum elements for images                                    UNLIMITED (U)
 DBCSR| Multiplicative factor virtual images                                   1 (U)
 DBCSR| Use multiplication densification                                       T (D)
 DBCSR| Multiplication size stacks                                             3 (U)
 DBCSR| Use memory pool for CPU allocation                                     F (U)
 DBCSR| Number of 3D layers                                               SINGLE (U)
 DBCSR| Use MPI memory allocation                                              F (U)
 DBCSR| Use RMA algorithm                                                      F (U)
 DBCSR| Use Communication thread                                               T (U)
 DBCSR| Communication thread load                                             75 (D)
 DBCSR| MPI: My process id                                                     0
 DBCSR| MPI: Number of processes                                              32
 DBCSR| OMP: Current number of threads                                         4
 DBCSR| OMP: Max number of threads                                             4
 DBCSR| Split modifier for TAS multiplication algorithm                  1.0E+00 (U)


  **** **** ******  **  PROGRAM STARTED AT               2026-09-18 14:53:31.850
 ***** ** ***  *** **   PROGRAM STARTED ON                              n2cn1167
 **    ****   ******    PROGRAM STARTED BY                              eprop2d1
 ***** **    ** ** **   PROGRAM PROCESS ID                                406105
  **** **  *******  **  PROGRAM STARTED IN /scratch/hpc-prf-metdyn/eprop2d1_Jan/
                                           53_benchmark_RI_opt/129_GW100_Si293_A
                                           O_frontier_optimization_coopfst/follo
                                           wups/figure1_missing/gw100/35_CF4/dzv
                                           p_t1/initial

 CP2K| version string:                 CP2K version 2026.2 (Development Version)
 CP2K| source code revision number:                                      d1dff42
 CP2K| cp2kflags: omp libint fftw3 libxc parallel scalapack openblas            
 CP2K| is freely available from                            https://www.cp2k.org/
 CP2K| Program compiled at                                   2026-09-17 17:57:35
 CP2K| Program compiled on                                              n2login6
 CP2K| Program compiled for                                               x86_64
 CP2K| Data directory path    /scratch/hpc-prf-metdyn/eprop2d1_Jan/53_benchmark_
 CP2K| Input file name        /scratch/hpc-prf-metdyn/eprop2d1_Jan/53_benchmark_

 GLOBAL| Force Environment number                                              1
 GLOBAL| Basis set file name            /scratch/hpc-prf-metdyn/eprop2d1_Jan/53_
 GLOBAL| Potential file name            /scratch/hpc-prf-metdyn/eprop2d1_Jan/53_
 GLOBAL| MM Potential file name                                     MM_POTENTIAL
 GLOBAL| Coordinate file name                                      __STD_INPUT__
 GLOBAL| Method name                                                        CP2K
 GLOBAL| Project name                                                 f1i_035_d1
 GLOBAL| Run type                                                         ENERGY
 GLOBAL| FFT library                                                       FFTW3
 GLOBAL| Diagonalization library                                       ScaLAPACK
 GLOBAL| Cholesky decomposition library                                ScaLAPACK
 GLOBAL| DGEMM library                                                      BLAS
 GLOBAL| Direct generalized diagonalization requested                          F
 GLOBAL| Orthonormality check for eigenvectors                          DISABLED
 GLOBAL| Matrix multiplication library                                 ScaLAPACK
 GLOBAL| All-to-all communication in single precision                          F
 GLOBAL| Grid backend                                                       AUTO
 GLOBAL| Global print level                                               MEDIUM
 GLOBAL| MPI I/O enabled                                                       T
 GLOBAL| Total number of message passing processes                            32
 GLOBAL| Number of distributed systems (nodes)                                 1
 GLOBAL| Number of threads for this process                                    4
 GLOBAL| This output is from process                                           0
 GLOBAL| OpenMP stack size per thread (OMP_STACKSIZE)                       512M
 GLOBAL| CPU model name                          AMD EPYC 7763 64-Core Processor

 MEMORY| system memory details [Kb]
 MEMORY|                        rank 0           min           max       average
 MEMORY| MemTotal            263897608     263897608     263897608     263897608
 MEMORY| MemFree             247428168     247428168     247428168     247428168
 MEMORY| Buffers                 48760         48760         48760         48760
 MEMORY| Cached                6088512       6088512       6088512       6088512
 MEMORY| Slab                  1363508       1363508       1363508       1363508
 MEMORY| SReclaimable           224072        224072        224072        224072
 MEMORY| MemLikelyFree       253789512     253789512     253789512     253789512


 *** Fundamental physical constants (SI units) ***

 *** Literature: B. J. Mohr and B. N. Taylor,
 ***             CODATA recommended values of the fundamental physical
 ***             constants: 2006, Web Version 5.1
 ***             http://physics.nist.gov/constants

 Speed of light in vacuum [m/s]                             2.99792458000000E+08
 Magnetic constant or permeability of vacuum [N/A**2]       1.25663706143592E-06
 Electric constant or permittivity of vacuum [F/m]          8.85418781762039E-12
 Planck constant (h) [J*s]                                  6.62606896000000E-34
 Planck constant (h-bar) [J*s]                              1.05457162825177E-34
 Elementary charge [C]                                      1.60217648700000E-19
 Electron mass [kg]                                         9.10938215000000E-31
 Electron g factor [ ]                                     -2.00231930436220E+00
 Proton mass [kg]                                           1.67262163700000E-27
 Fine-structure constant                                    7.29735253760000E-03
 Rydberg constant [1/m]                                     1.09737315685270E+07
 Avogadro constant [1/mol]                                  6.02214179000000E+23
 Boltzmann constant [J/K]                                   1.38065040000000E-23
 Atomic mass unit [kg]                                      1.66053878200000E-27
 Bohr radius [m]                                            5.29177208590000E-11

 *** Conversion factors ***

 [u] -> [a.u.]                                              1.82288848426455E+03
 [Angstrom] -> [Bohr] = [a.u.]                              1.88972613288564E+00
 [a.u.] = [Bohr] -> [Angstrom]                              5.29177208590000E-01
 [a.u.] -> [s]                                              2.41888432650478E-17
 [a.u.] -> [fs]                                             2.41888432650478E-02
 [a.u.] -> [J]                                              4.35974393937059E-18
 [a.u.] -> [N]                                              8.23872205491840E-08
 [a.u.] -> [K]                                              3.15774647902944E+05
 [a.u.] -> [kJ/mol]                                         2.62549961709828E+03
 [a.u.] -> [kcal/mol]                                       6.27509468713739E+02
 [a.u.] -> [Pa]                                             2.94210107994716E+13
 [a.u.] -> [bar]                                            2.94210107994716E+08
 [a.u.] -> [atm]                                            2.90362800883016E+08
 [a.u.] -> [eV]                                             2.72113838565563E+01
 [a.u.] -> [Hz]                                             6.57968392072181E+15
 [a.u.] -> [1/cm] (wave numbers)                            2.19474631370540E+05
 [a.u./Bohr**2] -> [1/cm]                                   5.14048714338585E+03
 

 CELL| Volume [angstrom^3]:                                          8000.000000
 CELL| Vector a [angstrom]:      20.000     0.000     0.000   |a| =    20.000000
 CELL| Vector b [angstrom]:       0.000    20.000     0.000   |b| =    20.000000
 CELL| Vector c [angstrom]:       0.000     0.000    20.000   |c| =    20.000000
 CELL| Angle (b,c), alpha [degree]:                                    90.000000
 CELL| Angle (a,c), beta  [degree]:                                    90.000000
 CELL| Angle (a,b), gamma [degree]:                                    90.000000
 CELL| Numerically orthorhombic:                                             YES
 CELL| Periodicity                                                          NONE

 CELL_REF| Volume [angstrom^3]:                                      8000.000000
 CELL_REF| Vector a [angstrom    20.000     0.000     0.000   |a| =    20.000000
 CELL_REF| Vector b [angstrom     0.000    20.000     0.000   |b| =    20.000000
 CELL_REF| Vector c [angstrom     0.000     0.000    20.000   |c| =    20.000000
 CELL_REF| Angle (b,c), alpha [degree]:                                90.000000
 CELL_REF| Angle (a,c), beta  [degree]:                                90.000000
 CELL_REF| Angle (a,b), gamma [degree]:                                90.000000
 CELL_REF| Numerically orthorhombic:                                         YES
 CELL_REF| Periodicity                                                      NONE

 GENERATE|  Preliminary Number of Bonds generated:                             0
 GENERATE|  Achieved consistency in connectivity generation.

 PW_GRID| Information for grid number                                          1
 PW_GRID| Cutoff [a.u.]                                                      8.0
 PW_GRID| spherical cutoff:                                                   NO
 PW_GRID|   Bounds   1              0      49                Points:          50
 PW_GRID|   Bounds   2              0      49                Points:          50
 PW_GRID|   Bounds   3              0      49                Points:          50
 PW_GRID| Volume element (a.u.^3)  0.4319         Volume (a.u.^3)     53986.6767
 PW_GRID| Grid span                                                    HALFSPACE

 *******************************************************************************
 *******************************************************************************
 **                                                                           **
 **     #####                         ##              ##                      **
 **    ##   ##            ##          ##              ##                      **
 **   ##     ##                       ##            ######                    **
 **   ##     ##  ##   ##  ##   #####  ##  ##   ####   ##    #####    #####    **
 **   ##     ##  ##   ##  ##  ##      ## ##   ##      ##   ##   ##  ##   ##   **
 **   ##  ## ##  ##   ##  ##  ##      ####     ###    ##   ######   ######    **
 **    ##  ###   ##   ##  ##  ##      ## ##      ##   ##   ##       ##        **
 **     #######   #####   ##   #####  ##  ##  ####    ##    #####   ##        **
 **           ##                                                    ##        **
 **                                                                           **
 **                                                ... make the atoms dance   **
 **                                                                           **
 **            Copyright (C) by CP2K developers group (2000-2026)             **
 **                      J. Chem. Phys. 152, 194103 (2020)                    **
 **                                                                           **
 *******************************************************************************

 DFT| Spin restricted Kohn-Sham (RKS) calculation                            RKS
 DFT| Multiplicity                                                             1
 DFT| Number of spin states                                                    1
 DFT| Charge                                                                   0
 DFT| Self-interaction correction (SIC)                                       NO
 DFT| Cutoffs: density                                              1.000000E-10
 DFT|          gradient                                             1.000000E-10
 DFT|          tau                                                  1.000000E-10
 DFT|          cutoff_smoothing_range                               0.000000E+00
 DFT| XC density smoothing                                                  NONE
 DFT| XC derivatives                                                          PW

 FUNCTIONAL| PBE:
 FUNCTIONAL| J.P.Perdew, K.Burke, M.Ernzerhof, Phys. Rev. Letter, vol. 77, n 18,
 FUNCTIONAL|  pp. 3865-3868, (1996) {spin unpolarized}                          


 QS| Method:                                                                 GPW
 QS| Density plane wave grid type                        NON-SPHERICAL FULLSPACE
 QS| Number of grid levels:                                                    5
 QS| Density cutoff [a.u.]:                                                300.0
 QS| Multi grid cutoff [a.u.]: 1) grid level                               300.0
 QS|                           2) grid level                               100.0
 QS|                           3) grid level                                33.3
 QS|                           4) grid level                                11.1
 QS|                           5) grid level                                 3.7
 QS| Grid level progression factor:                                          3.0
 QS| Relative density cutoff [a.u.]:                                        30.0
 QS| Interaction thresholds: eps_pgf_orb:                                1.0E-12
 QS|                         eps_filter_matrix:                          0.0E+00
 QS|                         eps_core_charge:                            1.0E-14
 QS|                         eps_rho_gspace:                             1.0E-12
 QS|                         eps_rho_rspace:                             1.0E-12
 QS|                         eps_gvg_rspace:                             1.0E-06
 QS|                         eps_ppl:                                    1.0E-02
 QS|                         eps_ppnl:                                   1.0E-08


 ATOMIC KIND INFORMATION

  1. Atomic kind: C                                     Number of atoms:       1

     Orbital Basis Set                                aug-DZVP-MOLOPT-GTH-tier-1

       Number of orbital shell sets:                                           1
       Number of orbital shells:                                               8
       Number of primitive Cartesian functions:                                7
       Number of Cartesian basis functions:                                   24
       Number of spherical basis functions:                                   22
       Norm type:                                                              2

       Normalised Cartesian orbitals:

                        Set   Shell   Orbital            Exponent    Coefficient

                          1       1    2s                0.030287       0.000417
                                                         0.075145       0.000568
                                                         0.178617       0.065483
                                                         0.478316       0.306085
                                                         1.045457       0.042712
                                                         2.625196      -0.231112
                                                         6.132625      -0.263661

                          1       2    3s                0.030287       0.008247
                                                         0.075145      -0.145101
                                                         0.178617       0.069203
                                                         0.478316       0.644922
                                                         1.045457      -0.593590
                                                         2.625196       0.414269
                                                         6.132625       0.131937

                          1       3    4s                0.030287      -0.016895
                                                         0.075145       0.030607
                                                         0.178617      -0.224246
                                                         0.478316       0.044532
                                                         1.045457       0.000000
                                                         2.625196       0.000000
                                                         6.132625       0.000000

                          1       4    3px               0.030287       0.000105
                                                         0.075145       0.003677
                                                         0.178617       0.052379
                                                         0.478316       0.235193
                                                         1.045457       0.379157
                                                         2.625196       0.633910
                                                         6.132625       0.562677
                          1       4    3py               0.030287       0.000105
                                                         0.075145       0.003677
                                                         0.178617       0.052379
                                                         0.478316       0.235193
                                                         1.045457       0.379157
                                                         2.625196       0.633910
                                                         6.132625       0.562677
                          1       4    3pz               0.030287       0.000105
                                                         0.075145       0.003677
                                                         0.178617       0.052379
                                                         0.478316       0.235193
                                                         1.045457       0.379157
                                                         2.625196       0.633910
                                                         6.132625       0.562677

                          1       5    4px               0.030287       0.002706
                                                         0.075145       0.024920
                                                         0.178617       0.072281
                                                         0.478316       0.135466
                                                         1.045457      -0.481781
                                                         2.625196      -0.221326
                                                         6.132625      -0.472364
                          1       5    4py               0.030287       0.002706
                                                         0.075145       0.024920
                                                         0.178617       0.072281
                                                         0.478316       0.135466
                                                         1.045457      -0.481781
                                                         2.625196      -0.221326
                                                         6.132625      -0.472364
                          1       5    4pz               0.030287       0.002706
                                                         0.075145       0.024920
                                                         0.178617       0.072281
                                                         0.478316       0.135466
                                                         1.045457      -0.481781
                                                         2.625196      -0.221326
                                                         6.132625      -0.472364

                          1       6    5px               0.030287       0.017352
                                                         0.075145      -0.002699
                                                         0.178617       0.032082
                                                         0.478316      -0.042679
                                                         1.045457      -0.009076
                                                         2.625196       0.000000
                                                         6.132625       0.000000
                          1       6    5py               0.030287       0.017352
                                                         0.075145      -0.002699
                                                         0.178617       0.032082
                                                         0.478316      -0.042679
                                                         1.045457      -0.009076
                                                         2.625196       0.000000
                                                         6.132625       0.000000
                          1       6    5pz               0.030287       0.017352
                                                         0.075145      -0.002699
                                                         0.178617       0.032082
                                                         0.478316      -0.042679
                                                         1.045457      -0.009076
                                                         2.625196       0.000000
                                                         6.132625       0.000000

                          1       7    4dx2              0.030287      -0.000011
                                                         0.075145       0.003649
                                                         0.178617       0.018656
                                                         0.478316       0.191007
                                                         1.045457       0.653959
                                                         2.625196       0.375772
                                                         6.132625       0.874783
                          1       7    4dxy              0.030287      -0.000019
                                                         0.075145       0.006321
                                                         0.178617       0.032314
                                                         0.478316       0.330834
                                                         1.045457       1.132690
                                                         2.625196       0.650856
                                                         6.132625       1.515169
                          1       7    4dxz              0.030287      -0.000019
                                                         0.075145       0.006321
                                                         0.178617       0.032314
                                                         0.478316       0.330834
                                                         1.045457       1.132690
                                                         2.625196       0.650856
                                                         6.132625       1.515169
                          1       7    4dy2              0.030287      -0.000011
                                                         0.075145       0.003649
                                                         0.178617       0.018656
                                                         0.478316       0.191007
                                                         1.045457       0.653959
                                                         2.625196       0.375772
                                                         6.132625       0.874783
                          1       7    4dyz              0.030287      -0.000019
                                                         0.075145       0.006321
                                                         0.178617       0.032314
                                                         0.478316       0.330834
                                                         1.045457       1.132690
                                                         2.625196       0.650856
                                                         6.132625       1.515169
                          1       7    4dz2              0.030287      -0.000011
                                                         0.075145       0.003649
                                                         0.178617       0.018656
                                                         0.478316       0.191007
                                                         1.045457       0.653959
                                                         2.625196       0.375772
                                                         6.132625       0.874783

                          1       8    5dx2              0.030287      -0.003947
                                                         0.075145       0.002963
                                                         0.178617       0.031728
                                                         0.478316       0.034826
                                                         1.045457       0.000000
                                                         2.625196       0.000000
                                                         6.132625       0.000000
                          1       8    5dxy              0.030287      -0.006837
                                                         0.075145       0.005132
                                                         0.178617       0.054954
                                                         0.478316       0.060321
                                                         1.045457       0.000000
                                                         2.625196       0.000000
                                                         6.132625       0.000000
                          1       8    5dxz              0.030287      -0.006837
                                                         0.075145       0.005132
                                                         0.178617       0.054954
                                                         0.478316       0.060321
                                                         1.045457       0.000000
                                                         2.625196       0.000000
                                                         6.132625       0.000000
                          1       8    5dy2              0.030287      -0.003947
                                                         0.075145       0.002963
                                                         0.178617       0.031728
                                                         0.478316       0.034826
                                                         1.045457       0.000000
                                                         2.625196       0.000000
                                                         6.132625       0.000000
                          1       8    5dyz              0.030287      -0.006837
                                                         0.075145       0.005132
                                                         0.178617       0.054954
                                                         0.478316       0.060321
                                                         1.045457       0.000000
                                                         2.625196       0.000000
                                                         6.132625       0.000000
                          1       8    5dz2              0.030287      -0.003947
                                                         0.075145       0.002963
                                                         0.178617       0.031728
                                                         0.478316       0.034826
                                                         1.045457       0.000000
                                                         2.625196       0.000000
                                                         6.132625       0.000000

     RI Auxiliary Basis Set             RI_aug-DZVP-MOLOPT-GTH-tier-1_N_RI_106_s

       Number of orbital shell sets:                                          26
       Number of orbital shells:                                              26
       Number of primitive Cartesian functions:                               26
       Number of Cartesian basis functions:                                  136
       Number of spherical basis functions:                                  106
       Norm type:                                                              2

       Normalised Cartesian orbitals:

                        Set   Shell   Orbital            Exponent    Coefficient

                          1       1    1s                0.075717       0.102874

                          2       1    2s                0.171492       0.189930

                          3       1    3s                0.388413       0.350655

                          4       1    4s                0.879719       0.647393

                          5       1    5s                1.992482       1.195242

                          6       1    6s                4.512786       2.206702

                          7       1    7s               10.221041       4.074098

                          8       1    8px               0.075717       0.056615
                          8       1    8py               0.075717       0.056615
                          8       1    8pz               0.075717       0.056615

                          9       1    9px               0.201954       0.192977
                          9       1    9py               0.201954       0.192977
                          9       1    9pz               0.201954       0.192977

                         10       1   10px               0.538659       0.657782
                         10       1   10py               0.538659       0.657782
                         10       1   10pz               0.538659       0.657782

                         11       1   11px               1.436727       2.242115
                         11       1   11py               1.436727       2.242115
                         11       1   11pz               1.436727       2.242115

                         12       1   12px               3.832081       7.642464
                         12       1   12py               3.832081       7.642464
                         12       1   12pz               3.832081       7.642464

                         13       1   13px              10.221041      26.050077
                         13       1   13py              10.221041      26.050077
                         13       1   13pz              10.221041      26.050077

                         14       1   14dx2              0.075717       0.017989
                         14       1   14dxy              0.075717       0.031157
                         14       1   14dxz              0.075717       0.031157
                         14       1   14dy2              0.075717       0.017989
                         14       1   14dyz              0.075717       0.031157
                         14       1   14dz2              0.075717       0.017989

                         15       1   15dx2              0.201954       0.100139
                         15       1   15dxy              0.201954       0.173446
                         15       1   15dxz              0.201954       0.173446
                         15       1   15dy2              0.201954       0.100139
                         15       1   15dyz              0.201954       0.173446
                         15       1   15dz2              0.201954       0.100139

                         16       1   16dx2              0.538659       0.557453
                         16       1   16dxy              0.538659       0.965537
                         16       1   16dxz              0.538659       0.965537
                         16       1   16dy2              0.538659       0.557453
                         16       1   16dyz              0.538659       0.965537
                         16       1   16dz2              0.538659       0.557453

                         17       1   17dx2              1.436727       3.103232
                         17       1   17dxy              1.436727       5.374956
                         17       1   17dxz              1.436727       5.374956
                         17       1   17dy2              1.436727       3.103232
                         17       1   17dyz              1.436727       5.374956
                         17       1   17dz2              1.436727       3.103232

                         18       1   18dx2              3.832081      17.275082
                         18       1   18dxy              3.832081      29.921319
                         18       1   18dxz              3.832081      29.921319
                         18       1   18dy2              3.832081      17.275082
                         18       1   18dyz              3.832081      29.921319
                         18       1   18dz2              3.832081      17.275082

                         19       1   19dx2             10.221041      96.166975
                         19       1   19dxy             10.221041     166.566087
                         19       1   19dxz             10.221041     166.566087
                         19       1   19dy2             10.221041      96.166975
                         19       1   19dyz             10.221041     166.566087
                         19       1   19dz2             10.221041      96.166975

                         20       1   20fx3              0.075717       0.004427
                         20       1   20fx2y             0.075717       0.009900
                         20       1   20fx2z             0.075717       0.009900
                         20       1   20fxy2             0.075717       0.009900
                         20       1   20fxyz             0.075717       0.017147
                         20       1   20fxz2             0.075717       0.009900
                         20       1   20fy3              0.075717       0.004427
                         20       1   20fy2z             0.075717       0.009900
                         20       1   20fyz2             0.075717       0.009900
                         20       1   20fz3              0.075717       0.004427

                         21       1   21fx3              0.201954       0.040251
                         21       1   21fx2y             0.201954       0.090003
                         21       1   21fx2z             0.201954       0.090003
                         21       1   21fxy2             0.201954       0.090003
                         21       1   21fxyz             0.201954       0.155891
                         21       1   21fxz2             0.201954       0.090003
                         21       1   21fy3              0.201954       0.040251
                         21       1   21fy2z             0.201954       0.090003
                         21       1   21fyz2             0.201954       0.090003
                         21       1   21fz3              0.201954       0.040251

                         22       1   22fx3              0.538659       0.365940
                         22       1   22fx2y             0.538659       0.818267
                         22       1   22fx2z             0.538659       0.818267
                         22       1   22fxy2             0.538659       0.818267
                         22       1   22fxyz             0.538659       1.417281
                         22       1   22fxz2             0.538659       0.818267
                         22       1   22fy3              0.538659       0.365940
                         22       1   22fy2z             0.538659       0.818267
                         22       1   22fyz2             0.538659       0.818267
                         22       1   22fz3              0.538659       0.365940

                         23       1   23fx3              1.436727       3.326951
                         23       1   23fx2y             1.436727       7.439288
                         23       1   23fx2z             1.436727       7.439288
                         23       1   23fxy2             1.436727       7.439288
                         23       1   23fxyz             1.436727      12.885224
                         23       1   23fxz2             1.436727       7.439288
                         23       1   23fy3              1.436727       3.326951
                         23       1   23fy2z             1.436727       7.439288
                         23       1   23fyz2             1.436727       7.439288
                         23       1   23fz3              1.436727       3.326951

                         24       1   24fx3              3.832081      30.247009
                         24       1   24fx2y             3.832081      67.634368
                         24       1   24fx2z             3.832081      67.634368
                         24       1   24fxy2             3.832081      67.634368
                         24       1   24fxyz             3.832081     117.146161
                         24       1   24fxz2             3.832081      67.634368
                         24       1   24fy3              3.832081      30.247009
                         24       1   24fy2z             3.832081      67.634368
                         24       1   24fyz2             3.832081      67.634368
                         24       1   24fz3              3.832081      30.247009

                         25       1   25fx3             10.221041     274.991025
                         25       1   25fx2y            10.221041     614.898625
                         25       1   25fx2z            10.221041     614.898625
                         25       1   25fxy2            10.221041     614.898625
                         25       1   25fxyz            10.221041    1065.035660
                         25       1   25fxz2            10.221041     614.898625
                         25       1   25fy3             10.221041     274.991025
                         25       1   25fy2z            10.221041     614.898625
                         25       1   25fyz2            10.221041     614.898625
                         25       1   25fz3             10.221041     274.991025

                         26       1   26gx4              5.148379     100.815973
                         26       1   26gx3y             5.148379     266.733994
                         26       1   26gx3z             5.148379     266.733994
                         26       1   26gx2y2            5.148379     344.352105
                         26       1   26gx2yz            5.148379     596.435341
                         26       1   26gx2z2            5.148379     344.352105
                         26       1   26gxy3             5.148379     266.733994
                         26       1   26gxy2z            5.148379     596.435341
                         26       1   26gxyz2            5.148379     596.435341
                         26       1   26gxz3             5.148379     266.733994
                         26       1   26gy4              5.148379     100.815973
                         26       1   26gy3z             5.148379     266.733994
                         26       1   26gy2z2            5.148379     344.352105
                         26       1   26gyz3             5.148379     266.733994
                         26       1   26gz4              5.148379     100.815973

       Atomic covalent radius [Angstrom]:                                  0.770

       Atomic van der Waals radius [Angstrom]:                             1.700

     GTH Potential information for                                       GTH-PBE

       Description:                       Goedecker-Teter-Hutter pseudopotential
                                           Goedecker et al., PRB 54, 1703 (1996)
                                          Hartwigsen et al., PRB 58, 3641 (1998)
                                                      Krack, TCA 114, 145 (2005)

       Gaussian exponent of the core charge distribution:               4.364419
       Electronic configuration (s p d ...):                               2   2

       Parameters of the local part of the GTH pseudopotential:

                          rloc        C1          C2          C3          C4
                        0.338471   -8.803674    1.339211

       Parameters of the non-local part of the GTH pseudopotential:

                   l      r(l)      h(i,j,l)

                   0    0.302576    9.622487
                   1    0.291507

  2. Atomic kind: F                                     Number of atoms:       4

     Orbital Basis Set                                aug-DZVP-MOLOPT-GTH-tier-1

       Number of orbital shell sets:                                           1
       Number of orbital shells:                                               8
       Number of primitive Cartesian functions:                                7
       Number of Cartesian basis functions:                                   24
       Number of spherical basis functions:                                   22
       Norm type:                                                              2

       Normalised Cartesian orbitals:

                        Set   Shell   Orbital            Exponent    Coefficient

                          1       1    2s                0.048130       0.000145
                                                         0.157659       0.012715
                                                         0.396230       0.147372
                                                         0.963986       0.349414
                                                         2.411456       0.244970
                                                         6.156801      -0.368899
                                                        15.025673      -0.376933

                          1       2    3s                0.048130      -0.023206
                                                         0.157659       0.219094
                                                         0.396230       0.144424
                                                         0.963986      -0.882439
                                                         2.411456      -0.201528
                                                         6.156801       0.616780
                                                        15.025673       0.933261

                          1       3    4s                0.048130       0.048199
                                                         0.157659       0.064341
                                                         0.396230       0.010899
                                                         0.963986       0.021631
                                                         2.411456       0.000000
                                                         6.156801       0.000000
                                                        15.025673       0.000000

                          1       4    3px               0.048130       0.000282
                                                         0.157659       0.019710
                                                         0.396230       0.135050
                                                         0.963986       0.488223
                                                         2.411456       1.216351
                                                         6.156801       1.920741
                                                        15.025673       1.819117
                          1       4    3py               0.048130       0.000282
                                                         0.157659       0.019710
                                                         0.396230       0.135050
                                                         0.963986       0.488223
                                                         2.411456       1.216351
                                                         6.156801       1.920741
                                                        15.025673       1.819117
                          1       4    3pz               0.048130       0.000282
                                                         0.157659       0.019710
                                                         0.396230       0.135050
                                                         0.963986       0.488223
                                                         2.411456       1.216351
                                                         6.156801       1.920741
                                                        15.025673       1.819117

                          1       5    4px               0.048130       0.002429
                                                         0.157659       0.085113
                                                         0.396230       0.170866
                                                         0.963986      -0.918345
                                                         2.411456      -0.953450
                                                         6.156801      -2.417014
                                                        15.025673      -1.689942
                          1       5    4py               0.048130       0.002429
                                                         0.157659       0.085113
                                                         0.396230       0.170866
                                                         0.963986      -0.918345
                                                         2.411456      -0.953450
                                                         6.156801      -2.417014
                                                        15.025673      -1.689942
                          1       5    4pz               0.048130       0.002429
                                                         0.157659       0.085113
                                                         0.396230       0.170866
                                                         0.963986      -0.918345
                                                         2.411456      -0.953450
                                                         6.156801      -2.417014
                                                        15.025673      -1.689942

                          1       6    5px               0.048130       0.000246
                                                         0.157659       0.023230
                                                         0.396230       0.209872
                                                         0.963986       0.640292
                                                         2.411456       0.000000
                                                         6.156801       0.000000
                                                        15.025673       0.000000
                          1       6    5py               0.048130       0.000246
                                                         0.157659       0.023230
                                                         0.396230       0.209872
                                                         0.963986       0.640292
                                                         2.411456       0.000000
                                                         6.156801       0.000000
                                                        15.025673       0.000000
                          1       6    5pz               0.048130       0.000246
                                                         0.157659       0.023230
                                                         0.396230       0.209872
                                                         0.963986       0.640292
                                                         2.411456       0.000000
                                                         6.156801       0.000000
                                                        15.025673       0.000000

                          1       7    4dx2              0.048130      -0.000057
                                                         0.157659       0.005683
                                                         0.396230       0.093353
                                                         0.963986       0.990964
                                                         2.411456       0.905639
                                                         6.156801       1.881685
                                                        15.025673       0.944374
                          1       7    4dxy              0.048130      -0.000100
                                                         0.157659       0.009842
                                                         0.396230       0.161692
                                                         0.963986       1.716400
                                                         2.411456       1.568613
                                                         6.156801       3.259175
                                                        15.025673       1.635703
                          1       7    4dxz              0.048130      -0.000100
                                                         0.157659       0.009842
                                                         0.396230       0.161692
                                                         0.963986       1.716400
                                                         2.411456       1.568613
                                                         6.156801       3.259175
                                                        15.025673       1.635703
                          1       7    4dy2              0.048130      -0.000057
                                                         0.157659       0.005683
                                                         0.396230       0.093353
                                                         0.963986       0.990964
                                                         2.411456       0.905639
                                                         6.156801       1.881685
                                                        15.025673       0.944374
                          1       7    4dyz              0.048130      -0.000100
                                                         0.157659       0.009842
                                                         0.396230       0.161692
                                                         0.963986       1.716400
                                                         2.411456       1.568613
                                                         6.156801       3.259175
                                                        15.025673       1.635703
                          1       7    4dz2              0.048130      -0.000057
                                                         0.157659       0.005683
                                                         0.396230       0.093353
                                                         0.963986       0.990964
                                                         2.411456       0.905639
                                                         6.156801       1.881685
                                                        15.025673       0.944374

                          1       8    5dx2              0.048130      -0.001335
                                                         0.157659       0.026636
                                                         0.396230       0.135735
                                                         0.963986       0.626554
                                                         2.411456       0.000000
                                                         6.156801       0.000000
                                                        15.025673       0.000000
                          1       8    5dxy              0.048130      -0.002313
                                                         0.157659       0.046135
                                                         0.396230       0.235100
                                                         0.963986       1.085224
                                                         2.411456       0.000000
                                                         6.156801       0.000000
                                                        15.025673       0.000000
                          1       8    5dxz              0.048130      -0.002313
                                                         0.157659       0.046135
                                                         0.396230       0.235100
                                                         0.963986       1.085224
                                                         2.411456       0.000000
                                                         6.156801       0.000000
                                                        15.025673       0.000000
                          1       8    5dy2              0.048130      -0.001335
                                                         0.157659       0.026636
                                                         0.396230       0.135735
                                                         0.963986       0.626554
                                                         2.411456       0.000000
                                                         6.156801       0.000000
                                                        15.025673       0.000000
                          1       8    5dyz              0.048130      -0.002313
                                                         0.157659       0.046135
                                                         0.396230       0.235100
                                                         0.963986       1.085224
                                                         2.411456       0.000000
                                                         6.156801       0.000000
                                                        15.025673       0.000000
                          1       8    5dz2              0.048130      -0.001335
                                                         0.157659       0.026636
                                                         0.396230       0.135735
                                                         0.963986       0.626554
                                                         2.411456       0.000000
                                                         6.156801       0.000000
                                                        15.025673       0.000000

     RI Auxiliary Basis Set             RI_aug-DZVP-MOLOPT-GTH-tier-1_N_RI_097_s

       Number of orbital shell sets:                                          25
       Number of orbital shells:                                              25
       Number of primitive Cartesian functions:                               25
       Number of Cartesian basis functions:                                  121
       Number of spherical basis functions:                                   97
       Norm type:                                                              2

       Normalised Cartesian orbitals:

                        Set   Shell   Orbital            Exponent    Coefficient

                          1       1    1s                0.120190       0.145483

                          2       1    2s                0.291052       0.282415

                          3       1    3s                0.712160       0.552514

                          4       1    4s                1.760557       1.089300

                          5       1    5s                4.268775       2.116594

                          6       1    6s               10.271107       4.089056

                          7       1    7s               24.993025       7.966622

                          8       1    8px               0.124231       0.105131
                          8       1    8py               0.124231       0.105131
                          8       1    8pz               0.124231       0.105131

                          9       1    9px               0.403739       0.458739
                          9       1    9py               0.403739       0.458739
                          9       1    9pz               0.403739       0.458739

                         10       1   10px               1.136645       1.672904
                         10       1   10py               1.136645       1.672904
                         10       1   10pz               1.136645       1.672904

                         11       1   11px               2.532349       4.553491
                         11       1   11py               2.532349       4.553491
                         11       1   11pz               2.532349       4.553491

                         12       1   12px               7.929423      18.966714
                         12       1   12py               7.929423      18.966714
                         12       1   12pz               7.929423      18.966714

                         13       1   13px              24.925701      79.386985
                         13       1   13py              24.925701      79.386985
                         13       1   13pz              24.925701      79.386985

                         14       1   14dx2              0.124859       0.043166
                         14       1   14dxy              0.124859       0.074766
                         14       1   14dxz              0.124859       0.074766
                         14       1   14dy2              0.124859       0.043166
                         14       1   14dyz              0.124859       0.074766
                         14       1   14dz2              0.124859       0.043166

                         15       1   15dx2              0.427382       0.371824
                         15       1   15dxy              0.427382       0.644018
                         15       1   15dxz              0.427382       0.644018
                         15       1   15dy2              0.427382       0.371824
                         15       1   15dyz              0.427382       0.644018
                         15       1   15dz2              0.427382       0.371824

                         16       1   16dx2              1.364648       2.835930
                         16       1   16dxy              1.364648       4.911975
                         16       1   16dxz              1.364648       4.911975
                         16       1   16dy2              1.364648       2.835930
                         16       1   16dyz              1.364648       4.911975
                         16       1   16dz2              1.364648       2.835930

                         17       1   17dx2              1.955795       5.323845
                         17       1   17dxy              1.955795       9.221170
                         17       1   17dxz              1.955795       9.221170
                         17       1   17dy2              1.955795       5.323845
                         17       1   17dyz              1.955795       9.221170
                         17       1   17dz2              1.955795       5.323845

                         18       1   18dx2              6.439762      42.848107
                         18       1   18dxy              6.439762      74.215099
                         18       1   18dxz              6.439762      74.215099
                         18       1   18dy2              6.439762      42.848107
                         18       1   18dyz              6.439762      74.215099
                         18       1   18dz2              6.439762      42.848107

                         19       1   19dx2             25.304588     469.902961
                         19       1   19dxy             25.304588     813.895802
                         19       1   19dxz             25.304588     813.895802
                         19       1   19dy2             25.304588     469.902961
                         19       1   19dyz             25.304588     813.895802
                         19       1   19dz2             25.304588     469.902961

                         20       1   20fx3              0.120876       0.012683
                         20       1   20fx2y             0.120876       0.028360
                         20       1   20fx2z             0.120876       0.028360
                         20       1   20fxy2             0.120876       0.028360
                         20       1   20fxyz             0.120876       0.049121
                         20       1   20fxz2             0.120876       0.028360
                         20       1   20fy3              0.120876       0.012683
                         20       1   20fy2z             0.120876       0.028360
                         20       1   20fyz2             0.120876       0.028360
                         20       1   20fz3              0.120876       0.012683

                         21       1   21fx3              0.355549       0.143707
                         21       1   21fx2y             0.355549       0.321340
                         21       1   21fx2z             0.355549       0.321340
                         21       1   21fxy2             0.355549       0.321340
                         21       1   21fxyz             0.355549       0.556576
                         21       1   21fxz2             0.355549       0.321340
                         21       1   21fy3              0.355549       0.143707
                         21       1   21fy2z             0.355549       0.321340
                         21       1   21fyz2             0.355549       0.321340
                         21       1   21fz3              0.355549       0.143707

                         22       1   22fx3              1.062839       1.688519
                         22       1   22fx2y             1.062839       3.775642
                         22       1   22fx2z             1.062839       3.775642
                         22       1   22fxy2             1.062839       3.775642
                         22       1   22fxyz             1.062839       6.539604
                         22       1   22fxz2             1.062839       3.775642
                         22       1   22fy3              1.062839       1.688519
                         22       1   22fy2z             1.062839       3.775642
                         22       1   22fyz2             1.062839       3.775642
                         22       1   22fz3              1.062839       1.688519

                         23       1   23fx3              2.765631      14.520827
                         23       1   23fx2y             2.765631      32.469555
                         23       1   23fx2z             2.765631      32.469555
                         23       1   23fxy2             2.765631      32.469555
                         23       1   23fxyz             2.765631      56.238920
                         23       1   23fxz2             2.765631      32.469555
                         23       1   23fy3              2.765631      14.520827
                         23       1   23fy2z             2.765631      32.469555
                         23       1   23fyz2             2.765631      32.469555
                         23       1   23fz3              2.765631      14.520827

                         24       1   24fx3              8.359506     174.928596
                         24       1   24fx2y             8.359506     391.152233
                         24       1   24fx2z             8.359506     391.152233
                         24       1   24fxy2             8.359506     391.152233
                         24       1   24fxyz             8.359506     677.495540
                         24       1   24fxz2             8.359506     391.152233
                         24       1   24fy3              8.359506     174.928596
                         24       1   24fy2z             8.359506     391.152233
                         24       1   24fyz2             8.359506     391.152233
                         24       1   24fz3              8.359506     174.928596

                         25       1   25fx3             24.775525    2016.071401
                         25       1   25fx2y            24.775525    4508.072701
                         25       1   25fx2z            24.775525    4508.072701
                         25       1   25fxy2            24.775525    4508.072701
                         25       1   25fxyz            24.775525    7808.210962
                         25       1   25fxz2            24.775525    4508.072701
                         25       1   25fy3             24.775525    2016.071401
                         25       1   25fy2z            24.775525    4508.072701
                         25       1   25fyz2            24.775525    4508.072701
                         25       1   25fz3             24.775525    2016.071401

       Atomic covalent radius [Angstrom]:                                  0.720

       Atomic van der Waals radius [Angstrom]:                             1.470

     GTH Potential information for                                       GTH-PBE

       Description:                       Goedecker-Teter-Hutter pseudopotential
                                           Goedecker et al., PRB 54, 1703 (1996)
                                          Hartwigsen et al., PRB 58, 3641 (1998)
                                                      Krack, TCA 114, 145 (2005)

       Gaussian exponent of the core charge distribution:              10.823746
       Electronic configuration (s p d ...):                               2   5

       Parameters of the local part of the GTH pseudopotential:

                          rloc        C1          C2          C3          C4
                        0.214930  -21.573028    3.199776

       Parameters of the non-local part of the GTH pseudopotential:

                   l      r(l)      h(i,j,l)

                   0    0.194684   23.743540
                   1    0.186156


 MOLECULE KIND INFORMATION


 All atoms are their own molecule, skipping detailed information


 TOTAL NUMBERS AND MAXIMUM NUMBERS

  Total number of            - Atomic kinds:                                   2
                             - Atoms:                                          5
                             - Shell sets:                                     5
                             - Shells:                                        40
                             - Primitive Cartesian functions:                 35
                             - Cartesian basis functions:                    120
                             - Spherical basis functions:                    110

  Maximum angular momentum of- Orbital basis functions:                        2
                             - Local part of the GTH pseudopotential:          2
                             - Non-local part of the GTH pseudopotential:      0


 MODULE QUICKSTEP: ATOMIC COORDINATES IN ANGSTROM

   Atom Kind Element         X             Y             Z       Z(eff)     Mass
      1    1 C     6     10.000000     10.000000     10.000000   4.0000  12.0107
      2    2 F     9     10.763800      9.236200     10.763800   7.0000  18.9984
      3    2 F     9      9.236200     10.763800     10.763800   7.0000  18.9984
      4    2 F     9      9.236200      9.236200      9.236200   7.0000  18.9984
      5    2 F     9     10.763800     10.763800      9.236200   7.0000  18.9984



 SCF PARAMETERS         Density guess:                                    ATOMIC
                        --------------------------------------------------------
                        max_scf:                                             200
                        max_scf_history:                                       0
                        max_diis:                                              4
                        --------------------------------------------------------
                        eps_scf:                                        1.00E-07
                        eps_scf_history:                                0.00E+00
                        eps_diis:                                       1.00E-01
                        eps_eigval:                                     1.00E-05
                        --------------------------------------------------------
                        level_shift [a.u.]:                             0.000000
                        SCF update method:                                MIXING
                        added MOs                                        94    0
                        --------------------------------------------------------
                        Mixing method:                            BROYDEN_MIXING
                                                charge density mixing in g-space
                        --------------------------------------------------------
                        Outer loop SCF in use 
                        No variables optimised in outer loop
                        eps_scf                                         1.00E-07
                        max_scf                                               20
                        No outer loop optimization
                        step_size                                       5.00E-01

 PW_GRID| Information for grid number                                          2
 PW_GRID| Grid distributed over                                    32 processors
 PW_GRID| Real space group dimensions                                    32    1
 PW_GRID| the grid is blocked:                                                NO
 PW_GRID| Cutoff [a.u.]                                                    300.0
 PW_GRID| spherical cutoff:                                                   NO
 PW_GRID|   Bounds   1           -150     149                Points:         300
 PW_GRID|   Bounds   2           -150     149                Points:         300
 PW_GRID|   Bounds   3           -150     149                Points:         300
 PW_GRID| Volume element (a.u.^3)  0.2000E-02     Volume (a.u.^3)     53986.6767
 PW_GRID| Grid span                                                    FULLSPACE
 PW_GRID|   Distribution                         Average         Max         Min
 PW_GRID|   G-Vectors                           843750.0      843900      843600
 PW_GRID|   G-Rays                                2812.5        2813        2812
 PW_GRID|   Real Space Points                   843750.0      900000      810000

 PW_GRID| Information for grid number                                          3
 PW_GRID| Number of the reference grid                                         2
 PW_GRID| Grid distributed over                                    32 processors
 PW_GRID| Real space group dimensions                                    32    1
 PW_GRID| the grid is blocked:                                                NO
 PW_GRID| Cutoff [a.u.]                                                    100.0
 PW_GRID| spherical cutoff:                                                   NO
 PW_GRID|   Bounds   1            -90      89                Points:         180
 PW_GRID|   Bounds   2            -90      89                Points:         180
 PW_GRID|   Bounds   3            -90      89                Points:         180
 PW_GRID| Volume element (a.u.^3)  0.9257E-02     Volume (a.u.^3)     53986.6767
 PW_GRID| Grid span                                                    FULLSPACE
 PW_GRID|   Distribution                         Average         Max         Min
 PW_GRID|   G-Vectors                           182250.0      182520      181980
 PW_GRID|   G-Rays                                1012.5        1014        1011
 PW_GRID|   Real Space Points                   182250.0      194400      162000

 PW_GRID| Information for grid number                                          4
 PW_GRID| Number of the reference grid                                         2
 PW_GRID| Grid distributed over                                    32 processors
 PW_GRID| Real space group dimensions                                    32    1
 PW_GRID| the grid is blocked:                                                NO
 PW_GRID| Cutoff [a.u.]                                                     33.3
 PW_GRID| spherical cutoff:                                                   NO
 PW_GRID|   Bounds   1            -50      49                Points:         100
 PW_GRID|   Bounds   2            -50      49                Points:         100
 PW_GRID|   Bounds   3            -50      49                Points:         100
 PW_GRID| Volume element (a.u.^3)  0.5399E-01     Volume (a.u.^3)     53986.6767
 PW_GRID| Grid span                                                    FULLSPACE
 PW_GRID|   Distribution                         Average         Max         Min
 PW_GRID|   G-Vectors                            31250.0       31500       31000
 PW_GRID|   G-Rays                                 312.5         315         310
 PW_GRID|   Real Space Points                    31250.0       40000       30000

 PW_GRID| Information for grid number                                          5
 PW_GRID| Number of the reference grid                                         2
 PW_GRID| Grid distributed over                                    32 processors
 PW_GRID| Real space group dimensions                                    32    1
 PW_GRID| the grid is blocked:                                                NO
 PW_GRID| Cutoff [a.u.]                                                     11.1
 PW_GRID| spherical cutoff:                                                   NO
 PW_GRID|   Bounds   1            -30      29                Points:          60
 PW_GRID|   Bounds   2            -30      29                Points:          60
 PW_GRID|   Bounds   3            -30      29                Points:          60
 PW_GRID| Volume element (a.u.^3)  0.2499         Volume (a.u.^3)     53986.6767
 PW_GRID| Grid span                                                    FULLSPACE
 PW_GRID|   Distribution                         Average         Max         Min
 PW_GRID|   G-Vectors                             6750.0        6780        6720
 PW_GRID|   G-Rays                                 112.5         113         112
 PW_GRID|   Real Space Points                     6750.0        7200        3600

 PW_GRID| Information for grid number                                          6
 PW_GRID| Number of the reference grid                                         2
 PW_GRID| Grid distributed over                                    32 processors
 PW_GRID| Real space group dimensions                                    32    1
 PW_GRID| the grid is blocked:                                                NO
 PW_GRID| Cutoff [a.u.]                                                      3.7
 PW_GRID| spherical cutoff:                                                   NO
 PW_GRID|   Bounds   1            -18      17                Points:          36
 PW_GRID|   Bounds   2            -18      17                Points:          36
 PW_GRID|   Bounds   3            -18      17                Points:          36
 PW_GRID| Volume element (a.u.^3)   1.157         Volume (a.u.^3)     53986.6767
 PW_GRID| Grid span                                                    FULLSPACE
 PW_GRID|   Distribution                         Average         Max         Min
 PW_GRID|   G-Vectors                             1458.0        1548        1368
 PW_GRID|   G-Rays                                  40.5          43          38
 PW_GRID|   Real Space Points                     1458.0        2592        1296

 POISSON| Solver                                             MULTIPOLE (Bloechl)
 POISSON| Periodicity                                                       NONE

 RS_GRID| Information for grid number                                          2
 RS_GRID|   Bounds   1           -150     149                Points:         300
 RS_GRID|   Bounds   2           -150     149                Points:         300
 RS_GRID|   Bounds   3           -150     149                Points:         300
 RS_GRID| Real space distribution over                                  2 groups
 RS_GRID| Real space distribution along direction                              1
 RS_GRID| Border size                                                         27
 RS_GRID| Real space distribution over                                  4 groups
 RS_GRID| Real space distribution along direction                              2
 RS_GRID| Border size                                                         27
 RS_GRID| Real space distribution over                                  4 groups
 RS_GRID| Real space distribution along direction                              3
 RS_GRID| Border size                                                         27
 RS_GRID|   Distribution                         Average         Max         Min
 RS_GRID|   Planes                                 204.0         204         204
 RS_GRID|   Distribution                         Average         Max         Min
 RS_GRID|   Planes                                 129.0         129         129
 RS_GRID|   Distribution                         Average         Max         Min
 RS_GRID|   Planes                                 129.0         129         129

 RS_GRID| Information for grid number                                          3
 RS_GRID|   Bounds   1            -90      89                Points:         180
 RS_GRID|   Bounds   2            -90      89                Points:         180
 RS_GRID|   Bounds   3            -90      89                Points:         180
 RS_GRID| Real space distribution over                                  2 groups
 RS_GRID| Real space distribution along direction                              1
 RS_GRID| Border size                                                         29
 RS_GRID| Real space distribution over                                  4 groups
 RS_GRID| Real space distribution along direction                              2
 RS_GRID| Border size                                                         29
 RS_GRID| Real space distribution over                                  4 groups
 RS_GRID| Real space distribution along direction                              3
 RS_GRID| Border size                                                         29
 RS_GRID|   Distribution                         Average         Max         Min
 RS_GRID|   Planes                                 148.0         148         148
 RS_GRID|   Distribution                         Average         Max         Min
 RS_GRID|   Planes                                 103.0         103         103
 RS_GRID|   Distribution                         Average         Max         Min
 RS_GRID|   Planes                                 103.0         103         103

 RS_GRID| Information for grid number                                          4
 RS_GRID|   Bounds   1            -50      49                Points:         100
 RS_GRID|   Bounds   2            -50      49                Points:         100
 RS_GRID|   Bounds   3            -50      49                Points:         100
 RS_GRID| Real space fully replicated
 RS_GRID| Group size                                                           1

 RS_GRID| Information for grid number                                          5
 RS_GRID|   Bounds   1            -30      29                Points:          60
 RS_GRID|   Bounds   2            -30      29                Points:          60
 RS_GRID|   Bounds   3            -30      29                Points:          60
 RS_GRID| Real space fully replicated
 RS_GRID| Group size                                                           1

 RS_GRID| Information for grid number                                          6
 RS_GRID|   Bounds   1            -18      17                Points:          36
 RS_GRID|   Bounds   2            -18      17                Points:          36
 RS_GRID|   Bounds   3            -18      17                Points:          36
 RS_GRID| Real space fully replicated
 RS_GRID| Group size                                                           1

 Extrapolation method: initial_guess

 Atomic guess: The first density matrix is obtained in terms of atomic orbitals
               and electronic configurations assigned to each atomic kind

 Guess for atomic kind: C

 Electronic structure
    Total number of core electrons                                          2.00
    Total number of valence electrons                                       4.00
    Total number of electrons                                               6.00
    Multiplicity                                                   not specified
    S   [  2.00] 2.00
    P      2.00


 *******************************************************************************
                  Iteration          Convergence                     Energy [au]
 *******************************************************************************
                          1        0.847059E-01                  -5.270330147850
                          2        0.545415E-01                  -5.275201085285
                          3        0.656048E-03                  -5.278694674138
                          4        0.207053E-04                  -5.278695036098
                          5        0.945082E-08                  -5.278695036628

 Energy components [Hartree]           Total Energy ::           -5.278695036628
                                        Band Energy ::           -1.293837271012
                                     Kinetic Energy ::            3.406861322814
                                   Potential Energy ::           -8.685556359442
                                      Virial (-V/T) ::            2.549430556882
                                        Core Energy ::           -8.303656916162
                                          XC Energy ::           -1.384218149142
                                     Coulomb Energy ::            4.409180028677
                       Total Pseudopotential Energy ::          -11.744785124617
                       Local Pseudopotential Energy ::          -12.344468476380
                    Nonlocal Pseudopotential Energy ::            0.599683351762
                                        Confinement ::            0.342668856411

 Orbital energies  State     L     Occupation   Energy[a.u.]          Energy[eV]

                       1     0          2.000      -0.478272          -13.014454

                       1     1          2.000      -0.168646           -4.589097


 Total Electron Density at R=0:                                         0.000043

 Guess for atomic kind: F

 Electronic structure
    Total number of core electrons                                          2.00
    Total number of valence electrons                                       7.00
    Total number of electrons                                               9.00
    Multiplicity                                                   not specified
    S   [  2.00] 2.00
    P      5.00


 *******************************************************************************
                  Iteration          Convergence                     Energy [au]
 *******************************************************************************
                          1         1.29623                     -23.766137558508
                          2         1.20933                     -23.752859654868
                          3        0.899404E-01                 -23.939544162568
                          4        0.328188E-02                 -23.940486959085
                          5        0.508573E-04                 -23.940488292033
                          6        0.162428E-05                 -23.940488292325
                          7        0.415452E-07                 -23.940488292325

 Energy components [Hartree]           Total Energy ::          -23.940488292325
                                        Band Energy ::           -4.157700374172
                                     Kinetic Energy ::           18.797109771309
                                   Potential Energy ::          -42.737598063635
                                      Virial (-V/T) ::            2.273626029937
                                        Core Energy ::          -40.725785866869
                                          XC Energy ::           -4.362365759096
                                     Coulomb Energy ::           21.147663333640
                       Total Pseudopotential Energy ::          -59.557247721538
                       Local Pseudopotential Energy ::          -61.258397535981
                    Nonlocal Pseudopotential Energy ::            1.701149814443
                                        Confinement ::            0.343520833596

 Orbital energies  State     L     Occupation   Energy[a.u.]          Energy[eV]

                       1     0          2.000      -1.085642          -29.541823

                       1     1          5.000      -0.397283          -10.810627


 Total Electron Density at R=0:                                         0.000137
 Re-scaling the density matrix to get the right number of electrons
                  # Electrons              Trace(P)               Scaling factor
                           32                32.000                        1.000

 Number of electrons:                                                         32
 Number of occupied orbitals:                                                 16
 Number of molecular orbitals:                                               110

 Number of orbital functions:                                                110
 Number of independent orbital functions:                                    110


 SCF WAVEFUNCTION OPTIMIZATION

  Step     Update method      Time    Convergence         Total energy    Change
  ------------------------------------------------------------------------------
     1 NoMix/Diag. 0.20E+00    0.7     0.45307410      -102.9466086019 -1.03E+02
     2 Broy./Diag. 0.20E+00    0.9     0.06546917       -98.9949020110  3.95E+00
     3 Broy./Diag. 0.20E+00    0.9     0.08009921      -101.4039029933 -2.41E+00
     4 Broy./Diag. 0.20E+00    0.9     0.00654368      -102.8128253605 -1.41E+00
     5 Broy./Diag. 0.20E+00    1.0     0.00280565      -102.6351656161  1.78E-01
     6 Broy./Diag. 0.20E+00    1.0     0.00028669      -102.6767298654 -4.16E-02
     7 Broy./Diag. 0.20E+00    1.0     0.00045623      -102.6850782099 -8.35E-03
     8 Broy./Diag. 0.20E+00    1.0     0.00011862      -102.6901167626 -5.04E-03
     9 Broy./Diag. 0.20E+00    1.0     0.00018601      -102.6873775660  2.74E-03
    10 Broy./Diag. 0.20E+00    1.0     0.00002194      -102.6863455722  1.03E-03
    11 Broy./Diag. 0.20E+00    1.0     0.00002710      -102.6870156094 -6.70E-04
    12 Broy./Diag. 0.20E+00    1.0     0.00001730      -102.6870948489 -7.92E-05
    13 Broy./Diag. 0.20E+00    1.0     0.00003607      -102.6869208129  1.74E-04
    14 Broy./Diag. 0.20E+00    1.0     0.00001053      -102.6867842097  1.37E-04
    15 Broy./Diag. 0.20E+00    1.0     0.00001263      -102.6867923710 -8.16E-06
    16 Broy./Diag. 0.20E+00    1.0     0.00000685      -102.6867942866 -1.92E-06
    17 Broy./Diag. 0.20E+00    1.0     0.00000833      -102.6868041423 -9.86E-06
    18 Broy./Diag. 0.20E+00    1.0     0.00000388      -102.6867950039  9.14E-06
    19 Broy./Diag. 0.20E+00    1.0     0.00000436      -102.6867813067  1.37E-05
    20 Broy./Diag. 0.20E+00    1.1     0.00000699      -102.6867839025 -2.60E-06
    21 Broy./Diag. 0.20E+00    1.0     0.00000369      -102.6867935111 -9.61E-06
    22 Broy./Diag. 0.20E+00    1.0     0.00000209      -102.6867891562  4.35E-06
    23 Broy./Diag. 0.20E+00    1.1     0.00000113      -102.6867812216  7.93E-06
    24 Broy./Diag. 0.20E+00    1.0     0.00000027      -102.6867813508 -1.29E-07
    25 Broy./Diag. 0.20E+00    1.1     0.00000156      -102.6867855619 -4.21E-06
    26 Broy./Diag. 0.20E+00    1.1     0.00000172      -102.6867870128 -1.45E-06
    27 Broy./Diag. 0.20E+00    1.0     0.00000082      -102.6867862540  7.59E-07
    28 Broy./Diag. 0.20E+00    1.0     0.00000024      -102.6867850934  1.16E-06
    29 Broy./Diag. 0.20E+00    1.1     0.00000038      -102.6867845202  5.73E-07
    30 Broy./Diag. 0.20E+00    1.0     0.00000004      -102.6867848392 -3.19E-07

  *** SCF run converged in    30 steps ***


  Electronic density on regular grids:        -32.0000000027       -0.0000000027
  Core density on regular grids:               32.0000000000       -0.0000000000
  Total charge density on r-space grids:       -0.0000000027
  Total charge density g-space grids:          -0.0000000027

  Overlap energy of the core charge distribution:               0.00000002020806
  Self energy of the core charge distribution:               -270.58473881621660
  Core Hamiltonian energy:                                     76.70924083943029
  Hartree energy:                                             111.59441596250932
  Exchange-correlation energy:                                -20.40570284516651

  Total energy:                                              -102.68678483923543

  outer SCF iter =    1 RMS gradient =   0.44E-07 energy =       -102.6867848392
  outer SCF loop converged in   1 iterations or   30 steps


 !-----------------------------------------------------------------------------!
                     Mulliken Population Analysis

 #  Atom  Element  Kind  Atomic population                           Net charge
       1     C        1          3.605482                              0.394518
       2     F        2          7.098629                             -0.098629
       3     F        2          7.098629                             -0.098629
       4     F        2          7.098629                             -0.098629
       5     F        2          7.098629                             -0.098629
 # Total charge                             32.000000                  0.000000

 !-----------------------------------------------------------------------------!

 !-----------------------------------------------------------------------------!
                           Hirshfeld Charges

  #Atom  Element  Kind  Ref Charge     Population                    Net charge
      1       C      1       4.000          2.865                         1.135
      2       F      2       7.000          7.283                        -0.283
      3       F      2       7.000          7.283                        -0.283
      4       F      2       7.000          7.283                        -0.283
      5       F      2       7.000          7.283                        -0.283

  Total Charge                                                            0.002
 !-----------------------------------------------------------------------------!
  
 -------------------------------------------------------------------------------
 -                                                                             -
 -                          BANDSTRUCTURE CALCULATION                          -
 -                                                                             -
 -------------------------------------------------------------------------------
  
 Number of occupied molecular orbitals (MOs) = Number of occupied bands       16
 Number of unoccupied (= virtual) MOs = Number of unoccupied bands            94
 Number of Gaussian basis functions for MOs                                  110
  
 -------------------------------------------------------------------------------
 -                                                                             -
 -                                GW CALCULATION                               -
 -                                                                             -
 -------------------------------------------------------------------------------
  
 Input: Number of time/freq. points                                           30
 Input: ω_max for fitting Σ(iω) (eV)                                        10.0
 Input: Filter threshold for sparse tensor operations                    1.0E-07
 Input: Apply Hedin shift                                                      F
 Detected: Available memory per MPI process                               7.0 GB
 
 Input: RI-RS Tikhonov regularization                                   1.00E-08
 Input: AO grid hard cutoff radius                                        8.00 Å
 Input: MPI ranks per atom in Z_lP solve                                      -1
 Input: Keep sparsity in χ/G/W panels                                          T
 Input: GW flavour                                                          G0W0
 
 Input: RI-RS grid optimization activated                                      T
 Input: RS points per AO function                                            7.0
 Input: Cutoff radius for atomic clusters                                  3.0 Å
 Input: Maximum grid optimization iterations                                 300
 
 Input: AUTO_RI basis optimization activated:                                  T
 Input: AUTO_RI number of RI functions per AO function:                      4.0
 Input: AUTO_RI frontier orbital window:                                  5.0 eV
 Input: AUTO_RI neighbor radius:                                           3.0 Å
 
 Cutoff radius for the truncated Coulomb operator in RI metric:            6.0 Å
 Regularization parameter of RI                                          0.0E+00
 Regularization parameter of minimax grids                               1.0E-06
 
 AUTO_RI| Number of automatic RI functions for χ, ε, W:                      440
 AUTO_RI| Total RI basis optimization time:                                0.7 s
 
 SCF direct band gap (eV)                                                  10.52
 Max. SCF eigval diff. (eV)                                               273.98
 E-Range for minimax grid                                                  26.04
 Number of Padé parameters for analytic continuation:                         16
 
 RI-RS basis radii (Å):
     Kind  Elem     r_AO (Å)     r_RI (Å)
        1    C        12.2076        7.7208
        2    F         9.6839        6.1281
 
 Started RI-RS grid optimization
 RI-RS grid initial normalized error                          1.950876126295E-03
 RI-RS grid optimization completed, execution time:                      103.8 s
 Normalized 3C error:                                                    1.2E-08
 Maximum absolute 3C error:                                              4.5E-04
 Optimized points outside molecular Voronoi cells:                            78 / 770
 Total grid points used for RI-RS:                                           770
 
 RI-RS grid row-blocks of ϕ_μ(r_l)                                            25
 RI-RS grid points per block (max)                                            32
 
 Percentage of non-zero matrix elements in ϕ_μ(r_l)                     100.00 %
 
 RI-RS memory estimate per MPI process:
   Available memory per process (system)                                 7.51 GB
   Required for Z_lP (dense upper bound; actual is sparser)              0.00 GB
   Required for χ, W, Σ panels (peak per panel step)                     0.00 GB
   Required for Z_lP solve peak (D_local+ϕ, worst-case atom)             0.01 GB
   Worst-case local-grid number of grid points:                              770
   Worst-case memory D_local:                                            0.00 GB
 
 Started computing Z_lP
 Computed Z_lP (MPI rank 0) for atom          1 /  1,    Execution time    0.1 s
 Computed Z_lP (all MPI ranks) for all atoms,            Execution time    0.1 s

 Memory per MPI process after computing Z_lP:
 Available memory per MPI process                                7.5 GB
 Used memory per MPI process                                     1.0 GB
 Number of batches for χ, Σ matrices                                           1
 
 Percentage of non-zero matrix elements in Z_lP                         100.00 %
 Percentage of non-zero matrix elements in G_ll', χ_ll', W_ll'          100.00 %
 Percentage of non-zero matrix elements in χ_PQ for time point 1        100.00 %
 
 Computed χ(iτ,k=0) for time point            1 / 30,    Execution time    0.0 s
 Computed χ(iτ,k=0) for time point            2 / 30,    Execution time    0.0 s
 Computed χ(iτ,k=0) for time point            3 / 30,    Execution time    0.0 s
 Computed χ(iτ,k=0) for time point            4 / 30,    Execution time    0.0 s
 Computed χ(iτ,k=0) for time point            5 / 30,    Execution time    0.0 s
 Computed χ(iτ,k=0) for time point            6 / 30,    Execution time    0.0 s
 Computed χ(iτ,k=0) for time point            7 / 30,    Execution time    0.0 s
 Computed χ(iτ,k=0) for time point            8 / 30,    Execution time    0.0 s
 Computed χ(iτ,k=0) for time point            9 / 30,    Execution time    0.0 s
 Computed χ(iτ,k=0) for time point           10 / 30,    Execution time    0.0 s
 Computed χ(iτ,k=0) for time point           11 / 30,    Execution time    0.0 s
 Computed χ(iτ,k=0) for time point           12 / 30,    Execution time    0.0 s
 Computed χ(iτ,k=0) for time point           13 / 30,    Execution time    0.0 s
 Computed χ(iτ,k=0) for time point           14 / 30,    Execution time    0.0 s
 Computed χ(iτ,k=0) for time point           15 / 30,    Execution time    0.0 s
 Computed χ(iτ,k=0) for time point           16 / 30,    Execution time    0.0 s
 Computed χ(iτ,k=0) for time point           17 / 30,    Execution time    0.0 s
 Computed χ(iτ,k=0) for time point           18 / 30,    Execution time    0.0 s
 Computed χ(iτ,k=0) for time point           19 / 30,    Execution time    0.0 s
 Computed χ(iτ,k=0) for time point           20 / 30,    Execution time    0.0 s
 Computed χ(iτ,k=0) for time point           21 / 30,    Execution time    0.0 s
 Computed χ(iτ,k=0) for time point           22 / 30,    Execution time    0.0 s
 Computed χ(iτ,k=0) for time point           23 / 30,    Execution time    0.0 s
 Computed χ(iτ,k=0) for time point           24 / 30,    Execution time    0.0 s
 Computed χ(iτ,k=0) for time point           25 / 30,    Execution time    0.0 s
 Computed χ(iτ,k=0) for time point           26 / 30,    Execution time    0.0 s
 Computed χ(iτ,k=0) for time point           27 / 30,    Execution time    0.0 s
 Computed χ(iτ,k=0) for time point           28 / 30,    Execution time    0.0 s
 Computed χ(iτ,k=0) for time point           29 / 30,    Execution time    0.0 s
 Computed χ(iτ,k=0) for time point           30 / 30,    Execution time    0.0 s
 
 Computed W(iτ),                                         Execution time    0.2 s
 
 Computed Σ^x(k=0),                                      Execution time    0.0 s
 
 Computed Σ^c(iτ) for time point              1 / 30,    Execution time    0.0 s
 Computed Σ^c(iτ) for time point              2 / 30,    Execution time    0.0 s
 Computed Σ^c(iτ) for time point              3 / 30,    Execution time    0.0 s
 Computed Σ^c(iτ) for time point              4 / 30,    Execution time    0.0 s
 Computed Σ^c(iτ) for time point              5 / 30,    Execution time    0.0 s
 Computed Σ^c(iτ) for time point              6 / 30,    Execution time    0.0 s
 Computed Σ^c(iτ) for time point              7 / 30,    Execution time    0.0 s
 Computed Σ^c(iτ) for time point              8 / 30,    Execution time    0.0 s
 Computed Σ^c(iτ) for time point              9 / 30,    Execution time    0.0 s
 Computed Σ^c(iτ) for time point             10 / 30,    Execution time    0.0 s
 Computed Σ^c(iτ) for time point             11 / 30,    Execution time    0.0 s
 Computed Σ^c(iτ) for time point             12 / 30,    Execution time    0.0 s
 Computed Σ^c(iτ) for time point             13 / 30,    Execution time    0.0 s
 Computed Σ^c(iτ) for time point             14 / 30,    Execution time    0.0 s
 Computed Σ^c(iτ) for time point             15 / 30,    Execution time    0.0 s
 Computed Σ^c(iτ) for time point             16 / 30,    Execution time    0.0 s
 Computed Σ^c(iτ) for time point             17 / 30,    Execution time    0.0 s
 Computed Σ^c(iτ) for time point             18 / 30,    Execution time    0.0 s
 Computed Σ^c(iτ) for time point             19 / 30,    Execution time    0.0 s
 Computed Σ^c(iτ) for time point             20 / 30,    Execution time    0.0 s
 Computed Σ^c(iτ) for time point             21 / 30,    Execution time    0.0 s
 Computed Σ^c(iτ) for time point             22 / 30,    Execution time    0.0 s
 Computed Σ^c(iτ) for time point             23 / 30,    Execution time    0.0 s
 Computed Σ^c(iτ) for time point             24 / 30,    Execution time    0.0 s
 Computed Σ^c(iτ) for time point             25 / 30,    Execution time    0.0 s
 Computed Σ^c(iτ) for time point             26 / 30,    Execution time    0.0 s
 Computed Σ^c(iτ) for time point             27 / 30,    Execution time    0.0 s
 Computed Σ^c(iτ) for time point             28 / 30,    Execution time    0.0 s
 Computed Σ^c(iτ) for time point             29 / 30,    Execution time    0.0 s
 Computed Σ^c(iτ) for time point             30 / 30,    Execution time    0.0 s

 *** WARNING in post_scf_bandstructure_utils.F:3161 :: G0W0 reorders the   ***
 *** empty levels: the SCF conduction band minimum (SCF LUMO) is level 17, ***
 *** whereas the G0W0 conduction band minimum (G0W0 LUMO) is level 18. The ***
 *** SCF and G0W0 band edges printed below therefore belong to different   ***
 *** orbitals; see the eigenvalues in the file bandstructure_SCF_and_G0W0. ***

 
 SCF valence band maximum (eV):                                          -10.407
 SCF conduction band minimum (eV):                                         0.113
 SCF indirect band gap (eV):                                              10.520
 SCF direct band gap (eV):                                                10.520
 
 G0W0 valence band maximum (eV):                                         -14.687
 G0W0 conduction band minimum (eV):                                        2.158
 G0W0 indirect band gap (eV):                                             16.845
 G0W0 direct band gap (eV):                                               16.845
 
 Hartree-Fock with SCF orbitals valence band maximum (eV):               -18.615
 Hartree-Fock with SCF orbitals conduction band minimum (eV)               2.409
 Hartree-Fock with SCF orbitals indirect band gap (eV):                   21.024
 Hartree-Fock with SCF orbitals direct band gap (eV):                     21.024

 ENERGY| Total FORCE_EVAL ( QS ) energy [hartree]           -102.686784839235429

 -------------------------------------------------------------------------------
 -                                                                             -
 -                                DBCSR STATISTICS                             -
 -                                                                             -
 -------------------------------------------------------------------------------
 COUNTER                                    TOTAL       BLAS       SMM       ACC
 flops    26 x    26 x    86              2906800       0.0%    100.0%      0.0%     
 flops    32 x    26 x    86              5724160       0.0%    100.0%      0.0%     
 flops    22 x    22 x    14              6098400       0.0%    100.0%      0.0%     
 flops    26 x    32 x    86             14310400       0.0%    100.0%      0.0%     
 flops    80 x    80 x    26             27622400       0.0%    100.0%      0.0%     
 flops    32 x    32 x    86             28180480       0.0%    100.0%      0.0%     
 flops    86 x    80 x    26             29694080       0.0%    100.0%      0.0%     
 flops    80 x    86 x    26             29694080       0.0%    100.0%      0.0%     
 flops    80 x    90 x    26             30700800       0.0%    100.0%      0.0%     
 flops    90 x    80 x    26             31075200       0.0%    100.0%      0.0%     
 flops    86 x    86 x    26             31921136       0.0%    100.0%      0.0%     
 flops    86 x    90 x    26             33003360       0.0%    100.0%      0.0%     
 flops    26 x    80 x    80             33280000       0.0%    100.0%      0.0%     
 flops    90 x    86 x    26             33405840       0.0%    100.0%      0.0%     
 flops    90 x    90 x    26             34538400       0.0%    100.0%      0.0%     
 flops    26 x    80 x    86             35776000       0.0%    100.0%      0.0%     
 flops    26 x    86 x    80             35776000       0.0%    100.0%      0.0%     
 flops    26 x    90 x    80             37440000       0.0%    100.0%      0.0%     
 flops    26 x    86 x    86             38459200       0.0%    100.0%      0.0%     
 flops    26 x    90 x    86             40248000       0.0%    100.0%      0.0%     
 flops    26 x    80 x    26             48347520       0.0%    100.0%      0.0%     
 flops    26 x    86 x    26             51973584       0.0%    100.0%      0.0%     
 flops    26 x    26 x    80             54080000       0.0%    100.0%      0.0%     
 flops    26 x    90 x    26             54269280       0.0%    100.0%      0.0%     
 flops    92 x    80 x    26             63531520       0.0%    100.0%      0.0%     
 flops    80 x    92 x    26             63914240       0.0%    100.0%      0.0%     
 flops    92 x    86 x    26             68296384       0.0%    100.0%      0.0%     
 flops    86 x    92 x    26             68707808       0.0%    100.0%      0.0%     
 flops    92 x    90 x    26             70611840       0.0%    100.0%      0.0%     
 flops    90 x    92 x    26             71903520       0.0%    100.0%      0.0%     
 flops    26 x    80 x    92             76544000       0.0%    100.0%      0.0%     
 flops    26 x    92 x    80             76544000       0.0%    100.0%      0.0%     
 flops    26 x    92 x    86             82284800       0.0%    100.0%      0.0%     
 flops    26 x    86 x    92             82284800       0.0%    100.0%      0.0%     
 flops    26 x    90 x    92             86112000       0.0%    100.0%      0.0%     
 flops    22 x    22 x    26             89094720       0.0%    100.0%      0.0%     
 flops    26 x    22 x    26            110320496       0.0%    100.0%      0.0%     
 flops    26 x    92 x    26            110950528       0.0%    100.0%      0.0%     
 flops    26 x    26 x    92            124384000       0.0%    100.0%      0.0%     
 flops    80 x    80 x    32            137625600       0.0%    100.0%      0.0%     
 flops    92 x    92 x    26            147002752       0.0%    100.0%      0.0%     
 flops    80 x    86 x    32            147507200       0.0%    100.0%      0.0%     
 flops    86 x    80 x    32            147947520       0.0%    100.0%      0.0%     
 flops    80 x    90 x    32            153907200       0.0%    100.0%      0.0%     
 flops    90 x    80 x    32            154828800       0.0%    100.0%      0.0%     
 flops    86 x    86 x    32            158570240       0.0%    100.0%      0.0%     
 flops    32 x    80 x    80            163840000       0.0%    100.0%      0.0%     
 flops    86 x    90 x    32            165450240       0.0%    100.0%      0.0%     
 flops    90 x    86 x    32            165945600       0.0%    100.0%      0.0%     
 flops    90 x    90 x    32            173145600       0.0%    100.0%      0.0%     
 flops    26 x    92 x    92            176051200       0.0%    100.0%      0.0%     
 flops    32 x    80 x    86            176128000       0.0%    100.0%      0.0%     
 flops    32 x    86 x    80            176128000       0.0%    100.0%      0.0%     
 flops    32 x    90 x    80            184320000       0.0%    100.0%      0.0%     
 flops    32 x    86 x    86            189337600       0.0%    100.0%      0.0%     
 flops    32 x    90 x    86            198144000       0.0%    100.0%      0.0%     
 flops    26 x    80 x    32            234956800       0.0%    100.0%      0.0%     
 flops    32 x    80 x    26            238817280       0.0%    100.0%      0.0%     
 flops    26 x    86 x    32            252149248       0.0%    100.0%      0.0%     
 flops    26 x    22 x    22            252309200       0.0%    100.0%      0.0%     
 flops    32 x    86 x    26            256442368       0.0%    100.0%      0.0%     
 flops    32 x    26 x    80            258918400       0.0%    100.0%      0.0%     
 flops    26 x    90 x    32            264176640       0.0%    100.0%      0.0%     
 flops    26 x    32 x    80            266240000       0.0%    100.0%      0.0%     
 flops    32 x    90 x    26            268070400       0.0%    100.0%      0.0%     
 flops    26 x    26 x    22            290598880       0.0%    100.0%      0.0%     
 flops    80 x    92 x    32            315596800       0.0%    100.0%      0.0%     
 flops    92 x    80 x    32            316538880       0.0%    100.0%      0.0%     
 flops    86 x    92 x    32            339266560       0.0%    100.0%      0.0%     
 flops    92 x    86 x    32            339266560       0.0%    100.0%      0.0%     
 flops    92 x    90 x    32            353986560       0.0%    100.0%      0.0%     
 flops    90 x    92 x    32            355046400       0.0%    100.0%      0.0%     
 flops    32 x    80 x    92            376832000       0.0%    100.0%      0.0%     
 flops    32 x    92 x    80            376832000       0.0%    100.0%      0.0%     
 flops    32 x    92 x    86            405094400       0.0%    100.0%      0.0%     
 flops    32 x    86 x    92            405094400       0.0%    100.0%      0.0%     
 flops    32 x    90 x    92            423936000       0.0%    100.0%      0.0%     
 flops    22 x    22 x    32            475016960       0.0%    100.0%      0.0%     
 flops    32 x    22 x    26            533232128       0.0%    100.0%      0.0%     
 flops    26 x    22 x    32            534916096       0.0%    100.0%      0.0%     
 flops    26 x    92 x    32            539022848       0.0%    100.0%      0.0%     
 flops    32 x    92 x    26            547289600       0.0%    100.0%      0.0%     
 flops    32 x    26 x    92            593981440       0.0%    100.0%      0.0%     
 flops    26 x    32 x    92            612352000       0.0%    100.0%      0.0%     
 flops    92 x    92 x    32            725872640       0.0%    100.0%      0.0%     
 flops    32 x    92 x    92            866713600       0.0%    100.0%      0.0%     
 flops    32 x    80 x    32           1160151040       0.0%    100.0%      0.0%     
 flops    32 x    22 x    22           1242137600       0.0%    100.0%      0.0%     
 flops    32 x    86 x    32           1244520448       0.0%    100.0%      0.0%     
 flops    32 x    32 x    80           1274675200       0.0%    100.0%      0.0%     
 flops    32 x    90 x    32           1303695360       0.0%    100.0%      0.0%     
 flops    26 x    32 x    22           1431372800       0.0%    100.0%      0.0%     
 flops    32 x    26 x    22           1446784768       0.0%    100.0%      0.0%     
 flops    32 x    22 x    32           2604687360       0.0%    100.0%      0.0%     
 flops    32 x    92 x    32           2663448576       0.0%    100.0%      0.0%     
 flops    32 x    32 x    92           2924216320       0.0%    100.0%      0.0%     
 flops    32 x    32 x    22           7130202112       0.0%    100.0%      0.0%     
 flops inhomo. stacks                  5831475200     100.0%      0.0%      0.0%
 flops total                        47.105823E+09      12.4%     87.6%      0.0%
 flops max/rank                      2.459683E+09      10.9%     89.1%      0.0%
 matmuls inhomo. stacks                     26575     100.0%      0.0%      0.0%
 matmuls total                             546116       4.9%     95.1%      0.0%
 number of processed stacks                239542       2.4%     97.6%      0.0%
 average stack size                                     4.6       2.2       0.0
 marketing flops                    77.156311E+09
 -------------------------------------------------------------------------------
 # multiplications                            516
 max memory usage/rank              20.232495E+09
 # max total images/rank                        2
 # max 3D layers                                1
 # MPI messages exchanged                  214656
 MPI messages size (bytes):
  total size                         5.939341E+09
  min size                           0.000000E+00
  max size                         206.912000E+03
  average size                      27.669113E+03
 MPI breakdown and total messages size (bytes):
             size <=      128               98199                        0
       128 < size <=     8192               10611                 45592800
      8192 < size <=    32768               59074               1352646048
     32768 < size <=   131072               27200               1687998560
    131072 < size <=  4194304               19572               2853103680
   4194304 < size <= 16777216                   0                        0
  16777216 < size                               0                        0
 -------------------------------------------------------------------------------

 *** WARNING in dbcsr_mm.F:301 :: Using a non-square number of MPI ranks ***
 *** might lead to poor performance. Used ranks: 32 Suggested: 36 64     ***

 -------------------------------------------------------------------------------
 -                                                                             -
 -                      DBCSR MESSAGE PASSING PERFORMANCE                      -
 -                                                                             -
 -------------------------------------------------------------------------------
 ROUTINE             CALLS      AVE VOLUME [Bytes]
 MP_Bcast               98                     12.
 MP_Allreduce         2378                     13.
 MP_Alltoall          4040                  10527.
 MP_ISend            18934                  15804.
 MP_IRecv            15658                  14997.
 -------------------------------------------------------------------------------

 -------------------------------------------------------------------------------
 -                                                                             -
 -                                GRID STATISTICS                              -
 -                                                                             -
 -------------------------------------------------------------------------------
 LP    KERNEL             BACKEND                              COUNT     PERCENT
 4     collocate ortho    CPU                                   1395      49.73%
 4     integrate ortho    CPU                                   1395      49.73%
 0     collocate general  CPU                                     10       0.36%
 0     integrate general  CPU                                      5       0.18%
 -------------------------------------------------------------------------------

 -------------------------------------------------------------------------------
 -                                                                             -
 -                          OFFLOAD MEMPOOL STATISTICS                         -
 -                                                                             -
 -------------------------------------------------------------------------------
 Memory consumption                Number of allocations  Used [MiB]  Size [MiB]
 Host                                                  7          48    22082302
 -------------------------------------------------------------------------------

 MEMORY| Estimated peak process memory [MiB]                                1097

 -------------------------------------------------------------------------------
 -                                                                             -
 -                         MESSAGE PASSING PERFORMANCE                         -
 -                                                                             -
 -------------------------------------------------------------------------------

 ROUTINE             CALLS      AVE VOLUME [Bytes]
 MP_Group                6
 MP_Bcast              322                 261602.
 MP_Allreduce         2405                   4625.
 MP_Sync                40
 MP_Alltoall           690               29230349.
 MP_SendRecv          2883                 132779.
 MP_ISendRecv         2883                 132779.
 MP_Wait              6185
 MP_comm_split          39
 MP_ISend             2794                 908531.
 MP_IRecv             2794                 908434.
 -------------------------------------------------------------------------------


 -------------------------------------------------------------------------------
 -                                                                             -
 -                           R E F E R E N C E S                               -
 -                                                                             -
 -------------------------------------------------------------------------------
 
 CP2K version 2026.2 (Development Version), the CP2K developers group (2026).
 CP2K is freely available from https://www.cp2k.org/ .
 
 M. Iannuzzi, J. Wilhelm, F. Stein, A. Bussy, H. Elgabarty, D. Golze, A. Hehn, 
 M. Graml, S. Marek, B. Sertcan Gökmen, C. Schran, H. Forbert, R. Z. 
 Khaliullin, A. Kozhevnikov, M. Taillefumier, R. Meli, V. V. Rybkin, M. Brehm, 
 R. Schade, O. Schütt, J. V. Pototschnig, H. Mirhosseini, A. Knüpfer, D. Marx, 
 M. Krack, J. Hutter, T. D. Kühne.
 J. Phys. Chem. B 130, 1237-1310 (2026).
 The CP2K Program Package Made Simple.
 https://doi.org/10.1021/acs.jpcb.5c05851

 M. Graml, K. Zollner, D. Hernangómez-Pérez, P. E. Faria Junior, J. Wilhelm.
 J. Chem. Theory Comput. 20, 2202-2208 (2024).
 Low-scaling GW algorithm applied to twisted transition-metal dichalcogenide 
 heterobilayers.
 https://doi.org/10.1021/acs.jctc.3c01230

 T. D. Kühne, M. Iannuzzi, M. Del Ben, V. V. Rybkin, P. Seewald, F. Stein, T. 
 Laino, R. Z. Khaliullin, O. Schütt, F. Schiffmann, D. Golze, J. Wilhelm, S. 
 Chulkov, M. H. Bani-Hashemian, V. Weber, U. Borstnik, M. Taillefumier, A. S. 
 Jakobovits, A. Lazzaro, H. Pabst, T. Müller, R. Schade, M. Guidon, S. 
 Andermatt, N. Holmberg, G. K. Schenter, A. Hehn, A. Bussy, F. Belleflamme, G. 
 Tabacchi, A. Glöß, M. Lass, I. Bethune, C. J. Mundy, C. Plessl, M. Watkins, 
 J. VandeVondele, M. Krack, J. Hutter.
 J. Chem. Phys. 152, 194103 (2020).
 CP2K: An electronic structure and molecular dynamics software package - 
 Quickstep: Efficient and accurate electronic structure calculations.
 https://doi.org/10.1063/5.0007045

 O. Schuett, P. Messmer, J. Hutter, J. VandeVondele.
 Electronic Structure Calculations on Graphics Processing Units, 173-190 (2016).
 GPU-Accelerated Sparse Matrix-Matrix Multiplication for Linear Scaling Density 
 Functional Theory.
 https://doi.org/10.1002/9781118670712.ch8

 U. Borstnik, J. VandeVondele, V. Weber, J. Hutter.
 Parallel Comput. 40, 47-58 (2014).
 Sparse matrix multiplication: The distributed block-compressed sparse row 
 library.
 https://doi.org/10.1016/j.parco.2014.03.012

 J. VandeVondele, J. Hutter.
 J. Chem. Phys. 127, 114105 (2007).
 Gaussian basis sets for accurate calculations on molecular systems in gas and 
 condensed phases.
 https://doi.org/10.1063/1.2770708

 J. VandeVondele, M. Krack, F. Mohamed, M. Parrinello, T. Chassaing, J. Hutter.
 Comput. Phys. Commun. 167, 103-128 (2005).
 QUICKSTEP: Fast and accurate density functional calculations using a mixed 
 Gaussian and plane waves approach.
 https://doi.org/10.1016/j.cpc.2004.12.014

 M. Krack.
 Theor. Chem. Acc. 114, 145-152 (2005).
 Pseudopotentials for H to Kr optimized for gradient-corrected 
 exchange-correlation functionals.
 https://doi.org/10.1007/s00214-005-0655-y

 M. Frigo, S. G. Johnson.
 Proc. IEEE 93, 216-231 (2005).
 The design and implementation of FFTW3.
 https://doi.org/10.1109/JPROC.2004.840301

 C. Hartwigsen, S. Goedecker, J. Hutter.
 Phys. Rev. B 58, 3641-3662 (1998).
 Relativistic separable dual-space Gaussian pseudopotentials from H to Rn.
 https://doi.org/10.1103/PhysRevB.58.3641

 G. Lippert, J. Hutter, M. Parrinello.
 Mol. Phys. 92, 477-487 (1997).
 A hybrid Gaussian and plane wave density functional scheme.
 https://doi.org/10.1080/002689797170220

 S. Goedecker, M. Teter, J. Hutter.
 Phys. Rev. B 54, 1703-1710 (1996).
 Separable dual-space Gaussian pseudopotentials.
 https://doi.org/10.1103/PhysRevB.54.1703

 J. P. Perdew, K. Burke, M. Ernzerhof.
 Phys. Rev. Lett. 77, 3865-3868 (1996).
 Generalized gradient approximation made simple.
 https://doi.org/10.1103/PhysRevLett.77.3865

 P. E. Blöchl.
 J. Chem. Phys. 103, 7422-7428 (1995).
 Electrostatic decoupling of periodic images of plane‐wave‐expanded 
 densities and derived atomic point charges.
 https://doi.org/10.1063/1.470314

 R. H. Byrd, P. H. Lu, J. Nocedal, C. Y. Zhu.
 SIAM J. Sci. Comput. 16, 1190-1208 (1995).
 A Limited Memory Algorithm for Bound Constrained Optimization.
 https://doi.org/10.1137/0916069

 C. G. Broyden.
 Math. Comput. 19, 577-593 (1965).
 A class of methods for solving nonlinear simultaneous equations.
 https://doi.org/10.1090/S0025-5718-1965-0198670-6


 -------------------------------------------------------------------------------
 -                                                                             -
 -                                T I M I N G                                  -
 -                                                                             -
 -------------------------------------------------------------------------------
 SUBROUTINE                       CALLS  ASD         SELF TIME        TOTAL TIME
                                MAXIMUM       AVERAGE  MAXIMUM  AVERAGE  MAXIMUM
 CP2K                                 1  1.0    0.027    0.036  138.298  138.298
 qs_energies                          1  2.0    0.001    0.001  137.872  137.873
 qs_energies_properties               1  3.0    0.000    0.000  106.752  106.753
 post_scf_bandstructure               1  4.0    0.000    0.000  106.752  106.753
 run_gw                               1  5.0    0.000    0.000  106.705  106.718
 gw_calc_ri_rs_non_periodic           1  6.0    0.001    0.001  105.459  105.592
 mp_sum_d                          1096  5.7   88.952  105.044   88.952  105.044
 optimize_ri_rs_grid                  1  7.0    0.000    0.000  104.598  104.719
 rirs_grid_LBFGS                      1  8.0    0.456    2.771  104.375  104.489
 evaluate_rirs_grid_cluster         301  9.0    1.087    7.205   15.380  100.610
 rirs_cluster_gradient_products     301 10.0    5.049   33.184    5.049   33.184
 scf_env_do_scf                       1  3.0    0.000    0.001   30.554   30.557
 scf_env_do_scf_inner_loop           30  4.0    0.002    0.004   30.553   30.557
 qs_ks_build_kohn_sham_matrix        31  7.0    0.006    0.008   18.908   18.936
 rirs_cluster_gradient_coordina     301 10.0    2.797   18.815    2.797   18.815
 qs_ks_update_qs_env                 30  5.0    0.000    0.000   18.701   18.728
 rebuild_ks_matrix                   30  6.0    0.000    0.001   18.698   18.725
 fft_wrap_pw1pw2                    612 10.0    0.012    0.014   15.467   16.057
 fft_wrap_pw1pw2_300                364 11.4    0.995    1.197   14.896   15.582
 rirs_cluster_D_ll                  301 10.0    2.105   13.625    2.105   13.625
 rirs_cluster_residual              301 10.0    1.834   12.399    1.834   12.399
 qs_vxc_create                       31  8.0    0.001    0.001   12.290   12.394
 xc_vxc_pw_create                    30  9.0    0.161    0.202   12.290   12.393
 fft3d_ps                           612 12.0    6.146    6.502   11.050   11.715
 xc_pw_derive                       180 11.0    0.002    0.002    9.009    9.504
 rirs_cluster_d_lP                  301 10.0    1.382    8.901    1.382    8.901
 rirs_cluster_AO_products           301 10.0    1.127    7.700    1.127    7.700
 qs_rho_update_rho_low               31  5.0    0.000    0.000    6.976    6.978
 calculate_rho_elec                  31  6.0    0.098    0.104    6.976    6.977
 xc_pw_divergence                    30 10.0    0.001    0.001    5.961    6.478
 xc_rho_set_and_dset_create          30 10.0    0.213    0.318    5.983    6.327
 density_rs2pw                       31  7.0    0.002    0.003    4.953    6.149
 gspace_mixing                       29  5.0    0.092    0.098    4.850    4.851
 mp_alltoall_z22v                   612 14.0    3.318    4.215    3.318    4.215
 broyden_mixing                      29  6.0    3.436    3.488    3.536    3.546
 transfer_rs2pw                     157  8.0    0.003    0.004    2.147    3.364
 sum_up_and_integrate                31  8.0    0.001    0.001    3.243    3.273
 mp_waitany                        2794 11.4    2.059    3.235    2.059    3.235
 integrate_v_rspace                  31  9.0    0.001    0.001    3.187    3.220
 potential_pw2rs                     31 10.0    0.006    0.007    3.146    3.154
 x_to_yz                            335 13.4    1.003    1.418    2.718    3.059
 yz_to_x                            277 12.6    0.567    0.626    2.170    2.946
 transfer_rs2pw_300                  33  8.9    0.329    0.382    1.682    2.885
 grid_collocate_task_list            31  7.0    1.796    2.829    1.796    2.829
 -------------------------------------------------------------------------------

 The number of warnings for this run is : 2
 
 -------------------------------------------------------------------------------
  **** **** ******  **  PROGRAM ENDED AT                 2026-09-18 14:56:16.461
 ***** ** ***  *** **   PROGRAM RAN ON                                  n2cn1167
 **    ****   ******    PROGRAM RAN BY                                  eprop2d1
 ***** **    ** ** **   PROGRAM PROCESS ID                                406105
  **** **  *******  **  PROGRAM STOPPED IN /scratch/hpc-prf-metdyn/eprop2d1_Jan/
                                           53_benchmark_RI_opt/129_GW100_Si293_A
                                           O_frontier_optimization_coopfst/follo
                                           wups/figure1_missing/gw100/35_CF4/dzv
                                           p_t1/initial
