 DBCSR| CPU Multiplication driver                                           XSMM (U)
 DBCSR| Multrec recursion limit                                              512 (U)
 DBCSR| Multiplication stack size                                           1000 (D)
 DBCSR| Maximum elements for images                                    UNLIMITED (U)
 DBCSR| Multiplicative factor virtual images                                   1 (U)
 DBCSR| Use multiplication densification                                       T (D)
 DBCSR| Multiplication size stacks                                             3 (U)
 DBCSR| Use memory pool for CPU allocation                                     F (U)
 DBCSR| Number of 3D layers                                               SINGLE (U)
 DBCSR| Use MPI memory allocation                                              F (U)
 DBCSR| Use RMA algorithm                                                      F (U)
 DBCSR| Use Communication thread                                               T (U)
 DBCSR| Communication thread load                                             57 (D)
 DBCSR| MPI: My process id                                                     6
 DBCSR| MPI: Number of processes                                              13
 DBCSR| OMP: Current number of threads                                         9
 DBCSR| OMP: Max number of threads                                             9
 DBCSR| Split modifier for TAS multiplication algorithm                  1.0E+00 (U)


  **** **** ******  **  PROGRAM STARTED AT               2026-10-03 12:01:10.147
 ***** ** ***  *** **   PROGRAM STARTED ON                              n2cn0521
 **    ****   ******    PROGRAM STARTED BY                              eprop2d1
 ***** **    ** ** **   PROGRAM PROCESS ID                               1223766
  **** **  *******  **  PROGRAM STARTED IN /scratch/hpc-prf-metdyn/eprop2d1_Jan/
                                           53_benchmark_RI_opt/418_gw100_fig5_fu
                                           ll_epsfilter_1e12_20261002/calculatio
                                           ns/rc3p0/ri4_rs08/24_C2H4

 CP2K| version string:                 CP2K version 2026.2 (Development Version)
 CP2K| source code revision number:                                   0671c5aa6c
 CP2K| cp2kflags: omp libint fftw3 libxc parallel scalapack openblas            
 CP2K| is freely available from                            https://www.cp2k.org/
 CP2K| Program compiled at                                   2026-09-20 09:25:26
 CP2K| Program compiled on                                              n2login5
 CP2K| Program compiled for                                               x86_64
 CP2K| Data directory path    /scratch/hpc-prf-metdyn/eprop2d1_Jan/53_benchmark_
 CP2K| Input file name                                                 input.inp
 
 eprop2d1@n2cn0521 has created rank and process                      0   1223766
 eprop2d1@n2cn0521 has created rank and process                      1   1223767
 eprop2d1@n2cn0521 has created rank and process                      2   1223768
 eprop2d1@n2cn0521 has created rank and process                      3   1223769
 eprop2d1@n2cn0521 has created rank and process                      4   1223770
 eprop2d1@n2cn0521 has created rank and process                      5   1223771
 eprop2d1@n2cn0521 has created rank and process                      6   1223772
 
 eprop2d1@n2cn0521 is running                                        7 processes

 GLOBAL| Force Environment number                                              1
 GLOBAL| Basis set file name            /scratch/hpc-prf-metdyn/eprop2d1_Jan/53_
 GLOBAL| Potential file name            /scratch/hpc-prf-metdyn/eprop2d1_Jan/53_
 GLOBAL| MM Potential file name                                     MM_POTENTIAL
 GLOBAL| Coordinate file name                                      __STD_INPUT__
 GLOBAL| Method name                                                        CP2K
 GLOBAL| Project name                                             g418_c408_m024
 GLOBAL| Run type                                                         ENERGY
 GLOBAL| FFT library                                                       FFTW3
 GLOBAL| Diagonalization library                                       ScaLAPACK
 GLOBAL| Cholesky decomposition library                                ScaLAPACK
 GLOBAL| DGEMM library                                                      BLAS
 GLOBAL| Direct generalized diagonalization requested                          F
 GLOBAL| Orthonormality check for eigenvectors                          DISABLED
 GLOBAL| Matrix multiplication library                                 ScaLAPACK
 GLOBAL| All-to-all communication in single precision                          F
 GLOBAL| Grid backend                                                       AUTO
 GLOBAL| Global print level                                                  LOW
 GLOBAL| MPI I/O enabled                                                       T
 GLOBAL| Total number of message passing processes                             7
 GLOBAL| Number of distributed systems (nodes)                                 1
 GLOBAL| Number of threads for this process                                    9
 GLOBAL| This output is from process                                           0
 GLOBAL| OpenMP stack size per thread (OMP_STACKSIZE)                       512M
 GLOBAL| CPU model name                          AMD EPYC 7763 64-Core Processor

 MEMORY| system memory details [Kb]
 MEMORY|                        rank 0           min           max       average
 MEMORY| MemTotal            263897584     263897584     263897584     263897584
 MEMORY| MemFree             239494316     239494064     239494316     239494100
 MEMORY| Buffers                309872        309872        309872        309872
 MEMORY| Cached                7347264       7347260       7347264       7347260
 MEMORY| Slab                  1722788       1722788       1722804       1722801
 MEMORY| SReclaimable           345832        345832        345832        345832
 MEMORY| MemLikelyFree       247497284     247497028     247497284     247497064


 GENERATE|  Preliminary Number of Bonds generated:                             0
 GENERATE|  Achieved consistency in connectivity generation.

 *******************************************************************************
 *******************************************************************************
 **                                                                           **
 **     #####                         ##              ##                      **
 **    ##   ##            ##          ##              ##                      **
 **   ##     ##                       ##            ######                    **
 **   ##     ##  ##   ##  ##   #####  ##  ##   ####   ##    #####    #####    **
 **   ##     ##  ##   ##  ##  ##      ## ##   ##      ##   ##   ##  ##   ##   **
 **   ##  ## ##  ##   ##  ##  ##      ####     ###    ##   ######   ######    **
 **    ##  ###   ##   ##  ##  ##      ## ##      ##   ##   ##       ##        **
 **     #######   #####   ##   #####  ##  ##  ####    ##    #####   ##        **
 **           ##                                                    ##        **
 **                                                                           **
 **                                                ... make the atoms dance   **
 **                                                                           **
 **            Copyright (C) by CP2K developers group (2000-2026)             **
 **                      J. Chem. Phys. 152, 194103 (2020)                    **
 **                                                                           **
 *******************************************************************************


 TOTAL NUMBERS AND MAXIMUM NUMBERS

  Total number of            - Atomic kinds:                                   2
                             - Atoms:                                          6
                             - Shell sets:                                     6
                             - Shells:                                        38
                             - Primitive Cartesian functions:                 38
                             - Cartesian basis functions:                    104
                             - Spherical basis functions:                     94

  Maximum angular momentum of- Orbital basis functions:                        3
                             - Local part of the GTH pseudopotential:          2
                             - Non-local part of the GTH pseudopotential:      0


 SCF PARAMETERS         Density guess:                                   RESTART
                        --------------------------------------------------------
                        max_scf:                                             500
                        max_scf_history:                                       0
                        max_diis:                                              4
                        --------------------------------------------------------
                        eps_scf:                                        1.00E-08
                        eps_scf_history:                                0.00E+00
                        eps_diis:                                       0.00E+00
                        eps_eigval:                                     1.00E-05
                        --------------------------------------------------------
                        level_shift [a.u.]:                             0.000000
                        --------------------------------------------------------
                        Outer loop SCF in use 
                        No variables optimised in outer loop
                        eps_scf                                         1.00E-08
                        max_scf                                               20
                        No outer loop optimization
                        step_size                                       5.00E-01

 Extrapolation method: initial_guess

 Number of electrons:                                                         12
 Number of occupied orbitals:                                                  6
 Number of molecular orbitals:                                                 6

 Number of orbital functions:                                                 94
 Number of independent orbital functions:                                     94


 SCF WAVEFUNCTION OPTIMIZATION

  ----------------------------------- OT ---------------------------------------
  Minimizer      : DIIS                : direct inversion
                                         in the iterative subspace
                                         using   7 DIIS vectors
                                         safer DIIS on
  Preconditioner : FULL_KINETIC        : inversion of T + eS
  Lattice FFT   : OFF
  Precond_solver : DEFAULT
  stepsize       :    0.15000000                  energy_gap     :    0.20000000
  eps_taylor     :   0.10000E-15                  max_taylor     :             4
  ----------------------------------- OT ---------------------------------------

  Step     Update method      Time    Convergence         Total energy    Change
  ------------------------------------------------------------------------------
  Decoupling Energy:                                              -0.0000000807
     1 OT DIIS     0.15E+00    1.6     8.3687E-09       -13.7251899955 -1.37E+01

  *** SCF run converged in     1 steps ***


  Electronic density on regular grids:        -12.0000000000        0.0000000000
  Core density on regular grids:               12.0000000000       -0.0000000000
  Total charge density on r-space grids:       -0.0000000000
  Total charge density g-space grids:          -0.0000000000

  Overlap energy of the core charge distribution:               0.00000254106452
  Self energy of the core charge distribution:                -32.31191168900799
  Core Hamiltonian energy:                                     10.31445793196228
  Hartree energy:                                              13.15096434399419
  Exchange-correlation energy:                                 -4.87870312355203

  Total energy:                                               -13.72518999553902

  outer SCF iter =    1 RMS gradient =   0.84E-08 energy =        -13.7251899955
  outer SCF loop converged in   1 iterations or    1 steps

  
 -------------------------------------------------------------------------------
 -                                                                             -
 -                          BANDSTRUCTURE CALCULATION                          -
 -                                                                             -
 -------------------------------------------------------------------------------
  
 Number of occupied molecular orbitals (MOs) = Number of occupied bands        6
 Number of unoccupied (= virtual) MOs = Number of unoccupied bands            88
 Number of Gaussian basis functions for MOs                                   94
  
 -------------------------------------------------------------------------------
 -                                                                             -
 -                                GW CALCULATION                               -
 -                                                                             -
 -------------------------------------------------------------------------------
  
 Input: Number of time/freq. points                                           30
 Input: ω_max for fitting Σ(iω) (eV)                                        10.0
 Input: Filter threshold for sparse tensor operations                    1.0E-12
 Input: Apply Hedin shift                                                      F
 Detected: Available memory per MPI process                              30.5 GB
 
 Input: RI-RS Tikhonov regularization                                   1.00E-04
 Input: AO grid hard cutoff radius                                        8.00 Å
 Input: MPI ranks per atom in Z_lP solve                                      -1
 Input: Keep sparsity in χ/G/W panels                                          T
 Input: GW flavour                                                          G0W0
 
 Input: RI-RS grid optimization activated                                      T
 Input: RS points per AO function                                            8.0
 Input: Cutoff radius for atomic clusters                                  3.0 Å
 Input: Maximum grid optimization iterations                                 300
 
 Input: AUTO_RI basis optimization activated:                                  T
 Input: AUTO_RI number of RI functions per AO function:                      4.0
 Input: AUTO_RI frontier orbital window:                                  5.0 eV
 Input: AUTO_RI neighbor radius:                                           3.0 Å
 
 Cutoff radius for the truncated Coulomb operator in RI metric:            7.0 Å
 Regularization parameter of RI                                          0.0E+00
 Regularization parameter of minimax grids                               1.0E-06
 
 AUTO_RI| Number of automatic RI functions for χ, ε, W:                      376
 AUTO_RI| Total RI basis optimization time:                                1.1 s
  Decoupling Energy:                                              -0.0000000807
 
 SCF direct band gap (eV)                                                   5.70
 Max. SCF eigval diff. (eV)                                               260.34
 E-Range for minimax grid                                                  45.71
 Number of Padé parameters for analytic continuation:                         16
 
 RI-RS basis radii (Å):
     Kind  Elem     r_AO (Å)     r_RI (Å)
        1    C        15.9835       10.1279
        2    H        13.9082        8.7963
 
 Started RI-RS grid optimization
 RI-RS grid initial normalized error                          1.135742172377E-02
 RI-RS grid optimization completed, execution time:                       53.1 s
 Normalized 3C error:                                                    2.5E-08
 Maximum absolute 3C error:                                              1.1E-03
 Optimized points outside molecular Voronoi cells:                           331 / 752
 Total grid points used for RI-RS:                                           752
 
 RI-RS grid row-blocks of ϕ_μ(r_l)                                            28
 RI-RS grid points per block (max)                                            32
 
 Percentage of non-zero matrix elements in ϕ_μ(r_l)                     100.00 %
 
 RI-RS memory estimate per MPI process:
   Available memory per process (system)                                35.86 GB
   Required for Z_lP (dense upper bound; actual is sparser)              0.00 GB
   Required for χ, W, Σ panels (peak per panel step)                     0.00 GB
   Required for Z_lP solve peak (D_local+ϕ, worst-case atom)             0.01 GB
   Worst-case local-grid number of grid points:                              752
   Worst-case memory D_local:                                            0.00 GB
 
 Started computing Z_lP
 Computed Z_lP (MPI rank 0) for atom          1 /  1,    Execution time    0.2 s
 Computed Z_lP (all MPI ranks) for all atoms,            Execution time    0.2 s

 Memory per MPI process after computing Z_lP:
 Available memory per MPI process                               35.8 GB
 Used memory per MPI process                                     1.5 GB
 Number of batches for χ, Σ matrices                                           1
 
 Percentage of non-zero matrix elements in Z_lP                         100.00 %
 Percentage of non-zero matrix elements in G_ll', χ_ll', W_ll'          100.00 %
 Percentage of non-zero matrix elements in χ_PQ for time point 1        100.00 %
 
 Computed χ(iτ,k=0) for time point            1 / 30,    Execution time    0.1 s
 Computed χ(iτ,k=0) for time point            2 / 30,    Execution time    0.0 s
 Computed χ(iτ,k=0) for time point            3 / 30,    Execution time    0.0 s
 Computed χ(iτ,k=0) for time point            4 / 30,    Execution time    0.0 s
 Computed χ(iτ,k=0) for time point            5 / 30,    Execution time    0.0 s
 Computed χ(iτ,k=0) for time point            6 / 30,    Execution time    0.0 s
 Computed χ(iτ,k=0) for time point            7 / 30,    Execution time    0.0 s
 Computed χ(iτ,k=0) for time point            8 / 30,    Execution time    0.0 s
 Computed χ(iτ,k=0) for time point            9 / 30,    Execution time    0.0 s
 Computed χ(iτ,k=0) for time point           10 / 30,    Execution time    0.0 s
 Computed χ(iτ,k=0) for time point           11 / 30,    Execution time    0.0 s
 Computed χ(iτ,k=0) for time point           12 / 30,    Execution time    0.0 s
 Computed χ(iτ,k=0) for time point           13 / 30,    Execution time    0.0 s
 Computed χ(iτ,k=0) for time point           14 / 30,    Execution time    0.0 s
 Computed χ(iτ,k=0) for time point           15 / 30,    Execution time    0.0 s
 Computed χ(iτ,k=0) for time point           16 / 30,    Execution time    0.0 s
 Computed χ(iτ,k=0) for time point           17 / 30,    Execution time    0.0 s
 Computed χ(iτ,k=0) for time point           18 / 30,    Execution time    0.0 s
 Computed χ(iτ,k=0) for time point           19 / 30,    Execution time    0.0 s
 Computed χ(iτ,k=0) for time point           20 / 30,    Execution time    0.0 s
 Computed χ(iτ,k=0) for time point           21 / 30,    Execution time    0.0 s
 Computed χ(iτ,k=0) for time point           22 / 30,    Execution time    0.0 s
 Computed χ(iτ,k=0) for time point           23 / 30,    Execution time    0.0 s
 Computed χ(iτ,k=0) for time point           24 / 30,    Execution time    0.0 s
 Computed χ(iτ,k=0) for time point           25 / 30,    Execution time    0.0 s
 Computed χ(iτ,k=0) for time point           26 / 30,    Execution time    0.0 s
 Computed χ(iτ,k=0) for time point           27 / 30,    Execution time    0.0 s
 Computed χ(iτ,k=0) for time point           28 / 30,    Execution time    0.0 s
 Computed χ(iτ,k=0) for time point           29 / 30,    Execution time    0.0 s
 Computed χ(iτ,k=0) for time point           30 / 30,    Execution time    0.0 s
 
 Computed W(iτ),                                         Execution time    0.5 s
 
 Computed Σ^x(k=0),                                      Execution time    0.0 s
 
 Computed Σ^c(iτ) for time point              1 / 30,    Execution time    0.0 s
 Computed Σ^c(iτ) for time point              2 / 30,    Execution time    0.0 s
 Computed Σ^c(iτ) for time point              3 / 30,    Execution time    0.0 s
 Computed Σ^c(iτ) for time point              4 / 30,    Execution time    0.0 s
 Computed Σ^c(iτ) for time point              5 / 30,    Execution time    0.0 s
 Computed Σ^c(iτ) for time point              6 / 30,    Execution time    0.0 s
 Computed Σ^c(iτ) for time point              7 / 30,    Execution time    0.0 s
 Computed Σ^c(iτ) for time point              8 / 30,    Execution time    0.0 s
 Computed Σ^c(iτ) for time point              9 / 30,    Execution time    0.0 s
 Computed Σ^c(iτ) for time point             10 / 30,    Execution time    0.0 s
 Computed Σ^c(iτ) for time point             11 / 30,    Execution time    0.0 s
 Computed Σ^c(iτ) for time point             12 / 30,    Execution time    0.0 s
 Computed Σ^c(iτ) for time point             13 / 30,    Execution time    0.0 s
 Computed Σ^c(iτ) for time point             14 / 30,    Execution time    0.0 s
 Computed Σ^c(iτ) for time point             15 / 30,    Execution time    0.0 s
 Computed Σ^c(iτ) for time point             16 / 30,    Execution time    0.0 s
 Computed Σ^c(iτ) for time point             17 / 30,    Execution time    0.0 s
 Computed Σ^c(iτ) for time point             18 / 30,    Execution time    0.0 s
 Computed Σ^c(iτ) for time point             19 / 30,    Execution time    0.0 s
 Computed Σ^c(iτ) for time point             20 / 30,    Execution time    0.0 s
 Computed Σ^c(iτ) for time point             21 / 30,    Execution time    0.0 s
 Computed Σ^c(iτ) for time point             22 / 30,    Execution time    0.0 s
 Computed Σ^c(iτ) for time point             23 / 30,    Execution time    0.0 s
 Computed Σ^c(iτ) for time point             24 / 30,    Execution time    0.0 s
 Computed Σ^c(iτ) for time point             25 / 30,    Execution time    0.0 s
 Computed Σ^c(iτ) for time point             26 / 30,    Execution time    0.0 s
 Computed Σ^c(iτ) for time point             27 / 30,    Execution time    0.0 s
 Computed Σ^c(iτ) for time point             28 / 30,    Execution time    0.0 s
 Computed Σ^c(iτ) for time point             29 / 30,    Execution time    0.0 s
 Computed Σ^c(iτ) for time point             30 / 30,    Execution time    0.0 s

 *** WARNING in post_scf_bandstructure_utils.F:3161 :: G0W0 reorders the   ***
 *** empty levels: the SCF conduction band minimum (SCF LUMO) is level 7,  ***
 *** whereas the G0W0 conduction band minimum (G0W0 LUMO) is level 8. The  ***
 *** SCF and G0W0 band edges printed below therefore belong to different   ***
 *** orbitals; see the eigenvalues in the file bandstructure_SCF_and_G0W0. ***

 
 SCF valence band maximum (eV):                                           -6.742
 SCF conduction band minimum (eV):                                        -1.047
 SCF indirect band gap (eV):                                               5.695
 SCF direct band gap (eV):                                                 5.695
 
 G0W0 valence band maximum (eV):                                          -9.913
 G0W0 conduction band minimum (eV):                                        1.496
 G0W0 indirect band gap (eV):                                             11.410
 G0W0 direct band gap (eV):                                               11.410
 
 Hartree-Fock with SCF orbitals valence band maximum (eV):               -10.035
 Hartree-Fock with SCF orbitals conduction band minimum (eV)               2.049
 Hartree-Fock with SCF orbitals indirect band gap (eV):                   12.085
 Hartree-Fock with SCF orbitals direct band gap (eV):                     12.085

 ENERGY| Total FORCE_EVAL ( QS ) energy [hartree]            -13.725189995539015

 -------------------------------------------------------------------------------
 -                                                                             -
 -                                DBCSR STATISTICS                             -
 -                                                                             -
 -------------------------------------------------------------------------------
 COUNTER                                    TOTAL       BLAS       SMM       ACC
 flops     6 x     6 x     6                  432     100.0%      0.0%      0.0%     
 flops     6 x     6 x     9                 7776     100.0%      0.0%      0.0%     
 flops     9 x     6 x     6                10368     100.0%      0.0%      0.0%     
 flops     6 x     6 x    29                12528     100.0%      0.0%      0.0%     
 flops    29 x     6 x     6                16704     100.0%      0.0%      0.0%     
 flops     9 x     9 x     6                19440     100.0%      0.0%      0.0%     
 flops     9 x    29 x     6                25056     100.0%      0.0%      0.0%     
 flops    29 x     9 x     6                25056     100.0%      0.0%      0.0%     
 flops    29 x    29 x     6                60552     100.0%      0.0%      0.0%     
 flops     9 x     6 x     9               124416     100.0%      0.0%      0.0%     
 flops    29 x     6 x     9               200448     100.0%      0.0%      0.0%     
 flops     9 x     6 x    29               200448     100.0%      0.0%      0.0%     
 flops    29 x     6 x    29               322944     100.0%      0.0%      0.0%     
 flops     9 x     9 x     8              4530816     100.0%      0.0%      0.0%     
 flops     8 x     9 x     8              5990400     100.0%      0.0%      0.0%     
 flops    29 x     9 x     8              7299648     100.0%      0.0%      0.0%     
 flops     9 x    29 x     8              7416576     100.0%      0.0%      0.0%     
 flops     8 x    29 x     8              9758848     100.0%      0.0%      0.0%     
 flops     8 x    54 x     8             10257408     100.0%      0.0%      0.0%     
 flops     8 x     8 x    54             10948608     100.0%      0.0%      0.0%     
 flops     8 x    59 x     8             11214720     100.0%      0.0%      0.0%     
 flops     8 x     9 x     9             11477376     100.0%      0.0%      0.0%     
 flops    29 x    29 x     8             11948928     100.0%      0.0%      0.0%     
 flops     8 x     8 x    59             11962368     100.0%      0.0%      0.0%     
 flops     8 x    75 x     8             14294400     100.0%      0.0%      0.0%     
 flops     8 x     8 x     9             15206400     100.0%      0.0%      0.0%     
 flops     8 x     8 x    75             15206400     100.0%      0.0%      0.0%     
 flops     8 x    29 x     9             18641664     100.0%      0.0%      0.0%     
 flops     8 x     9 x    29             18641664     100.0%      0.0%      0.0%     
 flops    54 x    54 x     8             22768128     100.0%      0.0%      0.0%     
 flops     8 x    54 x    54             24634368     100.0%      0.0%      0.0%     
 flops     8 x     8 x    29             24766464     100.0%      0.0%      0.0%     
 flops    59 x    54 x     8             24876288     100.0%      0.0%      0.0%     
 flops    54 x    59 x     8             24876288     100.0%      0.0%      0.0%     
 flops     8 x    59 x    54             26915328     100.0%      0.0%      0.0%     
 flops     8 x    54 x    59             26915328     100.0%      0.0%      0.0%     
 flops    59 x    59 x     8             27179648     100.0%      0.0%      0.0%     
 flops     8 x    59 x    59             29407488     100.0%      0.0%      0.0%     
 flops     8 x    29 x    29             30033792     100.0%      0.0%      0.0%     
 flops    54 x    75 x     8             31622400     100.0%      0.0%      0.0%     
 flops    75 x    54 x     8             31622400     100.0%      0.0%      0.0%     
 flops     8 x    75 x    54             34214400     100.0%      0.0%      0.0%     
 flops     8 x    54 x    75             34214400     100.0%      0.0%      0.0%     
 flops    59 x    75 x     8             34550400     100.0%      0.0%      0.0%     
 flops    75 x    59 x     8             34550400     100.0%      0.0%      0.0%     
 flops     8 x    75 x    59             37382400     100.0%      0.0%      0.0%     
 flops     8 x    59 x    75             37382400     100.0%      0.0%      0.0%     
 flops    75 x    75 x     8             43920000     100.0%      0.0%      0.0%     
 flops     8 x    75 x    75             47520000     100.0%      0.0%      0.0%     
 flops     9 x     9 x    32             67516416     100.0%      0.0%      0.0%     
 flops    32 x     9 x     8             88915968     100.0%      0.0%      0.0%     
 flops     8 x     9 x    32             89630208     100.0%      0.0%      0.0%     
 flops     9 x    29 x    32            108776448     100.0%      0.0%      0.0%     
 flops    29 x     9 x    32            108776448     100.0%      0.0%      0.0%     
 flops    32 x    29 x     8            144263168     100.0%      0.0%      0.0%     
 flops     8 x    29 x    32            144916480     100.0%      0.0%      0.0%     
 flops    32 x    54 x     8            153225216     100.0%      0.0%      0.0%     
 flops     8 x    54 x    32            153391104     100.0%      0.0%      0.0%     
 flops     8 x    32 x    54            160579584     100.0%      0.0%      0.0%     
 flops    32 x     8 x    54            160579584     100.0%      0.0%      0.0%     
 flops    32 x    59 x     8            167322112     100.0%      0.0%      0.0%     
 flops     8 x    59 x    32            167442944     100.0%      0.0%      0.0%     
 flops    32 x     9 x     9            169620480     100.0%      0.0%      0.0%     
 flops    29 x    29 x    32            175250944     100.0%      0.0%      0.0%     
 flops     8 x    32 x    59            175448064     100.0%      0.0%      0.0%     
 flops    32 x     8 x    59            175448064     100.0%      0.0%      0.0%     
 flops    32 x    75 x     8            213273600     100.0%      0.0%      0.0%     
 flops     8 x    75 x    32            213619200     100.0%      0.0%      0.0%     
 flops     8 x    32 x    75            223027200     100.0%      0.0%      0.0%     
 flops    32 x     8 x    75            223027200     100.0%      0.0%      0.0%     
 flops     8 x    32 x     9            224557056     100.0%      0.0%      0.0%     
 flops    32 x     8 x     9            226197504     100.0%      0.0%      0.0%     
 flops    32 x    29 x     9            273411072     100.0%      0.0%      0.0%     
 flops    32 x     9 x    29            273411072     100.0%      0.0%      0.0%     
 flops    54 x    54 x    32            341148672     100.0%      0.0%      0.0%     
 flops    32 x    54 x    54            361304064     100.0%      0.0%      0.0%     
 flops     8 x    32 x    29            364518400     100.0%      0.0%      0.0%     
 flops    32 x     8 x    29            364548096     100.0%      0.0%      0.0%     
 flops    59 x    54 x    32            372736512     100.0%      0.0%      0.0%     
 flops    54 x    59 x    32            372736512     100.0%      0.0%      0.0%     
 flops    32 x    59 x    54            394758144     100.0%      0.0%      0.0%     
 flops    32 x    54 x    59            394758144     100.0%      0.0%      0.0%     
 flops    59 x    59 x    32            407249152     100.0%      0.0%      0.0%     
 flops    32 x    59 x    59            431309824     100.0%      0.0%      0.0%     
 flops    32 x    29 x    29            440495616     100.0%      0.0%      0.0%     
 flops    75 x    54 x    32            473817600     100.0%      0.0%      0.0%     
 flops    54 x    75 x    32            476928000     100.0%      0.0%      0.0%     
 flops    32 x    75 x    54            501811200     100.0%      0.0%      0.0%     
 flops    32 x    54 x    75            501811200     100.0%      0.0%      0.0%     
 flops    75 x    59 x    32            517689600     100.0%      0.0%      0.0%     
 flops    59 x    75 x    32            521088000     100.0%      0.0%      0.0%     
 flops    32 x    75 x    59            548275200     100.0%      0.0%      0.0%     
 flops    32 x    59 x    75            548275200     100.0%      0.0%      0.0%     
 flops    75 x    75 x    32            662400000     100.0%      0.0%      0.0%     
 flops    32 x    75 x    75            696960000     100.0%      0.0%      0.0%     
 flops    32 x     9 x    32           1319749632     100.0%      0.0%      0.0%     
 flops    32 x    29 x    32           2138587136     100.0%      0.0%      0.0%     
 flops    32 x    54 x    32           2278858752     100.0%      0.0%      0.0%     
 flops    32 x    32 x    54           2355167232     100.0%      0.0%      0.0%     
 flops    32 x    59 x    32           2488293376     100.0%      0.0%      0.0%     
 flops    32 x    32 x    59           2573238272     100.0%      0.0%      0.0%     
 flops    32 x    75 x    32           3170918400     100.0%      0.0%      0.0%     
 flops    32 x    32 x    75           3271065600     100.0%      0.0%      0.0%     
 flops    32 x    32 x     9           3318644736     100.0%      0.0%      0.0%     
 flops    32 x    32 x    29           5346705408     100.0%      0.0%      0.0%     
 flops inhomo. stacks                           0       0.0%      0.0%      0.0%
 flops total                        43.052650E+09     100.0%      0.0%      0.0%
 flops max/rank                      8.652326E+09     100.0%      0.0%      0.0%
 matmuls inhomo. stacks                         0       0.0%      0.0%      0.0%
 matmuls total                             987902     100.0%      0.0%      0.0%
 number of processed stacks                195643     100.0%      0.0%      0.0%
 average stack size                                     5.0       0.0       0.0
 marketing flops                    60.680348E+09
 -------------------------------------------------------------------------------
 # multiplications                           5050
 max memory usage/rank              24.257954E+09
 # max total images/rank                        7
 # max 3D layers                                1
 # MPI messages exchanged                   21210
 MPI messages size (bytes):
  total size                         3.963141E+09
  min size                           0.000000E+00
  max size                         770.048000E+03
  average size                     186.852453E+03
 MPI breakdown and total messages size (bytes):
             size <=      128                4398                        0
       128 < size <=     8192                 342                  1544832
      8192 < size <=    32768                  96                  2093568
     32768 < size <=   131072                7698                485002752
    131072 < size <=  4194304                8676               3474499584
   4194304 < size <= 16777216                   0                        0
  16777216 < size                               0                        0
 -------------------------------------------------------------------------------

 *** WARNING in dbcsr_mm.F:301 :: Using a non-square number of MPI ranks ***
 *** might lead to poor performance. Used ranks: 7 Suggested: 9 16       ***

 -------------------------------------------------------------------------------
 -                                                                             -
 -                      DBCSR MESSAGE PASSING PERFORMANCE                      -
 -                                                                             -
 -------------------------------------------------------------------------------
 ROUTINE             CALLS      AVE VOLUME [Bytes]
 MP_Bcast              106                     12.
 MP_Allreduce         2333                     26.
 MP_Alltoall          3385                  22381.
 MP_ISend            10810                  63261.
 MP_IRecv            10274                  56189.
 -------------------------------------------------------------------------------

 -------------------------------------------------------------------------------
 -                                                                             -
 -                                GRID STATISTICS                              -
 -                                                                             -
 -------------------------------------------------------------------------------
 LP    KERNEL             BACKEND                              COUNT     PERCENT
 2     collocate ortho    CPU                                   6880      20.84%
 2     integrate ortho    CPU                                   6880      20.84%
 4     collocate ortho    CPU                                   6480      19.62%
 4     integrate ortho    CPU                                   6480      19.62%
 6     collocate ortho    CPU                                   2940       8.90%
 6     integrate ortho    CPU                                   2940       8.90%
 0     collocate general  CPU                                    420       1.27%
 -------------------------------------------------------------------------------

 -------------------------------------------------------------------------------
 -                                                                             -
 -                          OFFLOAD MEMPOOL STATISTICS                         -
 -                                                                             -
 -------------------------------------------------------------------------------
 Memory consumption                Number of allocations  Used [MiB]  Size [MiB]
 Host                                                  7          98    22342306
 -------------------------------------------------------------------------------

 MEMORY| Estimated peak process memory [MiB]                                2758

 -------------------------------------------------------------------------------
 -                                                                             -
 -                         MESSAGE PASSING PERFORMANCE                         -
 -                                                                             -
 -------------------------------------------------------------------------------

 ROUTINE             CALLS      AVE VOLUME [Bytes]
 MP_Group                5
 MP_Bcast              212                 262695.
 MP_Allreduce         1862                   5656.
 MP_Sync                10
 MP_Alltoall            46               91639220.
 MP_SendRecv            24                 729600.
 MP_ISendRecv           24                 729600.
 MP_Wait               135
 MP_comm_split          10
 MP_ISend               89                4948746.
 MP_IRecv               89                4948746.
 -------------------------------------------------------------------------------


 -------------------------------------------------------------------------------
 -                                                                             -
 -                           R E F E R E N C E S                               -
 -                                                                             -
 -------------------------------------------------------------------------------
 
 CP2K version 2026.2 (Development Version), the CP2K developers group (2026).
 CP2K is freely available from https://www.cp2k.org/ .
 
 M. Iannuzzi, J. Wilhelm, F. Stein, A. Bussy, H. Elgabarty, D. Golze, A. Hehn, 
 M. Graml, S. Marek, B. Sertcan Gökmen, C. Schran, H. Forbert, R. Z. 
 Khaliullin, A. Kozhevnikov, M. Taillefumier, R. Meli, V. V. Rybkin, M. Brehm, 
 R. Schade, O. Schütt, J. V. Pototschnig, H. Mirhosseini, A. Knüpfer, D. Marx, 
 M. Krack, J. Hutter, T. D. Kühne.
 J. Phys. Chem. B 130, 1237-1310 (2026).
 The CP2K Program Package Made Simple.
 https://doi.org/10.1021/acs.jpcb.5c05851

 M. Graml, K. Zollner, D. Hernangómez-Pérez, P. E. Faria Junior, J. Wilhelm.
 J. Chem. Theory Comput. 20, 2202-2208 (2024).
 Low-scaling GW algorithm applied to twisted transition-metal dichalcogenide 
 heterobilayers.
 https://doi.org/10.1021/acs.jctc.3c01230

 T. D. Kühne, M. Iannuzzi, M. Del Ben, V. V. Rybkin, P. Seewald, F. Stein, T. 
 Laino, R. Z. Khaliullin, O. Schütt, F. Schiffmann, D. Golze, J. Wilhelm, S. 
 Chulkov, M. H. Bani-Hashemian, V. Weber, U. Borstnik, M. Taillefumier, A. S. 
 Jakobovits, A. Lazzaro, H. Pabst, T. Müller, R. Schade, M. Guidon, S. 
 Andermatt, N. Holmberg, G. K. Schenter, A. Hehn, A. Bussy, F. Belleflamme, G. 
 Tabacchi, A. Glöß, M. Lass, I. Bethune, C. J. Mundy, C. Plessl, M. Watkins, 
 J. VandeVondele, M. Krack, J. Hutter.
 J. Chem. Phys. 152, 194103 (2020).
 CP2K: An electronic structure and molecular dynamics software package - 
 Quickstep: Efficient and accurate electronic structure calculations.
 https://doi.org/10.1063/5.0007045

 O. Schuett, P. Messmer, J. Hutter, J. VandeVondele.
 Electronic Structure Calculations on Graphics Processing Units, 173-190 (2016).
 GPU-Accelerated Sparse Matrix-Matrix Multiplication for Linear Scaling Density 
 Functional Theory.
 https://doi.org/10.1002/9781118670712.ch8

 U. Borstnik, J. VandeVondele, V. Weber, J. Hutter.
 Parallel Comput. 40, 47-58 (2014).
 Sparse matrix multiplication: The distributed block-compressed sparse row 
 library.
 https://doi.org/10.1016/j.parco.2014.03.012

 J. VandeVondele, J. Hutter.
 J. Chem. Phys. 127, 114105 (2007).
 Gaussian basis sets for accurate calculations on molecular systems in gas and 
 condensed phases.
 https://doi.org/10.1063/1.2770708

 J. VandeVondele, M. Krack, F. Mohamed, M. Parrinello, T. Chassaing, J. Hutter.
 Comput. Phys. Commun. 167, 103-128 (2005).
 QUICKSTEP: Fast and accurate density functional calculations using a mixed 
 Gaussian and plane waves approach.
 https://doi.org/10.1016/j.cpc.2004.12.014

 M. Krack.
 Theor. Chem. Acc. 114, 145-152 (2005).
 Pseudopotentials for H to Kr optimized for gradient-corrected 
 exchange-correlation functionals.
 https://doi.org/10.1007/s00214-005-0655-y

 M. Frigo, S. G. Johnson.
 Proc. IEEE 93, 216-231 (2005).
 The design and implementation of FFTW3.
 https://doi.org/10.1109/JPROC.2004.840301

 J. VandeVondele, J. Hutter.
 J. Chem. Phys. 118, 4365-4369 (2003).
 An efficient orbital transformation method for electronic structure 
 calculations.
 https://doi.org/10.1063/1.1543154

 C. Hartwigsen, S. Goedecker, J. Hutter.
 Phys. Rev. B 58, 3641-3662 (1998).
 Relativistic separable dual-space Gaussian pseudopotentials from H to Rn.
 https://doi.org/10.1103/PhysRevB.58.3641

 G. Lippert, J. Hutter, M. Parrinello.
 Mol. Phys. 92, 477-487 (1997).
 A hybrid Gaussian and plane wave density functional scheme.
 https://doi.org/10.1080/002689797170220

 S. Goedecker, M. Teter, J. Hutter.
 Phys. Rev. B 54, 1703-1710 (1996).
 Separable dual-space Gaussian pseudopotentials.
 https://doi.org/10.1103/PhysRevB.54.1703

 J. P. Perdew, K. Burke, M. Ernzerhof.
 Phys. Rev. Lett. 77, 3865-3868 (1996).
 Generalized gradient approximation made simple.
 https://doi.org/10.1103/PhysRevLett.77.3865

 P. E. Blöchl.
 J. Chem. Phys. 103, 7422-7428 (1995).
 Electrostatic decoupling of periodic images of plane‐wave‐expanded 
 densities and derived atomic point charges.
 https://doi.org/10.1063/1.470314

 R. H. Byrd, P. H. Lu, J. Nocedal, C. Y. Zhu.
 SIAM J. Sci. Comput. 16, 1190-1208 (1995).
 A Limited Memory Algorithm for Bound Constrained Optimization.
 https://doi.org/10.1137/0916069


 -------------------------------------------------------------------------------
 -                                                                             -
 -                                T I M I N G                                  -
 -                                                                             -
 -------------------------------------------------------------------------------
 SUBROUTINE                       CALLS  ASD         SELF TIME        TOTAL TIME MAXRANK
                                MAXIMUM       AVERAGE  MAXIMUM  AVERAGE  MAXIMUM
 CP2K                                 1  1.0    0.031    0.042   62.077   62.079       0
 qs_energies                          1  2.0    0.001    0.001   61.055   61.055       0
 qs_energies_properties               1  3.0    0.000    0.001   58.147   58.147       1
 post_scf_bandstructure               1  4.0    0.000    0.000   58.147   58.147       5
 run_gw                               1  5.0    0.000    0.000   58.074   58.128       5
 gw_calc_ri_rs_non_periodic           1  6.0    0.007    0.009   55.958   56.110       1
 optimize_ri_rs_grid                  1  7.0    0.001    0.001   54.300   54.460       5
 rirs_grid_LBFGS                      1  8.0    0.926    1.355   53.371   53.944       0
 mp_sum_d                           724  4.7   18.765   53.930   18.765   53.930       6
 evaluate_rirs_grid_cluster         301  9.0    2.934    4.218   33.707   51.213       0
 rirs_cluster_gradient_coordina     301 10.0    9.855   15.505    9.855   15.505       0
 rirs_cluster_gradient_products     301 10.0    8.528   13.047    8.528   13.047       0
 rirs_cluster_D_ll                  301 10.0    4.109    6.458    4.109    6.458       0
 rirs_cluster_residual              301 10.0    3.028    4.307    3.028    4.307       0
 rirs_cluster_AO_products           301 10.0    2.762    4.022    2.762    4.022       1
 rirs_cluster_d_lP                  301 10.0    2.491    3.853    2.491    3.853       0
 create_and_init_bs_env_for_gw        1  6.0    0.003    0.003    2.115    2.259       2
 scf_env_do_scf                       1  3.0    0.000    0.000    2.142    2.142       0
 qs_ks_build_kohn_sham_matrix         2  7.5    0.002    0.003    2.112    2.112       4
 fft_wrap_pw1pw2                     28 10.0    0.001    0.001    1.933    2.009       3
 fft_wrap_pw1pw2_300                 16 11.2    0.098    0.132    1.830    1.875       6
 init_scf_loop                        1  4.0    0.000    0.000    1.619    1.619       0
 qs_ks_update_qs_env                  2  5.0    0.000    0.000    1.615    1.615       0
 rebuild_ks_matrix                    1  6.0    0.000    0.000    1.615    1.615       0
 fft3d_ps                            28 12.0    0.738    0.838    1.434    1.609       4
 qs_vxc_create                        2  8.5    0.000    0.000    1.102    1.124       5
 xc_vxc_pw_create                     1  9.0    0.023    0.027    1.102    1.124       4
 generate_auto_ri_basis               1  7.0    0.000    0.000    1.081    1.081       0
 qs_rho_update_rho_low                2  5.0    0.000    0.000    1.062    1.062       0
 calculate_rho_elec                   2  6.0    0.029    0.032    1.062    1.062       0
 mp_alltoall_z22v                    28 14.0    0.371    0.956    0.371    0.956       0
 rirs_grid_build_clusters             1  8.0    0.366    0.567    0.573    0.892       0
 xc_pw_derive                         6 11.0    0.000    0.000    0.816    0.884       4
 mp_sum_dm                           30 10.7    0.626    0.844    0.626    0.844       6
 compute_AB_optimized_RI_basis        1  8.0    0.000    0.000    0.817    0.817       0
 compute_AB_optimized_RI_basis_       1  9.0    0.000    0.000    0.704    0.816       0
 qs_init_subsys                       1  2.0    0.000    0.001    0.803    0.806       0
 qs_env_setup                         1  3.0    0.000    0.000    0.802    0.805       0
 qs_env_rebuild_pw_env                2  3.5    0.000    0.000    0.802    0.805       0
 pw_env_rebuild                       1  5.0    0.000    0.000    0.802    0.805       0
 pw_grid_setup                        5  5.2    0.000    0.000    0.794    0.797       0
 pw_grid_setup_internal               5  6.2    0.012    0.013    0.794    0.797       0
 compute_B_PQ_AB                      2 10.0    0.067    0.197    0.264    0.779       0
 density_rs2pw                        2  7.0    0.000    0.000    0.652    0.750       5
 pw_grid_sort                         5  7.2    0.424    0.485    0.623    0.716       0
 yz_to_x                             14 12.2    0.148    0.176    0.352    0.616       3
 compute_Sigma_c_and_QP_energie       1  7.0    0.000    0.000    0.560    0.615       0
 xc_pw_divergence                     1 10.0    0.000    0.000    0.546    0.596       4
 init_scf_run                         1  3.0    0.000    0.000    0.566    0.566       0
 scf_env_initial_rho_setup            1  4.0    0.000    0.000    0.566    0.566       0
 xc_rho_set_and_dset_create           1 10.0    0.017    0.023    0.518    0.547       2
 setup_time_and_frequency_minim       1  7.0    0.000    0.000    0.371    0.529       0
 build_minimax_time_frequency_g       1  8.0    0.000    0.000    0.371    0.529       6
 fit_l_sq_weights                     3  9.0    0.371    0.529    0.371    0.529       6
 x_to_yz                             14 13.8    0.174    0.202    0.340    0.526       4
 scf_env_do_scf_inner_loop            1  4.0    0.000    0.000    0.523    0.523       0
 compute_Sigma_c                      1  8.0    0.002    0.004    0.518    0.518       0
 initialize_ri_rs_grid                1  8.0    0.086    0.226    0.355    0.516       0
 compute_V_xc                         1  7.0    0.000    0.000    0.498    0.498       0
 cp_fm_get_submatrix                 26 10.0    0.000    0.000    0.423    0.496       0
 contract_grid_panels_sigma_c        30  9.0    0.424    0.435    0.460    0.461       6
 compute_W                            1  7.0    0.000    0.001    0.458    0.458       4
 abc_contract_xsmm                 4930  9.2    0.253    0.452    0.253    0.452       0
 contract_B_PQ                       10 11.8    0.136    0.411    0.149    0.448       0
 sum_up_and_integrate                 2  8.5    0.000    0.000    0.424    0.434       4
 integrate_v_rspace                   2  9.5    0.000    0.000    0.418    0.432       0
 potential_pw2rs                      2 10.5    0.001    0.002    0.409    0.422       5
 mp_bcast_dm                         21  9.2    0.270    0.420    0.270    0.420       2
 grid_collocate_task_list             2  7.0    0.367    0.415    0.367    0.415       1
 get_mat_chi_Gamma_tau                1  7.0    0.000    0.001    0.359    0.359       0
 qs_ks_ddapc                          2  8.5    0.000    0.000    0.303    0.325       4
 transfer_rs2pw                       9  7.8    0.000    0.000    0.175    0.319       6
 contract_grid_panels                31  8.0    0.285    0.288    0.312    0.314       6
 compute_fm_W_freq                   30  8.0    0.007    0.007    0.308    0.310       0
 mp_waitany                          89 11.4    0.142    0.302    0.142    0.302       0
 parallel_gemm_fm_gemm              431  9.6    0.001    0.001    0.296    0.301       0
 cp_fm_gemm                         434 10.5    0.296    0.301    0.296    0.301       3
 transfer_rs2pw_300                   3  8.3    0.051    0.057    0.146    0.292       3
 pw_poisson_solve                     2  8.5    0.000    0.000    0.244    0.256       4
 compute_B_PQ_exchange                5 10.8    0.000    0.000    0.076    0.233       0
 sort_shells                          5  8.2    0.199    0.231    0.199    0.231       0
 compute_B_PQ_transition              5 10.8    0.000    0.000    0.073    0.215       0
 compute_Z_lP                         1  7.0    0.001    0.001    0.215    0.215       0
 compute_Z_lP_auto_ri                 1  8.0    0.004    0.005    0.214    0.214       1
 qs_energies_init_hamiltonians        1  3.0    0.000    0.000    0.198    0.198       2
 qs_env_update_s_mstruct              1  4.0    0.000    0.000    0.196    0.197       0
 compute_M_pq_inv_and_V_pq            1  8.0    0.000    0.000    0.191    0.191       0
 pw_gather_p                         14 11.2    0.154    0.191    0.154    0.191       5
 compute_d_lp_auto_ri_batch           1  9.0    0.006    0.008    0.095    0.182       2
 calculate_rho_core                   1  5.0    0.015    0.015    0.175    0.180       0
 pw_copy                             28 10.5    0.162    0.178    0.162    0.178       3
 compute_d_lp_auto_ri_atom            1 10.0    0.056    0.147    0.089    0.174       0
 check_for_restart_files              1  7.0    0.160    0.173    0.160    0.173       4
 compute_contracted_RI_matrix         2  9.0    0.000    0.000    0.168    0.168       0
 pw_derive                           12 11.2    0.151    0.168    0.151    0.168       2
 compute_optimized_RI_matrix_bl       6 10.0    0.014    0.017    0.128    0.167       5
 compute_M_PQ_AB                    138 11.0    0.000    0.000    0.123    0.157       5
 compute_M_PQ                       138 12.0    0.000    0.000    0.123    0.157       0
 int_operators_r12_ab_os            138 13.0    0.000    0.000    0.122    0.157       5
 pw_scatter_p                        14 12.8    0.138    0.157    0.138    0.157       4
 int_operator_ab_os_low             138 14.0    0.051    0.067    0.122    0.157       5
 create_qs_kind_set                   1  2.0    0.000    0.000    0.149    0.151       0
 read_qs_kind                         2  3.0    0.046    0.075    0.149    0.151       0
 pw_poisson_set                       3  8.3    0.000    0.000    0.136    0.148       5
 transfer_pw2rs                       8 11.5    0.000    0.000    0.132    0.133       6
 pw_grid_remap                        4  8.0    0.008    0.009    0.107    0.132       0
 cp_ddapc_apply_CD                    2  9.5    0.000    0.000    0.075    0.129       0
 mp_sum_im3                           5  9.0    0.099    0.125    0.099    0.125       1
 fft_wrap_pw1pw2_100                  4 10.8    0.005    0.008    0.084    0.121       4
 pw_integral_ab_c1d_c1d_gs            4 10.0    0.091    0.094    0.098    0.117       4
 copy_dbcsr_to_fm                   104  9.5    0.079    0.114    0.081    0.116       2
 parser_read_line                 22513  4.0    0.004    0.005    0.103    0.110       0
 parser_read_line_low                27  5.0    0.007    0.040    0.099    0.106       0
 broadcast_input_information         27  6.0    0.008    0.011    0.092    0.105       1
 xc_functional_eval                   1 11.0    0.000    0.000    0.074    0.098       5
 pbe_lda_eval                         1 12.0    0.073    0.098    0.073    0.098       3
 transfer_pw2rs_300                   2 12.5    0.041    0.046    0.086    0.093       4
 build_G_ao                         121  8.5    0.010    0.011    0.087    0.090       0
 cp_fm_cholesky_invert               31  9.0    0.083    0.087    0.083    0.087       5
 get_ddapc                            2 10.5    0.000    0.000    0.027    0.081       0
 mp_bcast_i_src                     113  7.0    0.060    0.079    0.060    0.079       1
 eval_bandstructure_properties        1  5.0    0.001    0.001    0.068    0.077       6
 cp_cfm_geeig                         1  6.0    0.001    0.001    0.065    0.074       3
 pw_copy_to_array                    14 11.2    0.063    0.073    0.063    0.073       3
 compute_AA_optimized_RI_basis        1  8.0    0.000    0.000    0.073    0.073       2
 pw_axpy                             25  6.6    0.059    0.070    0.059    0.070       3
 cp_cfm_cholesky_decompose            2  7.0    0.056    0.065    0.056    0.065       6
 -------------------------------------------------------------------------------

 The number of warnings for this run is : 10
 
 -------------------------------------------------------------------------------
  **** **** ******  **  PROGRAM ENDED AT                 2026-10-03 12:02:12.295
 ***** ** ***  *** **   PROGRAM RAN ON                                  n2cn0521
 **    ****   ******    PROGRAM RAN BY                                  eprop2d1
 ***** **    ** ** **   PROGRAM PROCESS ID                               1223766
  **** **  *******  **  PROGRAM STOPPED IN /scratch/hpc-prf-metdyn/eprop2d1_Jan/
                                           53_benchmark_RI_opt/418_gw100_fig5_fu
                                           ll_epsfilter_1e12_20261002/calculatio
                                           ns/rc3p0/ri4_rs08/24_C2H4
