 DBCSR| CPU Multiplication driver                                           XSMM (U)
 DBCSR| Multrec recursion limit                                              512 (U)
 DBCSR| Multiplication stack size                                           1000 (D)
 DBCSR| Maximum elements for images                                    UNLIMITED (U)
 DBCSR| Multiplicative factor virtual images                                   1 (U)
 DBCSR| Use multiplication densification                                       T (D)
 DBCSR| Multiplication size stacks                                             3 (U)
 DBCSR| Use memory pool for CPU allocation                                     F (U)
 DBCSR| Number of 3D layers                                               SINGLE (U)
 DBCSR| Use MPI memory allocation                                              F (U)
 DBCSR| Use RMA algorithm                                                      F (U)
 DBCSR| Use Communication thread                                               T (U)
 DBCSR| Communication thread load                                             75 (D)
 DBCSR| MPI: My process id                                                     0
 DBCSR| MPI: Number of processes                                              32
 DBCSR| OMP: Current number of threads                                         4
 DBCSR| OMP: Max number of threads                                             4
 DBCSR| Split modifier for TAS multiplication algorithm                  1.0E+00 (U)


  **** **** ******  **  PROGRAM STARTED AT               2026-09-17 22:53:18.634
 ***** ** ***  *** **   PROGRAM STARTED ON                              n2cn0294
 **    ****   ******    PROGRAM STARTED BY                              eprop2d1
 ***** **    ** ** **   PROGRAM PROCESS ID                                358379
  **** **  *******  **  PROGRAM STARTED IN /scratch/hpc-prf-metdyn/eprop2d1_Jan/
                                           53_benchmark_RI_opt/129_GW100_Si293_A
                                           O_frontier_optimization_coopfst/follo
                                           wups/pbe_g0w0/gw100/40_GeH4/dzvp_t2

 CP2K| version string:                 CP2K version 2026.2 (Development Version)
 CP2K| source code revision number:                                      d1dff42
 CP2K| cp2kflags: omp libint fftw3 libxc parallel scalapack openblas            
 CP2K| is freely available from                            https://www.cp2k.org/
 CP2K| Program compiled at                                   2026-09-17 17:57:35
 CP2K| Program compiled on                                              n2login6
 CP2K| Program compiled for                                               x86_64
 CP2K| Data directory path    /scratch/hpc-prf-metdyn/eprop2d1_Jan/53_benchmark_
 CP2K| Input file name        /scratch/hpc-prf-metdyn/eprop2d1_Jan/53_benchmark_

 GLOBAL| Force Environment number                                              1
 GLOBAL| Basis set file name            /scratch/hpc-prf-metdyn/eprop2d1_Jan/53_
 GLOBAL| Potential file name            /scratch/hpc-prf-metdyn/eprop2d1_Jan/53_
 GLOBAL| MM Potential file name                                     MM_POTENTIAL
 GLOBAL| Coordinate file name                                      __STD_INPUT__
 GLOBAL| Method name                                                        CP2K
 GLOBAL| Project name                                              gw129g_040_d2
 GLOBAL| Run type                                                         ENERGY
 GLOBAL| FFT library                                                       FFTW3
 GLOBAL| Diagonalization library                                       ScaLAPACK
 GLOBAL| Cholesky decomposition library                                ScaLAPACK
 GLOBAL| DGEMM library                                                      BLAS
 GLOBAL| Direct generalized diagonalization requested                          F
 GLOBAL| Orthonormality check for eigenvectors                          DISABLED
 GLOBAL| Matrix multiplication library                                 ScaLAPACK
 GLOBAL| All-to-all communication in single precision                          F
 GLOBAL| Grid backend                                                       AUTO
 GLOBAL| Global print level                                               MEDIUM
 GLOBAL| MPI I/O enabled                                                       T
 GLOBAL| Total number of message passing processes                            32
 GLOBAL| Number of distributed systems (nodes)                                 1
 GLOBAL| Number of threads for this process                                    4
 GLOBAL| This output is from process                                           0
 GLOBAL| OpenMP stack size per thread (OMP_STACKSIZE)                       512M
 GLOBAL| CPU model name                          AMD EPYC 7763 64-Core Processor

 MEMORY| system memory details [Kb]
 MEMORY|                        rank 0           min           max       average
 MEMORY| MemTotal            263897596     263897596     263897596     263897596
 MEMORY| MemFree             244583004     244583004     244583004     244583004
 MEMORY| Buffers                292016        292016        292016        292016
 MEMORY| Cached                8359284       8359284       8359284       8359284
 MEMORY| Slab                  1553252       1553252       1553252       1553252
 MEMORY| SReclaimable           333196        333196        333196        333196
 MEMORY| MemLikelyFree       253567500     253567500     253567500     253567500


 *** Fundamental physical constants (SI units) ***

 *** Literature: B. J. Mohr and B. N. Taylor,
 ***             CODATA recommended values of the fundamental physical
 ***             constants: 2006, Web Version 5.1
 ***             http://physics.nist.gov/constants

 Speed of light in vacuum [m/s]                             2.99792458000000E+08
 Magnetic constant or permeability of vacuum [N/A**2]       1.25663706143592E-06
 Electric constant or permittivity of vacuum [F/m]          8.85418781762039E-12
 Planck constant (h) [J*s]                                  6.62606896000000E-34
 Planck constant (h-bar) [J*s]                              1.05457162825177E-34
 Elementary charge [C]                                      1.60217648700000E-19
 Electron mass [kg]                                         9.10938215000000E-31
 Electron g factor [ ]                                     -2.00231930436220E+00
 Proton mass [kg]                                           1.67262163700000E-27
 Fine-structure constant                                    7.29735253760000E-03
 Rydberg constant [1/m]                                     1.09737315685270E+07
 Avogadro constant [1/mol]                                  6.02214179000000E+23
 Boltzmann constant [J/K]                                   1.38065040000000E-23
 Atomic mass unit [kg]                                      1.66053878200000E-27
 Bohr radius [m]                                            5.29177208590000E-11

 *** Conversion factors ***

 [u] -> [a.u.]                                              1.82288848426455E+03
 [Angstrom] -> [Bohr] = [a.u.]                              1.88972613288564E+00
 [a.u.] = [Bohr] -> [Angstrom]                              5.29177208590000E-01
 [a.u.] -> [s]                                              2.41888432650478E-17
 [a.u.] -> [fs]                                             2.41888432650478E-02
 [a.u.] -> [J]                                              4.35974393937059E-18
 [a.u.] -> [N]                                              8.23872205491840E-08
 [a.u.] -> [K]                                              3.15774647902944E+05
 [a.u.] -> [kJ/mol]                                         2.62549961709828E+03
 [a.u.] -> [kcal/mol]                                       6.27509468713739E+02
 [a.u.] -> [Pa]                                             2.94210107994716E+13
 [a.u.] -> [bar]                                            2.94210107994716E+08
 [a.u.] -> [atm]                                            2.90362800883016E+08
 [a.u.] -> [eV]                                             2.72113838565563E+01
 [a.u.] -> [Hz]                                             6.57968392072181E+15
 [a.u.] -> [1/cm] (wave numbers)                            2.19474631370540E+05
 [a.u./Bohr**2] -> [1/cm]                                   5.14048714338585E+03
 

 CELL| Volume [angstrom^3]:                                          8000.000000
 CELL| Vector a [angstrom]:      20.000     0.000     0.000   |a| =    20.000000
 CELL| Vector b [angstrom]:       0.000    20.000     0.000   |b| =    20.000000
 CELL| Vector c [angstrom]:       0.000     0.000    20.000   |c| =    20.000000
 CELL| Angle (b,c), alpha [degree]:                                    90.000000
 CELL| Angle (a,c), beta  [degree]:                                    90.000000
 CELL| Angle (a,b), gamma [degree]:                                    90.000000
 CELL| Numerically orthorhombic:                                             YES
 CELL| Periodicity                                                          NONE

 CELL_REF| Volume [angstrom^3]:                                      8000.000000
 CELL_REF| Vector a [angstrom    20.000     0.000     0.000   |a| =    20.000000
 CELL_REF| Vector b [angstrom     0.000    20.000     0.000   |b| =    20.000000
 CELL_REF| Vector c [angstrom     0.000     0.000    20.000   |c| =    20.000000
 CELL_REF| Angle (b,c), alpha [degree]:                                90.000000
 CELL_REF| Angle (a,c), beta  [degree]:                                90.000000
 CELL_REF| Angle (a,b), gamma [degree]:                                90.000000
 CELL_REF| Numerically orthorhombic:                                         YES
 CELL_REF| Periodicity                                                      NONE

 GENERATE|  Preliminary Number of Bonds generated:                             0
 GENERATE|  Achieved consistency in connectivity generation.

 PW_GRID| Information for grid number                                          1
 PW_GRID| Cutoff [a.u.]                                                      8.0
 PW_GRID| spherical cutoff:                                                   NO
 PW_GRID|   Bounds   1              0      49                Points:          50
 PW_GRID|   Bounds   2              0      49                Points:          50
 PW_GRID|   Bounds   3              0      49                Points:          50
 PW_GRID| Volume element (a.u.^3)  0.4319         Volume (a.u.^3)     53986.6767
 PW_GRID| Grid span                                                    HALFSPACE

 *******************************************************************************
 *******************************************************************************
 **                                                                           **
 **     #####                         ##              ##                      **
 **    ##   ##            ##          ##              ##                      **
 **   ##     ##                       ##            ######                    **
 **   ##     ##  ##   ##  ##   #####  ##  ##   ####   ##    #####    #####    **
 **   ##     ##  ##   ##  ##  ##      ## ##   ##      ##   ##   ##  ##   ##   **
 **   ##  ## ##  ##   ##  ##  ##      ####     ###    ##   ######   ######    **
 **    ##  ###   ##   ##  ##  ##      ## ##      ##   ##   ##       ##        **
 **     #######   #####   ##   #####  ##  ##  ####    ##    #####   ##        **
 **           ##                                                    ##        **
 **                                                                           **
 **                                                ... make the atoms dance   **
 **                                                                           **
 **            Copyright (C) by CP2K developers group (2000-2026)             **
 **                      J. Chem. Phys. 152, 194103 (2020)                    **
 **                                                                           **
 *******************************************************************************

 DFT| Spin restricted Kohn-Sham (RKS) calculation                            RKS
 DFT| Multiplicity                                                             1
 DFT| Number of spin states                                                    1
 DFT| Charge                                                                   0
 DFT| Self-interaction correction (SIC)                                       NO
 DFT| Cutoffs: density                                              1.000000E-10
 DFT|          gradient                                             1.000000E-10
 DFT|          tau                                                  1.000000E-10
 DFT|          cutoff_smoothing_range                               0.000000E+00
 DFT| XC density smoothing                                                  NONE
 DFT| XC derivatives                                                          PW

 FUNCTIONAL| PBE:
 FUNCTIONAL| J.P.Perdew, K.Burke, M.Ernzerhof, Phys. Rev. Letter, vol. 77, n 18,
 FUNCTIONAL|  pp. 3865-3868, (1996) {spin unpolarized}                          


 QS| Method:                                                                 GPW
 QS| Density plane wave grid type                        NON-SPHERICAL FULLSPACE
 QS| Number of grid levels:                                                    5
 QS| Density cutoff [a.u.]:                                                300.0
 QS| Multi grid cutoff [a.u.]: 1) grid level                               300.0
 QS|                           2) grid level                               100.0
 QS|                           3) grid level                                33.3
 QS|                           4) grid level                                11.1
 QS|                           5) grid level                                 3.7
 QS| Grid level progression factor:                                          3.0
 QS| Relative density cutoff [a.u.]:                                        30.0
 QS| Interaction thresholds: eps_pgf_orb:                                1.0E-12
 QS|                         eps_filter_matrix:                          0.0E+00
 QS|                         eps_core_charge:                            1.0E-14
 QS|                         eps_rho_gspace:                             1.0E-12
 QS|                         eps_rho_rspace:                             1.0E-12
 QS|                         eps_gvg_rspace:                             1.0E-06
 QS|                         eps_ppl:                                    1.0E-02
 QS|                         eps_ppnl:                                   1.0E-08


 ATOMIC KIND INFORMATION

  1. Atomic kind: Ge                                    Number of atoms:       1

     Orbital Basis Set                              AUG-DZVP-MOLOPT-GTH-TIER-2_1

       Number of orbital shell sets:                                           1
       Number of orbital shells:                                               9
       Number of primitive Cartesian functions:                                5
       Number of Cartesian basis functions:                                   34
       Number of spherical basis functions:                                   29
       Norm type:                                                              2

       Normalised Cartesian orbitals:

                        Set   Shell   Orbital            Exponent    Coefficient

                          1       1    2s                0.110740      -0.068975
                                                         0.188959       0.000000
                                                         0.322428      -0.228255
                                                         1.419172       0.428185
                                                         3.751626      -0.120003

                          1       2    3s                0.110740      -0.204229
                                                         0.188959       0.000000
                                                         0.322428       0.245293
                                                         1.419172      -0.294801
                                                         3.751626       0.107795

                          1       3    4s                0.110740      -0.002311
                                                         0.188959       0.245170
                                                         0.322428      -0.032719
                                                         1.419172      -0.178792
                                                         3.751626      -0.009972

                          1       4    3px               0.110740      -0.035002
                                                         0.188959       0.000000
                                                         0.322428      -0.253384
                                                         1.419172       0.216179
                                                         3.751626       0.064520
                          1       4    3py               0.110740      -0.035002
                                                         0.188959       0.000000
                                                         0.322428      -0.253384
                                                         1.419172       0.216179
                                                         3.751626       0.064520
                          1       4    3pz               0.110740      -0.035002
                                                         0.188959       0.000000
                                                         0.322428      -0.253384
                                                         1.419172       0.216179
                                                         3.751626       0.064520

                          1       5    4px               0.110740      -0.125543
                                                         0.188959       0.000000
                                                         0.322428       0.246764
                                                         1.419172      -0.191614
                                                         3.751626      -0.126532
                          1       5    4py               0.110740      -0.125543
                                                         0.188959       0.000000
                                                         0.322428       0.246764
                                                         1.419172      -0.191614
                                                         3.751626      -0.126532
                          1       5    4pz               0.110740      -0.125543
                                                         0.188959       0.000000
                                                         0.322428       0.246764
                                                         1.419172      -0.191614
                                                         3.751626      -0.126532

                          1       6    5px               0.110740       0.000038
                                                         0.188959      -0.182141
                                                         0.322428       0.002834
                                                         1.419172       0.142787
                                                         3.751626      -0.157196
                          1       6    5py               0.110740       0.000038
                                                         0.188959      -0.182141
                                                         0.322428       0.002834
                                                         1.419172       0.142787
                                                         3.751626      -0.157196
                          1       6    5pz               0.110740       0.000038
                                                         0.188959      -0.182141
                                                         0.322428       0.002834
                                                         1.419172       0.142787
                                                         3.751626      -0.157196

                          1       7    4dx2              0.110740       0.009408
                                                         0.188959       0.000000
                                                         0.322428       0.178642
                                                         1.419172       0.193543
                                                         3.751626      -0.158826
                          1       7    4dxy              0.110740       0.016296
                                                         0.188959       0.000000
                                                         0.322428       0.309418
                                                         1.419172       0.335226
                                                         3.751626      -0.275094
                          1       7    4dxz              0.110740       0.016296
                                                         0.188959       0.000000
                                                         0.322428       0.309418
                                                         1.419172       0.335226
                                                         3.751626      -0.275094
                          1       7    4dy2              0.110740       0.009408
                                                         0.188959       0.000000
                                                         0.322428       0.178642
                                                         1.419172       0.193543
                                                         3.751626      -0.158826
                          1       7    4dyz              0.110740       0.016296
                                                         0.188959       0.000000
                                                         0.322428       0.309418
                                                         1.419172       0.335226
                                                         3.751626      -0.275094
                          1       7    4dz2              0.110740       0.009408
                                                         0.188959       0.000000
                                                         0.322428       0.178642
                                                         1.419172       0.193543
                                                         3.751626      -0.158826

                          1       8    5dx2              0.110740       0.038695
                                                         0.188959       0.008906
                                                         0.322428      -0.084377
                                                         1.419172      -0.238123
                                                         3.751626       0.052354
                          1       8    5dxy              0.110740       0.067021
                                                         0.188959       0.015426
                                                         0.322428      -0.146145
                                                         1.419172      -0.412441
                                                         3.751626       0.090680
                          1       8    5dxz              0.110740       0.067021
                                                         0.188959       0.015426
                                                         0.322428      -0.146145
                                                         1.419172      -0.412441
                                                         3.751626       0.090680
                          1       8    5dy2              0.110740       0.038695
                                                         0.188959       0.008906
                                                         0.322428      -0.084377
                                                         1.419172      -0.238123
                                                         3.751626       0.052354
                          1       8    5dyz              0.110740       0.067021
                                                         0.188959       0.015426
                                                         0.322428      -0.146145
                                                         1.419172      -0.412441
                                                         3.751626       0.090680
                          1       8    5dz2              0.110740       0.038695
                                                         0.188959       0.008906
                                                         0.322428      -0.084377
                                                         1.419172      -0.238123
                                                         3.751626       0.052354

                          1       9    5fx3              0.110740       0.001570
                                                         0.188959      -0.003186
                                                         0.322428       0.109116
                                                         1.419172       0.309700
                                                         3.751626      -8.975576
                          1       9    5fx2y             0.110740       0.003511
                                                         0.188959      -0.007124
                                                         0.322428       0.243990
                                                         1.419172       0.692510
                                                         3.751626     -20.069998
                          1       9    5fx2z             0.110740       0.003511
                                                         0.188959      -0.007124
                                                         0.322428       0.243990
                                                         1.419172       0.692510
                                                         3.751626     -20.069998
                          1       9    5fxy2             0.110740       0.003511
                                                         0.188959      -0.007124
                                                         0.322428       0.243990
                                                         1.419172       0.692510
                                                         3.751626     -20.069998
                          1       9    5fxyz             0.110740       0.006081
                                                         0.188959      -0.012340
                                                         0.322428       0.422603
                                                         1.419172       1.199462
                                                         3.751626     -34.762257
                          1       9    5fxz2             0.110740       0.003511
                                                         0.188959      -0.007124
                                                         0.322428       0.243990
                                                         1.419172       0.692510
                                                         3.751626     -20.069998
                          1       9    5fy3              0.110740       0.001570
                                                         0.188959      -0.003186
                                                         0.322428       0.109116
                                                         1.419172       0.309700
                                                         3.751626      -8.975576
                          1       9    5fy2z             0.110740       0.003511
                                                         0.188959      -0.007124
                                                         0.322428       0.243990
                                                         1.419172       0.692510
                                                         3.751626     -20.069998
                          1       9    5fyz2             0.110740       0.003511
                                                         0.188959      -0.007124
                                                         0.322428       0.243990
                                                         1.419172       0.692510
                                                         3.751626     -20.069998
                          1       9    5fz3              0.110740       0.001570
                                                         0.188959      -0.003186
                                                         0.322428       0.109116
                                                         1.419172       0.309700
                                                         3.751626      -8.975576

     RI Auxiliary Basis Set             RI_aug-DZVP-MOLOPT-GTH-tier-2_N_RI_105_s

       Number of orbital shell sets:                                          25
       Number of orbital shells:                                              25
       Number of primitive Cartesian functions:                               25
       Number of Cartesian basis functions:                                  142
       Number of spherical basis functions:                                  105
       Norm type:                                                              2

       Normalised Cartesian orbitals:

                        Set   Shell   Orbital            Exponent    Coefficient

                          1       1    1s                0.208097       0.219589

                          2       1    2s                0.363027       0.333322

                          3       1    3s                0.637507       0.508480

                          4       1    4s                1.117617       0.774693

                          5       1    5s                1.951397       1.176710

                          6       1    6s                3.398672       1.783988

                          7       1    7s                5.912168       2.702217

                          8       1    8px               0.206623       0.198570
                          8       1    8py               0.206623       0.198570
                          8       1    8pz               0.206623       0.198570

                          9       1    9px               0.390530       0.440056
                          9       1    9py               0.390530       0.440056
                          9       1    9pz               0.390530       0.440056

                         10       1   10px               0.757107       1.006670
                         10       1   10py               0.757107       1.006670
                         10       1   10pz               0.757107       1.006670

                         11       1   11px               1.561453       2.488004
                         11       1   11py               1.561453       2.488004
                         11       1   11pz               1.561453       2.488004

                         12       1   12px               3.147328       5.975407
                         12       1   12py               3.147328       5.975407
                         12       1   12pz               3.147328       5.975407

                         13       1   13px               6.067307      13.573288
                         13       1   13py               6.067307      13.573288
                         13       1   13pz               6.067307      13.573288

                         14       1   14dx2              0.216653       0.113240
                         14       1   14dxy              0.216653       0.196137
                         14       1   14dxz              0.216653       0.196137
                         14       1   14dy2              0.216653       0.113240
                         14       1   14dyz              0.216653       0.196137
                         14       1   14dz2              0.216653       0.113240

                         15       1   15dx2              0.396974       0.326770
                         15       1   15dxy              0.396974       0.565982
                         15       1   15dxz              0.396974       0.565982
                         15       1   15dy2              0.396974       0.326770
                         15       1   15dyz              0.396974       0.565982
                         15       1   15dz2              0.396974       0.326770

                         16       1   16dx2              0.773205       1.049361
                         16       1   16dxy              0.773205       1.817547
                         16       1   16dxz              0.773205       1.817547
                         16       1   16dy2              0.773205       1.049361
                         16       1   16dyz              0.773205       1.817547
                         16       1   16dz2              0.773205       1.049361

                         17       1   17dx2              1.627286       3.858969
                         17       1   17dxy              1.627286       6.683930
                         17       1   17dxz              1.627286       6.683930
                         17       1   17dy2              1.627286       3.858969
                         17       1   17dyz              1.627286       6.683930
                         17       1   17dz2              1.627286       3.858969

                         18       1   18dx2              3.205739      12.641065
                         18       1   18dxy              3.205739      21.894967
                         18       1   18dxz              3.205739      21.894967
                         18       1   18dy2              3.205739      12.641065
                         18       1   18dyz              3.205739      21.894967
                         18       1   18dz2              3.205739      12.641065

                         19       1   19dx2              6.113360      39.120045
                         19       1   19dxy              6.113360      67.757906
                         19       1   19dxz              6.113360      67.757906
                         19       1   19dy2              6.113360      39.120045
                         19       1   19dyz              6.113360      67.757906
                         19       1   19dz2              6.113360      39.120045

                         20       1   20fx3              0.225616       0.051646
                         20       1   20fx2y             0.225616       0.115484
                         20       1   20fx2z             0.225616       0.115484
                         20       1   20fxy2             0.225616       0.115484
                         20       1   20fxyz             0.225616       0.200024
                         20       1   20fxz2             0.225616       0.115484
                         20       1   20fy3              0.225616       0.051646
                         20       1   20fy2z             0.225616       0.115484
                         20       1   20fyz2             0.225616       0.115484
                         20       1   20fz3              0.225616       0.051646

                         21       1   21fx3              0.547350       0.379359
                         21       1   21fx2y             0.547350       0.848272
                         21       1   21fx2z             0.547350       0.848272
                         21       1   21fxy2             0.547350       0.848272
                         21       1   21fxyz             0.547350       1.469250
                         21       1   21fxz2             0.547350       0.848272
                         21       1   21fy3              0.547350       0.379359
                         21       1   21fy2z             0.547350       0.848272
                         21       1   21fyz2             0.547350       0.848272
                         21       1   21fz3              0.547350       0.379359

                         22       1   22fx3              2.476713      11.328563
                         22       1   22fx2y             2.476713      25.331436
                         22       1   22fx2z             2.476713      25.331436
                         22       1   22fxy2             2.476713      25.331436
                         22       1   22fxyz             2.476713      43.875335
                         22       1   22fxz2             2.476713      25.331436
                         22       1   22fy3              2.476713      11.328563
                         22       1   22fy2z             2.476713      25.331436
                         22       1   22fyz2             2.476713      25.331436
                         22       1   22fz3              2.476713      11.328563

                         23       1   23gx4              0.484681       0.151858
                         23       1   23gx3y             0.484681       0.401780
                         23       1   23gx3z             0.484681       0.401780
                         23       1   23gx2y2            0.484681       0.518695
                         23       1   23gx2yz            0.484681       0.898407
                         23       1   23gx2z2            0.484681       0.518695
                         23       1   23gxy3             0.484681       0.401780
                         23       1   23gxy2z            0.484681       0.898407
                         23       1   23gxyz2            0.484681       0.898407
                         23       1   23gxz3             0.484681       0.401780
                         23       1   23gy4              0.484681       0.151858
                         23       1   23gy3z             0.484681       0.401780
                         23       1   23gy2z2            0.484681       0.518695
                         23       1   23gyz3             0.484681       0.401780
                         23       1   23gz4              0.484681       0.151858

                         24       1   24gx4              5.915597     147.717368
                         24       1   24gx3y             5.915597     390.823419
                         24       1   24gx3z             5.915597     390.823419
                         24       1   24gx2y2            5.915597     504.550864
                         24       1   24gx2yz            5.915597     873.907732
                         24       1   24gx2z2            5.915597     504.550864
                         24       1   24gxy3             5.915597     390.823419
                         24       1   24gxy2z            5.915597     873.907732
                         24       1   24gxyz2            5.915597     873.907732
                         24       1   24gxz3             5.915597     390.823419
                         24       1   24gy4              5.915597     147.717368
                         24       1   24gy3z             5.915597     390.823419
                         24       1   24gy2z2            5.915597     504.550864
                         24       1   24gyz3             5.915597     390.823419
                         24       1   24gz4              5.915597     147.717368

                         25       1   25hx5              0.760476       0.304700
                         25       1   25hx4y             0.760476       0.914100
                         25       1   25hx4z             0.760476       0.914100
                         25       1   25hx3y2            0.760476       1.396311
                         25       1   25hx3yz            0.760476       2.418482
                         25       1   25hx3z2            0.760476       1.396311
                         25       1   25hx2y3            0.760476       1.396311
                         25       1   25hx2y2z           0.760476       3.122247
                         25       1   25hx2yz2           0.760476       3.122247
                         25       1   25hx2z3            0.760476       1.396311
                         25       1   25hxy4             0.760476       0.914100
                         25       1   25hxy3z            0.760476       2.418482
                         25       1   25hxy2z2           0.760476       3.122247
                         25       1   25hxyz3            0.760476       2.418482
                         25       1   25hxz4             0.760476       0.914100
                         25       1   25hy5              0.760476       0.304700
                         25       1   25hy4z             0.760476       0.914100
                         25       1   25hy3z2            0.760476       1.396311
                         25       1   25hy2z3            0.760476       1.396311
                         25       1   25hyz4             0.760476       0.914100
                         25       1   25hz5              0.760476       0.304700

       Atomic covalent radius [Angstrom]:                                  1.220

       Atomic van der Waals radius [Angstrom]:                             2.110

     GTH Potential information for                                       GTH-PBE

       Description:                       Goedecker-Teter-Hutter pseudopotential
                                           Goedecker et al., PRB 54, 1703 (1996)
                                          Hartwigsen et al., PRB 58, 3641 (1998)
                                                      Krack, TCA 114, 145 (2005)

       Gaussian exponent of the core charge distribution:               1.714678
       Electronic configuration (s p d ...):                               2   2

       Parameters of the local part of the GTH pseudopotential:

                          rloc        C1          C2          C3          C4
                        0.540000

       Parameters of the non-local part of the GTH pseudopotential:

                   l      r(l)      h(i,j,l)

                   0    0.421865    7.510241   -0.588108   -1.447976
                                   -0.588108   -1.595888    3.738657
                                   -1.447976    3.738657   -2.967467
                   1    0.567529    0.913860    0.546875
                                    0.546875   -0.647072
                   2    0.813914    0.197177

  2. Atomic kind: H                                     Number of atoms:       4

     Orbital Basis Set                              AUG-DZVP-MOLOPT-GTH-TIER-2_1

       Number of orbital shell sets:                                           1
       Number of orbital shells:                                               5
       Number of primitive Cartesian functions:                                6
       Number of Cartesian basis functions:                                    9
       Number of spherical basis functions:                                    9
       Norm type:                                                              2

       Normalised Cartesian orbitals:

                        Set   Shell   Orbital            Exponent    Coefficient

                          1       1    2s                0.040000       0.000000
                                                         0.082193      -0.014019
                                                         0.239116      -0.107525
                                                         0.791502      -0.258419
                                                         2.680223      -0.177618
                                                        10.068468      -0.133023

                          1       2    3s                0.040000       0.000000
                                                         0.082193       0.070122
                                                         0.239116       0.095686
                                                         0.791502      -0.516519
                                                         2.680223       1.442428
                                                        10.068468       0.350082

                          1       3    4s                0.040000      -0.071691
                                                         0.082193       0.022042
                                                         0.239116      -0.032816
                                                         0.791502       0.047630
                                                         2.680223      -0.012195
                                                        10.068468       0.018970

                          1       4    3px               0.040000       0.000000
                                                         0.082193       0.033440
                                                         0.239116       0.080105
                                                         0.791502       0.311480
                                                         2.680223       0.367157
                                                        10.068468       0.155326
                          1       4    3py               0.040000       0.000000
                                                         0.082193       0.033440
                                                         0.239116       0.080105
                                                         0.791502       0.311480
                                                         2.680223       0.367157
                                                        10.068468       0.155326
                          1       4    3pz               0.040000       0.000000
                                                         0.082193       0.033440
                                                         0.239116       0.080105
                                                         0.791502       0.311480
                                                         2.680223       0.367157
                                                        10.068468       0.155326

                          1       5    4px               0.040000       0.026185
                                                         0.082193      -0.014195
                                                         0.239116       0.069894
                                                         0.791502       0.064207
                                                         2.680223       0.287509
                                                        10.068468      -0.071707
                          1       5    4py               0.040000       0.026185
                                                         0.082193      -0.014195
                                                         0.239116       0.069894
                                                         0.791502       0.064207
                                                         2.680223       0.287509
                                                        10.068468      -0.071707
                          1       5    4pz               0.040000       0.026185
                                                         0.082193      -0.014195
                                                         0.239116       0.069894
                                                         0.791502       0.064207
                                                         2.680223       0.287509
                                                        10.068468      -0.071707

     RI Auxiliary Basis Set             RI_aug-DZVP-MOLOPT-GTH-tier-2_N_RI_055_s

       Number of orbital shell sets:                                          19
       Number of orbital shells:                                              19
       Number of primitive Cartesian functions:                               19
       Number of Cartesian basis functions:                                   61
       Number of spherical basis functions:                                   55
       Norm type:                                                              2

       Normalised Cartesian orbitals:

                        Set   Shell   Orbital            Exponent    Coefficient

                          1       1    1s                0.100000       0.126739

                          2       1    2s                0.234856       0.240443

                          3       1    3s                0.551574       0.456156

                          4       1    4s                1.295407       0.865396

                          5       1    5s                3.042342       1.641785

                          6       1    6s                7.145130       3.114711

                          7       1    7s               16.780780       5.909071

                          8       1    8px               0.100000       0.080157
                          8       1    8py               0.100000       0.080157
                          8       1    8pz               0.100000       0.080157

                          9       1    9px               0.278588       0.288498
                          9       1    9py               0.278588       0.288498
                          9       1    9pz               0.278588       0.288498

                         10       1   10px               0.776113       1.038356
                         10       1   10py               0.776113       1.038356
                         10       1   10pz               0.776113       1.038356

                         11       1   11px               2.162157       3.737225
                         11       1   11py               2.162157       3.737225
                         11       1   11pz               2.162157       3.737225

                         12       1   12px               6.023511      13.450928
                         12       1   12py               6.023511      13.450928
                         12       1   12pz               6.023511      13.450928

                         13       1   13px              16.780780      48.412251
                         13       1   13py              16.780780      48.412251
                         13       1   13pz              16.780780      48.412251

                         14       1   14dx2              0.100000       0.029269
                         14       1   14dxy              0.100000       0.050696
                         14       1   14dxz              0.100000       0.050696
                         14       1   14dy2              0.100000       0.029269
                         14       1   14dyz              0.100000       0.050696
                         14       1   14dz2              0.100000       0.029269

                         15       1   15dx2              0.278588       0.175830
                         15       1   15dxy              0.278588       0.304547
                         15       1   15dxz              0.278588       0.304547
                         15       1   15dy2              0.278588       0.175830
                         15       1   15dyz              0.278588       0.304547
                         15       1   15dz2              0.278588       0.175830

                         16       1   16dx2              0.776113       1.056277
                         16       1   16dxy              0.776113       1.829526
                         16       1   16dxz              0.776113       1.829526
                         16       1   16dy2              0.776113       1.056277
                         16       1   16dyz              0.776113       1.829526
                         16       1   16dz2              0.776113       1.056277

                         17       1   17dx2              2.162157       6.345447
                         17       1   17dxy              2.162157      10.990637
                         17       1   17dxz              2.162157      10.990637
                         17       1   17dy2              2.162157       6.345447
                         17       1   17dyz              2.162157      10.990637
                         17       1   17dz2              2.162157       6.345447

                         18       1   18dx2              6.023511      38.119436
                         18       1   18dxy              6.023511      66.024801
                         18       1   18dxz              6.023511      66.024801
                         18       1   18dy2              6.023511      38.119436
                         18       1   18dyz              6.023511      66.024801
                         18       1   18dz2              6.023511      38.119436

                         19       1   19dx2             16.780780     228.997491
                         19       1   19dxy             16.780780     396.635290
                         19       1   19dxz             16.780780     396.635290
                         19       1   19dy2             16.780780     228.997491
                         19       1   19dyz             16.780780     396.635290
                         19       1   19dz2             16.780780     228.997491

       Atomic covalent radius [Angstrom]:                                  0.320

       Atomic van der Waals radius [Angstrom]:                             1.090

     GTH Potential information for                                       GTH-PBE

       Description:                       Goedecker-Teter-Hutter pseudopotential
                                           Goedecker et al., PRB 54, 1703 (1996)
                                          Hartwigsen et al., PRB 58, 3641 (1998)
                                                      Krack, TCA 114, 145 (2005)

       Gaussian exponent of the core charge distribution:              12.500000
       Electronic configuration (s p d ...):                                   1

       Parameters of the local part of the GTH pseudopotential:

                          rloc        C1          C2          C3          C4
                        0.200000   -4.178900    0.724463


 MOLECULE KIND INFORMATION


 All atoms are their own molecule, skipping detailed information


 TOTAL NUMBERS AND MAXIMUM NUMBERS

  Total number of            - Atomic kinds:                                   2
                             - Atoms:                                          5
                             - Shell sets:                                     5
                             - Shells:                                        29
                             - Primitive Cartesian functions:                 29
                             - Cartesian basis functions:                     70
                             - Spherical basis functions:                     65

  Maximum angular momentum of- Orbital basis functions:                        3
                             - Local part of the GTH pseudopotential:          2
                             - Non-local part of the GTH pseudopotential:      4


 MODULE QUICKSTEP: ATOMIC COORDINATES IN ANGSTROM

   Atom Kind Element         X             Y             Z       Z(eff)     Mass
      1    1 Ge   32     10.000000     10.000000     10.000000   4.0000  72.6400
      2    2 H     1     10.880500      9.119500     10.880500   1.0000   1.0079
      3    2 H     1      9.119500     10.880500     10.880500   1.0000   1.0079
      4    2 H     1      9.119500      9.119500      9.119500   1.0000   1.0079
      5    2 H     1     10.880500     10.880500      9.119500   1.0000   1.0079



 SCF PARAMETERS         Density guess:                                    ATOMIC
                        --------------------------------------------------------
                        max_scf:                                             200
                        max_scf_history:                                       0
                        max_diis:                                              4
                        --------------------------------------------------------
                        eps_scf:                                        1.00E-07
                        eps_scf_history:                                0.00E+00
                        eps_diis:                                       1.00E-01
                        eps_eigval:                                     1.00E-05
                        --------------------------------------------------------
                        level_shift [a.u.]:                             0.000000
                        SCF update method:                                MIXING
                        added MOs                                        61    0
                        --------------------------------------------------------
                        Mixing method:                            BROYDEN_MIXING
                                                charge density mixing in g-space
                        --------------------------------------------------------
                        Outer loop SCF in use 
                        No variables optimised in outer loop
                        eps_scf                                         1.00E-07
                        max_scf                                               20
                        No outer loop optimization
                        step_size                                       5.00E-01

 PW_GRID| Information for grid number                                          2
 PW_GRID| Grid distributed over                                    32 processors
 PW_GRID| Real space group dimensions                                    32    1
 PW_GRID| the grid is blocked:                                                NO
 PW_GRID| Cutoff [a.u.]                                                    300.0
 PW_GRID| spherical cutoff:                                                   NO
 PW_GRID|   Bounds   1           -150     149                Points:         300
 PW_GRID|   Bounds   2           -150     149                Points:         300
 PW_GRID|   Bounds   3           -150     149                Points:         300
 PW_GRID| Volume element (a.u.^3)  0.2000E-02     Volume (a.u.^3)     53986.6767
 PW_GRID| Grid span                                                    FULLSPACE
 PW_GRID|   Distribution                         Average         Max         Min
 PW_GRID|   G-Vectors                           843750.0      843900      843600
 PW_GRID|   G-Rays                                2812.5        2813        2812
 PW_GRID|   Real Space Points                   843750.0      900000      810000

 PW_GRID| Information for grid number                                          3
 PW_GRID| Number of the reference grid                                         2
 PW_GRID| Grid distributed over                                    32 processors
 PW_GRID| Real space group dimensions                                    32    1
 PW_GRID| the grid is blocked:                                                NO
 PW_GRID| Cutoff [a.u.]                                                    100.0
 PW_GRID| spherical cutoff:                                                   NO
 PW_GRID|   Bounds   1            -90      89                Points:         180
 PW_GRID|   Bounds   2            -90      89                Points:         180
 PW_GRID|   Bounds   3            -90      89                Points:         180
 PW_GRID| Volume element (a.u.^3)  0.9257E-02     Volume (a.u.^3)     53986.6767
 PW_GRID| Grid span                                                    FULLSPACE
 PW_GRID|   Distribution                         Average         Max         Min
 PW_GRID|   G-Vectors                           182250.0      182520      181980
 PW_GRID|   G-Rays                                1012.5        1014        1011
 PW_GRID|   Real Space Points                   182250.0      194400      162000

 PW_GRID| Information for grid number                                          4
 PW_GRID| Number of the reference grid                                         2
 PW_GRID| Grid distributed over                                    32 processors
 PW_GRID| Real space group dimensions                                    32    1
 PW_GRID| the grid is blocked:                                                NO
 PW_GRID| Cutoff [a.u.]                                                     33.3
 PW_GRID| spherical cutoff:                                                   NO
 PW_GRID|   Bounds   1            -50      49                Points:         100
 PW_GRID|   Bounds   2            -50      49                Points:         100
 PW_GRID|   Bounds   3            -50      49                Points:         100
 PW_GRID| Volume element (a.u.^3)  0.5399E-01     Volume (a.u.^3)     53986.6767
 PW_GRID| Grid span                                                    FULLSPACE
 PW_GRID|   Distribution                         Average         Max         Min
 PW_GRID|   G-Vectors                            31250.0       31500       31000
 PW_GRID|   G-Rays                                 312.5         315         310
 PW_GRID|   Real Space Points                    31250.0       40000       30000

 PW_GRID| Information for grid number                                          5
 PW_GRID| Number of the reference grid                                         2
 PW_GRID| Grid distributed over                                    32 processors
 PW_GRID| Real space group dimensions                                    32    1
 PW_GRID| the grid is blocked:                                                NO
 PW_GRID| Cutoff [a.u.]                                                     11.1
 PW_GRID| spherical cutoff:                                                   NO
 PW_GRID|   Bounds   1            -30      29                Points:          60
 PW_GRID|   Bounds   2            -30      29                Points:          60
 PW_GRID|   Bounds   3            -30      29                Points:          60
 PW_GRID| Volume element (a.u.^3)  0.2499         Volume (a.u.^3)     53986.6767
 PW_GRID| Grid span                                                    FULLSPACE
 PW_GRID|   Distribution                         Average         Max         Min
 PW_GRID|   G-Vectors                             6750.0        6780        6720
 PW_GRID|   G-Rays                                 112.5         113         112
 PW_GRID|   Real Space Points                     6750.0        7200        3600

 PW_GRID| Information for grid number                                          6
 PW_GRID| Number of the reference grid                                         2
 PW_GRID| Grid distributed over                                    32 processors
 PW_GRID| Real space group dimensions                                    32    1
 PW_GRID| the grid is blocked:                                                NO
 PW_GRID| Cutoff [a.u.]                                                      3.7
 PW_GRID| spherical cutoff:                                                   NO
 PW_GRID|   Bounds   1            -18      17                Points:          36
 PW_GRID|   Bounds   2            -18      17                Points:          36
 PW_GRID|   Bounds   3            -18      17                Points:          36
 PW_GRID| Volume element (a.u.^3)   1.157         Volume (a.u.^3)     53986.6767
 PW_GRID| Grid span                                                    FULLSPACE
 PW_GRID|   Distribution                         Average         Max         Min
 PW_GRID|   G-Vectors                             1458.0        1548        1368
 PW_GRID|   G-Rays                                  40.5          43          38
 PW_GRID|   Real Space Points                     1458.0        2592        1296

 POISSON| Solver                                             MULTIPOLE (Bloechl)
 POISSON| Periodicity                                                       NONE

 RS_GRID| Information for grid number                                          2
 RS_GRID|   Bounds   1           -150     149                Points:         300
 RS_GRID|   Bounds   2           -150     149                Points:         300
 RS_GRID|   Bounds   3           -150     149                Points:         300
 RS_GRID| Real space distribution over                                  4 groups
 RS_GRID| Real space distribution along direction                              2
 RS_GRID| Border size                                                         35
 RS_GRID| Real space distribution over                                  8 groups
 RS_GRID| Real space distribution along direction                              3
 RS_GRID| Border size                                                         35
 RS_GRID|   Distribution                         Average         Max         Min
 RS_GRID|   Planes                                 145.0         145         145
 RS_GRID|   Distribution                         Average         Max         Min
 RS_GRID|   Planes                                 107.5         108         107

 RS_GRID| Information for grid number                                          3
 RS_GRID|   Bounds   1            -90      89                Points:         180
 RS_GRID|   Bounds   2            -90      89                Points:         180
 RS_GRID|   Bounds   3            -90      89                Points:         180
 RS_GRID| Real space distribution over                                  4 groups
 RS_GRID| Real space distribution along direction                              2
 RS_GRID| Border size                                                         29
 RS_GRID| Real space distribution over                                  8 groups
 RS_GRID| Real space distribution along direction                              3
 RS_GRID| Border size                                                         29
 RS_GRID|   Distribution                         Average         Max         Min
 RS_GRID|   Planes                                 103.0         103         103
 RS_GRID|   Distribution                         Average         Max         Min
 RS_GRID|   Planes                                  80.5          81          80

 RS_GRID| Information for grid number                                          4
 RS_GRID|   Bounds   1            -50      49                Points:         100
 RS_GRID|   Bounds   2            -50      49                Points:         100
 RS_GRID|   Bounds   3            -50      49                Points:         100
 RS_GRID| Real space fully replicated
 RS_GRID| Group size                                                           1

 RS_GRID| Information for grid number                                          5
 RS_GRID|   Bounds   1            -30      29                Points:          60
 RS_GRID|   Bounds   2            -30      29                Points:          60
 RS_GRID|   Bounds   3            -30      29                Points:          60
 RS_GRID| Real space fully replicated
 RS_GRID| Group size                                                           1

 RS_GRID| Information for grid number                                          6
 RS_GRID|   Bounds   1            -18      17                Points:          36
 RS_GRID|   Bounds   2            -18      17                Points:          36
 RS_GRID|   Bounds   3            -18      17                Points:          36
 RS_GRID| Real space fully replicated
 RS_GRID| Group size                                                           1

 Extrapolation method: initial_guess

 Atomic guess: The first density matrix is obtained in terms of atomic orbitals
               and electronic configurations assigned to each atomic kind

 Guess for atomic kind: Ge

 Electronic structure
    Total number of core electrons                                         28.00
    Total number of valence electrons                                       4.00
    Total number of electrons                                              32.00
    Multiplicity                                                   not specified
    S   [  2.00  2.00  2.00] 2.00
    P   [  6.00  6.00] 2.00
    D   [ 10.00]


 *******************************************************************************
                  Iteration          Convergence                     Energy [au]
 *******************************************************************************
                          1        0.146937                      -3.666207818466
                          2        0.470437E-01                  -3.688197560829
                          3        0.404086E-03                  -3.690900538931
                          4        0.392948E-04                  -3.690900799858
                          5        0.741949E-07                  -3.690900801681

 Energy components [Hartree]           Total Energy ::           -3.690900801681
                                        Band Energy ::           -1.017227145417
                                     Kinetic Energy ::            1.433193910048
                                   Potential Energy ::           -5.124094711729
                                      Virial (-V/T) ::            3.575297575439
                                        Core Energy ::           -5.681385584779
                                          XC Energy ::           -0.980063876891
                                     Coulomb Energy ::            2.970548659989
                       Total Pseudopotential Energy ::           -7.158475963664
                       Local Pseudopotential Energy ::           -7.590212055157
                    Nonlocal Pseudopotential Energy ::            0.431736091493
                                        Confinement ::            0.438964688368

 Orbital energies  State     L     Occupation   Energy[a.u.]          Energy[eV]

                       1     0          2.000      -0.398147          -10.834120

                       1     1          2.000      -0.110467           -3.005959


 Total Electron Density at R=0:                                         0.000074

 Guess for atomic kind: H

 Electronic structure
    Total number of core electrons                                          0.00
    Total number of valence electrons                                       1.00
    Total number of electrons                                               1.00
    Multiplicity                                                   not specified
    S      1.00


 *******************************************************************************
                  Iteration          Convergence                     Energy [au]
 *******************************************************************************
                          1        0.849271E-02                  -0.403853868370
                          2        0.202122E-02                  -0.404000226111
                          3        0.218684E-04                  -0.404009458244
                          4        0.145463E-06                  -0.404009458848

 Energy components [Hartree]           Total Energy ::           -0.404009458848
                                        Band Energy ::           -0.170710771497
                                     Kinetic Energy ::            0.548565159747
                                   Potential Energy ::           -0.952574618594
                                      Virial (-V/T) ::            1.736483992229
                                        Core Energy ::           -0.459769698304
                                          XC Energy ::           -0.255252712742
                                     Coulomb Energy ::            0.311012952198
                       Total Pseudopotential Energy ::           -1.032689953061
                       Local Pseudopotential Energy ::           -1.032689953061
                    Nonlocal Pseudopotential Energy ::            0.000000000000
                                        Confinement ::            0.243550950100

 Orbital energies  State     L     Occupation   Energy[a.u.]          Energy[eV]

                       1     0          1.000      -0.170711           -4.645276


 Total Electron Density at R=0:                                         0.296629
 Re-scaling the density matrix to get the right number of electrons
                  # Electrons              Trace(P)               Scaling factor
                            8                 8.000                        1.000

 Number of electrons:                                                          8
 Number of occupied orbitals:                                                  4
 Number of molecular orbitals:                                                65

 Number of orbital functions:                                                 65
 Number of independent orbital functions:                                     65


 SCF WAVEFUNCTION OPTIMIZATION

  Step     Update method      Time    Convergence         Total energy    Change
  ------------------------------------------------------------------------------
     1 NoMix/Diag. 0.20E+00    0.7     0.59851510        -5.8322813289 -5.83E+00
     2 Broy./Diag. 0.20E+00    1.0     0.02842661        -5.7337009092  9.86E-02
     3 Broy./Diag. 0.20E+00    1.0     0.10359776        -6.0746287292 -3.41E-01
     4 Broy./Diag. 0.20E+00    1.0     0.00238218        -6.2184823177 -1.44E-01
     5 Broy./Diag. 0.20E+00    1.0     0.01337477        -6.2108642124  7.62E-03
     6 Broy./Diag. 0.20E+00    1.0     0.00154820        -6.2262115776 -1.53E-02
     7 Broy./Diag. 0.20E+00    1.1     0.00547669        -6.2290172494 -2.81E-03
     8 Broy./Diag. 0.20E+00    1.1     0.00178430        -6.2340697576 -5.05E-03
     9 Broy./Diag. 0.20E+00    1.1     0.00160545        -6.2384073149 -4.34E-03
    10 Broy./Diag. 0.20E+00    1.1     0.00220295        -6.2382290669  1.78E-04
    11 Broy./Diag. 0.20E+00    1.1     0.00196189        -6.2370154048  1.21E-03
    12 Broy./Diag. 0.20E+00    1.1     0.00029366        -6.2372405871 -2.25E-04
    13 Broy./Diag. 0.20E+00    1.1     0.00062585        -6.2374334568 -1.93E-04
    14 Broy./Diag. 0.20E+00    1.1     0.00024319        -6.2376219104 -1.88E-04
    15 Broy./Diag. 0.20E+00    1.1     0.00032843        -6.2378403769 -2.18E-04
    16 Broy./Diag. 0.20E+00    1.1     0.00013127        -6.2378074671  3.29E-05
    17 Broy./Diag. 0.20E+00    1.1     0.00030964        -6.2375467657  2.61E-04
    18 Broy./Diag. 0.20E+00    1.1     0.00003624        -6.2374519683  9.48E-05
    19 Broy./Diag. 0.20E+00    1.1     0.00004027        -6.2374312288  2.07E-05
    20 Broy./Diag. 0.20E+00    1.1     0.00003942        -6.2374246023  6.63E-06
    21 Broy./Diag. 0.20E+00    1.1     0.00004036        -6.2375341012 -1.09E-04
    22 Broy./Diag. 0.20E+00    1.1     0.00002472        -6.2376510878 -1.17E-04
    23 Broy./Diag. 0.20E+00    1.1     0.00003446        -6.2376563979 -5.31E-06
    24 Broy./Diag. 0.20E+00    1.1     0.00006804        -6.2376362168  2.02E-05
    25 Broy./Diag. 0.20E+00    1.1     0.00002390        -6.2376406643 -4.45E-06
    26 Broy./Diag. 0.20E+00    1.1     0.00002235        -6.2376370493  3.62E-06
    27 Broy./Diag. 0.20E+00    1.1     0.00001294        -6.2376285932  8.46E-06
    28 Broy./Diag. 0.20E+00    1.1     0.00000652        -6.2376268457  1.75E-06
    29 Broy./Diag. 0.20E+00    1.1     0.00000796        -6.2376299715 -3.13E-06
    30 Broy./Diag. 0.20E+00    1.1     0.00000253        -6.2376304538 -4.82E-07
    31 Broy./Diag. 0.20E+00    1.1     0.00000051        -6.2376307211 -2.67E-07
    32 Broy./Diag. 0.20E+00    1.1     0.00000120        -6.2376318875 -1.17E-06
    33 Broy./Diag. 0.20E+00    1.1     0.00000059        -6.2376316563  2.31E-07
    34 Broy./Diag. 0.20E+00    1.1     0.00000062        -6.2376307337  9.23E-07
    35 Broy./Diag. 0.20E+00    1.1     0.00000079        -6.2376308887 -1.55E-07
    36 Broy./Diag. 0.20E+00    1.1     0.00000117        -6.2376313307 -4.42E-07
    37 Broy./Diag. 0.20E+00    1.1     0.00000022        -6.2376313879 -5.72E-08
    38 Broy./Diag. 0.20E+00    1.1     0.00000022        -6.2376313463  4.15E-08
    39 Broy./Diag. 0.20E+00    1.1     0.00000013        -6.2376313407  5.65E-09
    40 Broy./Diag. 0.20E+00    1.1     0.00000023        -6.2376313480 -7.33E-09
    41 Broy./Diag. 0.20E+00    1.1     0.00000012        -6.2376313153  3.28E-08
    42 Broy./Diag. 0.20E+00    1.1     0.00000011        -6.2376313452 -2.99E-08
    43 Broy./Diag. 0.20E+00    1.1     0.00000006        -6.2376313500 -4.78E-09

  *** SCF run converged in    43 steps ***


  Electronic density on regular grids:         -8.0000000000        0.0000000000
  Core density on regular grids:                8.0000000000       -0.0000000000
  Total charge density on r-space grids:       -0.0000000000
  Total charge density g-space grids:          -0.0000000000

  Overlap energy of the core charge distribution:               0.00000310550383
  Self energy of the core charge distribution:                -14.00026003618506
  Core Hamiltonian energy:                                      3.90120137092777
  Hartree energy:                                               6.38666405479307
  Exchange-correlation energy:                                 -2.52523984499734

  Total energy:                                                -6.23763134995774

  outer SCF iter =    1 RMS gradient =   0.65E-07 energy =         -6.2376313500
  outer SCF loop converged in   1 iterations or   43 steps


 !-----------------------------------------------------------------------------!
                     Mulliken Population Analysis

 #  Atom  Element  Kind  Atomic population                           Net charge
       1     Ge       1          4.020690                             -0.020690
       2     H        2          0.994827                              0.005173
       3     H        2          0.994827                              0.005173
       4     H        2          0.994827                              0.005173
       5     H        2          0.994827                              0.005173
 # Total charge                              8.000000                 -0.000000

 !-----------------------------------------------------------------------------!

 !-----------------------------------------------------------------------------!
                           Hirshfeld Charges

  #Atom  Element  Kind  Ref Charge     Population                    Net charge
      1       Ge     1       4.000          5.965                        -1.965
      2       H      2       1.000          0.509                         0.491
      3       H      2       1.000          0.509                         0.491
      4       H      2       1.000          0.509                         0.491
      5       H      2       1.000          0.509                         0.491

  Total Charge                                                            0.001
 !-----------------------------------------------------------------------------!
  
 -------------------------------------------------------------------------------
 -                                                                             -
 -                          BANDSTRUCTURE CALCULATION                          -
 -                                                                             -
 -------------------------------------------------------------------------------
  
 Number of occupied molecular orbitals (MOs) = Number of occupied bands        4
 Number of unoccupied (= virtual) MOs = Number of unoccupied bands            61
 Number of Gaussian basis functions for MOs                                   65
  
 -------------------------------------------------------------------------------
 -                                                                             -
 -                                GW CALCULATION                               -
 -                                                                             -
 -------------------------------------------------------------------------------
  
 Input: Number of time/freq. points                                           30
 Input: ω_max for fitting Σ(iω) (eV)                                        10.0
 Input: Filter threshold for sparse tensor operations                    1.0E-07
 Input: Apply Hedin shift                                                      F
 Detected: Available memory per MPI process                               7.0 GB
 
 Input: RI-RS Tikhonov regularization                                   1.00E-08
 Input: AO grid hard cutoff radius                                        8.00 Å
 Input: MPI ranks per atom in Z_lP solve                                      -1
 Input: Keep sparsity in χ/G/W panels                                          T
 Input: GW flavour                                                          G0W0
 
 Input: RI-RS grid optimization activated                                      T
 Input: RS points per AO function                                            7.0
 Input: Cutoff radius for atomic clusters                                  3.0 Å
 Input: Maximum grid optimization iterations                                 300
 
 Input: AUTO_RI basis optimization activated:                                  T
 Input: AUTO_RI number of RI functions per AO function:                      4.0
 Input: AUTO_RI frontier orbital window:                                  5.0 eV
 Input: AUTO_RI neighbor radius:                                           3.0 Å
 
 Cutoff radius for the truncated Coulomb operator in RI metric:            6.0 Å
 Regularization parameter of RI                                          0.0E+00
 Regularization parameter of minimax grids                               1.0E-06
 
 AUTO_RI| Number of automatic RI functions for χ, ε, W:                      260
 AUTO_RI| Total RI basis optimization time:                                0.5 s
 
 SCF direct band gap (eV)                                                   7.66
 Max. SCF eigval diff. (eV)                                               161.25
 E-Range for minimax grid                                                  21.05
 Number of Padé parameters for analytic continuation:                         16
 
 RI-RS basis radii (Å):
     Kind  Elem     r_AO (Å)     r_RI (Å)
        1    Ge        6.3842        4.6738
        2    H        10.6225        6.7183
 
 Started RI-RS grid optimization
 RI-RS grid initial normalized error                          3.438795236969E-03
 RI-RS grid optimization completed, execution time:                       16.8 s
 Normalized 3C error:                                                    2.5E-08
 Maximum absolute 3C error:                                              8.8E-04
 Optimized points outside molecular Voronoi cells:                            96 / 455
 Total grid points used for RI-RS:                                           455
 
 RI-RS grid row-blocks of ϕ_μ(r_l)                                            15
 RI-RS grid points per block (max)                                            32
 
 Percentage of non-zero matrix elements in ϕ_μ(r_l)                     100.00 %
 
 RI-RS memory estimate per MPI process:
   Available memory per process (system)                                 7.48 GB
   Required for Z_lP (dense upper bound; actual is sparser)              0.00 GB
   Required for χ, W, Σ panels (peak per panel step)                     0.00 GB
   Required for Z_lP solve peak (D_local+ϕ, worst-case atom)             0.00 GB
   Worst-case local-grid number of grid points:                              455
   Worst-case memory D_local:                                            0.00 GB
 
 Started computing Z_lP
 Computed Z_lP (MPI rank 0) for atom          1 /  1,    Execution time    0.0 s
 Computed Z_lP (all MPI ranks) for all atoms,            Execution time    0.1 s

 Memory per MPI process after computing Z_lP:
 Available memory per MPI process                                7.5 GB
 Used memory per MPI process                                     1.0 GB
 Number of batches for χ, Σ matrices                                           1
 
 Percentage of non-zero matrix elements in Z_lP                         100.00 %
 Percentage of non-zero matrix elements in G_ll', χ_ll', W_ll'          100.00 %
 Percentage of non-zero matrix elements in χ_PQ for time point 1        100.00 %
 
 Computed χ(iτ,k=0) for time point            1 / 30,    Execution time    0.0 s
 Computed χ(iτ,k=0) for time point            2 / 30,    Execution time    0.0 s
 Computed χ(iτ,k=0) for time point            3 / 30,    Execution time    0.0 s
 Computed χ(iτ,k=0) for time point            4 / 30,    Execution time    0.0 s
 Computed χ(iτ,k=0) for time point            5 / 30,    Execution time    0.0 s
 Computed χ(iτ,k=0) for time point            6 / 30,    Execution time    0.0 s
 Computed χ(iτ,k=0) for time point            7 / 30,    Execution time    0.0 s
 Computed χ(iτ,k=0) for time point            8 / 30,    Execution time    0.0 s
 Computed χ(iτ,k=0) for time point            9 / 30,    Execution time    0.0 s
 Computed χ(iτ,k=0) for time point           10 / 30,    Execution time    0.0 s
 Computed χ(iτ,k=0) for time point           11 / 30,    Execution time    0.0 s
 Computed χ(iτ,k=0) for time point           12 / 30,    Execution time    0.0 s
 Computed χ(iτ,k=0) for time point           13 / 30,    Execution time    0.0 s
 Computed χ(iτ,k=0) for time point           14 / 30,    Execution time    0.0 s
 Computed χ(iτ,k=0) for time point           15 / 30,    Execution time    0.0 s
 Computed χ(iτ,k=0) for time point           16 / 30,    Execution time    0.0 s
 Computed χ(iτ,k=0) for time point           17 / 30,    Execution time    0.0 s
 Computed χ(iτ,k=0) for time point           18 / 30,    Execution time    0.0 s
 Computed χ(iτ,k=0) for time point           19 / 30,    Execution time    0.0 s
 Computed χ(iτ,k=0) for time point           20 / 30,    Execution time    0.0 s
 Computed χ(iτ,k=0) for time point           21 / 30,    Execution time    0.0 s
 Computed χ(iτ,k=0) for time point           22 / 30,    Execution time    0.0 s
 Computed χ(iτ,k=0) for time point           23 / 30,    Execution time    0.0 s
 Computed χ(iτ,k=0) for time point           24 / 30,    Execution time    0.0 s
 Computed χ(iτ,k=0) for time point           25 / 30,    Execution time    0.0 s
 Computed χ(iτ,k=0) for time point           26 / 30,    Execution time    0.0 s
 Computed χ(iτ,k=0) for time point           27 / 30,    Execution time    0.0 s
 Computed χ(iτ,k=0) for time point           28 / 30,    Execution time    0.0 s
 Computed χ(iτ,k=0) for time point           29 / 30,    Execution time    0.0 s
 Computed χ(iτ,k=0) for time point           30 / 30,    Execution time    0.0 s
 
 Computed W(iτ),                                         Execution time    0.1 s
 
 Computed Σ^x(k=0),                                      Execution time    0.0 s
 
 Computed Σ^c(iτ) for time point              1 / 30,    Execution time    0.0 s
 Computed Σ^c(iτ) for time point              2 / 30,    Execution time    0.0 s
 Computed Σ^c(iτ) for time point              3 / 30,    Execution time    0.0 s
 Computed Σ^c(iτ) for time point              4 / 30,    Execution time    0.0 s
 Computed Σ^c(iτ) for time point              5 / 30,    Execution time    0.0 s
 Computed Σ^c(iτ) for time point              6 / 30,    Execution time    0.0 s
 Computed Σ^c(iτ) for time point              7 / 30,    Execution time    0.0 s
 Computed Σ^c(iτ) for time point              8 / 30,    Execution time    0.0 s
 Computed Σ^c(iτ) for time point              9 / 30,    Execution time    0.0 s
 Computed Σ^c(iτ) for time point             10 / 30,    Execution time    0.0 s
 Computed Σ^c(iτ) for time point             11 / 30,    Execution time    0.0 s
 Computed Σ^c(iτ) for time point             12 / 30,    Execution time    0.0 s
 Computed Σ^c(iτ) for time point             13 / 30,    Execution time    0.0 s
 Computed Σ^c(iτ) for time point             14 / 30,    Execution time    0.0 s
 Computed Σ^c(iτ) for time point             15 / 30,    Execution time    0.0 s
 Computed Σ^c(iτ) for time point             16 / 30,    Execution time    0.0 s
 Computed Σ^c(iτ) for time point             17 / 30,    Execution time    0.0 s
 Computed Σ^c(iτ) for time point             18 / 30,    Execution time    0.0 s
 Computed Σ^c(iτ) for time point             19 / 30,    Execution time    0.0 s
 Computed Σ^c(iτ) for time point             20 / 30,    Execution time    0.0 s
 Computed Σ^c(iτ) for time point             21 / 30,    Execution time    0.0 s
 Computed Σ^c(iτ) for time point             22 / 30,    Execution time    0.0 s
 Computed Σ^c(iτ) for time point             23 / 30,    Execution time    0.0 s
 Computed Σ^c(iτ) for time point             24 / 30,    Execution time    0.0 s
 Computed Σ^c(iτ) for time point             25 / 30,    Execution time    0.0 s
 Computed Σ^c(iτ) for time point             26 / 30,    Execution time    0.0 s
 Computed Σ^c(iτ) for time point             27 / 30,    Execution time    0.0 s
 Computed Σ^c(iτ) for time point             28 / 30,    Execution time    0.0 s
 Computed Σ^c(iτ) for time point             29 / 30,    Execution time    0.0 s
 Computed Σ^c(iτ) for time point             30 / 30,    Execution time    0.0 s
 
 SCF valence band maximum (eV):                                           -8.311
 SCF conduction band minimum (eV):                                        -0.649
 SCF indirect band gap (eV):                                               7.661
 SCF direct band gap (eV):                                                 7.661
 
 G0W0 valence band maximum (eV):                                         -11.703
 G0W0 conduction band minimum (eV):                                        1.204
 G0W0 indirect band gap (eV):                                             12.907
 G0W0 direct band gap (eV):                                               12.907
 
 Hartree-Fock with SCF orbitals valence band maximum (eV):               -12.522
 Hartree-Fock with SCF orbitals conduction band minimum (eV)               1.854
 Hartree-Fock with SCF orbitals indirect band gap (eV):                   14.376
 Hartree-Fock with SCF orbitals direct band gap (eV):                     14.376

 ENERGY| Total FORCE_EVAL ( QS ) energy [hartree]             -6.237631349957738

 -------------------------------------------------------------------------------
 -                                                                             -
 -                                DBCSR STATISTICS                             -
 -                                                                             -
 -------------------------------------------------------------------------------
 COUNTER                                    TOTAL       BLAS       SMM       ACC
 flops     9 x    29 x     1                44892       0.0%    100.0%      0.0%     
 flops    29 x     9 x     1                44892       0.0%    100.0%      0.0%     
 flops     9 x     9 x     1                69660       0.0%    100.0%      0.0%     
 flops    29 x    29 x     1                72326       0.0%    100.0%      0.0%     
 flops    31 x    11 x    50               136400       0.0%    100.0%      0.0%     
 flops    32 x    11 x    50               140800       0.0%    100.0%      0.0%     
 flops    11 x    44 x    11               170368       0.0%    100.0%      0.0%     
 flops    11 x    11 x    44               181016       0.0%    100.0%      0.0%     
 flops    11 x    50 x    11               193600       0.0%    100.0%      0.0%     
 flops    11 x    29 x    11               203522       0.0%    100.0%      0.0%     
 flops    11 x    62 x    11               240064       0.0%    100.0%      0.0%     
 flops    11 x     9 x    11               252648       0.0%    100.0%      0.0%     
 flops    11 x    52 x    11               402688       0.0%    100.0%      0.0%     
 flops    11 x    11 x    52               440440       0.0%    100.0%      0.0%     
 flops    29 x    29 x    11               499554       0.0%    100.0%      0.0%     
 flops    11 x    11 x    29               526350       0.0%    100.0%      0.0%     
 flops     9 x    29 x    11               620136       0.0%    100.0%      0.0%     
 flops    29 x     9 x    11               620136       0.0%    100.0%      0.0%     
 flops    44 x    44 x    11               638880       0.0%    100.0%      0.0%     
 flops    11 x    11 x     9               644688       0.0%    100.0%      0.0%     
 flops    50 x    44 x    11               726000       0.0%    100.0%      0.0%     
 flops    44 x    50 x    11               726000       0.0%    100.0%      0.0%     
 flops    11 x    44 x    44               766656       0.0%    100.0%      0.0%     
 flops     9 x     9 x    11               769824       0.0%    100.0%      0.0%     
 flops    50 x    50 x    11               825000       0.0%    100.0%      0.0%     
 flops    11 x    50 x    44               871200       0.0%    100.0%      0.0%     
 flops    11 x    44 x    50               871200       0.0%    100.0%      0.0%     
 flops    44 x    62 x    11               900240       0.0%    100.0%      0.0%     
 flops    62 x    44 x    11               900240       0.0%    100.0%      0.0%     
 flops    11 x    50 x    50               990000       0.0%    100.0%      0.0%     
 flops    50 x    62 x    11              1023000       0.0%    100.0%      0.0%     
 flops    62 x    50 x    11              1023000       0.0%    100.0%      0.0%     
 flops    11 x    62 x    44              1080288       0.0%    100.0%      0.0%     
 flops    11 x    62 x    50              1227600       0.0%    100.0%      0.0%     
 flops    62 x    62 x    11              1268520       0.0%    100.0%      0.0%     
 flops    11 x    29 x    29              1424654       0.0%    100.0%      0.0%     
 flops    44 x    52 x    11              1510080       0.0%    100.0%      0.0%     
 flops    52 x    44 x    11              1510080       0.0%    100.0%      0.0%     
 flops    31 x    31 x    50              1537600       0.0%    100.0%      0.0%     
 flops    32 x    31 x    50              1587200       0.0%    100.0%      0.0%     
 flops    50 x    52 x    11              1716000       0.0%    100.0%      0.0%     
 flops    52 x    50 x    11              1716000       0.0%    100.0%      0.0%     
 flops    11 x    29 x     9              1768536       0.0%    100.0%      0.0%     
 flops    11 x     9 x    29              1768536       0.0%    100.0%      0.0%     
 flops    11 x    52 x    44              1812096       0.0%    100.0%      0.0%     
 flops    11 x    44 x    52              1812096       0.0%    100.0%      0.0%     
 flops    31 x    44 x    11              1920512       0.0%    100.0%      0.0%     
 flops    11 x    31 x    44              2040544       0.0%    100.0%      0.0%     
 flops    11 x    44 x    31              2040544       0.0%    100.0%      0.0%     
 flops    11 x    52 x    50              2059200       0.0%    100.0%      0.0%     
 flops    11 x    50 x    52              2059200       0.0%    100.0%      0.0%     
 flops    52 x    62 x    11              2127840       0.0%    100.0%      0.0%     
 flops    62 x    52 x    11              2127840       0.0%    100.0%      0.0%     
 flops    31 x    11 x    44              2160576       0.0%    100.0%      0.0%     
 flops    31 x    50 x    11              2182400       0.0%    100.0%      0.0%     
 flops    11 x     9 x     9              2195424       0.0%    100.0%      0.0%     
 flops    31 x    29 x    11              2294248       0.0%    100.0%      0.0%     
 flops    11 x    29 x    31              2294248       0.0%    100.0%      0.0%     
 flops    11 x    50 x    31              2318800       0.0%    100.0%      0.0%     
 flops    11 x    62 x    52              2482480       0.0%    100.0%      0.0%     
 flops    31 x    62 x    11              2706176       0.0%    100.0%      0.0%     
 flops    11 x     9 x    31              2774376       0.0%    100.0%      0.0%     
 flops    31 x     9 x    11              2829618       0.0%    100.0%      0.0%     
 flops    11 x    62 x    31              2875312       0.0%    100.0%      0.0%     
 flops    52 x    52 x    11              3569280       0.0%    100.0%      0.0%     
 flops    31 x    32 x    50              3968000       0.0%    100.0%      0.0%     
 flops    32 x    32 x    50              4096000       0.0%    100.0%      0.0%     
 flops    11 x    52 x    52              4283136       0.0%    100.0%      0.0%     
 flops    31 x    52 x    11              4539392       0.0%    100.0%      0.0%     
 flops    11 x    52 x    31              4823104       0.0%    100.0%      0.0%     
 flops    32 x    44 x    11              4956160       0.0%    100.0%      0.0%     
 flops    11 x    31 x    52              4964960       0.0%    100.0%      0.0%     
 flops    11 x    44 x    32              5080064       0.0%    100.0%      0.0%     
 flops    31 x    11 x    52              5106816       0.0%    100.0%      0.0%     
 flops    11 x    32 x    44              5265920       0.0%    100.0%      0.0%     
 flops    32 x    11 x    44              5389824       0.0%    100.0%      0.0%     
 flops    32 x    50 x    11              5632000       0.0%    100.0%      0.0%     
 flops    11 x    50 x    32              5772800       0.0%    100.0%      0.0%     
 flops    32 x    29 x    11              5920640       0.0%    100.0%      0.0%     
 flops    11 x    29 x    32              5920640       0.0%    100.0%      0.0%     
 flops    11 x    31 x    29              5933400       0.0%    100.0%      0.0%     
 flops    29 x    29 x    31              6048472       0.0%    100.0%      0.0%     
 flops    31 x    11 x    29              6071846       0.0%    100.0%      0.0%     
 flops    32 x    62 x    11              6983680       0.0%    100.0%      0.0%     
 flops    32 x     9 x    11              7096320       0.0%    100.0%      0.0%     
 flops    11 x    62 x    32              7114624       0.0%    100.0%      0.0%     
 flops    11 x    31 x     9              7230564       0.0%    100.0%      0.0%     
 flops    29 x     9 x    31              7314264       0.0%    100.0%      0.0%     
 flops    11 x     9 x    32              7337088       0.0%    100.0%      0.0%     
 flops     9 x    29 x    31              7508448       0.0%    100.0%      0.0%     
 flops    31 x    11 x     9              7537464       0.0%    100.0%      0.0%     
 flops    44 x    44 x    31              7682048       0.0%    100.0%      0.0%     
 flops    31 x    44 x    44              8642304       0.0%    100.0%      0.0%     
 flops    50 x    44 x    31              8729600       0.0%    100.0%      0.0%     
 flops    44 x    50 x    31              8729600       0.0%    100.0%      0.0%     
 flops     9 x     9 x    31              9079776       0.0%    100.0%      0.0%     
 flops    31 x    50 x    44              9820800       0.0%    100.0%      0.0%     
 flops    31 x    44 x    50              9820800       0.0%    100.0%      0.0%     
 flops    50 x    50 x    31              9920000       0.0%    100.0%      0.0%     
 flops    44 x    62 x    31             10824704       0.0%    100.0%      0.0%     
 flops    62 x    44 x    31             10824704       0.0%    100.0%      0.0%     
 flops    31 x    50 x    50             11160000       0.0%    100.0%      0.0%     
 flops    32 x    52 x    11             11714560       0.0%    100.0%      0.0%     
 flops    11 x    52 x    32             12007424       0.0%    100.0%      0.0%     
 flops    31 x    62 x    44             12177792       0.0%    100.0%      0.0%     
 flops    50 x    62 x    31             12300800       0.0%    100.0%      0.0%     
 flops    62 x    50 x    31             12300800       0.0%    100.0%      0.0%     
 flops    11 x    32 x    52             12812800       0.0%    100.0%      0.0%     
 flops    32 x    11 x    52             12959232       0.0%    100.0%      0.0%     
 flops    31 x    62 x    50             13838400       0.0%    100.0%      0.0%     
 flops    62 x    62 x    31             15252992       0.0%    100.0%      0.0%     
 flops    11 x    32 x    29             15312000       0.0%    100.0%      0.0%     
 flops    32 x    11 x    29             15699904       0.0%    100.0%      0.0%     
 flops    31 x    29 x    29             16059736       0.0%    100.0%      0.0%     
 flops    44 x    52 x    31             18157568       0.0%    100.0%      0.0%     
 flops    52 x    44 x    31             18157568       0.0%    100.0%      0.0%     
 flops    11 x    32 x     9             18741888       0.0%    100.0%      0.0%     
 flops    32 x    11 x     9             19489536       0.0%    100.0%      0.0%     
 flops    44 x    44 x    32             19824640       0.0%    100.0%      0.0%     
 flops    29 x    29 x    32             19914880       0.0%    100.0%      0.0%     
 flops    31 x    29 x     9             19936224       0.0%    100.0%      0.0%     
 flops    31 x     9 x    29             19936224       0.0%    100.0%      0.0%     
 flops    31 x    52 x    44             20427264       0.0%    100.0%      0.0%     
 flops    31 x    44 x    52             20427264       0.0%    100.0%      0.0%     
 flops    50 x    52 x    31             20633600       0.0%    100.0%      0.0%     
 flops    52 x    50 x    31             20633600       0.0%    100.0%      0.0%     
 flops    29 x     9 x    32             21247488       0.0%    100.0%      0.0%     
 flops     9 x    29 x    32             21848832       0.0%    100.0%      0.0%     
 flops    32 x    44 x    44             22302720       0.0%    100.0%      0.0%     
 flops    50 x    44 x    32             22528000       0.0%    100.0%      0.0%     
 flops    44 x    50 x    32             22528000       0.0%    100.0%      0.0%     
 flops    31 x    44 x    31             23002496       0.0%    100.0%      0.0%     
 flops    31 x    52 x    50             23212800       0.0%    100.0%      0.0%     
 flops    31 x    50 x    52             23212800       0.0%    100.0%      0.0%     
 flops    31 x    31 x    44             24355584       0.0%    100.0%      0.0%     
 flops    31 x     9 x     9             24748416       0.0%    100.0%      0.0%     
 flops    32 x    50 x    44             25344000       0.0%    100.0%      0.0%     
 flops    32 x    44 x    50             25344000       0.0%    100.0%      0.0%     
 flops    52 x    62 x    31             25585664       0.0%    100.0%      0.0%     
 flops    62 x    52 x    31             25585664       0.0%    100.0%      0.0%     
 flops    50 x    50 x    32             25600000       0.0%    100.0%      0.0%     
 flops    31 x    50 x    31             26139200       0.0%    100.0%      0.0%     
 flops    31 x    29 x    31             26475550       0.0%    100.0%      0.0%     
 flops     9 x     9 x    32             27267840       0.0%    100.0%      0.0%     
 flops    44 x    62 x    32             27934720       0.0%    100.0%      0.0%     
 flops    62 x    44 x    32             27934720       0.0%    100.0%      0.0%     
 flops    31 x    62 x    52             27984320       0.0%    100.0%      0.0%     
 flops    32 x    50 x    50             28800000       0.0%    100.0%      0.0%     
 flops    32 x    62 x    44             31426560       0.0%    100.0%      0.0%     
 flops    50 x    62 x    32             31744000       0.0%    100.0%      0.0%     
 flops    62 x    50 x    32             31744000       0.0%    100.0%      0.0%     
 flops    31 x     9 x    31             31793724       0.0%    100.0%      0.0%     
 flops    31 x    62 x    31             32412608       0.0%    100.0%      0.0%     
 flops    32 x    62 x    50             35712000       0.0%    100.0%      0.0%     
 flops    62 x    62 x    32             39362560       0.0%    100.0%      0.0%     
 flops    32 x    29 x    29             41444480       0.0%    100.0%      0.0%     
 flops    52 x    52 x    31             42917888       0.0%    100.0%      0.0%     
 flops    44 x    52 x    32             46858240       0.0%    100.0%      0.0%     
 flops    52 x    44 x    32             46858240       0.0%    100.0%      0.0%     
 flops    31 x    52 x    52             48282624       0.0%    100.0%      0.0%     
 flops    32 x    29 x     9             51448320       0.0%    100.0%      0.0%     
 flops    32 x     9 x    29             51448320       0.0%    100.0%      0.0%     
 flops    32 x    52 x    44             52715520       0.0%    100.0%      0.0%     
 flops    32 x    44 x    52             52715520       0.0%    100.0%      0.0%     
 flops    50 x    52 x    32             53248000       0.0%    100.0%      0.0%     
 flops    52 x    50 x    32             53248000       0.0%    100.0%      0.0%     
 flops    31 x    52 x    31             54469480       0.0%    100.0%      0.0%     
 flops    31 x    31 x    52             57567744       0.0%    100.0%      0.0%     
 flops    31 x    44 x    32             59186688       0.0%    100.0%      0.0%     
 flops    32 x    44 x    31             59361280       0.0%    100.0%      0.0%     
 flops    32 x    52 x    50             59904000       0.0%    100.0%      0.0%     
 flops    32 x    50 x    52             59904000       0.0%    100.0%      0.0%     
 flops    32 x    31 x    44             60758016       0.0%    100.0%      0.0%     
 flops    31 x    32 x    44             62853120       0.0%    100.0%      0.0%     
 flops    32 x     9 x     9             63866880       0.0%    100.0%      0.0%     
 flops    52 x    62 x    32             66027520       0.0%    100.0%      0.0%     
 flops    62 x    52 x    32             66027520       0.0%    100.0%      0.0%     
 flops    32 x    29 x    31             66971904       0.0%    100.0%      0.0%     
 flops    31 x    29 x    32             67086976       0.0%    100.0%      0.0%     
 flops    31 x    50 x    32             67158400       0.0%    100.0%      0.0%     
 flops    32 x    50 x    31             67456000       0.0%    100.0%      0.0%     
 flops    31 x    31 x    29             68669216       0.0%    100.0%      0.0%     
 flops    32 x    62 x    52             72217600       0.0%    100.0%      0.0%     
 flops    32 x     9 x    31             81316224       0.0%    100.0%      0.0%     
 flops    31 x     9 x    32             82655424       0.0%    100.0%      0.0%     
 flops    31 x    62 x    32             82907392       0.0%    100.0%      0.0%     
 flops    32 x    62 x    31             83645440       0.0%    100.0%      0.0%     
 flops    31 x    31 x     9             85244544       0.0%    100.0%      0.0%     
 flops    52 x    52 x    32            110755840       0.0%    100.0%      0.0%     
 flops    32 x    52 x    52            124600320       0.0%    100.0%      0.0%     
 flops    31 x    52 x    32            139689472       0.0%    100.0%      0.0%     
 flops    32 x    52 x    31            140308480       0.0%    100.0%      0.0%     
 flops    32 x    31 x    52            146085888       0.0%    100.0%      0.0%     
 flops    31 x    32 x    52            148561920       0.0%    100.0%      0.0%     
 flops    32 x    44 x    32            152920064       0.0%    100.0%      0.0%     
 flops    32 x    32 x    44            156794880       0.0%    100.0%      0.0%     
 flops    32 x    29 x    32            172474368       0.0%    100.0%      0.0%     
 flops    32 x    50 x    32            173772800       0.0%    100.0%      0.0%     
 flops    31 x    32 x    29            177210880       0.0%    100.0%      0.0%     
 flops    32 x    31 x    29            177210880       0.0%    100.0%      0.0%     
 flops    32 x     9 x    32            212742144       0.0%    100.0%      0.0%     
 flops    32 x    62 x    32            213954560       0.0%    100.0%      0.0%     
 flops    31 x    32 x     9            219985920       0.0%    100.0%      0.0%     
 flops    32 x    31 x     9            219985920       0.0%    100.0%      0.0%     
 flops    32 x    52 x    32            361127936       0.0%    100.0%      0.0%     
 flops    32 x    32 x    52            376995840       0.0%    100.0%      0.0%     
 flops    32 x    32 x    29            457318400       0.0%    100.0%      0.0%     
 flops    32 x    32 x     9            567705600       0.0%    100.0%      0.0%     
 flops inhomo. stacks                  1263966720     100.0%      0.0%      0.0%
 flops total                         9.272968E+09      13.6%     86.4%      0.0%
 flops max/rank                    517.744060E+06      10.2%     89.8%      0.0%
 matmuls inhomo. stacks                      9120     100.0%      0.0%      0.0%
 matmuls total                             211575       4.3%     95.7%      0.0%
 number of processed stacks                184742       2.4%     97.6%      0.0%
 average stack size                                     2.1       1.1       0.0
 marketing flops                    15.918703E+09
 -------------------------------------------------------------------------------
 # multiplications                            529
 max memory usage/rank              20.426469E+09
 # max total images/rank                        2
 # max 3D layers                                1
 # MPI messages exchanged                  220064
 MPI messages size (bytes):
  total size                         2.029981E+09
  min size                           0.000000E+00
  max size                          65.024000E+03
  average size                       9.224501E+03
 MPI breakdown and total messages size (bytes):
             size <=      128              106549                   102168
       128 < size <=     8192               51523                226695616
      8192 < size <=    32768               42602                788605280
     32768 < size <=   131072               19390               1014577480
    131072 < size <=  4194304                   0                        0
   4194304 < size <= 16777216                   0                        0
  16777216 < size                               0                        0
 -------------------------------------------------------------------------------

 *** WARNING in dbcsr_mm.F:301 :: Using a non-square number of MPI ranks ***
 *** might lead to poor performance. Used ranks: 32 Suggested: 36 64     ***

 -------------------------------------------------------------------------------
 -                                                                             -
 -                      DBCSR MESSAGE PASSING PERFORMANCE                      -
 -                                                                             -
 -------------------------------------------------------------------------------
 ROUTINE             CALLS      AVE VOLUME [Bytes]
 MP_Bcast              209                     12.
 MP_Allreduce         2662                     13.
 MP_Alltoall          4404                   6378.
 MP_ISend            19330                   6329.
 MP_IRecv            16054                   4752.
 -------------------------------------------------------------------------------

 -------------------------------------------------------------------------------
 -                                                                             -
 -                                GRID STATISTICS                              -
 -                                                                             -
 -------------------------------------------------------------------------------
 LP    KERNEL             BACKEND                              COUNT     PERCENT
 2     collocate ortho    CPU                                    880      31.08%
 2     integrate ortho    CPU                                    880      31.08%
 4     collocate ortho    CPU                                    352      12.43%
 4     integrate ortho    CPU                                    352      12.43%
 6     collocate ortho    CPU                                    176       6.22%
 6     integrate ortho    CPU                                    176       6.22%
 0     collocate general  CPU                                     10       0.35%
 0     integrate general  CPU                                      5       0.18%
 -------------------------------------------------------------------------------

 -------------------------------------------------------------------------------
 -                                                                             -
 -                          OFFLOAD MEMPOOL STATISTICS                         -
 -                                                                             -
 -------------------------------------------------------------------------------
 Memory consumption                Number of allocations  Used [MiB]  Size [MiB]
 Host                                                  7          57    21795700
 -------------------------------------------------------------------------------

 MEMORY| Estimated peak process memory [MiB]                                1157

 -------------------------------------------------------------------------------
 -                                                                             -
 -                         MESSAGE PASSING PERFORMANCE                         -
 -                                                                             -
 -------------------------------------------------------------------------------

 ROUTINE             CALLS      AVE VOLUME [Bytes]
 MP_Group                6
 MP_Bcast              522                 275653.
 MP_Allreduce         2646                   2550.
 MP_Sync                53
 MP_Alltoall           976               29514315.
 MP_SendRecv          4092                 132779.
 MP_ISendRecv         4092                 132779.
 MP_Wait             11337
 MP_comm_split          52
 MP_ISend             6620                 676295.
 MP_IRecv             6620                 676241.
 -------------------------------------------------------------------------------


 -------------------------------------------------------------------------------
 -                                                                             -
 -                           R E F E R E N C E S                               -
 -                                                                             -
 -------------------------------------------------------------------------------
 
 CP2K version 2026.2 (Development Version), the CP2K developers group (2026).
 CP2K is freely available from https://www.cp2k.org/ .
 
 M. Iannuzzi, J. Wilhelm, F. Stein, A. Bussy, H. Elgabarty, D. Golze, A. Hehn, 
 M. Graml, S. Marek, B. Sertcan Gökmen, C. Schran, H. Forbert, R. Z. 
 Khaliullin, A. Kozhevnikov, M. Taillefumier, R. Meli, V. V. Rybkin, M. Brehm, 
 R. Schade, O. Schütt, J. V. Pototschnig, H. Mirhosseini, A. Knüpfer, D. Marx, 
 M. Krack, J. Hutter, T. D. Kühne.
 J. Phys. Chem. B 130, 1237-1310 (2026).
 The CP2K Program Package Made Simple.
 https://doi.org/10.1021/acs.jpcb.5c05851

 M. Graml, K. Zollner, D. Hernangómez-Pérez, P. E. Faria Junior, J. Wilhelm.
 J. Chem. Theory Comput. 20, 2202-2208 (2024).
 Low-scaling GW algorithm applied to twisted transition-metal dichalcogenide 
 heterobilayers.
 https://doi.org/10.1021/acs.jctc.3c01230

 T. D. Kühne, M. Iannuzzi, M. Del Ben, V. V. Rybkin, P. Seewald, F. Stein, T. 
 Laino, R. Z. Khaliullin, O. Schütt, F. Schiffmann, D. Golze, J. Wilhelm, S. 
 Chulkov, M. H. Bani-Hashemian, V. Weber, U. Borstnik, M. Taillefumier, A. S. 
 Jakobovits, A. Lazzaro, H. Pabst, T. Müller, R. Schade, M. Guidon, S. 
 Andermatt, N. Holmberg, G. K. Schenter, A. Hehn, A. Bussy, F. Belleflamme, G. 
 Tabacchi, A. Glöß, M. Lass, I. Bethune, C. J. Mundy, C. Plessl, M. Watkins, 
 J. VandeVondele, M. Krack, J. Hutter.
 J. Chem. Phys. 152, 194103 (2020).
 CP2K: An electronic structure and molecular dynamics software package - 
 Quickstep: Efficient and accurate electronic structure calculations.
 https://doi.org/10.1063/5.0007045

 O. Schuett, P. Messmer, J. Hutter, J. VandeVondele.
 Electronic Structure Calculations on Graphics Processing Units, 173-190 (2016).
 GPU-Accelerated Sparse Matrix-Matrix Multiplication for Linear Scaling Density 
 Functional Theory.
 https://doi.org/10.1002/9781118670712.ch8

 U. Borstnik, J. VandeVondele, V. Weber, J. Hutter.
 Parallel Comput. 40, 47-58 (2014).
 Sparse matrix multiplication: The distributed block-compressed sparse row 
 library.
 https://doi.org/10.1016/j.parco.2014.03.012

 J. VandeVondele, J. Hutter.
 J. Chem. Phys. 127, 114105 (2007).
 Gaussian basis sets for accurate calculations on molecular systems in gas and 
 condensed phases.
 https://doi.org/10.1063/1.2770708

 J. VandeVondele, M. Krack, F. Mohamed, M. Parrinello, T. Chassaing, J. Hutter.
 Comput. Phys. Commun. 167, 103-128 (2005).
 QUICKSTEP: Fast and accurate density functional calculations using a mixed 
 Gaussian and plane waves approach.
 https://doi.org/10.1016/j.cpc.2004.12.014

 M. Krack.
 Theor. Chem. Acc. 114, 145-152 (2005).
 Pseudopotentials for H to Kr optimized for gradient-corrected 
 exchange-correlation functionals.
 https://doi.org/10.1007/s00214-005-0655-y

 M. Frigo, S. G. Johnson.
 Proc. IEEE 93, 216-231 (2005).
 The design and implementation of FFTW3.
 https://doi.org/10.1109/JPROC.2004.840301

 C. Hartwigsen, S. Goedecker, J. Hutter.
 Phys. Rev. B 58, 3641-3662 (1998).
 Relativistic separable dual-space Gaussian pseudopotentials from H to Rn.
 https://doi.org/10.1103/PhysRevB.58.3641

 G. Lippert, J. Hutter, M. Parrinello.
 Mol. Phys. 92, 477-487 (1997).
 A hybrid Gaussian and plane wave density functional scheme.
 https://doi.org/10.1080/002689797170220

 S. Goedecker, M. Teter, J. Hutter.
 Phys. Rev. B 54, 1703-1710 (1996).
 Separable dual-space Gaussian pseudopotentials.
 https://doi.org/10.1103/PhysRevB.54.1703

 J. P. Perdew, K. Burke, M. Ernzerhof.
 Phys. Rev. Lett. 77, 3865-3868 (1996).
 Generalized gradient approximation made simple.
 https://doi.org/10.1103/PhysRevLett.77.3865

 P. E. Blöchl.
 J. Chem. Phys. 103, 7422-7428 (1995).
 Electrostatic decoupling of periodic images of plane‐wave‐expanded 
 densities and derived atomic point charges.
 https://doi.org/10.1063/1.470314

 R. H. Byrd, P. H. Lu, J. Nocedal, C. Y. Zhu.
 SIAM J. Sci. Comput. 16, 1190-1208 (1995).
 A Limited Memory Algorithm for Bound Constrained Optimization.
 https://doi.org/10.1137/0916069

 C. G. Broyden.
 Math. Comput. 19, 577-593 (1965).
 A class of methods for solving nonlinear simultaneous equations.
 https://doi.org/10.1090/S0025-5718-1965-0198670-6


 -------------------------------------------------------------------------------
 -                                                                             -
 -                                T I M I N G                                  -
 -                                                                             -
 -------------------------------------------------------------------------------
 SUBROUTINE                       CALLS  ASD         SELF TIME        TOTAL TIME
                                MAXIMUM       AVERAGE  MAXIMUM  AVERAGE  MAXIMUM
 CP2K                                 1  1.0    0.028    0.039   66.363   66.364
 qs_energies                          1  2.0    0.001    0.001   65.827   65.828
 scf_env_do_scf                       1  3.0    0.000    0.001   46.494   46.495
 scf_env_do_scf_inner_loop           43  4.0    0.003    0.006   46.494   46.495
 qs_ks_build_kohn_sham_matrix        44  7.0    0.009    0.010   28.058   28.078
 qs_ks_update_qs_env                 43  5.0    0.000    0.000   27.835   27.854
 rebuild_ks_matrix                   43  6.0    0.000    0.001   27.831   27.850
 fft_wrap_pw1pw2                    872 10.0    0.017    0.020   22.031   22.699
 fft_wrap_pw1pw2_300                520 11.4    1.408    1.637   21.235   22.069
 qs_energies_properties               1  3.0    0.000    0.000   18.714   18.715
 post_scf_bandstructure               1  4.0    0.000    0.000   18.714   18.715
 run_gw                               1  5.0    0.000    0.000   18.680   18.690
 qs_vxc_create                       44  8.0    0.001    0.001   17.989   18.103
 xc_vxc_pw_create                    43  9.0    0.233    0.291   17.988   18.102
 mp_sum_d                          1252  6.0   14.963   17.842   14.963   17.842
 gw_calc_ri_rs_non_periodic           1  6.0    0.001    0.002   17.660   17.704
 optimize_ri_rs_grid                  1  7.0    0.000    0.000   17.044   17.088
 rirs_grid_LBFGS                      1  8.0    0.131    0.746   16.956   17.005
 fft3d_ps                           872 12.0    8.739    9.265   15.733   16.540
 evaluate_rirs_grid_cluster         301  9.0    0.243    1.627    2.449   15.993
 xc_pw_derive                       258 11.0    0.003    0.003   12.932   13.369
 qs_rho_update_rho_low               44  5.0    0.000    0.000   11.374   11.376
 calculate_rho_elec                  44  6.0    0.139    0.148   11.374   11.376
 density_rs2pw                       44  7.0    0.003    0.004    7.486   10.611
 xc_rho_set_and_dset_create          43 10.0    0.305    0.406    8.945    9.312
 xc_pw_divergence                    43 10.0    0.001    0.002    8.567    9.033
 gspace_mixing                       42  5.0    0.133    0.142    7.264    7.264
 transfer_rs2pw                     222  8.0    0.005    0.007    3.475    6.524
 mp_waitany                        6620 11.5    3.082    6.119    3.082    6.119
 transfer_rs2pw_300                  46  8.9    0.792    0.961    2.788    5.870
 mp_alltoall_z22v                   872 14.0    4.761    5.609    4.761    5.609
 broyden_mixing                      42  6.0    5.214    5.286    5.368    5.379
 sum_up_and_integrate                44  8.0    0.002    0.002    5.305    5.328
 integrate_v_rspace                  44  9.0    0.001    0.002    5.225    5.253
 potential_pw2rs                     44 10.0    0.009    0.010    5.188    5.199
 grid_collocate_task_list            44  7.0    3.549    4.788    3.549    4.788
 x_to_yz                            478 13.4    1.409    2.035    3.851    4.365
 rirs_cluster_gradient_products     301 10.0    0.670    4.362    0.670    4.362
 yz_to_x                            394 12.6    0.801    0.877    3.120    3.828
 rirs_cluster_gradient_coordina     301 10.0    0.581    3.762    0.581    3.762
 transfer_pw2rs                     221 11.0    0.002    0.004    3.047    3.051
 qs_ks_ddapc                         44  8.0    0.001    0.001    2.260    2.419
 pw_derive                          390 11.3    2.164    2.330    2.164    2.330
 xc_functional_eval                  43 11.0    0.001    0.001    1.930    2.196
 pbe_lda_eval                        43 12.0    1.930    2.195    1.930    2.195
 transfer_pw2rs_300                  45 11.9    1.007    1.044    2.108    2.185
 pw_scatter_p                       478 12.4    2.031    2.142    2.031    2.142
 pw_poisson_solve                    44  8.0    0.001    0.002    2.118    2.139
 pw_copy                            744 10.6    1.913    1.978    1.913    1.978
 rirs_cluster_D_ll                  301 10.0    0.286    1.874    0.286    1.874
 pw_gather_p                        394 11.6    1.533    1.626    1.533    1.626
 rirs_cluster_residual              301 10.0    0.242    1.594    0.242    1.594
 rirs_cluster_AO_products           301 10.0    0.219    1.522    0.219    1.522
 rirs_cluster_d_lP                  301 10.0    0.207    1.333    0.207    1.333
 -------------------------------------------------------------------------------

 The number of warnings for this run is : 1
 
 -------------------------------------------------------------------------------
  **** **** ******  **  PROGRAM ENDED AT                 2026-09-17 22:54:50.219
 ***** ** ***  *** **   PROGRAM RAN ON                                  n2cn0294
 **    ****   ******    PROGRAM RAN BY                                  eprop2d1
 ***** **    ** ** **   PROGRAM PROCESS ID                                358379
  **** **  *******  **  PROGRAM STOPPED IN /scratch/hpc-prf-metdyn/eprop2d1_Jan/
                                           53_benchmark_RI_opt/129_GW100_Si293_A
                                           O_frontier_optimization_coopfst/follo
                                           wups/pbe_g0w0/gw100/40_GeH4/dzvp_t2
