 DBCSR| CPU Multiplication driver                                           XSMM (U)
 DBCSR| Multrec recursion limit                                              512 (U)
 DBCSR| Multiplication stack size                                           1000 (D)
 DBCSR| Maximum elements for images                                    UNLIMITED (U)
 DBCSR| Multiplicative factor virtual images                                   1 (U)
 DBCSR| Use multiplication densification                                       T (D)
 DBCSR| Multiplication size stacks                                             3 (U)
 DBCSR| Use memory pool for CPU allocation                                     F (U)
 DBCSR| Number of 3D layers                                               SINGLE (U)
 DBCSR| Use MPI memory allocation                                              F (U)
 DBCSR| Use RMA algorithm                                                      F (U)
 DBCSR| Use Communication thread                                               T (U)
 DBCSR| Communication thread load                                             68 (D)
 DBCSR| MPI: My process id                                                     0
 DBCSR| MPI: Number of processes                                              19
 DBCSR| OMP: Current number of threads                                         6
 DBCSR| OMP: Max number of threads                                             6
 DBCSR| Split modifier for TAS multiplication algorithm                  1.0E+00 (U)


  **** **** ******  **  PROGRAM STARTED AT               2026-10-03 12:02:14.917
 ***** ** ***  *** **   PROGRAM STARTED ON                              n2cn0384
 **    ****   ******    PROGRAM STARTED BY                              eprop2d1
 ***** **    ** ** **   PROGRAM PROCESS ID                               1062367
  **** **  *******  **  PROGRAM STARTED IN /scratch/hpc-prf-metdyn/eprop2d1_Jan/
                                           53_benchmark_RI_opt/418_gw100_fig5_fu
                                           ll_epsfilter_1e12_20261002/calculatio
                                           ns/rc5p0/ri3_rs09/71_C2H5OH

 CP2K| version string:                 CP2K version 2026.2 (Development Version)
 CP2K| source code revision number:                                   0671c5aa6c
 CP2K| cp2kflags: omp libint fftw3 libxc parallel scalapack openblas            
 CP2K| is freely available from                            https://www.cp2k.org/
 CP2K| Program compiled at                                   2026-09-20 09:25:26
 CP2K| Program compiled on                                              n2login5
 CP2K| Program compiled for                                               x86_64
 CP2K| Data directory path    /scratch/hpc-prf-metdyn/eprop2d1_Jan/53_benchmark_
 CP2K| Input file name                                                 input.inp
 
 eprop2d1@n2cn0384 has created rank and process                      0   1062367
 eprop2d1@n2cn0384 has created rank and process                      1   1062368
 eprop2d1@n2cn0384 has created rank and process                      2   1062369
 eprop2d1@n2cn0384 has created rank and process                      3   1062370
 eprop2d1@n2cn0384 has created rank and process                      4   1062371
 eprop2d1@n2cn0384 has created rank and process                      5   1062372
 eprop2d1@n2cn0384 has created rank and process                      6   1062373
 eprop2d1@n2cn0384 has created rank and process                      7   1062374
 eprop2d1@n2cn0384 has created rank and process                      8   1062375
 
 eprop2d1@n2cn0384 is running                                        9 processes

 GLOBAL| Force Environment number                                              1
 GLOBAL| Basis set file name            /scratch/hpc-prf-metdyn/eprop2d1_Jan/53_
 GLOBAL| Potential file name            /scratch/hpc-prf-metdyn/eprop2d1_Jan/53_
 GLOBAL| MM Potential file name                                     MM_POTENTIAL
 GLOBAL| Coordinate file name                                      __STD_INPUT__
 GLOBAL| Method name                                                        CP2K
 GLOBAL| Project name                                             g418_e309_m071
 GLOBAL| Run type                                                         ENERGY
 GLOBAL| FFT library                                                       FFTW3
 GLOBAL| Diagonalization library                                       ScaLAPACK
 GLOBAL| Cholesky decomposition library                                ScaLAPACK
 GLOBAL| DGEMM library                                                      BLAS
 GLOBAL| Direct generalized diagonalization requested                          F
 GLOBAL| Orthonormality check for eigenvectors                          DISABLED
 GLOBAL| Matrix multiplication library                                 ScaLAPACK
 GLOBAL| All-to-all communication in single precision                          F
 GLOBAL| Grid backend                                                       AUTO
 GLOBAL| Global print level                                                  LOW
 GLOBAL| MPI I/O enabled                                                       T
 GLOBAL| Total number of message passing processes                             9
 GLOBAL| Number of distributed systems (nodes)                                 1
 GLOBAL| Number of threads for this process                                    6
 GLOBAL| This output is from process                                           0
 GLOBAL| OpenMP stack size per thread (OMP_STACKSIZE)                       512M
 GLOBAL| CPU model name                          AMD EPYC 7763 64-Core Processor

 MEMORY| system memory details [Kb]
 MEMORY|                        rank 0           min           max       average
 MEMORY| MemTotal            263902116     263902116     263902116     263902116
 MEMORY| MemFree             233456820     233456820     233456820     233456820
 MEMORY| Buffers                283832        283832        283832        283832
 MEMORY| Cached                8064520       8064520       8064520       8064520
 MEMORY| Slab                  1658632       1658632       1658632       1658632
 MEMORY| SReclaimable           304788        304788        304788        304788
 MEMORY| MemLikelyFree       242109960     242109960     242109960     242109960


 GENERATE|  Preliminary Number of Bonds generated:                             0
 GENERATE|  Achieved consistency in connectivity generation.

 *******************************************************************************
 *******************************************************************************
 **                                                                           **
 **     #####                         ##              ##                      **
 **    ##   ##            ##          ##              ##                      **
 **   ##     ##                       ##            ######                    **
 **   ##     ##  ##   ##  ##   #####  ##  ##   ####   ##    #####    #####    **
 **   ##     ##  ##   ##  ##  ##      ## ##   ##      ##   ##   ##  ##   ##   **
 **   ##  ## ##  ##   ##  ##  ##      ####     ###    ##   ######   ######    **
 **    ##  ###   ##   ##  ##  ##      ## ##      ##   ##   ##       ##        **
 **     #######   #####   ##   #####  ##  ##  ####    ##    #####   ##        **
 **           ##                                                    ##        **
 **                                                                           **
 **                                                ... make the atoms dance   **
 **                                                                           **
 **            Copyright (C) by CP2K developers group (2000-2026)             **
 **                      J. Chem. Phys. 152, 194103 (2020)                    **
 **                                                                           **
 *******************************************************************************


 TOTAL NUMBERS AND MAXIMUM NUMBERS

  Total number of            - Atomic kinds:                                   3
                             - Atoms:                                          9
                             - Shell sets:                                     9
                             - Shells:                                        57
                             - Primitive Cartesian functions:                 57
                             - Cartesian basis functions:                    156
                             - Spherical basis functions:                    141

  Maximum angular momentum of- Orbital basis functions:                        3
                             - Local part of the GTH pseudopotential:          2
                             - Non-local part of the GTH pseudopotential:      0


 SCF PARAMETERS         Density guess:                                   RESTART
                        --------------------------------------------------------
                        max_scf:                                             500
                        max_scf_history:                                       0
                        max_diis:                                              4
                        --------------------------------------------------------
                        eps_scf:                                        1.00E-08
                        eps_scf_history:                                0.00E+00
                        eps_diis:                                       0.00E+00
                        eps_eigval:                                     1.00E-05
                        --------------------------------------------------------
                        level_shift [a.u.]:                             0.000000
                        --------------------------------------------------------
                        Outer loop SCF in use 
                        No variables optimised in outer loop
                        eps_scf                                         1.00E-08
                        max_scf                                               20
                        No outer loop optimization
                        step_size                                       5.00E-01

 Extrapolation method: initial_guess

 Number of electrons:                                                         20
 Number of occupied orbitals:                                                 10
 Number of molecular orbitals:                                                10

 Number of orbital functions:                                                141
 Number of independent orbital functions:                                    141


 SCF WAVEFUNCTION OPTIMIZATION

  ----------------------------------- OT ---------------------------------------
  Minimizer      : DIIS                : direct inversion
                                         in the iterative subspace
                                         using   7 DIIS vectors
                                         safer DIIS on
  Preconditioner : FULL_KINETIC        : inversion of T + eS
  Lattice FFT   : OFF
  Precond_solver : DEFAULT
  stepsize       :    0.15000000                  energy_gap     :    0.20000000
  eps_taylor     :   0.10000E-15                  max_taylor     :             4
  ----------------------------------- OT ---------------------------------------

  Step     Update method      Time    Convergence         Total energy    Change
  ------------------------------------------------------------------------------
  Decoupling Energy:                                               0.0000086385
     1 OT DIIS     0.15E+00    2.2     4.1194E-09       -30.9710518145 -3.10E+01

  *** SCF run converged in     1 steps ***


  Electronic density on regular grids:        -20.0000000000        0.0000000000
  Core density on regular grids:               20.0000000000       -0.0000000000
  Total charge density on r-space grids:       -0.0000000000
  Total charge density g-space grids:          -0.0000000000

  Overlap energy of the core charge distribution:               0.00000164591499
  Self energy of the core charge distribution:                -76.65906668574564
  Core Hamiltonian energy:                                     23.35270468874125
  Hartree energy:                                              31.52298762800812
  Exchange-correlation energy:                                 -9.18767909141801

  Total energy:                                               -30.97105181449930

  outer SCF iter =    1 RMS gradient =   0.41E-08 energy =        -30.9710518145
  outer SCF loop converged in   1 iterations or    1 steps

  
 -------------------------------------------------------------------------------
 -                                                                             -
 -                          BANDSTRUCTURE CALCULATION                          -
 -                                                                             -
 -------------------------------------------------------------------------------
  
 Number of occupied molecular orbitals (MOs) = Number of occupied bands       10
 Number of unoccupied (= virtual) MOs = Number of unoccupied bands           131
 Number of Gaussian basis functions for MOs                                  141
  
 -------------------------------------------------------------------------------
 -                                                                             -
 -                                GW CALCULATION                               -
 -                                                                             -
 -------------------------------------------------------------------------------
  
 Input: Number of time/freq. points                                           30
 Input: ω_max for fitting Σ(iω) (eV)                                        10.0
 Input: Filter threshold for sparse tensor operations                    1.0E-12
 Input: Apply Hedin shift                                                      F
 Detected: Available memory per MPI process                              23.2 GB
 
 Input: RI-RS Tikhonov regularization                                   1.00E-04
 Input: AO grid hard cutoff radius                                        8.00 Å
 Input: MPI ranks per atom in Z_lP solve                                      -1
 Input: Keep sparsity in χ/G/W panels                                          T
 Input: GW flavour                                                          G0W0
 
 Input: RI-RS grid optimization activated                                      T
 Input: RS points per AO function                                            9.0
 Input: Cutoff radius for atomic clusters                                  5.0 Å
 Input: Maximum grid optimization iterations                                 300
 
 Input: AUTO_RI basis optimization activated:                                  T
 Input: AUTO_RI number of RI functions per AO function:                      3.0
 Input: AUTO_RI frontier orbital window:                                  5.0 eV
 Input: AUTO_RI neighbor radius:                                           3.0 Å
 
 Cutoff radius for the truncated Coulomb operator in RI metric:            7.0 Å
 Regularization parameter of RI                                          0.0E+00
 Regularization parameter of minimax grids                               1.0E-06
 
 AUTO_RI| Number of automatic RI functions for χ, ε, W:                      423
 AUTO_RI| Total RI basis optimization time:                                1.7 s
  Decoupling Energy:                                               0.0000086385
 
 SCF direct band gap (eV)                                                   5.62
 Max. SCF eigval diff. (eV)                                               290.30
 E-Range for minimax grid                                                  51.69
 Number of Padé parameters for analytic continuation:                         16
 
 RI-RS basis radii (Å):
     Kind  Elem     r_AO (Å)     r_RI (Å)
        1    C        15.9835       10.1279
        2    O        12.8635        8.6829
        3    H        13.9082        8.7963
 
 Started RI-RS grid optimization
 RI-RS grid initial normalized error                          9.073286333348E-04
 RI-RS grid optimization completed, execution time:                      296.2 s
 Normalized 3C error:                                                    1.1E-08
 Maximum absolute 3C error:                                              5.3E-04
 Optimized points outside molecular Voronoi cells:                           215 / 1269
 Total grid points used for RI-RS:                                          1269
 
 RI-RS grid row-blocks of ϕ_μ(r_l)                                            45
 RI-RS grid points per block (max)                                            32
 
 Percentage of non-zero matrix elements in ϕ_μ(r_l)                     100.00 %
 
 RI-RS memory estimate per MPI process:
   Available memory per process (system)                                26.96 GB
   Required for Z_lP (dense upper bound; actual is sparser)              0.00 GB
   Required for χ, W, Σ panels (peak per panel step)                     0.01 GB
   Required for Z_lP solve peak (D_local+ϕ, worst-case atom)             0.02 GB
   Worst-case local-grid number of grid points:                             1269
   Worst-case memory D_local:                                            0.01 GB
 
 Started computing Z_lP
 Computed Z_lP (MPI rank 0) for atom          1 /  1,    Execution time    0.2 s
 Computed Z_lP (all MPI ranks) for all atoms,            Execution time    0.3 s

 Memory per MPI process after computing Z_lP:
 Available memory per MPI process                               27.2 GB
 Used memory per MPI process                                     1.3 GB
 Number of batches for χ, Σ matrices                                           1
 
 Percentage of non-zero matrix elements in Z_lP                         100.00 %
 Percentage of non-zero matrix elements in G_ll', χ_ll', W_ll'          100.00 %
 Percentage of non-zero matrix elements in χ_PQ for time point 1        100.00 %
 
 Computed χ(iτ,k=0) for time point            1 / 30,    Execution time    0.0 s
 Computed χ(iτ,k=0) for time point            2 / 30,    Execution time    0.0 s
 Computed χ(iτ,k=0) for time point            3 / 30,    Execution time    0.0 s
 Computed χ(iτ,k=0) for time point            4 / 30,    Execution time    0.0 s
 Computed χ(iτ,k=0) for time point            5 / 30,    Execution time    0.0 s
 Computed χ(iτ,k=0) for time point            6 / 30,    Execution time    0.0 s
 Computed χ(iτ,k=0) for time point            7 / 30,    Execution time    0.0 s
 Computed χ(iτ,k=0) for time point            8 / 30,    Execution time    0.0 s
 Computed χ(iτ,k=0) for time point            9 / 30,    Execution time    0.0 s
 Computed χ(iτ,k=0) for time point           10 / 30,    Execution time    0.0 s
 Computed χ(iτ,k=0) for time point           11 / 30,    Execution time    0.0 s
 Computed χ(iτ,k=0) for time point           12 / 30,    Execution time    0.0 s
 Computed χ(iτ,k=0) for time point           13 / 30,    Execution time    0.0 s
 Computed χ(iτ,k=0) for time point           14 / 30,    Execution time    0.0 s
 Computed χ(iτ,k=0) for time point           15 / 30,    Execution time    0.0 s
 Computed χ(iτ,k=0) for time point           16 / 30,    Execution time    0.0 s
 Computed χ(iτ,k=0) for time point           17 / 30,    Execution time    0.0 s
 Computed χ(iτ,k=0) for time point           18 / 30,    Execution time    0.0 s
 Computed χ(iτ,k=0) for time point           19 / 30,    Execution time    0.0 s
 Computed χ(iτ,k=0) for time point           20 / 30,    Execution time    0.0 s
 Computed χ(iτ,k=0) for time point           21 / 30,    Execution time    0.0 s
 Computed χ(iτ,k=0) for time point           22 / 30,    Execution time    0.0 s
 Computed χ(iτ,k=0) for time point           23 / 30,    Execution time    0.0 s
 Computed χ(iτ,k=0) for time point           24 / 30,    Execution time    0.0 s
 Computed χ(iτ,k=0) for time point           25 / 30,    Execution time    0.0 s
 Computed χ(iτ,k=0) for time point           26 / 30,    Execution time    0.0 s
 Computed χ(iτ,k=0) for time point           27 / 30,    Execution time    0.0 s
 Computed χ(iτ,k=0) for time point           28 / 30,    Execution time    0.0 s
 Computed χ(iτ,k=0) for time point           29 / 30,    Execution time    0.0 s
 Computed χ(iτ,k=0) for time point           30 / 30,    Execution time    0.0 s
 
 Computed W(iτ),                                         Execution time    0.3 s
 
 Computed Σ^x(k=0),                                      Execution time    0.0 s
 
 Computed Σ^c(iτ) for time point              1 / 30,    Execution time    0.0 s
 Computed Σ^c(iτ) for time point              2 / 30,    Execution time    0.0 s
 Computed Σ^c(iτ) for time point              3 / 30,    Execution time    0.0 s
 Computed Σ^c(iτ) for time point              4 / 30,    Execution time    0.0 s
 Computed Σ^c(iτ) for time point              5 / 30,    Execution time    0.0 s
 Computed Σ^c(iτ) for time point              6 / 30,    Execution time    0.0 s
 Computed Σ^c(iτ) for time point              7 / 30,    Execution time    0.0 s
 Computed Σ^c(iτ) for time point              8 / 30,    Execution time    0.0 s
 Computed Σ^c(iτ) for time point              9 / 30,    Execution time    0.0 s
 Computed Σ^c(iτ) for time point             10 / 30,    Execution time    0.0 s
 Computed Σ^c(iτ) for time point             11 / 30,    Execution time    0.0 s
 Computed Σ^c(iτ) for time point             12 / 30,    Execution time    0.0 s
 Computed Σ^c(iτ) for time point             13 / 30,    Execution time    0.0 s
 Computed Σ^c(iτ) for time point             14 / 30,    Execution time    0.0 s
 Computed Σ^c(iτ) for time point             15 / 30,    Execution time    0.0 s
 Computed Σ^c(iτ) for time point             16 / 30,    Execution time    0.0 s
 Computed Σ^c(iτ) for time point             17 / 30,    Execution time    0.0 s
 Computed Σ^c(iτ) for time point             18 / 30,    Execution time    0.0 s
 Computed Σ^c(iτ) for time point             19 / 30,    Execution time    0.0 s
 Computed Σ^c(iτ) for time point             20 / 30,    Execution time    0.0 s
 Computed Σ^c(iτ) for time point             21 / 30,    Execution time    0.0 s
 Computed Σ^c(iτ) for time point             22 / 30,    Execution time    0.0 s
 Computed Σ^c(iτ) for time point             23 / 30,    Execution time    0.0 s
 Computed Σ^c(iτ) for time point             24 / 30,    Execution time    0.0 s
 Computed Σ^c(iτ) for time point             25 / 30,    Execution time    0.0 s
 Computed Σ^c(iτ) for time point             26 / 30,    Execution time    0.0 s
 Computed Σ^c(iτ) for time point             27 / 30,    Execution time    0.0 s
 Computed Σ^c(iτ) for time point             28 / 30,    Execution time    0.0 s
 Computed Σ^c(iτ) for time point             29 / 30,    Execution time    0.0 s
 Computed Σ^c(iτ) for time point             30 / 30,    Execution time    0.0 s
 
 SCF valence band maximum (eV):                                           -6.134
 SCF conduction band minimum (eV):                                        -0.517
 SCF indirect band gap (eV):                                               5.616
 SCF direct band gap (eV):                                                 5.616
 
 G0W0 valence band maximum (eV):                                          -9.846
 G0W0 conduction band minimum (eV):                                        1.361
 G0W0 indirect band gap (eV):                                             11.207
 G0W0 direct band gap (eV):                                               11.207
 
 Hartree-Fock with SCF orbitals valence band maximum (eV):               -12.206
 Hartree-Fock with SCF orbitals conduction band minimum (eV)               2.121
 Hartree-Fock with SCF orbitals indirect band gap (eV):                   14.328
 Hartree-Fock with SCF orbitals direct band gap (eV):                     14.328

 ENERGY| Total FORCE_EVAL ( QS ) energy [hartree]            -30.971051814499297

 -------------------------------------------------------------------------------
 -                                                                             -
 -                                DBCSR STATISTICS                             -
 -                                                                             -
 -------------------------------------------------------------------------------
 COUNTER                                    TOTAL       BLAS       SMM       ACC
 flops    10 x    10 x    10                 2000     100.0%      0.0%      0.0%     
 flops     5 x     5 x    36                 5400     100.0%      0.0%      0.0%     
 flops     5 x     5 x    41                12300     100.0%      0.0%      0.0%     
 flops     5 x    17 x    36                36720     100.0%      0.0%      0.0%     
 flops     9 x    10 x    10                43200     100.0%      0.0%      0.0%     
 flops     9 x     9 x    10                68040     100.0%      0.0%      0.0%     
 flops    29 x    10 x    10                69600     100.0%      0.0%      0.0%     
 flops     5 x    17 x    41                83640     100.0%      0.0%      0.0%     
 flops    10 x    10 x    47                84600     100.0%      0.0%      0.0%     
 flops     9 x    29 x    10                93960     100.0%      0.0%      0.0%     
 flops    29 x     9 x    10                93960     100.0%      0.0%      0.0%     
 flops    17 x     5 x    36               110160     100.0%      0.0%      0.0%     
 flops    29 x    29 x    10               201840     100.0%      0.0%      0.0%     
 flops    17 x     5 x    41               250920     100.0%      0.0%      0.0%     
 flops     9 x    10 x    47               304560     100.0%      0.0%      0.0%     
 flops     5 x    36 x     5               334800     100.0%      0.0%      0.0%     
 flops     9 x    10 x     9               349920     100.0%      0.0%      0.0%     
 flops     5 x    43 x     5               399900     100.0%      0.0%      0.0%     
 flops     5 x    32 x    36               414720     100.0%      0.0%      0.0%     
 flops    29 x    10 x    47               490680     100.0%      0.0%      0.0%     
 flops     5 x    53 x     5               498200     100.0%      0.0%      0.0%     
 flops     5 x    57 x     5               530100     100.0%      0.0%      0.0%     
 flops     5 x    58 x     5               542300     100.0%      0.0%      0.0%     
 flops    29 x    10 x     9               563760     100.0%      0.0%      0.0%     
 flops     9 x    10 x    29               563760     100.0%      0.0%      0.0%     
 flops    17 x    17 x    36               749088     100.0%      0.0%      0.0%     
 flops     5 x    41 x     5               760550     100.0%      0.0%      0.0%     
 flops    36 x    36 x     5               803520     100.0%      0.0%      0.0%     
 flops     5 x    36 x    36               855360     100.0%      0.0%      0.0%     
 flops     5 x     9 x     5               855450     100.0%      0.0%      0.0%     
 flops     5 x    47 x     5               874200     100.0%      0.0%      0.0%     
 flops    29 x    10 x    29               908280     100.0%      0.0%      0.0%     
 flops    36 x    43 x     5               944280     100.0%      0.0%      0.0%     
 flops     5 x    32 x    41               944640     100.0%      0.0%      0.0%     
 flops    43 x    36 x     5               959760     100.0%      0.0%      0.0%     
 flops     5 x    43 x    36              1021680     100.0%      0.0%      0.0%     
 flops    32 x     5 x    36              1071360     100.0%      0.0%      0.0%     
 flops    43 x    43 x     5              1127890     100.0%      0.0%      0.0%     
 flops    36 x    53 x     5              1163880     100.0%      0.0%      0.0%     
 flops    53 x    36 x     5              1182960     100.0%      0.0%      0.0%     
 flops     5 x     5 x   132              1247400     100.0%      0.0%      0.0%     
 flops     5 x    53 x    36              1259280     100.0%      0.0%      0.0%     
 flops    57 x    36 x     5              1272240     100.0%      0.0%      0.0%     
 flops    36 x    57 x     5              1272240     100.0%      0.0%      0.0%     
 flops    58 x    36 x     5              1294560     100.0%      0.0%      0.0%     
 flops    36 x    58 x     5              1294560     100.0%      0.0%      0.0%     
 flops     5 x    57 x    36              1354320     100.0%      0.0%      0.0%     
 flops     5 x     5 x   145              1370250     100.0%      0.0%      0.0%     
 flops     5 x    58 x    36              1378080     100.0%      0.0%      0.0%     
 flops     5 x     5 x   146              1379700     100.0%      0.0%      0.0%     
 flops    53 x    43 x     5              1390190     100.0%      0.0%      0.0%     
 flops    43 x    53 x     5              1390190     100.0%      0.0%      0.0%     
 flops     5 x    29 x     5              1397800     100.0%      0.0%      0.0%     
 flops     5 x     5 x    47              1473450     100.0%      0.0%      0.0%     
 flops    57 x    43 x     5              1495110     100.0%      0.0%      0.0%     
 flops    43 x    57 x     5              1519620     100.0%      0.0%      0.0%     
 flops    58 x    43 x     5              1521340     100.0%      0.0%      0.0%     
 flops    43 x    58 x     5              1546280     100.0%      0.0%      0.0%     
 flops    17 x    17 x    41              1706256     100.0%      0.0%      0.0%     
 flops    53 x    53 x     5              1713490     100.0%      0.0%      0.0%     
 flops     5 x     5 x     9              1714500     100.0%      0.0%      0.0%     
 flops    36 x    41 x     5              1785960     100.0%      0.0%      0.0%     
 flops    41 x    36 x     5              1830240     100.0%      0.0%      0.0%     
 flops    57 x    53 x     5              1842810     100.0%      0.0%      0.0%     
 flops    53 x    57 x     5              1873020     100.0%      0.0%      0.0%     
 flops    58 x    53 x     5              1875140     100.0%      0.0%      0.0%     
 flops    53 x    58 x     5              1905880     100.0%      0.0%      0.0%     
 flops     5 x    41 x    36              1948320     100.0%      0.0%      0.0%     
 flops     5 x    36 x    41              1948320     100.0%      0.0%      0.0%     
 flops    57 x    57 x     5              2014380     100.0%      0.0%      0.0%     
 flops    58 x    57 x     5              2049720     100.0%      0.0%      0.0%     
 flops    57 x    58 x     5              2049720     100.0%      0.0%      0.0%     
 flops    58 x    58 x     5              2085680     100.0%      0.0%      0.0%     
 flops    36 x    47 x     5              2098080     100.0%      0.0%      0.0%     
 flops    47 x    36 x     5              2098080     100.0%      0.0%      0.0%     
 flops    43 x    41 x     5              2133230     100.0%      0.0%      0.0%     
 flops    41 x    43 x     5              2150860     100.0%      0.0%      0.0%     
 flops     5 x    47 x    36              2233440     100.0%      0.0%      0.0%     
 flops     5 x    36 x    47              2233440     100.0%      0.0%      0.0%     
 flops    17 x    36 x     5              2233800     100.0%      0.0%      0.0%     
 flops     5 x    43 x    41              2327160     100.0%      0.0%      0.0%     
 flops     5 x    36 x    17              2343960     100.0%      0.0%      0.0%     
 flops    47 x    43 x     5              2465620     100.0%      0.0%      0.0%     
 flops    43 x    47 x     5              2506040     100.0%      0.0%      0.0%     
 flops    53 x    41 x     5              2629330     100.0%      0.0%      0.0%     
 flops    41 x    53 x     5              2651060     100.0%      0.0%      0.0%     
 flops     5 x    43 x    47              2667720     100.0%      0.0%      0.0%     
 flops    17 x    43 x     5              2675460     100.0%      0.0%      0.0%     
 flops    32 x     5 x    41              2715840     100.0%      0.0%      0.0%     
 flops     5 x    43 x    17              2792420     100.0%      0.0%      0.0%     
 flops    57 x    41 x     5              2827770     100.0%      0.0%      0.0%     
 flops     5 x     5 x    29              2831850     100.0%      0.0%      0.0%     
 flops     5 x    53 x    41              2868360     100.0%      0.0%      0.0%     
 flops    58 x    41 x     5              2877380     100.0%      0.0%      0.0%     
 flops    41 x    57 x     5              2897880     100.0%      0.0%      0.0%     
 flops    41 x    58 x     5              2948720     100.0%      0.0%      0.0%     
 flops    47 x    53 x     5              3039020     100.0%      0.0%      0.0%     
 flops     5 x    57 x    41              3084840     100.0%      0.0%      0.0%     
 flops    53 x    47 x     5              3088840     100.0%      0.0%      0.0%     
 flops     9 x     9 x     5              3120120     100.0%      0.0%      0.0%     
 flops     5 x    58 x    41              3138960     100.0%      0.0%      0.0%     
 flops     5 x    53 x    47              3288120     100.0%      0.0%      0.0%     
 flops    57 x    47 x     5              3321960     100.0%      0.0%      0.0%     
 flops    47 x    57 x     5              3321960     100.0%      0.0%      0.0%     
 flops    17 x    53 x     5              3324690     100.0%      0.0%      0.0%     
 flops    47 x    58 x     5              3380240     100.0%      0.0%      0.0%     
 flops    58 x    47 x     5              3380240     100.0%      0.0%      0.0%     
 flops     5 x    53 x    17              3459840     100.0%      0.0%      0.0%     
 flops     5 x    57 x    47              3536280     100.0%      0.0%      0.0%     
 flops    17 x    57 x     5              3556230     100.0%      0.0%      0.0%     
 flops     5 x    58 x    47              3598320     100.0%      0.0%      0.0%     
 flops    17 x    58 x     5              3638340     100.0%      0.0%      0.0%     
 flops     5 x    57 x    17              3701580     100.0%      0.0%      0.0%     
 flops     5 x    58 x    17              3786240     100.0%      0.0%      0.0%     
 flops    41 x    41 x     5              4068020     100.0%      0.0%      0.0%     
 flops     5 x    41 x    41              4437840     100.0%      0.0%      0.0%     
 flops    47 x    41 x     5              4663340     100.0%      0.0%      0.0%     
 flops    41 x    47 x     5              4778960     100.0%      0.0%      0.0%     
 flops    29 x     9 x     5              5026860     100.0%      0.0%      0.0%     
 flops     9 x    29 x     5              5026860     100.0%      0.0%      0.0%     
 flops     5 x    41 x    47              5087280     100.0%      0.0%      0.0%     
 flops     5 x    47 x    41              5087280     100.0%      0.0%      0.0%     
 flops    17 x    41 x     5              5102040     100.0%      0.0%      0.0%     
 flops     5 x    41 x    17              5325080     100.0%      0.0%      0.0%     
 flops    36 x    36 x    17              5375808     100.0%      0.0%      0.0%     
 flops    47 x    47 x     5              5478320     100.0%      0.0%      0.0%     
 flops    17 x    36 x    36              5816448     100.0%      0.0%      0.0%     
 flops     5 x    47 x    47              5831760     100.0%      0.0%      0.0%     
 flops    17 x    47 x     5              5864660     100.0%      0.0%      0.0%     
 flops     5 x     9 x    17              5971590     100.0%      0.0%      0.0%     
 flops    17 x     9 x     5              5983830     100.0%      0.0%      0.0%     
 flops     5 x    47 x    17              6104360     100.0%      0.0%      0.0%     
 flops    36 x    43 x    17              6315840     100.0%      0.0%      0.0%     
 flops    43 x    36 x    17              6421104     100.0%      0.0%      0.0%     
 flops    17 x    43 x    36              6947424     100.0%      0.0%      0.0%     
 flops    32 x    17 x    36              7285248     100.0%      0.0%      0.0%     
 flops    43 x    43 x    17              7543920     100.0%      0.0%      0.0%     
 flops    36 x    53 x    17              7784640     100.0%      0.0%      0.0%     
 flops    53 x    36 x    17              7914384     100.0%      0.0%      0.0%     
 flops    29 x    29 x     5              8098830     100.0%      0.0%      0.0%     
 flops     5 x     9 x     9              8215020     100.0%      0.0%      0.0%     
 flops    17 x    32 x    36              8460288     100.0%      0.0%      0.0%     
 flops    17 x     5 x   132              8482320     100.0%      0.0%      0.0%     
 flops     5 x    17 x   132              8482320     100.0%      0.0%      0.0%     
 flops    57 x    36 x    17              8511696     100.0%      0.0%      0.0%     
 flops    17 x    53 x    36              8563104     100.0%      0.0%      0.0%     
 flops    36 x    57 x    17              8581464     100.0%      0.0%      0.0%     
 flops    36 x    58 x    17              8590032     100.0%      0.0%      0.0%     
 flops    58 x    36 x    17              8661024     100.0%      0.0%      0.0%     
 flops    17 x    57 x    36              9209376     100.0%      0.0%      0.0%     
 flops    53 x    43 x    17              9298320     100.0%      0.0%      0.0%     
 flops    43 x    53 x    17              9298320     100.0%      0.0%      0.0%     
 flops    17 x     5 x   145              9317700     100.0%      0.0%      0.0%     
 flops     5 x    17 x   145              9317700     100.0%      0.0%      0.0%     
 flops    17 x    58 x    36              9370944     100.0%      0.0%      0.0%     
 flops    17 x     5 x   146              9381960     100.0%      0.0%      0.0%     
 flops     5 x    17 x   146              9381960     100.0%      0.0%      0.0%     
 flops     5 x    29 x    17              9702240     100.0%      0.0%      0.0%     
 flops    17 x    29 x     5              9781120     100.0%      0.0%      0.0%     
 flops    57 x    43 x    17             10000080     100.0%      0.0%      0.0%     
 flops     5 x    17 x    47             10019460     100.0%      0.0%      0.0%     
 flops    58 x    43 x    17             10175520     100.0%      0.0%      0.0%     
 flops    17 x     5 x    47             10211220     100.0%      0.0%      0.0%     
 flops    43 x    57 x    17             10250082     100.0%      0.0%      0.0%     
 flops    43 x    58 x    17             10260316     100.0%      0.0%      0.0%     
 flops    53 x    53 x    17             11460720     100.0%      0.0%      0.0%     
 flops    17 x     5 x     9             11585160     100.0%      0.0%      0.0%     
 flops     5 x    17 x     9             11652480     100.0%      0.0%      0.0%     
 flops    36 x    41 x    17             12044160     100.0%      0.0%      0.0%     
 flops    41 x    36 x    17             12244896     100.0%      0.0%      0.0%     
 flops    57 x    53 x    17             12325680     100.0%      0.0%      0.0%     
 flops    58 x    53 x    17             12541920     100.0%      0.0%      0.0%     
 flops    53 x    57 x    17             12633822     100.0%      0.0%      0.0%     
 flops    53 x    58 x    17             12646436     100.0%      0.0%      0.0%     
 flops    17 x    41 x    36             13248576     100.0%      0.0%      0.0%     
 flops    17 x    36 x    41             13248576     100.0%      0.0%      0.0%     
 flops     5 x    29 x     9             13488480     100.0%      0.0%      0.0%     
 flops     5 x     9 x    29             13498920     100.0%      0.0%      0.0%     
 flops    57 x    57 x    17             13587318     100.0%      0.0%      0.0%     
 flops    57 x    58 x    17             13600884     100.0%      0.0%      0.0%     
 flops    58 x    57 x    17             13825692     100.0%      0.0%      0.0%     
 flops    58 x    58 x    17             13839496     100.0%      0.0%      0.0%     
 flops    36 x    47 x    17             13921776     100.0%      0.0%      0.0%     
 flops    47 x    36 x    17             14036832     100.0%      0.0%      0.0%     
 flops    41 x    43 x    17             14386080     100.0%      0.0%      0.0%     
 flops    43 x    41 x    17             14386080     100.0%      0.0%      0.0%     
 flops    17 x    47 x    36             15187392     100.0%      0.0%      0.0%     
 flops    17 x    36 x    47             15187392     100.0%      0.0%      0.0%     
 flops    17 x    36 x    17             15730848     100.0%      0.0%      0.0%     
 flops    17 x    43 x    41             15824688     100.0%      0.0%      0.0%     
 flops    47 x    43 x    17             16491360     100.0%      0.0%      0.0%     
 flops    43 x    47 x    17             16628788     100.0%      0.0%      0.0%     
 flops    53 x    41 x    17             17731680     100.0%      0.0%      0.0%     
 flops    41 x    53 x    17             17731680     100.0%      0.0%      0.0%     
 flops    17 x    43 x    47             18140496     100.0%      0.0%      0.0%     
 flops    32 x    17 x    41             18467712     100.0%      0.0%      0.0%     
 flops    17 x    43 x    17             18764770     100.0%      0.0%      0.0%     
 flops    17 x     5 x    29             18955850     100.0%      0.0%      0.0%     
 flops    57 x    41 x    17             19069920     100.0%      0.0%      0.0%     
 flops     5 x    17 x    29             19172770     100.0%      0.0%      0.0%     
 flops    17 x    32 x    41             19270656     100.0%      0.0%      0.0%     
 flops    58 x    41 x    17             19404480     100.0%      0.0%      0.0%     
 flops    17 x    53 x    41             19504848     100.0%      0.0%      0.0%     
 flops    41 x    57 x    17             19546668     100.0%      0.0%      0.0%     
 flops    41 x    58 x    17             19566184     100.0%      0.0%      0.0%     
 flops    47 x    53 x    17             20326560     100.0%      0.0%      0.0%     
 flops    53 x    47 x    17             20495948     100.0%      0.0%      0.0%     
 flops    17 x    57 x    41             20976912     100.0%      0.0%      0.0%     
 flops    17 x    58 x    41             21344928     100.0%      0.0%      0.0%     
 flops     5 x    29 x    29             21874410     100.0%      0.0%      0.0%     
 flops     9 x     9 x    17             21910824     100.0%      0.0%      0.0%     
 flops    57 x    47 x    17             22042812     100.0%      0.0%      0.0%     
 flops    17 x    53 x    47             22359216     100.0%      0.0%      0.0%     
 flops    47 x    57 x    17             22407156     100.0%      0.0%      0.0%     
 flops    47 x    58 x    17             22429528     100.0%      0.0%      0.0%     
 flops    58 x    47 x    17             22429528     100.0%      0.0%      0.0%     
 flops    17 x    53 x    17             23189938     100.0%      0.0%      0.0%     
 flops    17 x    57 x    47             24046704     100.0%      0.0%      0.0%     
 flops    17 x    58 x    47             24468576     100.0%      0.0%      0.0%     
 flops    17 x    57 x    17             24907176     100.0%      0.0%      0.0%     
 flops    17 x    58 x    17             25411192     100.0%      0.0%      0.0%     
 flops    32 x    36 x     5             25793280     100.0%      0.0%      0.0%     
 flops     5 x    36 x    32             26323200     100.0%      0.0%      0.0%     
 flops    41 x    41 x    17             27433920     100.0%      0.0%      0.0%     
 flops    17 x    41 x    41             30177312     100.0%      0.0%      0.0%     
 flops    32 x    43 x     5             30877440     100.0%      0.0%      0.0%     
 flops    47 x    41 x    17             31448640     100.0%      0.0%      0.0%     
 flops     5 x    43 x    32             31455360     100.0%      0.0%      0.0%     
 flops    41 x    47 x    17             31710712     100.0%      0.0%      0.0%     
 flops    17 x    41 x    47             34593504     100.0%      0.0%      0.0%     
 flops    17 x    47 x    41             34593504     100.0%      0.0%      0.0%     
 flops    29 x     9 x    17             35300772     100.0%      0.0%      0.0%     
 flops     9 x    29 x    17             35620236     100.0%      0.0%      0.0%     
 flops    17 x    41 x    17             35855074     100.0%      0.0%      0.0%     
 flops    47 x    47 x    17             36351304     100.0%      0.0%      0.0%     
 flops    32 x    53 x     5             38210880     100.0%      0.0%      0.0%     
 flops     5 x    53 x    32             38821440     100.0%      0.0%      0.0%     
 flops    17 x    47 x    47             39655968     100.0%      0.0%      0.0%     
 flops    32 x    57 x     5             40948800     100.0%      0.0%      0.0%     
 flops    17 x    47 x    17             41102158     100.0%      0.0%      0.0%     
 flops     5 x    57 x    32             41733120     100.0%      0.0%      0.0%     
 flops    32 x    58 x     5             41852800     100.0%      0.0%      0.0%     
 flops    17 x     9 x    17             42219432     100.0%      0.0%      0.0%     
 flops     5 x    58 x    32             42502400     100.0%      0.0%      0.0%     
 flops    17 x     9 x     9             55829088     100.0%      0.0%      0.0%     
 flops    29 x    29 x    17             57388158     100.0%      0.0%      0.0%     
 flops    17 x    17 x   132             57679776     100.0%      0.0%      0.0%     
 flops    32 x    41 x     5             58790720     100.0%      0.0%      0.0%     
 flops     5 x    41 x    32             59971520     100.0%      0.0%      0.0%     
 flops    36 x    36 x    32             61461504     100.0%      0.0%      0.0%     
 flops    17 x    17 x   145             63360360     100.0%      0.0%      0.0%     
 flops    17 x    17 x   146             63797328     100.0%      0.0%      0.0%     
 flops    32 x    36 x    36             65691648     100.0%      0.0%      0.0%     
 flops    32 x     9 x     5             67141440     100.0%      0.0%      0.0%     
 flops    32 x    47 x     5             67349120     100.0%      0.0%      0.0%     
 flops     5 x     9 x    32             67896000     100.0%      0.0%      0.0%     
 flops    17 x    29 x    17             68623628     100.0%      0.0%      0.0%     
 flops     5 x    47 x    32             68823040     100.0%      0.0%      0.0%     
 flops    17 x    17 x    47             69354798     100.0%      0.0%      0.0%     
 flops    36 x    43 x    32             73016064     100.0%      0.0%      0.0%     
 flops    43 x    36 x    32             73412352     100.0%      0.0%      0.0%     
 flops    32 x    43 x    36             78465024     100.0%      0.0%      0.0%     
 flops    17 x    17 x     9             78763482     100.0%      0.0%      0.0%     
 flops    32 x    32 x    36             82280448     100.0%      0.0%      0.0%     
 flops    43 x    43 x    32             87213632     100.0%      0.0%      0.0%     
 flops    36 x    53 x    32             89996544     100.0%      0.0%      0.0%     
 flops    53 x    36 x    32             90484992     100.0%      0.0%      0.0%     
 flops    17 x     9 x    29             91686168     100.0%      0.0%      0.0%     
 flops    17 x    29 x     9             91739412     100.0%      0.0%      0.0%     
 flops    32 x     5 x   132             95800320     100.0%      0.0%      0.0%     
 flops     5 x    32 x   132             95800320     100.0%      0.0%      0.0%     
 flops    32 x    53 x    36             96712704     100.0%      0.0%      0.0%     
 flops    57 x    36 x    32             97314048     100.0%      0.0%      0.0%     
 flops    36 x    57 x    32             97445376     100.0%      0.0%      0.0%     
 flops    58 x    36 x    32             99021312     100.0%      0.0%      0.0%     
 flops    36 x    58 x    32             99021312     100.0%      0.0%      0.0%     
 flops    32 x    57 x    36            104011776     100.0%      0.0%      0.0%     
 flops    32 x     5 x   145            105235200     100.0%      0.0%      0.0%     
 flops     5 x    32 x   145            105235200     100.0%      0.0%      0.0%     
 flops    32 x    58 x    36            105836544     100.0%      0.0%      0.0%     
 flops    32 x     5 x   146            105960960     100.0%      0.0%      0.0%     
 flops     5 x    32 x   146            105960960     100.0%      0.0%      0.0%     
 flops    53 x    43 x    32            107495872     100.0%      0.0%      0.0%     
 flops    43 x    53 x    32            107495872     100.0%      0.0%      0.0%     
 flops    32 x    29 x     5            110088640     100.0%      0.0%      0.0%     
 flops     5 x    29 x    32            111044480     100.0%      0.0%      0.0%     
 flops     5 x    32 x    47            113160960     100.0%      0.0%      0.0%     
 flops    32 x     5 x    47            115281600     100.0%      0.0%      0.0%     
 flops    57 x    43 x    32            115608768     100.0%      0.0%      0.0%     
 flops    43 x    57 x    32            116393088     100.0%      0.0%      0.0%     
 flops    58 x    43 x    32            117636992     100.0%      0.0%      0.0%     
 flops    43 x    58 x    32            118275456     100.0%      0.0%      0.0%     
 flops    17 x    17 x    29            128145490     100.0%      0.0%      0.0%     
 flops     5 x    32 x     9            132122880     100.0%      0.0%      0.0%     
 flops    53 x    53 x    32            132494912     100.0%      0.0%      0.0%     
 flops    32 x     5 x     9            133289280     100.0%      0.0%      0.0%     
 flops    36 x    41 x    32            138862080     100.0%      0.0%      0.0%     
 flops    41 x    36 x    32            139995648     100.0%      0.0%      0.0%     
 flops    57 x    53 x    32            142494528     100.0%      0.0%      0.0%     
 flops    53 x    57 x    32            143461248     100.0%      0.0%      0.0%     
 flops    58 x    53 x    32            144994432     100.0%      0.0%      0.0%     
 flops    53 x    58 x    32            145781376     100.0%      0.0%      0.0%     
 flops    17 x    29 x    29            148745988     100.0%      0.0%      0.0%     
 flops    32 x    36 x    41            149630976     100.0%      0.0%      0.0%     
 flops    32 x    41 x    36            149630976     100.0%      0.0%      0.0%     
 flops    57 x    57 x    32            154288512     100.0%      0.0%      0.0%     
 flops    57 x    58 x    32            156783744     100.0%      0.0%      0.0%     
 flops    58 x    57 x    32            156995328     100.0%      0.0%      0.0%     
 flops    58 x    58 x    32            159534336     100.0%      0.0%      0.0%     
 flops    36 x    47 x    32            160266240     100.0%      0.0%      0.0%     
 flops    47 x    36 x    32            160482816     100.0%      0.0%      0.0%     
 flops    43 x    41 x    32            165863040     100.0%      0.0%      0.0%     
 flops    41 x    43 x    32            166314368     100.0%      0.0%      0.0%     
 flops    32 x    36 x    47            171528192     100.0%      0.0%      0.0%     
 flops    32 x    47 x    36            171528192     100.0%      0.0%      0.0%     
 flops    17 x    36 x    32            177666048     100.0%      0.0%      0.0%     
 flops    32 x    43 x    41            178725888     100.0%      0.0%      0.0%     
 flops    32 x    36 x    17            180290304     100.0%      0.0%      0.0%     
 flops    47 x    43 x    32            190653056     100.0%      0.0%      0.0%     
 flops    43 x    47 x    32            191429120     100.0%      0.0%      0.0%     
 flops    53 x    41 x    32            204435840     100.0%      0.0%      0.0%     
 flops    32 x    43 x    47            204880896     100.0%      0.0%      0.0%     
 flops    41 x    53 x    32            204992128     100.0%      0.0%      0.0%     
 flops    32 x    32 x    41            208576512     100.0%      0.0%      0.0%     
 flops    17 x    43 x    32            212352576     100.0%      0.0%      0.0%     
 flops    32 x    43 x    17            215487104     100.0%      0.0%      0.0%     
 flops    32 x     5 x    29            217931520     100.0%      0.0%      0.0%     
 flops     5 x    32 x    29            218627520     100.0%      0.0%      0.0%     
 flops    57 x    41 x    32            219864960     100.0%      0.0%      0.0%     
 flops    32 x    53 x    41            220290048     100.0%      0.0%      0.0%     
 flops    41 x    57 x    32            221958912     100.0%      0.0%      0.0%     
 flops    58 x    41 x    32            223722240     100.0%      0.0%      0.0%     
 flops    41 x    58 x    32            225548544     100.0%      0.0%      0.0%     
 flops    47 x    53 x    32            234990976     100.0%      0.0%      0.0%     
 flops    53 x    47 x    32            235947520     100.0%      0.0%      0.0%     
 flops    32 x    57 x    41            236915712     100.0%      0.0%      0.0%     
 flops    32 x    58 x    41            241072128     100.0%      0.0%      0.0%     
 flops     9 x     9 x    32            246716928     100.0%      0.0%      0.0%     
 flops    32 x    53 x    47            252527616     100.0%      0.0%      0.0%     
 flops    57 x    47 x    32            253754880     100.0%      0.0%      0.0%     
 flops    47 x    57 x    32            254440704     100.0%      0.0%      0.0%     
 flops    58 x    47 x    32            258206720     100.0%      0.0%      0.0%     
 flops    47 x    58 x    32            258555648     100.0%      0.0%      0.0%     
 flops    17 x    53 x    32            262428864     100.0%      0.0%      0.0%     
 flops    32 x    53 x    17            266465344     100.0%      0.0%      0.0%     
 flops    32 x    57 x    47            271586304     100.0%      0.0%      0.0%     
 flops    32 x    58 x    47            276350976     100.0%      0.0%      0.0%     
 flops    17 x    57 x    32            281738688     100.0%      0.0%      0.0%     
 flops    32 x    57 x    17            285459648     100.0%      0.0%      0.0%     
 flops    17 x    58 x    32            287060096     100.0%      0.0%      0.0%     
 flops    32 x    58 x    17            290972544     100.0%      0.0%      0.0%     
 flops    41 x    41 x    32            316296960     100.0%      0.0%      0.0%     
 flops    32 x    41 x    41            340826112     100.0%      0.0%      0.0%     
 flops    47 x    41 x    32            362584320     100.0%      0.0%      0.0%     
 flops    41 x    47 x    32            365050880     100.0%      0.0%      0.0%     
 flops    32 x    41 x    47            390703104     100.0%      0.0%      0.0%     
 flops    32 x    47 x    41            390703104     100.0%      0.0%      0.0%     
 flops    29 x     9 x    32            397488384     100.0%      0.0%      0.0%     
 flops     9 x    29 x    32            401397120     100.0%      0.0%      0.0%     
 flops    17 x    41 x    32            404996032     100.0%      0.0%      0.0%     
 flops    32 x    41 x    17            410527424     100.0%      0.0%      0.0%     
 flops    47 x    47 x    32            418472960     100.0%      0.0%      0.0%     
 flops    32 x    47 x    47            447879168     100.0%      0.0%      0.0%     
 flops    17 x    47 x    32            463905792     100.0%      0.0%      0.0%     
 flops    32 x    47 x    17            470758016     100.0%      0.0%      0.0%     
 flops    32 x     9 x    17            473296320     100.0%      0.0%      0.0%     
 flops    17 x     9 x    32            478211904     100.0%      0.0%      0.0%     
 flops    32 x     9 x     9            631763712     100.0%      0.0%      0.0%     
 flops    29 x    29 x    32            646695360     100.0%      0.0%      0.0%     
 flops    32 x    17 x   132            651442176     100.0%      0.0%      0.0%     
 flops    17 x    32 x   132            651442176     100.0%      0.0%      0.0%     
 flops    32 x    17 x   145            715599360     100.0%      0.0%      0.0%     
 flops    17 x    32 x   145            715599360     100.0%      0.0%      0.0%     
 flops    32 x    17 x   146            720534528     100.0%      0.0%      0.0%     
 flops    17 x    32 x   146            720534528     100.0%      0.0%      0.0%     
 flops    32 x    29 x    17            768448960     100.0%      0.0%      0.0%     
 flops    17 x    29 x    32            778419392     100.0%      0.0%      0.0%     
 flops    32 x    17 x    47            783761472     100.0%      0.0%      0.0%     
 flops    17 x    32 x    47            784068288     100.0%      0.0%      0.0%     
 flops    17 x    32 x     9            889985088     100.0%      0.0%      0.0%     
 flops    32 x    17 x     9            904506624     100.0%      0.0%      0.0%     
 flops    32 x     9 x    29           1036717056     100.0%      0.0%      0.0%     
 flops    32 x    29 x     9           1036717056     100.0%      0.0%      0.0%     
 flops    17 x    32 x    29           1457860160     100.0%      0.0%      0.0%     
 flops    32 x    17 x    29           1474582720     100.0%      0.0%      0.0%     
 flops    32 x    29 x    29           1679954688     100.0%      0.0%      0.0%     
 flops    32 x    36 x    32           2026708992     100.0%      0.0%      0.0%     
 flops    32 x    43 x    32           2420439040     100.0%      0.0%      0.0%     
 flops    32 x    53 x    32           2993317888     100.0%      0.0%      0.0%     
 flops    32 x    57 x    32           3213041664     100.0%      0.0%      0.0%     
 flops    32 x    58 x    32           3275231232     100.0%      0.0%      0.0%     
 flops    32 x    41 x    32           4618323968     100.0%      0.0%      0.0%     
 flops    32 x    47 x    32           5297352704     100.0%      0.0%      0.0%     
 flops    32 x     9 x    32           5369481216     100.0%      0.0%      0.0%     
 flops    32 x    32 x   132           7357464576     100.0%      0.0%      0.0%     
 flops    32 x    32 x   145           8082063360     100.0%      0.0%      0.0%     
 flops    32 x    32 x   146           8137801728     100.0%      0.0%      0.0%     
 flops    32 x    29 x    32           8736028672     100.0%      0.0%      0.0%     
 flops    32 x    32 x    47           8853338112     100.0%      0.0%      0.0%     
 flops    32 x    32 x     9          10248394752     100.0%      0.0%      0.0%     
 flops    32 x    32 x    29          16736962560     100.0%      0.0%      0.0%     
 flops inhomo. stacks                  8295874560     100.0%      0.0%      0.0%
 flops total                       147.712664E+09     100.0%      0.0%      0.0%
 flops max/rank                     19.762617E+09     100.0%      0.0%      0.0%
 matmuls inhomo. stacks                     43110     100.0%      0.0%      0.0%
 matmuls total                            3292847     100.0%      0.0%      0.0%
 number of processed stacks                249254     100.0%      0.0%      0.0%
 average stack size                                    13.2       0.0       0.0
 marketing flops                   202.643833E+09
 -------------------------------------------------------------------------------
 # multiplications                           4041
 max memory usage/rank              24.228868E+09
 # max total images/rank                        1
 # max 3D layers                                1
 # MPI messages exchanged                   18180
 MPI messages size (bytes):
  total size                         4.768870E+09
  min size                           0.000000E+00
  max size                           1.843200E+06
  average size                     262.314062E+03
 MPI breakdown and total messages size (bytes):
             size <=      128                2490                        0
       128 < size <=     8192                 152                   558352
      8192 < size <=    32768                1896                 33433568
     32768 < size <=   131072                3016                348573744
    131072 < size <=  4194304               10626               4386297632
   4194304 < size <= 16777216                   0                        0
  16777216 < size                               0                        0
 -------------------------------------------------------------------------------
 -                                                                             -
 -                      DBCSR MESSAGE PASSING PERFORMANCE                      -
 -                                                                             -
 -------------------------------------------------------------------------------
 ROUTINE             CALLS      AVE VOLUME [Bytes]
 MP_Bcast              402                     12.
 MP_Allreduce         2924                     20.
 MP_Alltoall          3385                  16717.
 MP_ISend             7630                  95350.
 MP_IRecv             7636                  81202.
 -------------------------------------------------------------------------------

 -------------------------------------------------------------------------------
 -                                                                             -
 -                                GRID STATISTICS                              -
 -                                                                             -
 -------------------------------------------------------------------------------
 LP    KERNEL             BACKEND                              COUNT     PERCENT
 4     collocate ortho    CPU                                  11408      20.65%
 4     integrate ortho    CPU                                  11408      20.65%
 2     collocate ortho    CPU                                  11264      20.39%
 2     integrate ortho    CPU                                  11264      20.39%
 6     collocate ortho    CPU                                   4624       8.37%
 6     integrate ortho    CPU                                   4624       8.37%
 0     collocate general  CPU                                    648       1.17%
 -------------------------------------------------------------------------------

 -------------------------------------------------------------------------------
 -                                                                             -
 -                          OFFLOAD MEMPOOL STATISTICS                         -
 -                                                                             -
 -------------------------------------------------------------------------------
 Memory consumption                Number of allocations  Used [MiB]  Size [MiB]
 Host                                                  6          95    22304225
 -------------------------------------------------------------------------------

 MEMORY| Estimated peak process memory [MiB]                                2370

 -------------------------------------------------------------------------------
 -                                                                             -
 -                         MESSAGE PASSING PERFORMANCE                         -
 -                                                                             -
 -------------------------------------------------------------------------------

 ROUTINE             CALLS      AVE VOLUME [Bytes]
 MP_Group                5
 MP_Bcast              367                 274885.
 MP_Allreduce         1764                   9684.
 MP_Sync                10
 MP_Alltoall            46               86089565.
 MP_SendRecv            32                 660672.
 MP_ISendRecv           32                 660672.
 MP_Wait               176
 MP_comm_split          10
 MP_ISend              117                3595290.
 MP_IRecv              117                3596844.
 -------------------------------------------------------------------------------


 -------------------------------------------------------------------------------
 -                                                                             -
 -                           R E F E R E N C E S                               -
 -                                                                             -
 -------------------------------------------------------------------------------
 
 CP2K version 2026.2 (Development Version), the CP2K developers group (2026).
 CP2K is freely available from https://www.cp2k.org/ .
 
 M. Iannuzzi, J. Wilhelm, F. Stein, A. Bussy, H. Elgabarty, D. Golze, A. Hehn, 
 M. Graml, S. Marek, B. Sertcan Gökmen, C. Schran, H. Forbert, R. Z. 
 Khaliullin, A. Kozhevnikov, M. Taillefumier, R. Meli, V. V. Rybkin, M. Brehm, 
 R. Schade, O. Schütt, J. V. Pototschnig, H. Mirhosseini, A. Knüpfer, D. Marx, 
 M. Krack, J. Hutter, T. D. Kühne.
 J. Phys. Chem. B 130, 1237-1310 (2026).
 The CP2K Program Package Made Simple.
 https://doi.org/10.1021/acs.jpcb.5c05851

 M. Graml, K. Zollner, D. Hernangómez-Pérez, P. E. Faria Junior, J. Wilhelm.
 J. Chem. Theory Comput. 20, 2202-2208 (2024).
 Low-scaling GW algorithm applied to twisted transition-metal dichalcogenide 
 heterobilayers.
 https://doi.org/10.1021/acs.jctc.3c01230

 T. D. Kühne, M. Iannuzzi, M. Del Ben, V. V. Rybkin, P. Seewald, F. Stein, T. 
 Laino, R. Z. Khaliullin, O. Schütt, F. Schiffmann, D. Golze, J. Wilhelm, S. 
 Chulkov, M. H. Bani-Hashemian, V. Weber, U. Borstnik, M. Taillefumier, A. S. 
 Jakobovits, A. Lazzaro, H. Pabst, T. Müller, R. Schade, M. Guidon, S. 
 Andermatt, N. Holmberg, G. K. Schenter, A. Hehn, A. Bussy, F. Belleflamme, G. 
 Tabacchi, A. Glöß, M. Lass, I. Bethune, C. J. Mundy, C. Plessl, M. Watkins, 
 J. VandeVondele, M. Krack, J. Hutter.
 J. Chem. Phys. 152, 194103 (2020).
 CP2K: An electronic structure and molecular dynamics software package - 
 Quickstep: Efficient and accurate electronic structure calculations.
 https://doi.org/10.1063/5.0007045

 O. Schuett, P. Messmer, J. Hutter, J. VandeVondele.
 Electronic Structure Calculations on Graphics Processing Units, 173-190 (2016).
 GPU-Accelerated Sparse Matrix-Matrix Multiplication for Linear Scaling Density 
 Functional Theory.
 https://doi.org/10.1002/9781118670712.ch8

 U. Borstnik, J. VandeVondele, V. Weber, J. Hutter.
 Parallel Comput. 40, 47-58 (2014).
 Sparse matrix multiplication: The distributed block-compressed sparse row 
 library.
 https://doi.org/10.1016/j.parco.2014.03.012

 J. VandeVondele, J. Hutter.
 J. Chem. Phys. 127, 114105 (2007).
 Gaussian basis sets for accurate calculations on molecular systems in gas and 
 condensed phases.
 https://doi.org/10.1063/1.2770708

 J. VandeVondele, M. Krack, F. Mohamed, M. Parrinello, T. Chassaing, J. Hutter.
 Comput. Phys. Commun. 167, 103-128 (2005).
 QUICKSTEP: Fast and accurate density functional calculations using a mixed 
 Gaussian and plane waves approach.
 https://doi.org/10.1016/j.cpc.2004.12.014

 M. Krack.
 Theor. Chem. Acc. 114, 145-152 (2005).
 Pseudopotentials for H to Kr optimized for gradient-corrected 
 exchange-correlation functionals.
 https://doi.org/10.1007/s00214-005-0655-y

 M. Frigo, S. G. Johnson.
 Proc. IEEE 93, 216-231 (2005).
 The design and implementation of FFTW3.
 https://doi.org/10.1109/JPROC.2004.840301

 J. VandeVondele, J. Hutter.
 J. Chem. Phys. 118, 4365-4369 (2003).
 An efficient orbital transformation method for electronic structure 
 calculations.
 https://doi.org/10.1063/1.1543154

 C. Hartwigsen, S. Goedecker, J. Hutter.
 Phys. Rev. B 58, 3641-3662 (1998).
 Relativistic separable dual-space Gaussian pseudopotentials from H to Rn.
 https://doi.org/10.1103/PhysRevB.58.3641

 G. Lippert, J. Hutter, M. Parrinello.
 Mol. Phys. 92, 477-487 (1997).
 A hybrid Gaussian and plane wave density functional scheme.
 https://doi.org/10.1080/002689797170220

 S. Goedecker, M. Teter, J. Hutter.
 Phys. Rev. B 54, 1703-1710 (1996).
 Separable dual-space Gaussian pseudopotentials.
 https://doi.org/10.1103/PhysRevB.54.1703

 J. P. Perdew, K. Burke, M. Ernzerhof.
 Phys. Rev. Lett. 77, 3865-3868 (1996).
 Generalized gradient approximation made simple.
 https://doi.org/10.1103/PhysRevLett.77.3865

 P. E. Blöchl.
 J. Chem. Phys. 103, 7422-7428 (1995).
 Electrostatic decoupling of periodic images of plane‐wave‐expanded 
 densities and derived atomic point charges.
 https://doi.org/10.1063/1.470314

 R. H. Byrd, P. H. Lu, J. Nocedal, C. Y. Zhu.
 SIAM J. Sci. Comput. 16, 1190-1208 (1995).
 A Limited Memory Algorithm for Bound Constrained Optimization.
 https://doi.org/10.1137/0916069


 -------------------------------------------------------------------------------
 -                                                                             -
 -                                T I M I N G                                  -
 -                                                                             -
 -------------------------------------------------------------------------------
 SUBROUTINE                       CALLS  ASD         SELF TIME        TOTAL TIME MAXRANK
                                MAXIMUM       AVERAGE  MAXIMUM  AVERAGE  MAXIMUM
 CP2K                                 1  1.0    0.011    0.022  312.273  312.273       0
 qs_energies                          1  2.0    0.000    0.000  311.306  311.306       2
 qs_energies_properties               1  3.0    0.000    0.000  307.590  307.590       3
 post_scf_bandstructure               1  4.0    0.000    0.000  307.590  307.590       8
 run_gw                               1  5.0    0.000    0.000  307.561  307.573       4
 gw_calc_ri_rs_non_periodic           1  6.0    0.000    0.000  304.881  305.002       8
 optimize_ri_rs_grid                  1  7.0    0.000    0.000  303.406  303.523       7
 rirs_grid_LBFGS                      1  8.0    4.380    4.540  296.244  296.276       2
 evaluate_rirs_grid_cluster         274  9.0   18.645   22.017  284.586  291.573       5
 rirs_cluster_gradient_products     274 10.0  101.157  103.676  101.157  103.676       4
 rirs_cluster_D_ll                  274 10.0   48.175   50.212   48.175   50.212       1
 rirs_cluster_gradient_coordina     274 10.0   45.656   49.293   45.656   49.293       8
 rirs_cluster_residual              274 10.0   28.952   31.163   28.952   31.163       5
 rirs_cluster_d_lP                  274 10.0   24.518   25.471   24.518   25.471       5
 rirs_cluster_AO_products           274 10.0   17.482   20.097   17.482   20.097       5
 mp_sum_d                           697  4.5    7.341   16.427    7.341   16.427       8
 initialize_ri_rs_grid                1  8.0    1.235    4.554    4.498    4.608       0
 mp_bcast_dm                         40  9.1    3.263    4.345    3.263    4.345       4
 create_and_init_bs_env_for_gw        1  6.0    0.004    0.005    2.680    2.877       1
 qs_ks_build_kohn_sham_matrix         2  7.5    0.001    0.002    2.827    2.827       6
 scf_env_do_scf                       1  3.0    0.000    0.000    2.813    2.813       0
 fft_wrap_pw1pw2                     28 10.0    0.001    0.001    2.612    2.721       2
 rirs_grid_build_clusters             1  8.0    1.693    1.714    2.665    2.687       8
 fft_wrap_pw1pw2_300                 16 11.2    0.141    0.221    2.490    2.618       5
 fft3d_ps                            28 12.0    0.993    1.238    1.939    2.319       4
 init_scf_loop                        1  4.0    0.000    0.000    2.191    2.191       2
 qs_ks_update_qs_env                  2  5.0    0.000    0.000    2.188    2.188       6
 rebuild_ks_matrix                    1  6.0    0.000    0.000    2.188    2.188       6
 generate_auto_ri_basis               1  7.0    0.000    0.000    1.724    1.724       6
 qs_vxc_create                        2  8.5    0.000    0.000    1.513    1.546       6
 xc_vxc_pw_create                     1  9.0    0.022    0.029    1.513    1.546       4
 mp_alltoall_z22v                    28 14.0    0.595    1.531    0.595    1.531       8
 qs_rho_update_rho_low                2  5.0    0.000    0.000    1.251    1.251       8
 calculate_rho_elec                   2  6.0    0.027    0.028    1.251    1.251       6
 xc_pw_derive                         6 11.0    0.000    0.000    1.130    1.245       6
 abc_contract_xsmm                16225  9.1    1.064    1.133    1.064    1.133       1
 compute_AB_optimized_RI_basis        1  8.0    0.000    0.000    1.023    1.023       5
 compute_AB_optimized_RI_basis_       1  9.0    0.000    0.000    1.007    1.022       0
 density_rs2pw                        2  7.0    0.000    0.000    0.841    1.003       2
 yz_to_x                             14 12.2    0.146    0.200    0.480    0.947       2
 compute_B_PQ_AB                      4 10.0    0.124    0.232    0.488    0.892       0
 xc_pw_divergence                     1 10.0    0.000    0.000    0.755    0.847       6
 mp_sum_dm                           62 10.9    0.601    0.839    0.601    0.839       3
 xc_rho_set_and_dset_create           1 10.0    0.021    0.038    0.711    0.768       4
 x_to_yz                             14 13.8    0.204    0.255    0.464    0.760       1
 qs_init_subsys                       1  2.0    0.001    0.001    0.696    0.697       0
 qs_env_setup                         1  3.0    0.000    0.000    0.694    0.696       8
 qs_env_rebuild_pw_env                2  3.5    0.000    0.000    0.694    0.696       8
 pw_env_rebuild                       1  5.0    0.000    0.000    0.694    0.696       8
 pw_grid_setup                        5  5.2    0.000    0.000    0.682    0.684       8
 pw_grid_setup_internal               5  6.2    0.012    0.012    0.682    0.684       8
 cp_fm_get_submatrix                 58 10.0    0.000    0.000    0.490    0.677       0
 init_scf_run                         1  3.0    0.000    0.000    0.648    0.648       6
 scf_env_initial_rho_setup            1  4.0    0.000    0.000    0.647    0.647       0
 compute_V_xc                         1  7.0    0.000    0.000    0.640    0.640       0
 scf_env_do_scf_inner_loop            1  4.0    0.000    0.000    0.622    0.622       0
 pw_grid_sort                         5  7.2    0.403    0.418    0.584    0.600       5
 compute_Sigma_c_and_QP_energie       1  7.0    0.000    0.000    0.566    0.578       8
 compute_M_pq_inv_and_V_pq            1  8.0    0.000    0.000    0.568    0.568       8
 sum_up_and_integrate                 2  8.5    0.000    0.000    0.537    0.565       6
 integrate_v_rspace                   2  9.5    0.000    0.000    0.530    0.560       6
 potential_pw2rs                      2 10.5    0.001    0.002    0.516    0.547       1
 compute_contracted_RI_matrix         2  9.0    0.000    0.000    0.544    0.544       8
 compute_Sigma_c                      1  8.0    0.002    0.003    0.543    0.543       0
 compute_optimized_RI_matrix_bl      10 10.0    0.029    0.041    0.387    0.542       7
 compute_M_PQ_AB                    386 11.0    0.000    0.001    0.374    0.520       7
 compute_M_PQ                       386 12.0    0.000    0.001    0.374    0.519       8
 int_operators_r12_ab_os            386 13.0    0.000    0.000    0.373    0.519       7
 int_operator_ab_os_low             386 14.0    0.155    0.215    0.373    0.518       7
 contract_B_PQ                       18 11.9    0.255    0.473    0.276    0.511       0
 contract_grid_panels_sigma_c        30  9.0    0.449    0.458    0.496    0.496       8
 setup_time_and_frequency_minim       1  7.0    0.000    0.000    0.276    0.473       0
 build_minimax_time_frequency_g       1  8.0    0.000    0.000    0.276    0.473       8
 fit_l_sq_weights                     3  9.0    0.276    0.473    0.276    0.473       5
 qs_ks_ddapc                          2  8.5    0.000    0.000    0.395    0.439       2
 transfer_rs2pw                       9  7.8    0.000    0.000    0.201    0.406       5
 grid_collocate_task_list             2  7.0    0.358    0.396    0.358    0.396       2
 mp_waitany                         117 11.3    0.145    0.387    0.145    0.387       8
 transfer_rs2pw_300                   3  8.3    0.072    0.082    0.169    0.369       0
 get_mat_chi_Gamma_tau                1  7.0    0.000    0.001    0.365    0.365       0
 contract_grid_panels                31  8.0    0.316    0.325    0.348    0.356       8
 pw_poisson_solve                     2  8.5    0.000    0.000    0.329    0.346       2
 copy_dbcsr_to_fm                   104  9.5    0.190    0.317    0.192    0.318       0
 -------------------------------------------------------------------------------

 The number of warnings for this run is : 0
 
 -------------------------------------------------------------------------------
  **** **** ******  **  PROGRAM ENDED AT                 2026-10-03 12:07:27.224
 ***** ** ***  *** **   PROGRAM RAN ON                                  n2cn0384
 **    ****   ******    PROGRAM RAN BY                                  eprop2d1
 ***** **    ** ** **   PROGRAM PROCESS ID                               1062367
  **** **  *******  **  PROGRAM STOPPED IN /scratch/hpc-prf-metdyn/eprop2d1_Jan/
                                           53_benchmark_RI_opt/418_gw100_fig5_fu
                                           ll_epsfilter_1e12_20261002/calculatio
                                           ns/rc5p0/ri3_rs09/71_C2H5OH
