 DBCSR| CPU Multiplication driver                                           XSMM (U)
 DBCSR| Multrec recursion limit                                              512 (U)
 DBCSR| Multiplication stack size                                           1000 (D)
 DBCSR| Maximum elements for images                                    UNLIMITED (U)
 DBCSR| Multiplicative factor virtual images                                   1 (U)
 DBCSR| Use multiplication densification                                       T (D)
 DBCSR| Multiplication size stacks                                             3 (U)
 DBCSR| Use memory pool for CPU allocation                                     F (U)
 DBCSR| Number of 3D layers                                               SINGLE (U)
 DBCSR| Use MPI memory allocation                                              F (U)
 DBCSR| Use RMA algorithm                                                      F (U)
 DBCSR| Use Communication thread                                               T (U)
 DBCSR| Communication thread load                                             60 (D)
 DBCSR| MPI: My process id                                                     0
 DBCSR| MPI: Number of processes                                              16
 DBCSR| OMP: Current number of threads                                         8
 DBCSR| OMP: Max number of threads                                             8
 DBCSR| Split modifier for TAS multiplication algorithm                  1.0E+00 (U)


  **** **** ******  **  PROGRAM STARTED AT               2026-09-17 06:01:05.898
 ***** ** ***  *** **   PROGRAM STARTED ON                              n2cn1042
 **    ****   ******    PROGRAM STARTED BY                              eprop2d1
 ***** **    ** ** **   PROGRAM PROCESS ID                                313157
  **** **  *******  **  PROGRAM STARTED IN /scratch/hpc-prf-metdyn/eprop2d1_Jan/
                                           53_benchmark_RI_opt/111_GW100_GTH_Leb
                                           edev_riao245_rc3/calculations/87_C8H1
                                           0_riao5_r07

 CP2K| version string:                 CP2K version 2026.2 (Development Version)
 CP2K| source code revision number:                                      unknown
 CP2K| cp2kflags: omp libint fftw3 libxc parallel scalapack openblas            
 CP2K| is freely available from                            https://www.cp2k.org/
 CP2K| Program compiled at                                   2026-09-15 17:57:52
 CP2K| Program compiled on                                              n2login6
 CP2K| Program compiled for                                               x86_64
 CP2K| Data directory path    /scratch/hpc-prf-metdyn/eprop2d1_Jan/53_benchmark_
 CP2K| Input file name        /scratch/hpc-prf-metdyn/eprop2d1_Jan/53_benchmark_
 
 eprop2d1@n2cn1042 has created rank and process                      0    313157
 eprop2d1@n2cn1042 has created rank and process                      1    313158
 eprop2d1@n2cn1042 has created rank and process                      2    313159
 eprop2d1@n2cn1042 has created rank and process                      3    313160
 eprop2d1@n2cn1042 has created rank and process                      4    313161
 eprop2d1@n2cn1042 has created rank and process                      5    313162
 eprop2d1@n2cn1042 has created rank and process                      6    313163
 eprop2d1@n2cn1042 has created rank and process                      7    313164
 eprop2d1@n2cn1042 has created rank and process                      8    313165
 eprop2d1@n2cn1042 has created rank and process                      9    313166
 eprop2d1@n2cn1042 has created rank and process                     10    313167
 eprop2d1@n2cn1042 has created rank and process                     11    313168
 eprop2d1@n2cn1042 has created rank and process                     12    313169
 eprop2d1@n2cn1042 has created rank and process                     13    313170
 eprop2d1@n2cn1042 has created rank and process                     14    313171
 eprop2d1@n2cn1042 has created rank and process                     15    313172
 
 eprop2d1@n2cn1042 is running                                       16 processes

 GLOBAL| Force Environment number                                              1
 GLOBAL| Basis set file name            /scratch/hpc-prf-metdyn/eprop2d1_Jan/53_
 GLOBAL| Potential file name            /scratch/hpc-prf-metdyn/eprop2d1_Jan/53_
 GLOBAL| MM Potential file name                                     MM_POTENTIAL
 GLOBAL| Coordinate file name                                      __STD_INPUT__
 GLOBAL| Method name                                                        CP2K
 GLOBAL| Project name                              gw100_106_87_C8H10_a3_leb_r07
 GLOBAL| Run type                                                         ENERGY
 GLOBAL| FFT library                                                       FFTW3
 GLOBAL| Diagonalization library                                       ScaLAPACK
 GLOBAL| Cholesky decomposition library                                ScaLAPACK
 GLOBAL| DGEMM library                                                      BLAS
 GLOBAL| Direct generalized diagonalization requested                          F
 GLOBAL| Orthonormality check for eigenvectors                          DISABLED
 GLOBAL| Matrix multiplication library                                 ScaLAPACK
 GLOBAL| All-to-all communication in single precision                          F
 GLOBAL| Grid backend                                                       AUTO
 GLOBAL| Global print level                                                  LOW
 GLOBAL| MPI I/O enabled                                                       T
 GLOBAL| Total number of message passing processes                            16
 GLOBAL| Number of distributed systems (nodes)                                 1
 GLOBAL| Number of threads for this process                                    8
 GLOBAL| This output is from process                                           0
 GLOBAL| OpenMP stack size per thread (OMP_STACKSIZE)                       128M
 GLOBAL| CPU model name                          AMD EPYC 7763 64-Core Processor

 MEMORY| system memory details [Kb]
 MEMORY|                        rank 0           min           max       average
 MEMORY| MemTotal            263897608     263897608     263897608     263897608
 MEMORY| MemFree             248233208     248233208     248233208     248233208
 MEMORY| Buffers                301080        301080        301080        301080
 MEMORY| Cached                7135564       7135564       7135564       7135564
 MEMORY| Slab                  2466860       2466860       2466860       2466860
 MEMORY| SReclaimable          1291336       1291336       1291336       1291336
 MEMORY| MemLikelyFree       256961188     256961188     256961188     256961188


 GENERATE|  Preliminary Number of Bonds generated:                             0
 GENERATE|  Achieved consistency in connectivity generation.

 *******************************************************************************
 *******************************************************************************
 **                                                                           **
 **     #####                         ##              ##                      **
 **    ##   ##            ##          ##              ##                      **
 **   ##     ##                       ##            ######                    **
 **   ##     ##  ##   ##  ##   #####  ##  ##   ####   ##    #####    #####    **
 **   ##     ##  ##   ##  ##  ##      ## ##   ##      ##   ##   ##  ##   ##   **
 **   ##  ## ##  ##   ##  ##  ##      ####     ###    ##   ######   ######    **
 **    ##  ###   ##   ##  ##  ##      ## ##      ##   ##   ##       ##        **
 **     #######   #####   ##   #####  ##  ##  ####    ##    #####   ##        **
 **           ##                                                    ##        **
 **                                                                           **
 **                                                ... make the atoms dance   **
 **                                                                           **
 **            Copyright (C) by CP2K developers group (2000-2026)             **
 **                      J. Chem. Phys. 152, 194103 (2020)                    **
 **                                                                           **
 *******************************************************************************


 TOTAL NUMBERS AND MAXIMUM NUMBERS

  Total number of            - Atomic kinds:                                   2
                             - Atoms:                                         18
                             - Shell sets:                                    18
                             - Shells:                                        80
                             - Primitive Cartesian functions:                118
                             - Cartesian basis functions:                    172
                             - Spherical basis functions:                    164

  Maximum angular momentum of- Orbital basis functions:                        2
                             - Local part of the GTH pseudopotential:          2
                             - Non-local part of the GTH pseudopotential:      0


 SCF PARAMETERS         Density guess:                                    ATOMIC
                        --------------------------------------------------------
                        max_scf:                                             500
                        max_scf_history:                                       0
                        max_diis:                                              4
                        --------------------------------------------------------
                        eps_scf:                                        1.00E-08
                        eps_scf_history:                                0.00E+00
                        eps_diis:                                       0.00E+00
                        eps_eigval:                                     1.00E-05
                        --------------------------------------------------------
                        level_shift [a.u.]:                             0.000000
                        --------------------------------------------------------
                        Outer loop SCF in use 
                        No variables optimised in outer loop
                        eps_scf                                         1.00E-08
                        max_scf                                               20
                        No outer loop optimization
                        step_size                                       5.00E-01

 Extrapolation method: initial_guess

 Number of electrons:                                                         42
 Number of occupied orbitals:                                                 21
 Number of molecular orbitals:                                                21

 Number of orbital functions:                                                164
 Number of independent orbital functions:                                    164


 SCF WAVEFUNCTION OPTIMIZATION

  ----------------------------------- OT ---------------------------------------
  Minimizer      : DIIS                : direct inversion
                                         in the iterative subspace
                                         using   7 DIIS vectors
                                         safer DIIS on
  Preconditioner : FULL_KINETIC        : inversion of T + eS
  Lattice FFT   : OFF
  Precond_solver : DEFAULT
  stepsize       :    0.15000000                  energy_gap     :    0.20000000
  eps_taylor     :   0.10000E-15                  max_taylor     :             4
  ----------------------------------- OT ---------------------------------------

  Step     Update method      Time    Convergence         Total energy    Change
  ------------------------------------------------------------------------------
  Decoupling Energy:                                               0.0000603463
     1 OT DIIS     0.15E+00    1.3     0.07326691       -47.1851589672 -4.72E+01
  Decoupling Energy:                                               0.0000129906
     2 OT DIIS     0.15E+00    1.7     0.03894452       -48.9720387530 -1.79E+00
  Decoupling Energy:                                               0.0000066145
     3 OT DIIS     0.15E+00    1.7     0.02978129       -49.6412320706 -6.69E-01
  Decoupling Energy:                                               0.0000028906
     4 OT DIIS     0.15E+00    1.7     0.02248395       -50.1793512014 -5.38E-01
  Decoupling Energy:                                               0.0000007460
     5 OT DIIS     0.15E+00    1.7     0.01513806       -50.6619173939 -4.83E-01
  Decoupling Energy:                                               0.0000021268
     6 OT DIIS     0.15E+00    1.7     0.01167616       -50.8841050504 -2.22E-01
  Decoupling Energy:                                               0.0000072117
     7 OT DIIS     0.15E+00    1.7     0.00950569       -51.0334619737 -1.49E-01
  Decoupling Energy:                                               0.0000131866
     8 OT DIIS     0.15E+00    1.7     0.00794143       -51.1498965385 -1.16E-01
  Decoupling Energy:                                               0.0000148678
     9 OT DIIS     0.15E+00    1.7     0.00646231       -51.2469766269 -9.71E-02
  Decoupling Energy:                                               0.0000107375
    10 OT DIIS     0.15E+00    1.7     0.00502431       -51.3166046084 -6.96E-02
  Decoupling Energy:                                               0.0000059277
    11 OT DIIS     0.15E+00    1.7     0.00371342       -51.3625439539 -4.59E-02
  Decoupling Energy:                                               0.0000035525
    12 OT DIIS     0.15E+00    1.7     0.00282802       -51.3851703071 -2.26E-02
  Decoupling Energy:                                               0.0000018818
    13 OT DIIS     0.15E+00    1.7     0.00217474       -51.3982802157 -1.31E-02
  Decoupling Energy:                                               0.0000011619
    14 OT DIIS     0.15E+00    1.7     0.00160960       -51.4065873191 -8.31E-03
  Decoupling Energy:                                               0.0000005637
    15 OT DIIS     0.15E+00    1.7     0.00121821       -51.4109625950 -4.38E-03
  Decoupling Energy:                                               0.0000003967
    16 OT DIIS     0.15E+00    1.7     0.00097103       -51.4131113870 -2.15E-03
  Decoupling Energy:                                               0.0000002754
    17 OT DIIS     0.15E+00    1.7     0.00078873       -51.4145836345 -1.47E-03
  Decoupling Energy:                                               0.0000002316
    18 OT DIIS     0.15E+00    1.7     0.00065360       -51.4155386589 -9.55E-04
  Decoupling Energy:                                               0.0000002187
    19 OT DIIS     0.15E+00    1.7     0.00053633       -51.4162618221 -7.23E-04
  Decoupling Energy:                                               0.0000002201
    20 OT DIIS     0.15E+00    1.7     0.00043935       -51.4167631214 -5.01E-04
  Decoupling Energy:                                               0.0000002260
    21 OT DIIS     0.15E+00    1.7     0.00036820       -51.4170790090 -3.16E-04
  Decoupling Energy:                                               0.0000002349
    22 OT DIIS     0.15E+00    1.7     0.00030534       -51.4173205264 -2.42E-04
  Decoupling Energy:                                               0.0000002400
    23 OT DIIS     0.15E+00    1.7     0.00026047       -51.4174584945 -1.38E-04
  Decoupling Energy:                                               0.0000002451
    24 OT DIIS     0.15E+00    1.7     0.00021542       -51.4175827102 -1.24E-04
  Decoupling Energy:                                               0.0000002471
    25 OT DIIS     0.15E+00    1.7     0.00017739       -51.4176674993 -8.48E-05
  Decoupling Energy:                                               0.0000002478
    26 OT DIIS     0.15E+00    1.7     0.00014833       -51.4177216534 -5.42E-05
  Decoupling Energy:                                               0.0000002479
    27 OT DIIS     0.15E+00    1.7     0.00012493       -51.4177589021 -3.72E-05
  Decoupling Energy:                                               0.0000002475
    28 OT DIIS     0.15E+00    1.7     0.00010738       -51.4177837540 -2.49E-05
  Decoupling Energy:                                               0.0000002471
    29 OT DIIS     0.15E+00    1.7     0.00009400       -51.4178013421 -1.76E-05
  Decoupling Energy:                                               0.0000002457
    30 OT DIIS     0.15E+00    1.7     0.00008182       -51.4178163763 -1.50E-05
  Decoupling Energy:                                               0.0000002442
    31 OT DIIS     0.15E+00    1.7     0.00007102       -51.4178286760 -1.23E-05
  Decoupling Energy:                                               0.0000002426
    32 OT DIIS     0.15E+00    1.7     0.00006139       -51.4178382505 -9.57E-06
  Decoupling Energy:                                               0.0000002413
    33 OT DIIS     0.15E+00    1.7     0.00005334       -51.4178456542 -7.40E-06
  Decoupling Energy:                                               0.0000002406
    34 OT DIIS     0.15E+00    1.7     0.00004614       -51.4178513142 -5.66E-06
  Decoupling Energy:                                               0.0000002403
    35 OT DIIS     0.15E+00    1.7     0.00003978       -51.4178556267 -4.31E-06
  Decoupling Energy:                                               0.0000002403
    36 OT DIIS     0.15E+00    1.7     0.00003424       -51.4178587959 -3.17E-06
  Decoupling Energy:                                               0.0000002404
    37 OT DIIS     0.15E+00    1.7     0.00002924       -51.4178610972 -2.30E-06
  Decoupling Energy:                                               0.0000002405
    38 OT DIIS     0.15E+00    1.7     0.00002442       -51.4178628759 -1.78E-06
  Decoupling Energy:                                               0.0000002406
    39 OT DIIS     0.15E+00    1.7     0.00002029       -51.4178639861 -1.11E-06
  Decoupling Energy:                                               0.0000002408
    40 OT DIIS     0.15E+00    1.7     0.00001729       -51.4178645872 -6.01E-07
  Decoupling Energy:                                               0.0000002410
    41 OT DIIS     0.15E+00    1.7     0.00001485       -51.4178649721 -3.85E-07
  Decoupling Energy:                                               0.0000002411
    42 OT DIIS     0.15E+00    1.8     0.00001282       -51.4178652342 -2.62E-07
  Decoupling Energy:                                               0.0000002412
    43 OT DIIS     0.15E+00    1.7     0.00001111       -51.4178654208 -1.87E-07
  Decoupling Energy:                                               0.0000002413
    44 OT DIIS     0.15E+00    1.7     0.00000953       -51.4178655732 -1.52E-07
  Decoupling Energy:                                               0.0000002412
    45 OT DIIS     0.15E+00    1.7     0.00000822       -51.4178656784 -1.05E-07
  Decoupling Energy:                                               0.0000002411
    46 OT DIIS     0.15E+00    1.7     0.00000718       -51.4178657550 -7.66E-08
  Decoupling Energy:                                               0.0000002410
    47 OT DIIS     0.15E+00    1.7     0.00000634       -51.4178658175 -6.25E-08
  Decoupling Energy:                                               0.0000002409
    48 OT DIIS     0.15E+00    1.7     0.00000574       -51.4178658621 -4.46E-08
  Decoupling Energy:                                               0.0000002408
    49 OT DIIS     0.15E+00    1.7     0.00000518       -51.4178659058 -4.37E-08
  Decoupling Energy:                                               0.0000002407
    50 OT DIIS     0.15E+00    1.7     0.00000469       -51.4178659453 -3.96E-08
  Decoupling Energy:                                               0.0000002405
    51 OT DIIS     0.15E+00    1.7     0.00000426       -51.4178659808 -3.55E-08
  Decoupling Energy:                                               0.0000002403
    52 OT DIIS     0.15E+00    1.7     0.00000382       -51.4178660155 -3.46E-08
  Decoupling Energy:                                               0.0000002401
    53 OT DIIS     0.15E+00    1.7     0.00000346       -51.4178660422 -2.68E-08
  Decoupling Energy:                                               0.0000002399
    54 OT DIIS     0.15E+00    1.7     0.00000314       -51.4178660641 -2.19E-08
  Decoupling Energy:                                               0.0000002397
    55 OT DIIS     0.15E+00    1.7     0.00000282       -51.4178660844 -2.03E-08
  Decoupling Energy:                                               0.0000002396
    56 OT DIIS     0.15E+00    1.7     0.00000252       -51.4178661006 -1.62E-08
  Decoupling Energy:                                               0.0000002394
    57 OT DIIS     0.15E+00    1.7     0.00000220       -51.4178661150 -1.44E-08
  Decoupling Energy:                                               0.0000002393
    58 OT DIIS     0.15E+00    1.7     0.00000191       -51.4178661259 -1.09E-08
  Decoupling Energy:                                               0.0000002391
    59 OT DIIS     0.15E+00    1.7     0.00000166       -51.4178661332 -7.30E-09
  Decoupling Energy:                                               0.0000002390
    60 OT DIIS     0.15E+00    1.7     0.00000145       -51.4178661382 -5.02E-09
  Decoupling Energy:                                               0.0000002390
    61 OT DIIS     0.15E+00    1.7     0.00000128       -51.4178661414 -3.19E-09
  Decoupling Energy:                                               0.0000002390
    62 OT DIIS     0.15E+00    1.7     0.00000115       -51.4178661437 -2.24E-09
  Decoupling Energy:                                               0.0000002389
    63 OT DIIS     0.15E+00    1.7     0.00000102       -51.4178661456 -1.94E-09
  Decoupling Energy:                                               0.0000002389
    64 OT DIIS     0.15E+00    1.7     0.00000092       -51.4178661470 -1.40E-09
  Decoupling Energy:                                               0.0000002389
    65 OT DIIS     0.15E+00    1.7     0.00000083       -51.4178661482 -1.23E-09
  Decoupling Energy:                                               0.0000002389
    66 OT DIIS     0.15E+00    1.7     0.00000075       -51.4178661492 -9.58E-10
  Decoupling Energy:                                               0.0000002389
    67 OT DIIS     0.15E+00    1.7     0.00000069       -51.4178661499 -7.24E-10
  Decoupling Energy:                                               0.0000002389
    68 OT DIIS     0.15E+00    1.7     0.00000063       -51.4178661506 -6.48E-10
  Decoupling Energy:                                               0.0000002390
    69 OT DIIS     0.15E+00    1.7     0.00000058       -51.4178661511 -5.91E-10
  Decoupling Energy:                                               0.0000002390
    70 OT DIIS     0.15E+00    1.7     0.00000053       -51.4178661517 -5.61E-10
  Decoupling Energy:                                               0.0000002390
    71 OT DIIS     0.15E+00    1.7     0.00000047       -51.4178661522 -5.33E-10
  Decoupling Energy:                                               0.0000002390
    72 OT DIIS     0.15E+00    1.7     0.00000042       -51.4178661527 -4.14E-10
  Decoupling Energy:                                               0.0000002391
    73 OT DIIS     0.15E+00    1.7     0.00000038       -51.4178661530 -3.29E-10
  Decoupling Energy:                                               0.0000002391
    74 OT DIIS     0.15E+00    1.7     0.00000034       -51.4178661532 -2.37E-10
  Decoupling Energy:                                               0.0000002391
    75 OT DIIS     0.15E+00    1.7     0.00000031       -51.4178661534 -1.73E-10
  Decoupling Energy:                                               0.0000002392
    76 OT DIIS     0.15E+00    1.7     0.00000028       -51.4178661535 -1.45E-10
  Decoupling Energy:                                               0.0000002392
    77 OT DIIS     0.15E+00    1.7     0.00000026       -51.4178661537 -1.21E-10
  Decoupling Energy:                                               0.0000002392
    78 OT DIIS     0.15E+00    1.7     0.00000023       -51.4178661538 -1.01E-10
  Decoupling Energy:                                               0.0000002392
    79 OT DIIS     0.15E+00    1.7     0.00000021       -51.4178661538 -8.43E-11
  Decoupling Energy:                                               0.0000002392
    80 OT DIIS     0.15E+00    1.7     0.00000019       -51.4178661539 -6.04E-11
  Decoupling Energy:                                               0.0000002392
    81 OT DIIS     0.15E+00    1.7     0.00000017       -51.4178661539 -4.65E-11
  Decoupling Energy:                                               0.0000002393
    82 OT DIIS     0.15E+00    1.7     0.00000016       -51.4178661540 -3.95E-11
  Decoupling Energy:                                               0.0000002393
    83 OT DIIS     0.15E+00    1.7     0.00000015       -51.4178661540 -3.68E-11
  Decoupling Energy:                                               0.0000002393
    84 OT DIIS     0.15E+00    1.7     0.00000014       -51.4178661541 -3.48E-11
  Decoupling Energy:                                               0.0000002393
    85 OT DIIS     0.15E+00    1.7     0.00000012       -51.4178661541 -2.99E-11
  Decoupling Energy:                                               0.0000002393
    86 OT DIIS     0.15E+00    1.7     0.00000011       -51.4178661541 -2.71E-11
  Decoupling Energy:                                               0.0000002393
    87 OT DIIS     0.15E+00    1.7     0.00000010       -51.4178661541 -2.30E-11
  Decoupling Energy:                                               0.0000002393
    88 OT DIIS     0.15E+00    1.7     0.00000010       -51.4178661542 -1.76E-11
  Decoupling Energy:                                               0.0000002393
    89 OT DIIS     0.15E+00    1.7     0.00000009       -51.4178661542 -1.44E-11
  Decoupling Energy:                                               0.0000002393
    90 OT DIIS     0.15E+00    1.7     0.00000008       -51.4178661542 -1.38E-11
  Decoupling Energy:                                               0.0000002393
    91 OT DIIS     0.15E+00    1.7     0.00000008       -51.4178661542 -1.38E-11
  Decoupling Energy:                                               0.0000002393
    92 OT DIIS     0.15E+00    1.7     0.00000007       -51.4178661542 -1.21E-11
  Decoupling Energy:                                               0.0000002393
    93 OT DIIS     0.15E+00    1.7     0.00000006       -51.4178661542 -9.73E-12
  Decoupling Energy:                                               0.0000002393
    94 OT DIIS     0.15E+00    1.7     0.00000006       -51.4178661542 -8.02E-12
  Decoupling Energy:                                               0.0000002393
    95 OT DIIS     0.15E+00    1.7     0.00000005       -51.4178661542 -6.03E-12
  Decoupling Energy:                                               0.0000002393
    96 OT DIIS     0.15E+00    1.7     0.00000005       -51.4178661542 -4.36E-12
  Decoupling Energy:                                               0.0000002393
    97 OT DIIS     0.15E+00    1.7     0.00000004       -51.4178661542 -3.25E-12
  Decoupling Energy:                                               0.0000002393
    98 OT DIIS     0.15E+00    1.7     0.00000004       -51.4178661542 -2.75E-12
  Decoupling Energy:                                               0.0000002393
    99 OT DIIS     0.15E+00    1.7     0.00000004       -51.4178661542 -2.25E-12
  Decoupling Energy:                                               0.0000002393
   100 OT DIIS     0.15E+00    1.7     0.00000003       -51.4178661543 -1.63E-12
  Decoupling Energy:                                               0.0000002393
   101 OT DIIS     0.15E+00    1.7     0.00000003       -51.4178661543 -1.20E-12
  Decoupling Energy:                                               0.0000002392
   102 OT DIIS     0.15E+00    1.7     0.00000003       -51.4178661543 -8.53E-13
  Decoupling Energy:                                               0.0000002392
   103 OT DIIS     0.15E+00    1.7     0.00000003       -51.4178661543 -8.31E-13
  Decoupling Energy:                                               0.0000002392
   104 OT DIIS     0.15E+00    1.7     0.00000002       -51.4178661543 -7.89E-13
  Decoupling Energy:                                               0.0000002392
   105 OT DIIS     0.15E+00    1.7     0.00000002       -51.4178661543 -7.11E-13
  Decoupling Energy:                                               0.0000002392
   106 OT DIIS     0.15E+00    1.7     0.00000002       -51.4178661543 -7.96E-13
  Decoupling Energy:                                               0.0000002392
   107 OT DIIS     0.15E+00    1.7     0.00000002       -51.4178661543 -7.96E-13
  Decoupling Energy:                                               0.0000002392
   108 OT DIIS     0.15E+00    1.7     0.00000002       -51.4178661543 -6.32E-13
  Decoupling Energy:                                               0.0000002392
   109 OT DIIS     0.15E+00    1.7     0.00000002       -51.4178661543 -5.19E-13
  Decoupling Energy:                                               0.0000002392
   110 OT DIIS     0.15E+00    1.7     0.00000002       -51.4178661543 -6.18E-13
  Decoupling Energy:                                               0.0000002392
   111 OT DIIS     0.15E+00    1.7     0.00000001       -51.4178661543 -4.62E-13
  Decoupling Energy:                                               0.0000002392
   112 OT DIIS     0.15E+00    1.7     0.00000001       -51.4178661543 -5.04E-13
  Decoupling Energy:                                               0.0000002392
   113 OT DIIS     0.15E+00    1.7     0.00000001       -51.4178661543 -4.33E-13
  Decoupling Energy:                                               0.0000002392
   114 OT DIIS     0.15E+00    1.7     0.00000001       -51.4178661543 -4.12E-13
  Decoupling Energy:                                               0.0000002392
   115 OT DIIS     0.15E+00    1.7     0.00000001       -51.4178661543 -2.63E-13
  Decoupling Energy:                                               0.0000002392
   116 OT DIIS     0.15E+00    1.7     9.5536E-09       -51.4178661543 -3.13E-13

  *** SCF run converged in   116 steps ***


  Electronic density on regular grids:        -42.0000000000        0.0000000000
  Core density on regular grids:               42.0000000000       -0.0000000000
  Total charge density on r-space grids:       -0.0000000000
  Total charge density g-space grids:          -0.0000000000

  Overlap energy of the core charge distribution:               0.00000398901808
  Self energy of the core charge distribution:               -120.78480300281559
  Core Hamiltonian energy:                                     38.39102219744811
  Hartree energy:                                              48.45430678690354
  Exchange-correlation energy:                                -17.47839612481444

  Total energy:                                               -51.41786615426030

  outer SCF iter =    1 RMS gradient =   0.96E-08 energy =        -51.4178661543
  outer SCF loop converged in   1 iterations or  116 steps

  
 -------------------------------------------------------------------------------
 -                                                                             -
 -                          BANDSTRUCTURE CALCULATION                          -
 -                                                                             -
 -------------------------------------------------------------------------------
  
 Number of occupied molecular orbitals (MOs) = Number of occupied bands       21
 Number of unoccupied (= virtual) MOs = Number of unoccupied bands           143
 Number of Gaussian basis functions for MOs                                  164
  
 -------------------------------------------------------------------------------
 -                                                                             -
 -                                GW CALCULATION                               -
 -                                                                             -
 -------------------------------------------------------------------------------
  
 Input: Number of time/freq. points                                           30
 Input: ω_max for fitting Σ(iω) (eV)                                        10.0
 Input: Filter threshold for sparse tensor operations                    1.0E-07
 Input: Apply Hedin shift                                                      F
 Input: Available memory per MPI process                                  8.0 GB
 
 Input: RI-RS Tikhonov regularization                                   1.00E-04
 Input: AO grid hard cutoff radius                                        8.00 Å
 Input: MPI ranks per atom in Z_lP solve                                      -1
 Input: Keep sparsity in χ/G/W panels                                          T
 Input: GW flavour                                                          G0W0
 
 Input: RI-RS grid optimization activated                                      T
 Input: Initial RI-RS grid                                              CHOLESKY
 Input: RS points per AO function                                         7.0000
 Input: Initial RS candidates per AO function                            30.0000
 Input: Additional Lebedev degree                                              2
 Input: Cholesky selection matrix                                        D_PRIME
 Input: Cholesky candidate domain                                      FULL_ATOM
 Input: Initial radial quadrature                                       GAPW_LOG
 Input: Cutoff radius for atomic clusters                                  3.0 Å
 Input: Maximum grid optimization iterations                                 300
 Input: L-BFGS history size                                                    7
 Input: L-BFGS relative-function factor                              0.00000E+00
 Input: L-BFGS projected-gradient tolerance                          1.00000E-09
 
 Input: AUTO_RI basis optimization activated:                                  T
 Input: AUTO_RI requested RI/AO ratio:                                       5.0
 Input: AUTO_RI frontier orbital window:                                  5.0 eV
 Input: AUTO_RI neighbor radius:                                           3.0 Å
 
 Cutoff radius for the truncated Coulomb operator in RI metric:            7.0 Å
 Regularization parameter of RI                                          0.0E+00
 Regularization parameter of minimax grids                               1.0E-06
 
 AUTO_RI| Number of automatic RI functions for χ, ε, W:                      820
 AUTO_RI| Total RI basis optimization time:                                2.3 s
  Decoupling Energy:                                               0.0000002392
 
 SCF direct band gap (eV)                                                   4.88
 Max. SCF eigval diff. (eV)                                               233.63
 E-Range for minimax grid                                                  47.88
 Number of Padé parameters for analytic continuation:                         16
 
 RI-RS basis radii (Å):
     Kind  Elem     r_AO (Å)     r_RI (Å)
        1    C         8.0299        5.0785
        2    H         9.5011        6.0090
 
 RI-RS initialization: atomic kind                                             1
 RI-RS initialization: Lebedev degree                                         11
 RI-RS initialization: radial shells                                           8
 RI-RS initialization: candidates per atom                                   400
 RI-RS initialization: retained points per atom                               91
 RI-RS initialization: atomic kind                                             2
 RI-RS initialization: Lebedev degree                                          7
 RI-RS initialization: radial shells                                           7
 RI-RS initialization: candidates per atom                                   182
 RI-RS initialization: retained points per atom                               42
 RI-RS initialization: largest cluster candidate count                      4292
 RI-RS initialization: most pivots in one cluster                           1455
 RI-RS initialization: most stored AO values in one cluster               595446
 RI-RS initialization: wall time [s]                                       0.503
 Started RI-RS grid optimization
 RI-RS grid initial normalized error                          7.105911417665E-04
 RI-RS grid optimization completed, execution time:                      225.5 s
 Normalized 3C error:                                                    1.5E-07
 Maximum absolute 3C error:                                              2.9E-03
 Optimized points outside molecular Voronoi cells:                           496 / 1148
 Total grid points used for RI-RS:                                          1148
 
 RI-RS grid row-blocks of Φ_μ(r_l)                                            44
 RI-RS grid points per block (max)                                            32
 
 Percentage of non-zero matrix elements in Φ_μ(r_l)                     100.00 %
 
 RI-RS memory estimate per MPI process:
   Available memory per process (system)                                15.83 GB
   Required for Z_lP (dense upper bound; actual is sparser)              0.00 GB
   Required for χ, W, Σ panels (peak per panel step)                     0.00 GB
   Required for Z_lP solve peak (D_local+φ, worst-case atom)             0.02 GB
   Worst-case local-grid number of grid points:                             1148
   Worst-case memory D_local:                                            0.01 GB
 
 Started computing Z_lP
 Computed Z_lP (MPI rank 0) for atom          1 /  2,    Execution time    0.1 s
 Computed Z_lP (MPI rank 0) for atom          2 /  2,    Execution time    0.0 s
 Computed Z_lP (all MPI ranks) for all atoms,            Execution time    0.3 s

 Number of batches for χ, Σ matrices                                           1
 
 Percentage of non-zero matrix elements in Z_lP                         100.00 %
 Percentage of non-zero matrix elements in G_ll', χ_ll', W_ll'          100.00 %
 Percentage of non-zero matrix elements in χ_PQ for time point 1        100.00 %
 
 Computed χ(iτ,k=0) for time point            1 / 30,    Execution time    0.1 s
 Computed χ(iτ,k=0) for time point            2 / 30,    Execution time    0.0 s
 Computed χ(iτ,k=0) for time point            3 / 30,    Execution time    0.0 s
 Computed χ(iτ,k=0) for time point            4 / 30,    Execution time    0.0 s
 Computed χ(iτ,k=0) for time point            5 / 30,    Execution time    0.0 s
 Computed χ(iτ,k=0) for time point            6 / 30,    Execution time    0.0 s
 Computed χ(iτ,k=0) for time point            7 / 30,    Execution time    0.0 s
 Computed χ(iτ,k=0) for time point            8 / 30,    Execution time    0.0 s
 Computed χ(iτ,k=0) for time point            9 / 30,    Execution time    0.0 s
 Computed χ(iτ,k=0) for time point           10 / 30,    Execution time    0.0 s
 Computed χ(iτ,k=0) for time point           11 / 30,    Execution time    0.0 s
 Computed χ(iτ,k=0) for time point           12 / 30,    Execution time    0.0 s
 Computed χ(iτ,k=0) for time point           13 / 30,    Execution time    0.0 s
 Computed χ(iτ,k=0) for time point           14 / 30,    Execution time    0.0 s
 Computed χ(iτ,k=0) for time point           15 / 30,    Execution time    0.0 s
 Computed χ(iτ,k=0) for time point           16 / 30,    Execution time    0.0 s
 Computed χ(iτ,k=0) for time point           17 / 30,    Execution time    0.0 s
 Computed χ(iτ,k=0) for time point           18 / 30,    Execution time    0.0 s
 Computed χ(iτ,k=0) for time point           19 / 30,    Execution time    0.0 s
 Computed χ(iτ,k=0) for time point           20 / 30,    Execution time    0.0 s
 Computed χ(iτ,k=0) for time point           21 / 30,    Execution time    0.0 s
 Computed χ(iτ,k=0) for time point           22 / 30,    Execution time    0.0 s
 Computed χ(iτ,k=0) for time point           23 / 30,    Execution time    0.0 s
 Computed χ(iτ,k=0) for time point           24 / 30,    Execution time    0.0 s
 Computed χ(iτ,k=0) for time point           25 / 30,    Execution time    0.0 s
 Computed χ(iτ,k=0) for time point           26 / 30,    Execution time    0.0 s
 Computed χ(iτ,k=0) for time point           27 / 30,    Execution time    0.0 s
 Computed χ(iτ,k=0) for time point           28 / 30,    Execution time    0.0 s
 Computed χ(iτ,k=0) for time point           29 / 30,    Execution time    0.0 s
 Computed χ(iτ,k=0) for time point           30 / 30,    Execution time    0.0 s
 
 Computed W(iτ),                                         Execution time    0.7 s
 
 Computed Σ^x(k=0),                                      Execution time    0.0 s
 
 Computed Σ^c(iτ) for time point              1 / 30,    Execution time    0.0 s
 Computed Σ^c(iτ) for time point              2 / 30,    Execution time    0.0 s
 Computed Σ^c(iτ) for time point              3 / 30,    Execution time    0.0 s
 Computed Σ^c(iτ) for time point              4 / 30,    Execution time    0.0 s
 Computed Σ^c(iτ) for time point              5 / 30,    Execution time    0.0 s
 Computed Σ^c(iτ) for time point              6 / 30,    Execution time    0.0 s
 Computed Σ^c(iτ) for time point              7 / 30,    Execution time    0.0 s
 Computed Σ^c(iτ) for time point              8 / 30,    Execution time    0.0 s
 Computed Σ^c(iτ) for time point              9 / 30,    Execution time    0.0 s
 Computed Σ^c(iτ) for time point             10 / 30,    Execution time    0.0 s
 Computed Σ^c(iτ) for time point             11 / 30,    Execution time    0.0 s
 Computed Σ^c(iτ) for time point             12 / 30,    Execution time    0.0 s
 Computed Σ^c(iτ) for time point             13 / 30,    Execution time    0.0 s
 Computed Σ^c(iτ) for time point             14 / 30,    Execution time    0.0 s
 Computed Σ^c(iτ) for time point             15 / 30,    Execution time    0.0 s
 Computed Σ^c(iτ) for time point             16 / 30,    Execution time    0.0 s
 Computed Σ^c(iτ) for time point             17 / 30,    Execution time    0.0 s
 Computed Σ^c(iτ) for time point             18 / 30,    Execution time    0.0 s
 Computed Σ^c(iτ) for time point             19 / 30,    Execution time    0.0 s
 Computed Σ^c(iτ) for time point             20 / 30,    Execution time    0.0 s
 Computed Σ^c(iτ) for time point             21 / 30,    Execution time    0.0 s
 Computed Σ^c(iτ) for time point             22 / 30,    Execution time    0.0 s
 Computed Σ^c(iτ) for time point             23 / 30,    Execution time    0.0 s
 Computed Σ^c(iτ) for time point             24 / 30,    Execution time    0.0 s
 Computed Σ^c(iτ) for time point             25 / 30,    Execution time    0.0 s
 Computed Σ^c(iτ) for time point             26 / 30,    Execution time    0.0 s
 Computed Σ^c(iτ) for time point             27 / 30,    Execution time    0.0 s
 Computed Σ^c(iτ) for time point             28 / 30,    Execution time    0.0 s
 Computed Σ^c(iτ) for time point             29 / 30,    Execution time    0.0 s
 Computed Σ^c(iτ) for time point             30 / 30,    Execution time    0.0 s

 *** WARNING in post_scf_bandstructure_utils.F:3164 :: G0W0 reorders the   ***
 *** empty levels: the SCF conduction band minimum (SCF LUMO) is level 22, ***
 *** whereas the G0W0 conduction band minimum (G0W0 LUMO) is level 24. The ***
 *** SCF and G0W0 band edges printed below therefore belong to different   ***
 *** orbitals; see the eigenvalues in the file bandstructure_SCF_and_G0W0. ***

 
 SCF valence band maximum (eV):                                           -6.046
 SCF conduction band minimum (eV):                                        -1.167
 SCF indirect band gap (eV):                                               4.879
 SCF direct band gap (eV):                                                 4.879
 
 G0W0 valence band maximum (eV):                                          -7.934
 G0W0 conduction band minimum (eV):                                        1.413
 G0W0 indirect band gap (eV):                                              9.347
 G0W0 direct band gap (eV):                                                9.347
 
 Hartree-Fock with SCF orbitals valence band maximum (eV):                -8.526
 Hartree-Fock with SCF orbitals conduction band minimum (eV)               2.257
 Hartree-Fock with SCF orbitals indirect band gap (eV):                   10.784
 Hartree-Fock with SCF orbitals direct band gap (eV):                     10.784

 ENERGY| Total FORCE_EVAL ( QS ) energy [hartree]            -51.417866154260302

 -------------------------------------------------------------------------------
 -                                                                             -
 -                                DBCSR STATISTICS                             -
 -                                                                             -
 -------------------------------------------------------------------------------
 COUNTER                                    TOTAL       BLAS       SMM       ACC
 flops    10 x    27 x    41              2568240       0.0%    100.0%      0.0%     
 flops    27 x    10 x    41              2745360       0.0%    100.0%      0.0%     
 flops    27 x    10 x    42              4059720       0.0%    100.0%      0.0%     
 flops    10 x    27 x    49              4604040       0.0%    100.0%      0.0%     
 flops    27 x    10 x    49              4656960       0.0%    100.0%      0.0%     
 flops    10 x    27 x    42              5261760       0.0%    100.0%      0.0%     
 flops    40 x    40 x    10              5632000       0.0%    100.0%      0.0%     
 flops    43 x    40 x    10              6054400       0.0%    100.0%      0.0%     
 flops    40 x    43 x    10              6088800       0.0%    100.0%      0.0%     
 flops    40 x    45 x    10              6228000       0.0%    100.0%      0.0%     
 flops    45 x    40 x    10              6336000       0.0%    100.0%      0.0%     
 flops    40 x    46 x    10              6366400       0.0%    100.0%      0.0%     
 flops    46 x    40 x    10              6476800       0.0%    100.0%      0.0%     
 flops    43 x    43 x    10              6545460       0.0%    100.0%      0.0%     
 flops    47 x    40 x    10              6617600       0.0%    100.0%      0.0%     
 flops    40 x    47 x    10              6655200       0.0%    100.0%      0.0%     
 flops    43 x    45 x    10              6695100       0.0%    100.0%      0.0%     
 flops    40 x    48 x    10              6758400       0.0%    100.0%      0.0%     
 flops    48 x    40 x    10              6758400       0.0%    100.0%      0.0%     
 flops    43 x    46 x    10              6843880       0.0%    100.0%      0.0%     
 flops    45 x    43 x    10              6849900       0.0%    100.0%      0.0%     
 flops    10 x    32 x    41              6927360       0.0%    100.0%      0.0%     
 flops    46 x    43 x    10              7002120       0.0%    100.0%      0.0%     
 flops    45 x    45 x    10              7006500       0.0%    100.0%      0.0%     
 flops    47 x    43 x    10              7154340       0.0%    100.0%      0.0%     
 flops    43 x    47 x    10              7154340       0.0%    100.0%      0.0%     
 flops    45 x    46 x    10              7162200       0.0%    100.0%      0.0%     
 flops    46 x    45 x    10              7162200       0.0%    100.0%      0.0%     
 flops    43 x    48 x    10              7265280       0.0%    100.0%      0.0%     
 flops    48 x    43 x    10              7306560       0.0%    100.0%      0.0%     
 flops    47 x    45 x    10              7317900       0.0%    100.0%      0.0%     
 flops    46 x    46 x    10              7321360       0.0%    100.0%      0.0%     
 flops    32 x    10 x    41              7347200       0.0%    100.0%      0.0%     
 flops    48 x    45 x    10              7473600       0.0%    100.0%      0.0%     
 flops    47 x    46 x    10              7480520       0.0%    100.0%      0.0%     
 flops    45 x    47 x    10              7487100       0.0%    100.0%      0.0%     
 flops    45 x    48 x    10              7603200       0.0%    100.0%      0.0%     
 flops    48 x    46 x    10              7639680       0.0%    100.0%      0.0%     
 flops    27 x    27 x    41              7651584       0.0%    100.0%      0.0%     
 flops    46 x    47 x    10              7653480       0.0%    100.0%      0.0%     
 flops    46 x    48 x    10              7772160       0.0%    100.0%      0.0%     
 flops    47 x    47 x    10              7819860       0.0%    100.0%      0.0%     
 flops    47 x    48 x    10              7941120       0.0%    100.0%      0.0%     
 flops    48 x    47 x    10              7986240       0.0%    100.0%      0.0%     
 flops    48 x    48 x    10              8110080       0.0%    100.0%      0.0%     
 flops     6 x     6 x    21              9729720       0.0%    100.0%      0.0%     
 flops    32 x    10 x    42             10133760       0.0%    100.0%      0.0%     
 flops    27 x    27 x    42             10777536       0.0%    100.0%      0.0%     
 flops    32 x    10 x    49             10881920       0.0%    100.0%      0.0%     
 flops    40 x    41 x    10             11447200       0.0%    100.0%      0.0%     
 flops    41 x    40 x    10             11545600       0.0%    100.0%      0.0%     
 flops    10 x    10 x    31             12238800       0.0%    100.0%      0.0%     
 flops    43 x    41 x    10             12305740       0.0%    100.0%      0.0%     
 flops    10 x    32 x    49             12418560       0.0%    100.0%      0.0%     
 flops    41 x    43 x    10             12482040       0.0%    100.0%      0.0%     
 flops    27 x    27 x    49             12573792       0.0%    100.0%      0.0%     
 flops    41 x    45 x    10             12767400       0.0%    100.0%      0.0%     
 flops    45 x    41 x    10             12878100       0.0%    100.0%      0.0%     
 flops    40 x    40 x    27             13046400       0.0%    100.0%      0.0%     
 flops    41 x    46 x    10             13051120       0.0%    100.0%      0.0%     
 flops    46 x    41 x    10             13164280       0.0%    100.0%      0.0%     
 flops     6 x    21 x    38             13444704       0.0%    100.0%      0.0%     
 flops    47 x    41 x    10             13450460       0.0%    100.0%      0.0%     
 flops    41 x    47 x    10             13643160       0.0%    100.0%      0.0%     
 flops    40 x    49 x    10             13720000       0.0%    100.0%      0.0%     
 flops    48 x    41 x    10             13736640       0.0%    100.0%      0.0%     
 flops    49 x    40 x    10             13798400       0.0%    100.0%      0.0%     
 flops    41 x    48 x    10             13854720       0.0%    100.0%      0.0%     
 flops    40 x    43 x    27             13932000       0.0%    100.0%      0.0%     
 flops    43 x    40 x    27             14024880       0.0%    100.0%      0.0%     
 flops    10 x    40 x    41             14104000       0.0%    100.0%      0.0%     
 flops    40 x    45 x    27             14191200       0.0%    100.0%      0.0%     
 flops    19 x    21 x    38             14191632       0.0%    100.0%      0.0%     
 flops    10 x    32 x    42             14192640       0.0%    100.0%      0.0%     
 flops    10 x    40 x    10             14432000       0.0%    100.0%      0.0%     
 flops    45 x    40 x    27             14677200       0.0%    100.0%      0.0%     
 flops    43 x    49 x    10             14749000       0.0%    100.0%      0.0%     
 flops    40 x    46 x    27             14904000       0.0%    100.0%      0.0%     
 flops    49 x    43 x    10             14917560       0.0%    100.0%      0.0%     
 flops    43 x    43 x    27             14976900       0.0%    100.0%      0.0%     
 flops    10 x    10 x    38             15002400       0.0%    100.0%      0.0%     
 flops    46 x    40 x    27             15003360       0.0%    100.0%      0.0%     
 flops    10 x    43 x    41             15161800       0.0%    100.0%      0.0%     
 flops    40 x    47 x    27             15228000       0.0%    100.0%      0.0%     
 flops    43 x    45 x    27             15255540       0.0%    100.0%      0.0%     
 flops    49 x    45 x    10             15258600       0.0%    100.0%      0.0%     
 flops    47 x    40 x    27             15329520       0.0%    100.0%      0.0%     
 flops    13 x     6 x    21             15331680       0.0%    100.0%      0.0%     
 flops     6 x    13 x    21             15331680       0.0%    100.0%      0.0%     
 flops    45 x    49 x    10             15435000       0.0%    100.0%      0.0%     
 flops    40 x    48 x    27             15552000       0.0%    100.0%      0.0%     
 flops    10 x    43 x    10             15557400       0.0%    100.0%      0.0%     
 flops     6 x    21 x    44             15567552       0.0%    100.0%      0.0%     
 flops    49 x    46 x    10             15597680       0.0%    100.0%      0.0%     
 flops    48 x    40 x    27             15655680       0.0%    100.0%      0.0%     
 flops    45 x    43 x    27             15673500       0.0%    100.0%      0.0%     
 flops    46 x    49 x    10             15778000       0.0%    100.0%      0.0%     
 flops    10 x    45 x    41             15867000       0.0%    100.0%      0.0%     
 flops    45 x    45 x    27             15965100       0.0%    100.0%      0.0%     
 flops    46 x    43 x    27             16021800       0.0%    100.0%      0.0%     
 flops    43 x    46 x    27             16021800       0.0%    100.0%      0.0%     
 flops    47 x    49 x    10             16121000       0.0%    100.0%      0.0%     
 flops    49 x    47 x    10             16305240       0.0%    100.0%      0.0%     
 flops    46 x    45 x    27             16319880       0.0%    100.0%      0.0%     
 flops    10 x    45 x    10             16362000       0.0%    100.0%      0.0%     
 flops    47 x    43 x    27             16370100       0.0%    100.0%      0.0%     
 flops    43 x    47 x    27             16370100       0.0%    100.0%      0.0%     
 flops    19 x    21 x    44             16432416       0.0%    100.0%      0.0%     
 flops    48 x    49 x    10             16464000       0.0%    100.0%      0.0%     
 flops    49 x    48 x    10             16558080       0.0%    100.0%      0.0%     
 flops    10 x    47 x    41             16572200       0.0%    100.0%      0.0%     
 flops    10 x    46 x    41             16596800       0.0%    100.0%      0.0%     
 flops    47 x    45 x    27             16674660       0.0%    100.0%      0.0%     
 flops    48 x    43 x    27             16718400       0.0%    100.0%      0.0%     
 flops    43 x    48 x    27             16718400       0.0%    100.0%      0.0%     
 flops    10 x    46 x    10             16744000       0.0%    100.0%      0.0%     
 flops    45 x    46 x    27             16767000       0.0%    100.0%      0.0%     
 flops    48 x    45 x    27             17029440       0.0%    100.0%      0.0%     
 flops    10 x    47 x    10             17051600       0.0%    100.0%      0.0%     
 flops    45 x    47 x    27             17131500       0.0%    100.0%      0.0%     
 flops    46 x    46 x    27             17139600       0.0%    100.0%      0.0%     
 flops    10 x    49 x    41             17277400       0.0%    100.0%      0.0%     
 flops    10 x    48 x    41             17318400       0.0%    100.0%      0.0%     
 flops    10 x    10 x    44             17371200       0.0%    100.0%      0.0%     
 flops    10 x    48 x    10             17462400       0.0%    100.0%      0.0%     
 flops    45 x    48 x    27             17496000       0.0%    100.0%      0.0%     
 flops    46 x    47 x    27             17512200       0.0%    100.0%      0.0%     
 flops    47 x    46 x    27             17512200       0.0%    100.0%      0.0%     
 flops    10 x    49 x    10             17806600       0.0%    100.0%      0.0%     
 flops    48 x    46 x    27             17884800       0.0%    100.0%      0.0%     
 flops    46 x    48 x    27             17884800       0.0%    100.0%      0.0%     
 flops    47 x    47 x    27             17892900       0.0%    100.0%      0.0%     
 flops    48 x    47 x    27             18273600       0.0%    100.0%      0.0%     
 flops    47 x    48 x    27             18273600       0.0%    100.0%      0.0%     
 flops     6 x    21 x    21             18384408       0.0%    100.0%      0.0%     
 flops    48 x    48 x    27             18662400       0.0%    100.0%      0.0%     
 flops    21 x    21 x    21             19225836       0.0%    100.0%      0.0%     
 flops    19 x    21 x    21             19405764       0.0%    100.0%      0.0%     
 flops    13 x    21 x    38             19420128       0.0%    100.0%      0.0%     
 flops     6 x     6 x    10             20793600       0.0%    100.0%      0.0%     
 flops    13 x    21 x    44             22486464       0.0%    100.0%      0.0%     
 flops    41 x    41 x    10             23466760       0.0%    100.0%      0.0%     
 flops    40 x    42 x    10             23520000       0.0%    100.0%      0.0%     
 flops    42 x    40 x    10             23654400       0.0%    100.0%      0.0%     
 flops    43 x    42 x    10             25284000       0.0%    100.0%      0.0%     
 flops    42 x    43 x    10             25572960       0.0%    100.0%      0.0%     
 flops    10 x    40 x    49             25872000       0.0%    100.0%      0.0%     
 flops    42 x    45 x    10             26157600       0.0%    100.0%      0.0%     
 flops    40 x    41 x    27             26302320       0.0%    100.0%      0.0%     
 flops    45 x    42 x    10             26460000       0.0%    100.0%      0.0%     
 flops    13 x    21 x    21             26555256       0.0%    100.0%      0.0%     
 flops    42 x    46 x    10             26738880       0.0%    100.0%      0.0%     
 flops    41 x    40 x    27             26745120       0.0%    100.0%      0.0%     
 flops    27 x    10 x    31             26784000       0.0%    100.0%      0.0%     
 flops    10 x    27 x    31             26784000       0.0%    100.0%      0.0%     
 flops    46 x    42 x    10             27048000       0.0%    100.0%      0.0%     
 flops    47 x    42 x    10             27636000       0.0%    100.0%      0.0%     
 flops    10 x    43 x    49             27812400       0.0%    100.0%      0.0%     
 flops    42 x    47 x    10             27951840       0.0%    100.0%      0.0%     
 flops    49 x    41 x    10             28045640       0.0%    100.0%      0.0%     
 flops    41 x    49 x    10             28126000       0.0%    100.0%      0.0%     
 flops    48 x    42 x    10             28224000       0.0%    100.0%      0.0%     
 flops    43 x    41 x    27             28274994       0.0%    100.0%      0.0%     
 flops    42 x    48 x    10             28385280       0.0%    100.0%      0.0%     
 flops    41 x    43 x    27             28560600       0.0%    100.0%      0.0%     
 flops    10 x    41 x    41             28577000       0.0%    100.0%      0.0%     
 flops    41 x    45 x    27             29091960       0.0%    100.0%      0.0%     
 flops    10 x    45 x    49             29106000       0.0%    100.0%      0.0%     
 flops    32 x    27 x    41             29472768       0.0%    100.0%      0.0%     
 flops    27 x    32 x    41             29472768       0.0%    100.0%      0.0%     
 flops    10 x    40 x    42             29568000       0.0%    100.0%      0.0%     
 flops    45 x    41 x    27             29590110       0.0%    100.0%      0.0%     
 flops    10 x    41 x    10             29708600       0.0%    100.0%      0.0%     
 flops    10 x    46 x    49             29752800       0.0%    100.0%      0.0%     
 flops    13 x    13 x    21             29896776       0.0%    100.0%      0.0%     
 flops    46 x    41 x    27             30247668       0.0%    100.0%      0.0%     
 flops    10 x    47 x    49             30399600       0.0%    100.0%      0.0%     
 flops    27 x    40 x    41             30464640       0.0%    100.0%      0.0%     
 flops    41 x    46 x    27             30553200       0.0%    100.0%      0.0%     
 flops    47 x    41 x    27             30905226       0.0%    100.0%      0.0%     
 flops    21 x    21 x    38             31035816       0.0%    100.0%      0.0%     
 flops    10 x    48 x    49             31046400       0.0%    100.0%      0.0%     
 flops    41 x    47 x    27             31217400       0.0%    100.0%      0.0%     
 flops    48 x    41 x    27             31562784       0.0%    100.0%      0.0%     
 flops    10 x    49 x    49             31693200       0.0%    100.0%      0.0%     
 flops    10 x    43 x    42             31785600       0.0%    100.0%      0.0%     
 flops    40 x    49 x    27             31857840       0.0%    100.0%      0.0%     
 flops    41 x    48 x    27             31881600       0.0%    100.0%      0.0%     
 flops    49 x    40 x    27             31963680       0.0%    100.0%      0.0%     
 flops    10 x    40 x    27             32313600       0.0%    100.0%      0.0%     
 flops    27 x    43 x    41             32749488       0.0%    100.0%      0.0%     
 flops    27 x    10 x    38             32832000       0.0%    100.0%      0.0%     
 flops    10 x    27 x    38             32832000       0.0%    100.0%      0.0%     
 flops    27 x    40 x    10             33048000       0.0%    100.0%      0.0%     
 flops    10 x    45 x    42             33264000       0.0%    100.0%      0.0%     
 flops    49 x    49 x    10             33614000       0.0%    100.0%      0.0%     
 flops    10 x    46 x    42             34003200       0.0%    100.0%      0.0%     
 flops    10 x     6 x    10             34126800       0.0%    100.0%      0.0%     
 flops    49 x    43 x    27             34133400       0.0%    100.0%      0.0%     
 flops    43 x    49 x    27             34247178       0.0%    100.0%      0.0%     
 flops    27 x    45 x    41             34272720       0.0%    100.0%      0.0%     
 flops    10 x    43 x    27             34737120       0.0%    100.0%      0.0%     
 flops    10 x    47 x    42             34742400       0.0%    100.0%      0.0%     
 flops    49 x    45 x    27             34768440       0.0%    100.0%      0.0%     
 flops    10 x    48 x    42             35481600       0.0%    100.0%      0.0%     
 flops    27 x    43 x    10             35573040       0.0%    100.0%      0.0%     
 flops    27 x    47 x    41             35795952       0.0%    100.0%      0.0%     
 flops    45 x    49 x    27             35840070       0.0%    100.0%      0.0%     
 flops    27 x    46 x    41             35849088       0.0%    100.0%      0.0%     
 flops    21 x    21 x    44             35936208       0.0%    100.0%      0.0%     
 flops    13 x     6 x    10             35945520       0.0%    100.0%      0.0%     
 flops    10 x    49 x    42             36220800       0.0%    100.0%      0.0%     
 flops    10 x    45 x    27             36474300       0.0%    100.0%      0.0%     
 flops    49 x    46 x    27             36514800       0.0%    100.0%      0.0%     
 flops    46 x    49 x    27             36636516       0.0%    100.0%      0.0%     
 flops     6 x    21 x     6             36741600       0.0%    100.0%      0.0%     
 flops     6 x    13 x    10             37045320       0.0%    100.0%      0.0%     
 flops    27 x    45 x    10             37179000       0.0%    100.0%      0.0%     
 flops    10 x    46 x    27             37185480       0.0%    100.0%      0.0%     
 flops    49 x    47 x    27             37308600       0.0%    100.0%      0.0%     
 flops    27 x    49 x    41             37319184       0.0%    100.0%      0.0%     
 flops    27 x    48 x    41             37407744       0.0%    100.0%      0.0%     
 flops    47 x    49 x    27             37432962       0.0%    100.0%      0.0%     
 flops    27 x    10 x    44             38016000       0.0%    100.0%      0.0%     
 flops    10 x    27 x    44             38016000       0.0%    100.0%      0.0%     
 flops    10 x    47 x    27             38044620       0.0%    100.0%      0.0%     
 flops    49 x    48 x    27             38102400       0.0%    100.0%      0.0%     
 flops    27 x    46 x    10             38104560       0.0%    100.0%      0.0%     
 flops    48 x    49 x    27             38229408       0.0%    100.0%      0.0%     
 flops    10 x    48 x    27             38802240       0.0%    100.0%      0.0%     
 flops    27 x    47 x    10             38958300       0.0%    100.0%      0.0%     
 flops    27 x    48 x    10             39735360       0.0%    100.0%      0.0%     
 flops    10 x    49 x    27             39848760       0.0%    100.0%      0.0%     
 flops    27 x    49 x    10             40404420       0.0%    100.0%      0.0%     
 flops    27 x    32 x    42             41513472       0.0%    100.0%      0.0%     
 flops    32 x    27 x    42             46448640       0.0%    100.0%      0.0%     
 flops    32 x    27 x    49             46738944       0.0%    100.0%      0.0%     
 flops     6 x     6 x    27             47766024       0.0%    100.0%      0.0%     
 flops    42 x    41 x    10             48078240       0.0%    100.0%      0.0%     
 flops    41 x    42 x    10             48216000       0.0%    100.0%      0.0%     
 flops    27 x    32 x    49             48432384       0.0%    100.0%      0.0%     
 flops    40 x    40 x    32             49561600       0.0%    100.0%      0.0%     
 flops    10 x    41 x    49             52635800       0.0%    100.0%      0.0%     
 flops    40 x    43 x    32             53058560       0.0%    100.0%      0.0%     
 flops    43 x    40 x    32             53278720       0.0%    100.0%      0.0%     
 flops    41 x    41 x    27             53919756       0.0%    100.0%      0.0%     
 flops    40 x    42 x    27             54069120       0.0%    100.0%      0.0%     
 flops    42 x    40 x    27             54794880       0.0%    100.0%      0.0%     
 flops    40 x    45 x    32             54835200       0.0%    100.0%      0.0%     
 flops    45 x    40 x    32             55756800       0.0%    100.0%      0.0%     
 flops    27 x    40 x    49             55883520       0.0%    100.0%      0.0%     
 flops    40 x    46 x    32             56760320       0.0%    100.0%      0.0%     
 flops    46 x    40 x    32             56995840       0.0%    100.0%      0.0%     
 flops    43 x    43 x    32             57037952       0.0%    100.0%      0.0%     
 flops    42 x    49 x    10             57624000       0.0%    100.0%      0.0%     
 flops    49 x    42 x    10             57624000       0.0%    100.0%      0.0%     
 flops    27 x    27 x    31             57853440       0.0%    100.0%      0.0%     
 flops    40 x    47 x    32             58114560       0.0%    100.0%      0.0%     
 flops    43 x    42 x    27             58124304       0.0%    100.0%      0.0%     
 flops    47 x    40 x    32             58234880       0.0%    100.0%      0.0%     
 flops    42 x    43 x    27             58514400       0.0%    100.0%      0.0%     
 flops    10 x     6 x     6             58534560       0.0%    100.0%      0.0%     
 flops    43 x    45 x    32             58947840       0.0%    100.0%      0.0%     
 flops    10 x    13 x    10             59027800       0.0%    100.0%      0.0%     
 flops    40 x    48 x    32             59228160       0.0%    100.0%      0.0%     
 flops    48 x    40 x    32             59473920       0.0%    100.0%      0.0%     
 flops    42 x    45 x    27             59603040       0.0%    100.0%      0.0%     
 flops    45 x    43 x    32             59690880       0.0%    100.0%      0.0%     
 flops    27 x    43 x    49             60074784       0.0%    100.0%      0.0%     
 flops    10 x    42 x    41             60614400       0.0%    100.0%      0.0%     
 flops    10 x    41 x    42             60614400       0.0%    100.0%      0.0%     
 flops    45 x    42 x    27             60827760       0.0%    100.0%      0.0%     
 flops    10 x    42 x    10             60958800       0.0%    100.0%      0.0%     
 flops    46 x    43 x    32             61017344       0.0%    100.0%      0.0%     
 flops    43 x    46 x    32             61017344       0.0%    100.0%      0.0%     
 flops    45 x    45 x    32             61689600       0.0%    100.0%      0.0%     
 flops    27 x    41 x    41             61726320       0.0%    100.0%      0.0%     
 flops    46 x    42 x    27             62179488       0.0%    100.0%      0.0%     
 flops    47 x    43 x    32             62343808       0.0%    100.0%      0.0%     
 flops    43 x    47 x    32             62473152       0.0%    100.0%      0.0%     
 flops    42 x    46 x    27             62596800       0.0%    100.0%      0.0%     
 flops    27 x    45 x    49             62868960       0.0%    100.0%      0.0%     
 flops    46 x    45 x    32             63060480       0.0%    100.0%      0.0%     
 flops    47 x    42 x    27             63531216       0.0%    100.0%      0.0%     
 flops    48 x    43 x    32             63670272       0.0%    100.0%      0.0%     
 flops    43 x    48 x    32             63670272       0.0%    100.0%      0.0%     
 flops    13 x    21 x     6             63685440       0.0%    100.0%      0.0%     
 flops     6 x    21 x    13             63685440       0.0%    100.0%      0.0%     
 flops    45 x    46 x    32             63855360       0.0%    100.0%      0.0%     
 flops    27 x    40 x    42             63866880       0.0%    100.0%      0.0%     
 flops    42 x    47 x    27             63957600       0.0%    100.0%      0.0%     
 flops    13 x    13 x    10             63969880       0.0%    100.0%      0.0%     
 flops    27 x    46 x    49             64266048       0.0%    100.0%      0.0%     
 flops    47 x    45 x    32             64431360       0.0%    100.0%      0.0%     
 flops    49 x    41 x    27             64440684       0.0%    100.0%      0.0%     
 flops    48 x    42 x    27             64882944       0.0%    100.0%      0.0%     
 flops    46 x    46 x    32             65274368       0.0%    100.0%      0.0%     
 flops    41 x    49 x    27             65308572       0.0%    100.0%      0.0%     
 flops    42 x    48 x    27             65318400       0.0%    100.0%      0.0%     
 flops    45 x    47 x    32             65378880       0.0%    100.0%      0.0%     
 flops    27 x    47 x    49             65663136       0.0%    100.0%      0.0%     
 flops    48 x    45 x    32             65802240       0.0%    100.0%      0.0%     
 flops    10 x    41 x    27             66287160       0.0%    100.0%      0.0%     
 flops    45 x    48 x    32             66631680       0.0%    100.0%      0.0%     
 flops    47 x    46 x    32             66693376       0.0%    100.0%      0.0%     
 flops    46 x    47 x    32             66831744       0.0%    100.0%      0.0%     
 flops    27 x    48 x    49             67060224       0.0%    100.0%      0.0%     
 flops    27 x    41 x    10             67726260       0.0%    100.0%      0.0%     
 flops    48 x    46 x    32             68112384       0.0%    100.0%      0.0%     
 flops    46 x    48 x    32             68112384       0.0%    100.0%      0.0%     
 flops    47 x    47 x    32             68284608       0.0%    100.0%      0.0%     
 flops    27 x    49 x    49             68457312       0.0%    100.0%      0.0%     
 flops    27 x    43 x    42             68656896       0.0%    100.0%      0.0%     
 flops    47 x    48 x    32             69593088       0.0%    100.0%      0.0%     
 flops    48 x    47 x    32             69737472       0.0%    100.0%      0.0%     
 flops    27 x    27 x    38             70917120       0.0%    100.0%      0.0%     
 flops    48 x    48 x    32             71073792       0.0%    100.0%      0.0%     
 flops    10 x    10 x     6             71565600       0.0%    100.0%      0.0%     
 flops    27 x    45 x    42             71850240       0.0%    100.0%      0.0%     
 flops    10 x    10 x   172             72171200       0.0%    100.0%      0.0%     
 flops    27 x    40 x    27             73366560       0.0%    100.0%      0.0%     
 flops    27 x    46 x    42             73446912       0.0%    100.0%      0.0%     
 flops    10 x    10 x   177             74269200       0.0%    100.0%      0.0%     
 flops    27 x    47 x    42             75043584       0.0%    100.0%      0.0%     
 flops    27 x     6 x    10             76603320       0.0%    100.0%      0.0%     
 flops    27 x    48 x    42             76640256       0.0%    100.0%      0.0%     
 flops    49 x    49 x    27             78051708       0.0%    100.0%      0.0%     
 flops    27 x    49 x    42             78236928       0.0%    100.0%      0.0%     
 flops    27 x    43 x    27             78806358       0.0%    100.0%      0.0%     
 flops    10 x     6 x    27             80928720       0.0%    100.0%      0.0%     
 flops    27 x    27 x    44             82114560       0.0%    100.0%      0.0%     
 flops    27 x    45 x    27             82471770       0.0%    100.0%      0.0%     
 flops    13 x     6 x    27             82820556       0.0%    100.0%      0.0%     
 flops    27 x    46 x    27             84505680       0.0%    100.0%      0.0%     
 flops     6 x    13 x    27             85537296       0.0%    100.0%      0.0%     
 flops    27 x    47 x    27             86205708       0.0%    100.0%      0.0%     
 flops    27 x    48 x    27             88179840       0.0%    100.0%      0.0%     
 flops    27 x    49 x    27             90088362       0.0%    100.0%      0.0%     
 flops    10 x    10 x   234             98186400       0.0%    100.0%      0.0%     
 flops    42 x    42 x    10             98784000       0.0%    100.0%      0.0%     
 flops    40 x    41 x    32            100656640       0.0%    100.0%      0.0%     
 flops    41 x    40 x    32            101601280       0.0%    100.0%      0.0%     
 flops    10 x    32 x    31            103128320       0.0%    100.0%      0.0%     
 flops    32 x    10 x    31            103148160       0.0%    100.0%      0.0%     
 flops    10 x     6 x    13            103808640       0.0%    100.0%      0.0%     
 flops    10 x    13 x     6            103927200       0.0%    100.0%      0.0%     
 flops    32 x    32 x    41            106303488       0.0%    100.0%      0.0%     
 flops    43 x    41 x    32            108205888       0.0%    100.0%      0.0%     
 flops    10 x    42 x    49            108662400       0.0%    100.0%      0.0%     
 flops    41 x    43 x    32            108770048       0.0%    100.0%      0.0%     
 flops    13 x    21 x    13            110388096       0.0%    100.0%      0.0%     
 flops    42 x    41 x    27            110469744       0.0%    100.0%      0.0%     
 flops    41 x    42 x    27            110841696       0.0%    100.0%      0.0%     
 flops    41 x    45 x    32            112412160       0.0%    100.0%      0.0%     
 flops    45 x    41 x    32            113238720       0.0%    100.0%      0.0%     
 flops    27 x    41 x    49            113693328       0.0%    100.0%      0.0%     
 flops    46 x    41 x    32            115755136       0.0%    100.0%      0.0%     
 flops    41 x    46 x    32            116358656       0.0%    100.0%      0.0%     
 flops    32 x    40 x    41            117345280       0.0%    100.0%      0.0%     
 flops    47 x    41 x    32            118271552       0.0%    100.0%      0.0%     
 flops    41 x    47 x    32            119134848       0.0%    100.0%      0.0%     
 flops    40 x    49 x    32            120422400       0.0%    100.0%      0.0%     
 flops    48 x    41 x    32            120787968       0.0%    100.0%      0.0%     
 flops    41 x    48 x    32            121417728       0.0%    100.0%      0.0%     
 flops    49 x    40 x    32            121425920       0.0%    100.0%      0.0%     
 flops    10 x    42 x    42            124185600       0.0%    100.0%      0.0%     
 flops    10 x    40 x    32            124979200       0.0%    100.0%      0.0%     
 flops    32 x    40 x    10            125593600       0.0%    100.0%      0.0%     
 flops    32 x    43 x    41            126146176       0.0%    100.0%      0.0%     
 flops    10 x    32 x    38            126415360       0.0%    100.0%      0.0%     
 flops    32 x    10 x    38            126439680       0.0%    100.0%      0.0%     
 flops    10 x    10 x    13            127465000       0.0%    100.0%      0.0%     
 flops    27 x     6 x     6            128902752       0.0%    100.0%      0.0%     
 flops    43 x    49 x    32            129454080       0.0%    100.0%      0.0%     
 flops    49 x    43 x    32            129993472       0.0%    100.0%      0.0%     
 flops    27 x    42 x    41            130927104       0.0%    100.0%      0.0%     
 flops    27 x    41 x    42            130927104       0.0%    100.0%      0.0%     
 flops    32 x    45 x    41            132013440       0.0%    100.0%      0.0%     
 flops    27 x    13 x    10            132263820       0.0%    100.0%      0.0%     
 flops    49 x    42 x    27            132469344       0.0%    100.0%      0.0%     
 flops    42 x    49 x    27            133802928       0.0%    100.0%      0.0%     
 flops    49 x    45 x    32            134346240       0.0%    100.0%      0.0%     
 flops    10 x    43 x    32            134517760       0.0%    100.0%      0.0%     
 flops    32 x    43 x    10            135150720       0.0%    100.0%      0.0%     
 flops    45 x    49 x    32            135475200       0.0%    100.0%      0.0%     
 flops    10 x    42 x    27            135943920       0.0%    100.0%      0.0%     
 flops    32 x    47 x    41            137880704       0.0%    100.0%      0.0%     
 flops    32 x    46 x    41            138085376       0.0%    100.0%      0.0%     
 flops    46 x    49 x    32            138485760       0.0%    100.0%      0.0%     
 flops    27 x    42 x    10            138937680       0.0%    100.0%      0.0%     
 flops    49 x    46 x    32            139062784       0.0%    100.0%      0.0%     
 flops    10 x    45 x    32            140601600       0.0%    100.0%      0.0%     
 flops    47 x    49 x    32            141496320       0.0%    100.0%      0.0%     
 flops    32 x    45 x    10            141782400       0.0%    100.0%      0.0%     
 flops    49 x    47 x    32            142380672       0.0%    100.0%      0.0%     
 flops    10 x    13 x    27            142842960       0.0%    100.0%      0.0%     
 flops    32 x    49 x    41            143747968       0.0%    100.0%      0.0%     
 flops    10 x    46 x    32            143755520       0.0%    100.0%      0.0%     
 flops    32 x    48 x    41            144089088       0.0%    100.0%      0.0%     
 flops    48 x    49 x    32            144506880       0.0%    100.0%      0.0%     
 flops    32 x    46 x    10            144933120       0.0%    100.0%      0.0%     
 flops    49 x    48 x    32            145108992       0.0%    100.0%      0.0%     
 flops    10 x    32 x    44            146375680       0.0%    100.0%      0.0%     
 flops    32 x    10 x    44            146403840       0.0%    100.0%      0.0%     
 flops    10 x    47 x    32            147000960       0.0%    100.0%      0.0%     
 flops    32 x    47 x    10            147903360       0.0%    100.0%      0.0%     
 flops    13 x    13 x    27            148288374       0.0%    100.0%      0.0%     
 flops    10 x    48 x    32            149975040       0.0%    100.0%      0.0%     
 flops    27 x    41 x    27            150461226       0.0%    100.0%      0.0%     
 flops    32 x    48 x    10            150958080       0.0%    100.0%      0.0%     
 flops    10 x    49 x    32            153444480       0.0%    100.0%      0.0%     
 flops    32 x    49 x    10            154353920       0.0%    100.0%      0.0%     
 flops    27 x    10 x   172            156038400       0.0%    100.0%      0.0%     
 flops    10 x    27 x   172            156038400       0.0%    100.0%      0.0%     
 flops    10 x    27 x     6            157797720       0.0%    100.0%      0.0%     
 flops    27 x    10 x   177            160574400       0.0%    100.0%      0.0%     
 flops    10 x    27 x   177            160574400       0.0%    100.0%      0.0%     
 flops    27 x    10 x     6            163224720       0.0%    100.0%      0.0%     
 flops    32 x    32 x    42            164118528       0.0%    100.0%      0.0%     
 flops    32 x    32 x    49            167086080       0.0%    100.0%      0.0%     
 flops    27 x     6 x    27            181066104       0.0%    100.0%      0.0%     
 flops     6 x     6 x    32            182052864       0.0%    100.0%      0.0%     
 flops    10 x    13 x    13            182858000       0.0%    100.0%      0.0%     
 flops    40 x    42 x    32            206223360       0.0%    100.0%      0.0%     
 flops    41 x    41 x    32            206346112       0.0%    100.0%      0.0%     
 flops    42 x    40 x    32            208158720       0.0%    100.0%      0.0%     
 flops    27 x    10 x   234            212284800       0.0%    100.0%      0.0%     
 flops    10 x    27 x   234            212284800       0.0%    100.0%      0.0%     
 flops    32 x    40 x    49            215255040       0.0%    100.0%      0.0%     
 flops    43 x    42 x    32            221690112       0.0%    100.0%      0.0%     
 flops    32 x    27 x    31            222842880       0.0%    100.0%      0.0%     
 flops    27 x    32 x    31            222842880       0.0%    100.0%      0.0%     
 flops    42 x    43 x    32            222845952       0.0%    100.0%      0.0%     
 flops    42 x    42 x    27            227090304       0.0%    100.0%      0.0%     
 flops    27 x    13 x     6            227995560       0.0%    100.0%      0.0%     
 flops    27 x     6 x    13            228105072       0.0%    100.0%      0.0%     
 flops    42 x    45 x    32            230307840       0.0%    100.0%      0.0%     
 flops    32 x    43 x    49            231399168       0.0%    100.0%      0.0%     
 flops    45 x    42 x    32            232001280       0.0%    100.0%      0.0%     
 flops    27 x    42 x    49            234710784       0.0%    100.0%      0.0%     
 flops    46 x    42 x    32            237156864       0.0%    100.0%      0.0%     
 flops    32 x    41 x    41            237760640       0.0%    100.0%      0.0%     
 flops    42 x    46 x    32            238393344       0.0%    100.0%      0.0%     
 flops    32 x    45 x    49            242161920       0.0%    100.0%      0.0%     
 flops    47 x    42 x    32            242312448       0.0%    100.0%      0.0%     
 flops    42 x    47 x    32            244081152       0.0%    100.0%      0.0%     
 flops    32 x    40 x    42            246005760       0.0%    100.0%      0.0%     
 flops    49 x    41 x    32            246608768       0.0%    100.0%      0.0%     
 flops    41 x    49 x    32            246865920       0.0%    100.0%      0.0%     
 flops    48 x    42 x    32            247468032       0.0%    100.0%      0.0%     
 flops    32 x    46 x    49            247543296       0.0%    100.0%      0.0%     
 flops    42 x    48 x    32            248758272       0.0%    100.0%      0.0%     
 flops    32 x    47 x    49            252924672       0.0%    100.0%      0.0%     
 flops    10 x    41 x    32            255997440       0.0%    100.0%      0.0%     
 flops    32 x    41 x    10            257939200       0.0%    100.0%      0.0%     
 flops    32 x    48 x    49            258306048       0.0%    100.0%      0.0%     
 flops    32 x    49 x    49            263687424       0.0%    100.0%      0.0%     
 flops    32 x    43 x    42            264456192       0.0%    100.0%      0.0%     
 flops    27 x    42 x    42            268240896       0.0%    100.0%      0.0%     
 flops    32 x    27 x    38            273162240       0.0%    100.0%      0.0%     
 flops    27 x    32 x    38            273162240       0.0%    100.0%      0.0%     
 flops    32 x    45 x    42            276756480       0.0%    100.0%      0.0%     
 flops    32 x    40 x    27            279659520       0.0%    100.0%      0.0%     
 flops    27 x    40 x    32            282493440       0.0%    100.0%      0.0%     
 flops    32 x    46 x    42            282906624       0.0%    100.0%      0.0%     
 flops    10 x    27 x    13            284281920       0.0%    100.0%      0.0%     
 flops    27 x    10 x    13            287356680       0.0%    100.0%      0.0%     
 flops    32 x    47 x    42            289056768       0.0%    100.0%      0.0%     
 flops    32 x     6 x    10            293817600       0.0%    100.0%      0.0%     
 flops    49 x    49 x    32            295034880       0.0%    100.0%      0.0%     
 flops    32 x    48 x    42            295206912       0.0%    100.0%      0.0%     
 flops    32 x    43 x    27            300708288       0.0%    100.0%      0.0%     
 flops    32 x    49 x    42            301357056       0.0%    100.0%      0.0%     
 flops    27 x    43 x    32            304349184       0.0%    100.0%      0.0%     
 flops    10 x     6 x    32            307733760       0.0%    100.0%      0.0%     
 flops    27 x    42 x    27            308445732       0.0%    100.0%      0.0%     
 flops    32 x    45 x    27            314694720       0.0%    100.0%      0.0%     
 flops    13 x     6 x    32            315314688       0.0%    100.0%      0.0%     
 flops    32 x    27 x    44            316293120       0.0%    100.0%      0.0%     
 flops    27 x    32 x    44            316293120       0.0%    100.0%      0.0%     
 flops    27 x    13 x    27            317119374       0.0%    100.0%      0.0%     
 flops    27 x    45 x    32            318427200       0.0%    100.0%      0.0%     
 flops    32 x    46 x    27            321528960       0.0%    100.0%      0.0%     
 flops     6 x    13 x    32            325039104       0.0%    100.0%      0.0%     
 flops    27 x    46 x    32            326298240       0.0%    100.0%      0.0%     
 flops    32 x    47 x    27            329087232       0.0%    100.0%      0.0%     
 flops    27 x    47 x    32            333310464       0.0%    100.0%      0.0%     
 flops    32 x    48 x    27            336420864       0.0%    100.0%      0.0%     
 flops    27 x    27 x   172            337042944       0.0%    100.0%      0.0%     
 flops    27 x    48 x    32            340236288       0.0%    100.0%      0.0%     
 flops    32 x    49 x    27            343937664       0.0%    100.0%      0.0%     
 flops    27 x    27 x   177            346840704       0.0%    100.0%      0.0%     
 flops    27 x    49 x    32            347409216       0.0%    100.0%      0.0%     
 flops    27 x    27 x     6            361327392       0.0%    100.0%      0.0%     
 flops    27 x    13 x    13            399262500       0.0%    100.0%      0.0%     
 flops    42 x    41 x    32            422757888       0.0%    100.0%      0.0%     
 flops    41 x    42 x    32            422757888       0.0%    100.0%      0.0%     
 flops    32 x    41 x    49            437929856       0.0%    100.0%      0.0%     
 flops    27 x    27 x   234            458535168       0.0%    100.0%      0.0%     
 flops    32 x     6 x     6            494894592       0.0%    100.0%      0.0%     
 flops    32 x    42 x    41            504311808       0.0%    100.0%      0.0%     
 flops    32 x    41 x    42            504311808       0.0%    100.0%      0.0%     
 flops    49 x    42 x    32            505247232       0.0%    100.0%      0.0%     
 flops    42 x    49 x    32            505774080       0.0%    100.0%      0.0%     
 flops    32 x    13 x    10            507228800       0.0%    100.0%      0.0%     
 flops    10 x    42 x    32            525020160       0.0%    100.0%      0.0%     
 flops    32 x    42 x    10            529428480       0.0%    100.0%      0.0%     
 flops    10 x    13 x    32            540259200       0.0%    100.0%      0.0%     
 flops    13 x    13 x    32            562540160       0.0%    100.0%      0.0%     
 flops    32 x    41 x    27            573514560       0.0%    100.0%      0.0%     
 flops    27 x    41 x    32            579678336       0.0%    100.0%      0.0%     
 flops    32 x    10 x   172            601036800       0.0%    100.0%      0.0%     
 flops    10 x    32 x   172            601036800       0.0%    100.0%      0.0%     
 flops    10 x    32 x     6            605475840       0.0%    100.0%      0.0%     
 flops    32 x    10 x   177            618508800       0.0%    100.0%      0.0%     
 flops    10 x    32 x   177            618508800       0.0%    100.0%      0.0%     
 flops    32 x    10 x     6            621100800       0.0%    100.0%      0.0%     
 flops    27 x    27 x    13            630789120       0.0%    100.0%      0.0%     
 flops    27 x     6 x    32            687740544       0.0%    100.0%      0.0%     
 flops    32 x     6 x    27            693401472       0.0%    100.0%      0.0%     
 flops    32 x    10 x   234            817689600       0.0%    100.0%      0.0%     
 flops    10 x    32 x   234            817689600       0.0%    100.0%      0.0%     
 flops    32 x    32 x    31            858357760       0.0%    100.0%      0.0%     
 flops    42 x    42 x    32            866138112       0.0%    100.0%      0.0%     
 flops    32 x    13 x     6            875496960       0.0%    100.0%      0.0%     
 flops    32 x     6 x    13            875756544       0.0%    100.0%      0.0%     
 flops    32 x    42 x    49            904071168       0.0%    100.0%      0.0%     
 flops    32 x    42 x    42           1033224192       0.0%    100.0%      0.0%     
 flops    32 x    32 x    38           1052180480       0.0%    100.0%      0.0%     
 flops    32 x    40 x    32           1079623680       0.0%    100.0%      0.0%     
 flops    10 x    32 x    13           1087590400       0.0%    100.0%      0.0%     
 flops    32 x    10 x    13           1098181760       0.0%    100.0%      0.0%     
 flops    32 x    43 x    32           1161211904       0.0%    100.0%      0.0%     
 flops    32 x    42 x    27           1176166656       0.0%    100.0%      0.0%     
 flops    27 x    42 x    32           1188722304       0.0%    100.0%      0.0%     
 flops    27 x    13 x    32           1201060224       0.0%    100.0%      0.0%     
 flops    32 x    13 x    27           1215459648       0.0%    100.0%      0.0%     
 flops    32 x    45 x    32           1215682560       0.0%    100.0%      0.0%     
 flops    32 x    32 x    44           1218314240       0.0%    100.0%      0.0%     
 flops    32 x    46 x    32           1244581888       0.0%    100.0%      0.0%     
 flops    32 x    47 x    32           1271349248       0.0%    100.0%      0.0%     
 flops    32 x    48 x    32           1296236544       0.0%    100.0%      0.0%     
 flops    32 x    27 x   172           1298239488       0.0%    100.0%      0.0%     
 flops    27 x    32 x   172           1298239488       0.0%    100.0%      0.0%     
 flops    32 x    49 x    32           1325950976       0.0%    100.0%      0.0%     
 flops    32 x    27 x   177           1335979008       0.0%    100.0%      0.0%     
 flops    27 x    32 x   177           1335979008       0.0%    100.0%      0.0%     
 flops    32 x    27 x     6           1375346304       0.0%    100.0%      0.0%     
 flops    27 x    32 x     6           1386180864       0.0%    100.0%      0.0%     
 flops    32 x    13 x    13           1534401024       0.0%    100.0%      0.0%     
 flops    32 x    27 x   234           1766209536       0.0%    100.0%      0.0%     
 flops    27 x    32 x   234           1766209536       0.0%    100.0%      0.0%     
 flops    32 x    41 x    32           2212640768       0.0%    100.0%      0.0%     
 flops    27 x    32 x    13           2422809792       0.0%    100.0%      0.0%     
 flops    32 x    27 x    13           2425280832       0.0%    100.0%      0.0%     
 flops    32 x     6 x    32           2634952704       0.0%    100.0%      0.0%     
 flops    32 x    42 x    32           4540182528       0.0%    100.0%      0.0%     
 flops    32 x    13 x    32           4606271488       0.0%    100.0%      0.0%     
 flops    32 x    32 x   172           5000626176       0.0%    100.0%      0.0%     
 flops    32 x    32 x   177           5145993216       0.0%    100.0%      0.0%     
 flops    32 x    32 x     6           5273518080       0.0%    100.0%      0.0%     
 flops    32 x    32 x   234           6803177472       0.0%    100.0%      0.0%     
 flops    32 x    32 x    13           9301547008       0.0%    100.0%      0.0%     
 flops inhomo. stacks                 95664789124     100.0%      0.0%      0.0%
 flops total                       240.345521E+09      39.8%     60.2%      0.0%
 flops max/rank                     18.331601E+09      43.2%     56.8%      0.0%
 matmuls inhomo. stacks                    583886     100.0%      0.0%      0.0%
 matmuls total                            6625401       8.8%     91.2%      0.0%
 number of processed stacks                942247       2.5%     97.5%      0.0%
 average stack size                                    24.8       6.6       0.0
 marketing flops                   316.639085E+09
 -------------------------------------------------------------------------------
 # multiplications                           3044
 max memory usage/rank              22.834790E+09
 # max total images/rank                        1
 # max 3D layers                                1
 # MPI messages exchanged                  292224
 MPI messages size (bytes):
  total size                         8.686612E+09
  min size                           0.000000E+00
  max size                         845.000000E+03
  average size                      29.725869E+03
 MPI breakdown and total messages size (bytes):
             size <=      128              202446                        0
       128 < size <=     8192               33612                204304512
      8192 < size <=    32768               21174                286435584
     32768 < size <=   131072               21885               2012398800
    131072 < size <=  4194304               13107               6183476664
   4194304 < size <= 16777216                   0                        0
  16777216 < size                               0                        0
 -------------------------------------------------------------------------------
 -                                                                             -
 -                      DBCSR MESSAGE PASSING PERFORMANCE                      -
 -                                                                             -
 -------------------------------------------------------------------------------
 ROUTINE             CALLS      AVE VOLUME [Bytes]
 MP_Bcast              564                     12.
 MP_Allreduce        15466                     10.
 MP_Alltoall         11665                   9118.
 MP_ISend            51554                  12270.
 MP_IRecv            50902                  11380.
 -------------------------------------------------------------------------------

 -------------------------------------------------------------------------------
 -                                                                             -
 -                                GRID STATISTICS                              -
 -                                                                             -
 -------------------------------------------------------------------------------
 LP    KERNEL             BACKEND                              COUNT     PERCENT
 3     collocate ortho    CPU                                  25506      22.85%
 3     integrate ortho    CPU                                  25506      22.85%
 4     collocate ortho    CPU                                  16731      14.99%
 4     integrate ortho    CPU                                  16731      14.99%
 2     collocate ortho    CPU                                  13572      12.16%
 2     integrate ortho    CPU                                  13572      12.16%
 0     collocate general  CPU                                     18       0.02%
 -------------------------------------------------------------------------------

 -------------------------------------------------------------------------------
 -                                                                             -
 -                          OFFLOAD MEMPOOL STATISTICS                         -
 -                                                                             -
 -------------------------------------------------------------------------------
 Memory consumption                Number of allocations  Used [MiB]  Size [MiB]
 Host                                                  6          92    21632777
 -------------------------------------------------------------------------------

 MEMORY| Estimated peak process memory [MiB]                                2198

 -------------------------------------------------------------------------------
 -                                                                             -
 -                         MESSAGE PASSING PERFORMANCE                         -
 -                                                                             -
 -------------------------------------------------------------------------------

 ROUTINE             CALLS      AVE VOLUME [Bytes]
 MP_Group                5
 MP_Bcast             5444                  10119.
 MP_Allreduce        17092                   1391.
 MP_Sync               131
 MP_Alltoall          2231              113577516.
 MP_SendRecv          3510                 564480.
 MP_ISendRecv         3510                 564480.
 MP_Wait             14297
 MP_comm_split         128
 MP_ISend             9380                2004443.
 MP_IRecv             9380                2004498.
 -------------------------------------------------------------------------------


 -------------------------------------------------------------------------------
 -                                                                             -
 -                           R E F E R E N C E S                               -
 -                                                                             -
 -------------------------------------------------------------------------------
 
 CP2K version 2026.2 (Development Version), the CP2K developers group (2026).
 CP2K is freely available from https://www.cp2k.org/ .
 
 M. Iannuzzi, J. Wilhelm, F. Stein, A. Bussy, H. Elgabarty, D. Golze, A. Hehn, 
 M. Graml, S. Marek, B. Sertcan Gökmen, C. Schran, H. Forbert, R. Z. 
 Khaliullin, A. Kozhevnikov, M. Taillefumier, R. Meli, V. V. Rybkin, M. Brehm, 
 R. Schade, O. Schütt, J. V. Pototschnig, H. Mirhosseini, A. Knüpfer, D. Marx, 
 M. Krack, J. Hutter, T. D. Kühne.
 J. Phys. Chem. B 130, 1237-1310 (2026).
 The CP2K Program Package Made Simple.
 https://doi.org/10.1021/acs.jpcb.5c05851

 M. Graml, K. Zollner, D. Hernangómez-Pérez, P. E. Faria Junior, J. Wilhelm.
 J. Chem. Theory Comput. 20, 2202-2208 (2024).
 Low-scaling GW algorithm applied to twisted transition-metal dichalcogenide 
 heterobilayers.
 https://doi.org/10.1021/acs.jctc.3c01230

 T. D. Kühne, M. Iannuzzi, M. Del Ben, V. V. Rybkin, P. Seewald, F. Stein, T. 
 Laino, R. Z. Khaliullin, O. Schütt, F. Schiffmann, D. Golze, J. Wilhelm, S. 
 Chulkov, M. H. Bani-Hashemian, V. Weber, U. Borstnik, M. Taillefumier, A. S. 
 Jakobovits, A. Lazzaro, H. Pabst, T. Müller, R. Schade, M. Guidon, S. 
 Andermatt, N. Holmberg, G. K. Schenter, A. Hehn, A. Bussy, F. Belleflamme, G. 
 Tabacchi, A. Glöß, M. Lass, I. Bethune, C. J. Mundy, C. Plessl, M. Watkins, 
 J. VandeVondele, M. Krack, J. Hutter.
 J. Chem. Phys. 152, 194103 (2020).
 CP2K: An electronic structure and molecular dynamics software package - 
 Quickstep: Efficient and accurate electronic structure calculations.
 https://doi.org/10.1063/5.0007045

 O. Schuett, P. Messmer, J. Hutter, J. VandeVondele.
 Electronic Structure Calculations on Graphics Processing Units, 173-190 (2016).
 GPU-Accelerated Sparse Matrix-Matrix Multiplication for Linear Scaling Density 
 Functional Theory.
 https://doi.org/10.1002/9781118670712.ch8

 U. Borstnik, J. VandeVondele, V. Weber, J. Hutter.
 Parallel Comput. 40, 47-58 (2014).
 Sparse matrix multiplication: The distributed block-compressed sparse row 
 library.
 https://doi.org/10.1016/j.parco.2014.03.012

 J. VandeVondele, J. Hutter.
 J. Chem. Phys. 127, 114105 (2007).
 Gaussian basis sets for accurate calculations on molecular systems in gas and 
 condensed phases.
 https://doi.org/10.1063/1.2770708

 J. VandeVondele, M. Krack, F. Mohamed, M. Parrinello, T. Chassaing, J. Hutter.
 Comput. Phys. Commun. 167, 103-128 (2005).
 QUICKSTEP: Fast and accurate density functional calculations using a mixed 
 Gaussian and plane waves approach.
 https://doi.org/10.1016/j.cpc.2004.12.014

 M. Krack.
 Theor. Chem. Acc. 114, 145-152 (2005).
 Pseudopotentials for H to Kr optimized for gradient-corrected 
 exchange-correlation functionals.
 https://doi.org/10.1007/s00214-005-0655-y

 M. Frigo, S. G. Johnson.
 Proc. IEEE 93, 216-231 (2005).
 The design and implementation of FFTW3.
 https://doi.org/10.1109/JPROC.2004.840301

 J. VandeVondele, J. Hutter.
 J. Chem. Phys. 118, 4365-4369 (2003).
 An efficient orbital transformation method for electronic structure 
 calculations.
 https://doi.org/10.1063/1.1543154

 C. Hartwigsen, S. Goedecker, J. Hutter.
 Phys. Rev. B 58, 3641-3662 (1998).
 Relativistic separable dual-space Gaussian pseudopotentials from H to Rn.
 https://doi.org/10.1103/PhysRevB.58.3641

 G. Lippert, J. Hutter, M. Parrinello.
 Mol. Phys. 92, 477-487 (1997).
 A hybrid Gaussian and plane wave density functional scheme.
 https://doi.org/10.1080/002689797170220

 S. Goedecker, M. Teter, J. Hutter.
 Phys. Rev. B 54, 1703-1710 (1996).
 Separable dual-space Gaussian pseudopotentials.
 https://doi.org/10.1103/PhysRevB.54.1703

 J. P. Perdew, K. Burke, M. Ernzerhof.
 Phys. Rev. Lett. 77, 3865-3868 (1996).
 Generalized gradient approximation made simple.
 https://doi.org/10.1103/PhysRevLett.77.3865

 P. E. Blöchl.
 J. Chem. Phys. 103, 7422-7428 (1995).
 Electrostatic decoupling of periodic images of plane‐wave‐expanded 
 densities and derived atomic point charges.
 https://doi.org/10.1063/1.470314

 R. H. Byrd, P. H. Lu, J. Nocedal, C. Y. Zhu.
 SIAM J. Sci. Comput. 16, 1190-1208 (1995).
 A Limited Memory Algorithm for Bound Constrained Optimization.
 https://doi.org/10.1137/0916069


 -------------------------------------------------------------------------------
 -                                                                             -
 -                                T I M I N G                                  -
 -                                                                             -
 -------------------------------------------------------------------------------
 SUBROUTINE                       CALLS  ASD         SELF TIME        TOTAL TIME MAXRANK
                                MAXIMUM       AVERAGE  MAXIMUM  AVERAGE  MAXIMUM
 CP2K                                 1  1.0    0.154    0.164  428.323  428.325       0
 qs_energies                          1  2.0    0.004    0.004  427.409  427.409       3
 qs_energies_properties               1  3.0    0.001    0.001  231.303  231.304       5
 post_scf_bandstructure               1  4.0    0.001    0.001  231.302  231.303      14
 gw                                   1  5.0    0.001    0.001  231.200  231.207      11
 gw_calc_non_periodic_ri_rs           1  6.0    0.021    0.021  228.186  228.246      12
 ri_rs_grid_assembler                 1  7.0    0.013    0.013  225.961  226.022       3
 optimize_ri_rs_grid                  1  8.0    0.002    0.006  225.496  225.500       0
 rirs_grid_LBFGS                      1  9.0    1.007    1.813  223.926  225.125       3
 evaluate_rirs_grid_cluster         602 10.0    4.901   14.913   60.476  218.288       3
 mp_sum_d                          5695 10.4  163.130  213.541  163.130  213.541      15
 scf_env_do_scf                       1  3.0    0.001    0.001  195.288  195.288      14
 scf_env_do_scf_inner_loop          116  4.0    0.004    0.009  193.999  194.006       0
 qs_ks_build_kohn_sham_matrix       117  7.0    0.022    0.024  143.897  143.899       0
 qs_ks_update_qs_env                117  5.0    0.002    0.002  143.517  143.519       5
 rebuild_ks_matrix                  116  6.0    0.001    0.001  143.505  143.506       9
 fft_wrap_pw1pw2                   1983 10.3    0.060    0.063  115.331  121.140       5
 fft_wrap_pw1pw2_300               1281 11.8    6.074    6.212  111.171  117.079      10
 qs_vxc_create                      117  8.0    0.004    0.004   97.116   97.490      14
 xc_vxc_pw_create                   116  9.0    2.114    2.381   97.112   97.486       6
 fft3d_ps                          1983 12.3   48.299   50.124   82.608   88.478       2
 xc_pw_derive                       696 11.0    0.007    0.008   71.970   78.017       6
 rirs_cluster_gradient_products     602 11.0   17.108   67.188   17.108   67.188       3
 xc_pw_divergence                   116 10.0    0.004    0.005   48.671   54.537       3
 qs_rho_update_rho_low              117  5.0    0.001    0.001   50.433   50.440      15
 calculate_rho_elec                 117  6.0    1.270    1.300   50.433   50.439       0
 xc_rho_set_and_dset_create         116 10.0    1.466    1.757   45.126   48.493       6
 rirs_cluster_gradient_coordina     602 11.0   11.647   37.181   11.647   37.181       3
 rirs_cluster_residual              602 11.0    8.310   29.638    8.310   29.638       3
 density_rs2pw                      117  7.0    0.007    0.008   28.386   28.632       0
 mp_alltoall_z22v                  1983 14.3   20.434   26.532   20.434   26.532      15
 rirs_cluster_d_lP                  602 11.0    6.527   25.288    6.527   25.288       3
 rirs_cluster_AO_products           602 11.0    6.728   22.366    6.728   22.366       3
 rirs_cluster_D_ll                  602 11.0    5.255   21.714    5.255   21.714       3
 yz_to_x                            934 12.9    5.784    6.098   15.646   21.657       4
 grid_collocate_task_list           117  7.0   20.510   20.676   20.510   20.676       1
 sum_up_and_integrate               117  8.0    0.003    0.003   20.474   20.493       2
 integrate_v_rspace                 117  9.0    0.004    0.005   19.838   19.869       3
 potential_pw2rs                    117 10.0    0.050    0.052   19.289   19.321       8
 x_to_yz                           1049 13.8    8.038    8.418   18.610   18.961       6
 qs_ks_ddapc                        117  8.0    0.003    0.003   13.524   13.748       0
 pw_derive                         1047 11.3   11.942   12.331   11.942   12.331       5
 pw_poisson_solve                   117  8.0    0.002    0.003   11.033   11.062       0
 pw_scatter_p                      1049 12.8   10.246   10.326   10.246   10.326       3
 pw_copy                           1868 10.6    9.395    9.439    9.395    9.439      15
 pw_gather_p                        934 11.9    8.815    9.246    8.815    9.246      11
 xc_functional_eval                 116 11.0    0.002    0.002    6.082    9.138       1
 pbe_lda_eval                       116 12.0    6.080    9.136    6.080    9.136       8
 transfer_pw2rs                     468 11.0    0.005    0.006    7.061    7.075      10
 pw_poisson_set                     118  9.0    0.003    0.003    6.606    6.636       0
 transfer_rs2pw                     469  8.0    0.009    0.009    5.311    5.467       7
 rirs_grid_build_clusters             1  9.0    1.098    3.706    1.568    5.362       3
 mp_waitany                        9380 11.5    5.036    5.206    5.036    5.206      13
 pw_axpy                           1175  9.2    4.965    5.078    4.965    5.078       3
 pw_copy_to_array                   934 11.9    4.631    4.874    4.631    4.874       4
 transfer_pw2rs_300                 117 12.0    1.892    1.941    4.556    4.654       4
 pw_integral_ab_c1d_c1d_gs          234  9.5    4.032    4.042    4.108    4.138       1
 fft_wrap_pw1pw2_100                234 10.5    0.217    0.231    3.398    3.659       1
 transfer_rs2pw_300                 118  9.0    1.562    1.648    3.364    3.561       0
 cp_ddapc_apply_CD                  117  9.0    0.006    0.009    3.141    3.190       0
 create_and_init_bs_env_for_gw        1  6.0    0.006    0.008    3.013    3.131       0
 pw_copy_from_array                1049 12.8    2.637    2.684    2.637    2.684       7
 generate_auto_ri_basis               1  7.0    0.000    0.000    2.330    2.330       2
 dbcsr_multiply_generic            3044 10.0    0.073    0.074    2.015    2.039      10
 pw_zero                            600 10.2    1.669    1.797    1.669    1.797      10
 abc_contract_xsmm                64381 10.0    0.511    1.717    0.511    1.717       3
 qs_scf_new_mos                     116  5.0    0.000    0.000    1.658    1.661      11
 qs_scf_loop_do_ot                  116  6.0    0.001    0.001    1.658    1.661      11
 ot_scf_mini                        116  7.0    0.001    0.001    1.594    1.595       8
 transfer_pw2rs_100                 117 12.0    0.398    0.433    1.496    1.557       5
 compute_M_pq_inv_and_V_pq            1  8.0    0.000    0.000    1.385    1.385      14
 compute_contracted_RI_matrix         2  9.0    0.000    0.000    1.316    1.317       8
 compute_optimized_RI_matrix_bl      22 10.0    0.094    0.104    1.188    1.312       1
 init_scf_loop                        1  4.0    0.000    0.001    1.281    1.281       8
 compute_M_PQ_AB                    846 11.0    0.001    0.001    1.118    1.239       7
 compute_M_PQ                       846 12.0    0.001    0.002    1.117    1.238       1
 int_operators_r12_ab_os            846 13.0    0.000    0.001    1.116    1.236       2
 int_operator_ab_os_low             846 14.0    0.465    0.512    1.115    1.236       1
 mp_waitall_1                    151029 14.2    1.100    1.184    1.100    1.184      15
 transfer_rs2pw_100                 117  9.0    0.390    0.404    1.088    1.161       1
 pw_scale                           465  9.8    0.806    1.019    0.806    1.019       4
 get_ddapc                          117 10.0    0.003    0.004    0.891    0.939       4
 rs_grid_zero                       235 13.0    0.881    0.901    0.881    0.901       1
 ot_mini                            116  8.0    0.001    0.001    0.896    0.898       0
 multiply_cannon                   3044 11.0    0.141    0.145    0.850    0.896      10
 transfer_pw2rs_40                  117 12.0    0.323    0.344    0.794    0.849       6
 pw_multiply_with                   117  9.0    0.792    0.803    0.792    0.803       7
 qs_ot_get_derivative               116  9.0    0.001    0.001    0.759    0.761      14
 compute_W                            1  7.0    0.022    0.022    0.723    0.723      11
 mp_bcast_dm                        204 10.8    0.525    0.719    0.525    0.719       7
 transfer_rs2pw_40                  117  9.0    0.268    0.278    0.655    0.686       5
 fft_wrap_pw1pw2_40                 234 10.5    0.036    0.042    0.559    0.679       4
 make_m2s                          6088 11.0    0.033    0.034    0.657    0.674      12
 compute_AB_optimized_RI_basis        1  8.0    0.000    0.000    0.600    0.601       7
 compute_AB_optimized_RI_basis_       1  9.0    0.001    0.001    0.587    0.598      13
 compute_Sigma_c_and_QP_energie       1  7.0    0.001    0.001    0.584    0.594       5
 multiply_cannon_loop              3044 12.0    0.049    0.051    0.549    0.592      12
 mp_sum_dm                          138 10.9    0.375    0.587    0.375    0.587      13
 qs_ot_get_derivative_diag          115 10.0    0.002    0.002    0.575    0.577      12
 mp_sendrecv_dv                    3510 10.0    0.515    0.546    0.515    0.546       0
 qs_ot_get_p                        117  8.0    0.001    0.001    0.537    0.539      12
 qs_init_subsys                       1  2.0    0.010    0.011    0.538    0.538       4
 make_images                       6088 12.0    0.079    0.084    0.522    0.536      12
 init_scf_run                         1  3.0    0.000    0.000    0.533    0.533      12
 scf_env_initial_rho_setup            1  4.0    0.001    0.001    0.533    0.533       7
 grid_integrate_task_list           117 10.0    0.473    0.528    0.473    0.528       1
 qs_env_setup                         1  3.0    0.001    0.001    0.522    0.522       4
 qs_env_rebuild_pw_env                2  3.5    0.000    0.001    0.519    0.520      10
 pw_env_rebuild                       1  5.0    0.009    0.009    0.519    0.519      12
 build_grid_cache                     1  8.0    0.000    0.000    0.451    0.512       5
 initialize_cholesky_rirs_grids       1  9.0    0.141    0.506    0.451    0.512       3
 pw_grid_setup                        5  5.2    0.001    0.001    0.508    0.508       9
 pw_grid_setup_internal               5  6.2    0.011    0.011    0.507    0.507       8
 compute_Sigma_c                      1  8.0    0.004    0.005    0.504    0.504       0
 compute_B_PQ_AB                      5 10.0    0.066    0.122    0.251    0.501       0
 compute_fm_W_freq                   30  8.0    0.007    0.007    0.489    0.493      10
 parallel_gemm_fm_gemm              441  9.5    0.001    0.001    0.467    0.482       6
 cp_fm_gemm                         444 10.5    0.467    0.482    0.467    0.482      15
 cp_fm_get_submatrix                134 10.0    0.002    0.002    0.288    0.453      11
 get_mat_chi_Gamma_tau                1  7.0    0.001    0.001    0.449    0.449       9
 pw_grid_sort                         5  7.2    0.306    0.308    0.433    0.436       4
 contract_grid_panels_sigma_c        30  9.0    0.001    0.001    0.434    0.435      11
 -------------------------------------------------------------------------------

 The number of warnings for this run is : 1
 
 -------------------------------------------------------------------------------
  **** **** ******  **  PROGRAM ENDED AT                 2026-09-17 06:08:16.040
 ***** ** ***  *** **   PROGRAM RAN ON                                  n2cn1042
 **    ****   ******    PROGRAM RAN BY                                  eprop2d1
 ***** **    ** ** **   PROGRAM PROCESS ID                                313157
  **** **  *******  **  PROGRAM STOPPED IN /scratch/hpc-prf-metdyn/eprop2d1_Jan/
                                           53_benchmark_RI_opt/111_GW100_GTH_Leb
                                           edev_riao245_rc3/calculations/87_C8H1
                                           0_riao5_r07
