 DBCSR| CPU Multiplication driver                                           XSMM (U)
 DBCSR| Multrec recursion limit                                              512 (U)
 DBCSR| Multiplication stack size                                           1000 (D)
 DBCSR| Maximum elements for images                                    UNLIMITED (U)
 DBCSR| Multiplicative factor virtual images                                   1 (U)
 DBCSR| Use multiplication densification                                       T (D)
 DBCSR| Multiplication size stacks                                             3 (U)
 DBCSR| Use memory pool for CPU allocation                                     F (U)
 DBCSR| Number of 3D layers                                               SINGLE (U)
 DBCSR| Use MPI memory allocation                                              F (U)
 DBCSR| Use RMA algorithm                                                      F (U)
 DBCSR| Use Communication thread                                               T (U)
 DBCSR| Communication thread load                                             53 (D)
 DBCSR| MPI: My process id                                                     0
 DBCSR| MPI: Number of processes                                               5
 DBCSR| OMP: Current number of threads                                        10
 DBCSR| OMP: Max number of threads                                            10
 DBCSR| Split modifier for TAS multiplication algorithm                  1.0E+00 (U)


  **** **** ******  **  PROGRAM STARTED AT               2026-10-03 19:13:57.863
 ***** ** ***  *** **   PROGRAM STARTED ON                              n2cn0514
 **    ****   ******    PROGRAM STARTED BY                              eprop2d1
 ***** **    ** ** **   PROGRAM PROCESS ID                               1212240
  **** **  *******  **  PROGRAM STARTED IN /scratch/hpc-prf-metdyn/eprop2d1_Jan/
                                           53_benchmark_RI_opt/418_gw100_fig5_fu
                                           ll_epsfilter_1e12_20261002/calculatio
                                           ns/rc3p0/ri4_rs10/59_SF4

 CP2K| version string:                 CP2K version 2026.2 (Development Version)
 CP2K| source code revision number:                                   0671c5aa6c
 CP2K| cp2kflags: omp libint fftw3 libxc parallel scalapack openblas            
 CP2K| is freely available from                            https://www.cp2k.org/
 CP2K| Program compiled at                                   2026-09-20 09:25:26
 CP2K| Program compiled on                                              n2login5
 CP2K| Program compiled for                                               x86_64
 CP2K| Data directory path    /scratch/hpc-prf-metdyn/eprop2d1_Jan/53_benchmark_
 CP2K| Input file name        /scratch/hpc-prf-metdyn/eprop2d1_Jan/53_benchmark_
 
 eprop2d1@n2cn0514 has created rank and process                      0   1212240
 eprop2d1@n2cn0514 has created rank and process                      1   1212241
 eprop2d1@n2cn0514 has created rank and process                      2   1212242
 eprop2d1@n2cn0514 has created rank and process                      3   1212243
 eprop2d1@n2cn0514 has created rank and process                      4   1212244
 
 eprop2d1@n2cn0514 is running                                        5 processes

 GLOBAL| Force Environment number                                              1
 GLOBAL| Basis set file name            /scratch/hpc-prf-metdyn/eprop2d1_Jan/53_
 GLOBAL| Potential file name            /scratch/hpc-prf-metdyn/eprop2d1_Jan/53_
 GLOBAL| MM Potential file name                                     MM_POTENTIAL
 GLOBAL| Coordinate file name                                      __STD_INPUT__
 GLOBAL| Method name                                                        CP2K
 GLOBAL| Project name                                             g418_c410_m059
 GLOBAL| Run type                                                         ENERGY
 GLOBAL| FFT library                                                       FFTW3
 GLOBAL| Diagonalization library                                       ScaLAPACK
 GLOBAL| Cholesky decomposition library                                ScaLAPACK
 GLOBAL| DGEMM library                                                      BLAS
 GLOBAL| Direct generalized diagonalization requested                          F
 GLOBAL| Orthonormality check for eigenvectors                          DISABLED
 GLOBAL| Matrix multiplication library                                 ScaLAPACK
 GLOBAL| All-to-all communication in single precision                          F
 GLOBAL| Grid backend                                                       AUTO
 GLOBAL| Global print level                                                  LOW
 GLOBAL| MPI I/O enabled                                                       T
 GLOBAL| Total number of message passing processes                             5
 GLOBAL| Number of distributed systems (nodes)                                 1
 GLOBAL| Number of threads for this process                                   10
 GLOBAL| This output is from process                                           0
 GLOBAL| OpenMP stack size per thread (OMP_STACKSIZE)                       512M
 GLOBAL| CPU model name                          AMD EPYC 7763 64-Core Processor

 MEMORY| system memory details [Kb]
 MEMORY|                        rank 0           min           max       average
 MEMORY| MemTotal            263897580     263897580     263897580     263897580
 MEMORY| MemFree             250176904     250176904     250176904     250176904
 MEMORY| Buffers                273584        273584        273584        273584
 MEMORY| Cached                8210500       8210500       8210500       8210500
 MEMORY| Slab                  1595212       1595212       1595212       1595212
 MEMORY| SReclaimable           294068        294068        294068        294068
 MEMORY| MemLikelyFree       258955056     258955056     258955056     258955056


 GENERATE|  Preliminary Number of Bonds generated:                             0
 GENERATE|  Achieved consistency in connectivity generation.

 *******************************************************************************
 *******************************************************************************
 **                                                                           **
 **     #####                         ##              ##                      **
 **    ##   ##            ##          ##              ##                      **
 **   ##     ##                       ##            ######                    **
 **   ##     ##  ##   ##  ##   #####  ##  ##   ####   ##    #####    #####    **
 **   ##     ##  ##   ##  ##  ##      ## ##   ##      ##   ##   ##  ##   ##   **
 **   ##  ## ##  ##   ##  ##  ##      ####     ###    ##   ######   ######    **
 **    ##  ###   ##   ##  ##  ##      ## ##      ##   ##   ##       ##        **
 **     #######   #####   ##   #####  ##  ##  ####    ##    #####   ##        **
 **           ##                                                    ##        **
 **                                                                           **
 **                                                ... make the atoms dance   **
 **                                                                           **
 **            Copyright (C) by CP2K developers group (2000-2026)             **
 **                      J. Chem. Phys. 152, 194103 (2020)                    **
 **                                                                           **
 *******************************************************************************


 TOTAL NUMBERS AND MAXIMUM NUMBERS

  Total number of            - Atomic kinds:                                   2
                             - Atoms:                                          5
                             - Shell sets:                                     5
                             - Shells:                                        45
                             - Primitive Cartesian functions:                 34
                             - Cartesian basis functions:                    170
                             - Spherical basis functions:                    145

  Maximum angular momentum of- Orbital basis functions:                        3
                             - Local part of the GTH pseudopotential:          2
                             - Non-local part of the GTH pseudopotential:      2


 SCF PARAMETERS         Density guess:                                   RESTART
                        --------------------------------------------------------
                        max_scf:                                             500
                        max_scf_history:                                       0
                        max_diis:                                              4
                        --------------------------------------------------------
                        eps_scf:                                        1.00E-08
                        eps_scf_history:                                0.00E+00
                        eps_diis:                                       0.00E+00
                        eps_eigval:                                     1.00E-05
                        --------------------------------------------------------
                        level_shift [a.u.]:                             0.000000
                        --------------------------------------------------------
                        Outer loop SCF in use 
                        No variables optimised in outer loop
                        eps_scf                                         1.00E-08
                        max_scf                                               20
                        No outer loop optimization
                        step_size                                       5.00E-01

 Extrapolation method: initial_guess

 Number of electrons:                                                         34
 Number of occupied orbitals:                                                 17
 Number of molecular orbitals:                                                17

 Number of orbital functions:                                                145
 Number of independent orbital functions:                                    145


 SCF WAVEFUNCTION OPTIMIZATION

  ----------------------------------- OT ---------------------------------------
  Minimizer      : DIIS                : direct inversion
                                         in the iterative subspace
                                         using   7 DIIS vectors
                                         safer DIIS on
  Preconditioner : FULL_KINETIC        : inversion of T + eS
  Lattice FFT   : OFF
  Precond_solver : DEFAULT
  stepsize       :    0.15000000                  energy_gap     :    0.20000000
  eps_taylor     :   0.10000E-15                  max_taylor     :             4
  ----------------------------------- OT ---------------------------------------

  Step     Update method      Time    Convergence         Total energy    Change
  ------------------------------------------------------------------------------
  Decoupling Energy:                                               0.0000003454
     1 OT DIIS     0.15E+00    2.1     6.9078E-09      -107.1667358246 -1.07E+02

  *** SCF run converged in     1 steps ***


  Electronic density on regular grids:        -33.9999999988        0.0000000012
  Core density on regular grids:               34.0000000000       -0.0000000000
  Total charge density on r-space grids:        0.0000000012
  Total charge density g-space grids:           0.0000000012

  Overlap energy of the core charge distribution:               0.00000001865391
  Self energy of the core charge distribution:               -281.42928447006955
  Core Hamiltonian energy:                                     78.15565614800039
  Hartree energy:                                             117.09263894192104
  Exchange-correlation energy:                                -20.98574646306087

  Total energy:                                              -107.16673582455508

  outer SCF iter =    1 RMS gradient =   0.69E-08 energy =       -107.1667358246
  outer SCF loop converged in   1 iterations or    1 steps

  
 -------------------------------------------------------------------------------
 -                                                                             -
 -                          BANDSTRUCTURE CALCULATION                          -
 -                                                                             -
 -------------------------------------------------------------------------------
  
 Number of occupied molecular orbitals (MOs) = Number of occupied bands       17
 Number of unoccupied (= virtual) MOs = Number of unoccupied bands           128
 Number of Gaussian basis functions for MOs                                  145
  
 -------------------------------------------------------------------------------
 -                                                                             -
 -                                GW CALCULATION                               -
 -                                                                             -
 -------------------------------------------------------------------------------
  
 Input: Number of time/freq. points                                           30
 Input: ω_max for fitting Σ(iω) (eV)                                        10.0
 Input: Filter threshold for sparse tensor operations                    1.0E-12
 Input: Apply Hedin shift                                                      F
 Detected: Available memory per MPI process                              43.3 GB
 
 Input: RI-RS Tikhonov regularization                                   1.00E-04
 Input: AO grid hard cutoff radius                                        8.00 Å
 Input: MPI ranks per atom in Z_lP solve                                      -1
 Input: Keep sparsity in χ/G/W panels                                          T
 Input: GW flavour                                                          G0W0
 
 Input: RI-RS grid optimization activated                                      T
 Input: RS points per AO function                                           10.0
 Input: Cutoff radius for atomic clusters                                  3.0 Å
 Input: Maximum grid optimization iterations                                 300
 
 Input: AUTO_RI basis optimization activated:                                  T
 Input: AUTO_RI number of RI functions per AO function:                      4.0
 Input: AUTO_RI frontier orbital window:                                  5.0 eV
 Input: AUTO_RI neighbor radius:                                           3.0 Å
 
 Cutoff radius for the truncated Coulomb operator in RI metric:            7.0 Å
 Regularization parameter of RI                                          0.0E+00
 Regularization parameter of minimax grids                               1.0E-06
 
 AUTO_RI| Number of automatic RI functions for χ, ε, W:                      454
 AUTO_RI| Total RI basis optimization time:                                1.5 s
  Decoupling Energy:                                               0.0000003454
 
 SCF direct band gap (eV)                                                   5.29
 Max. SCF eigval diff. (eV)                                               320.28
 E-Range for minimax grid                                                  60.49
 Number of Padé parameters for analytic continuation:                         16
 
 RI-RS basis radii (Å):
     Kind  Elem     r_AO (Å)     r_RI (Å)
        1    S         8.7963        6.1196
        2    F        12.6792        8.0227
 
 Started RI-RS grid optimization
 RI-RS grid initial normalized error                          3.160170211044E-04
 RI-RS grid optimization completed, execution time:                       58.2 s
 Normalized 3C error:                                                    2.4E-08
 Maximum absolute 3C error:                                              1.1E-03
 Optimized points outside molecular Voronoi cells:                           140 / 1450
 Total grid points used for RI-RS:                                          1450
 
 RI-RS grid row-blocks of ϕ_μ(r_l)                                            50
 RI-RS grid points per block (max)                                            32
 
 Percentage of non-zero matrix elements in ϕ_μ(r_l)                     100.00 %
 
 RI-RS memory estimate per MPI process:
   Available memory per process (system)                                52.38 GB
   Required for Z_lP (dense upper bound; actual is sparser)              0.00 GB
   Required for χ, W, Σ panels (peak per panel step)                     0.01 GB
   Required for Z_lP solve peak (D_local+ϕ, worst-case atom)             0.03 GB
   Worst-case local-grid number of grid points:                             1450
   Worst-case memory D_local:                                            0.02 GB
 
 Started computing Z_lP
 Computed Z_lP (MPI rank 0) for atom          1 /  1,    Execution time    0.2 s
 Computed Z_lP (all MPI ranks) for all atoms,            Execution time    0.2 s

 Memory per MPI process after computing Z_lP:
 Available memory per MPI process                               52.3 GB
 Used memory per MPI process                                     1.0 GB
 Number of batches for χ, Σ matrices                                           1
 
 Percentage of non-zero matrix elements in Z_lP                         100.00 %
 Percentage of non-zero matrix elements in G_ll', χ_ll', W_ll'          100.00 %
 Percentage of non-zero matrix elements in χ_PQ for time point 1        100.00 %
 
 Computed χ(iτ,k=0) for time point            1 / 30,    Execution time    0.0 s
 Computed χ(iτ,k=0) for time point            2 / 30,    Execution time    0.0 s
 Computed χ(iτ,k=0) for time point            3 / 30,    Execution time    0.0 s
 Computed χ(iτ,k=0) for time point            4 / 30,    Execution time    0.0 s
 Computed χ(iτ,k=0) for time point            5 / 30,    Execution time    0.0 s
 Computed χ(iτ,k=0) for time point            6 / 30,    Execution time    0.0 s
 Computed χ(iτ,k=0) for time point            7 / 30,    Execution time    0.0 s
 Computed χ(iτ,k=0) for time point            8 / 30,    Execution time    0.0 s
 Computed χ(iτ,k=0) for time point            9 / 30,    Execution time    0.0 s
 Computed χ(iτ,k=0) for time point           10 / 30,    Execution time    0.0 s
 Computed χ(iτ,k=0) for time point           11 / 30,    Execution time    0.0 s
 Computed χ(iτ,k=0) for time point           12 / 30,    Execution time    0.0 s
 Computed χ(iτ,k=0) for time point           13 / 30,    Execution time    0.0 s
 Computed χ(iτ,k=0) for time point           14 / 30,    Execution time    0.0 s
 Computed χ(iτ,k=0) for time point           15 / 30,    Execution time    0.0 s
 Computed χ(iτ,k=0) for time point           16 / 30,    Execution time    0.0 s
 Computed χ(iτ,k=0) for time point           17 / 30,    Execution time    0.0 s
 Computed χ(iτ,k=0) for time point           18 / 30,    Execution time    0.0 s
 Computed χ(iτ,k=0) for time point           19 / 30,    Execution time    0.0 s
 Computed χ(iτ,k=0) for time point           20 / 30,    Execution time    0.0 s
 Computed χ(iτ,k=0) for time point           21 / 30,    Execution time    0.0 s
 Computed χ(iτ,k=0) for time point           22 / 30,    Execution time    0.0 s
 Computed χ(iτ,k=0) for time point           23 / 30,    Execution time    0.0 s
 Computed χ(iτ,k=0) for time point           24 / 30,    Execution time    0.0 s
 Computed χ(iτ,k=0) for time point           25 / 30,    Execution time    0.0 s
 Computed χ(iτ,k=0) for time point           26 / 30,    Execution time    0.0 s
 Computed χ(iτ,k=0) for time point           27 / 30,    Execution time    0.0 s
 Computed χ(iτ,k=0) for time point           28 / 30,    Execution time    0.0 s
 Computed χ(iτ,k=0) for time point           29 / 30,    Execution time    0.0 s
 Computed χ(iτ,k=0) for time point           30 / 30,    Execution time    0.0 s
 
 Cholesky decomposition failed, using diagonalization.
 Discarded eigenmodes:                                                         1
 Computed W(iτ),                                         Execution time    0.5 s
 
 Computed Σ^x(k=0),                                      Execution time    0.0 s
 
 Computed Σ^c(iτ) for time point              1 / 30,    Execution time    0.0 s
 Computed Σ^c(iτ) for time point              2 / 30,    Execution time    0.0 s
 Computed Σ^c(iτ) for time point              3 / 30,    Execution time    0.0 s
 Computed Σ^c(iτ) for time point              4 / 30,    Execution time    0.0 s
 Computed Σ^c(iτ) for time point              5 / 30,    Execution time    0.0 s
 Computed Σ^c(iτ) for time point              6 / 30,    Execution time    0.0 s
 Computed Σ^c(iτ) for time point              7 / 30,    Execution time    0.0 s
 Computed Σ^c(iτ) for time point              8 / 30,    Execution time    0.0 s
 Computed Σ^c(iτ) for time point              9 / 30,    Execution time    0.0 s
 Computed Σ^c(iτ) for time point             10 / 30,    Execution time    0.0 s
 Computed Σ^c(iτ) for time point             11 / 30,    Execution time    0.0 s
 Computed Σ^c(iτ) for time point             12 / 30,    Execution time    0.0 s
 Computed Σ^c(iτ) for time point             13 / 30,    Execution time    0.0 s
 Computed Σ^c(iτ) for time point             14 / 30,    Execution time    0.0 s
 Computed Σ^c(iτ) for time point             15 / 30,    Execution time    0.0 s
 Computed Σ^c(iτ) for time point             16 / 30,    Execution time    0.0 s
 Computed Σ^c(iτ) for time point             17 / 30,    Execution time    0.0 s
 Computed Σ^c(iτ) for time point             18 / 30,    Execution time    0.0 s
 Computed Σ^c(iτ) for time point             19 / 30,    Execution time    0.0 s
 Computed Σ^c(iτ) for time point             20 / 30,    Execution time    0.0 s
 Computed Σ^c(iτ) for time point             21 / 30,    Execution time    0.0 s
 Computed Σ^c(iτ) for time point             22 / 30,    Execution time    0.0 s
 Computed Σ^c(iτ) for time point             23 / 30,    Execution time    0.0 s
 Computed Σ^c(iτ) for time point             24 / 30,    Execution time    0.0 s
 Computed Σ^c(iτ) for time point             25 / 30,    Execution time    0.0 s
 Computed Σ^c(iτ) for time point             26 / 30,    Execution time    0.0 s
 Computed Σ^c(iτ) for time point             27 / 30,    Execution time    0.0 s
 Computed Σ^c(iτ) for time point             28 / 30,    Execution time    0.0 s
 Computed Σ^c(iτ) for time point             29 / 30,    Execution time    0.0 s
 Computed Σ^c(iτ) for time point             30 / 30,    Execution time    0.0 s
 
 SCF valence band maximum (eV):                                           -8.246
 SCF conduction band minimum (eV):                                        -2.951
 SCF indirect band gap (eV):                                               5.295
 SCF direct band gap (eV):                                                 5.295
 
 G0W0 valence band maximum (eV):                                         -11.577
 G0W0 conduction band minimum (eV):                                        0.699
 G0W0 indirect band gap (eV):                                             12.276
 G0W0 direct band gap (eV):                                               12.276
 
 Hartree-Fock with SCF orbitals valence band maximum (eV):               -13.609
 Hartree-Fock with SCF orbitals conduction band minimum (eV)               2.495
 Hartree-Fock with SCF orbitals indirect band gap (eV):                   16.104
 Hartree-Fock with SCF orbitals direct band gap (eV):                     16.104

 ENERGY| Total FORCE_EVAL ( QS ) energy [hartree]           -107.166735824555076

 -------------------------------------------------------------------------------
 -                                                                             -
 -                                DBCSR STATISTICS                             -
 -                                                                             -
 -------------------------------------------------------------------------------
 COUNTER                                    TOTAL       BLAS       SMM       ACC
 flops    17 x    17 x    17                 9826       0.0%    100.0%      0.0%     
 flops    17 x    17 x    29               251430       0.0%    100.0%      0.0%     
 flops    29 x    17 x    17               335240       0.0%    100.0%      0.0%     
 flops     2 x    83 x     2               341960       0.0%    100.0%      0.0%     
 flops     2 x    88 x     2               358336       0.0%    100.0%      0.0%     
 flops     2 x     2 x    83               365200       0.0%    100.0%      0.0%     
 flops     2 x    93 x     2               380184       0.0%    100.0%      0.0%     
 flops     2 x     2 x    88               387200       0.0%    100.0%      0.0%     
 flops     2 x    95 x     2               779000       0.0%    100.0%      0.0%     
 flops     2 x     2 x    95               836000       0.0%    100.0%      0.0%     
 flops    29 x    29 x    17               857820       0.0%    100.0%      0.0%     
 flops     2 x    29 x     2              1044928       0.0%    100.0%      0.0%     
 flops     2 x     2 x    29              2779360       0.0%    100.0%      0.0%     
 flops    83 x    83 x     2              2893380       0.0%    100.0%      0.0%     
 flops    83 x    88 x     2              2980032       0.0%    100.0%      0.0%     
 flops    88 x    83 x     2              3067680       0.0%    100.0%      0.0%     
 flops    83 x    93 x     2              3149352       0.0%    100.0%      0.0%     
 flops    88 x    88 x     2              3159552       0.0%    100.0%      0.0%     
 flops     2 x    83 x    83              3168940       0.0%    100.0%      0.0%     
 flops    88 x    93 x     2              3339072       0.0%    100.0%      0.0%     
 flops     2 x    83 x    88              3359840       0.0%    100.0%      0.0%     
 flops     2 x    88 x    83              3359840       0.0%    100.0%      0.0%     
 flops     2 x    93 x    83              3550740       0.0%    100.0%      0.0%     
 flops     2 x    88 x    88              3562240       0.0%    100.0%      0.0%     
 flops     2 x    93 x    88              3764640       0.0%    100.0%      0.0%     
 flops    29 x    17 x    29              5718800       0.0%    100.0%      0.0%     
 flops    83 x    95 x     2              6560320       0.0%    100.0%      0.0%     
 flops    95 x    83 x     2              6623400       0.0%    100.0%      0.0%     
 flops    95 x    88 x     2              6821760       0.0%    100.0%      0.0%     
 flops    88 x    95 x     2              6955520       0.0%    100.0%      0.0%     
 flops    95 x    93 x     2              7209360       0.0%    100.0%      0.0%     
 flops     2 x    83 x    95              7254200       0.0%    100.0%      0.0%     
 flops     2 x    95 x    83              7254200       0.0%    100.0%      0.0%     
 flops     2 x    95 x    88              7691200       0.0%    100.0%      0.0%     
 flops     2 x    88 x    95              7691200       0.0%    100.0%      0.0%     
 flops     2 x    93 x    95              8128200       0.0%    100.0%      0.0%     
 flops    95 x    95 x     2             15017600       0.0%    100.0%      0.0%     
 flops    29 x    29 x     2             15726700       0.0%    100.0%      0.0%     
 flops     2 x    95 x    95             16606000       0.0%    100.0%      0.0%     
 flops     2 x    29 x    29             40788500       0.0%    100.0%      0.0%     
 flops    32 x    83 x     2             51154560       0.0%    100.0%      0.0%     
 flops     2 x    83 x    32             51749504       0.0%    100.0%      0.0%     
 flops     2 x    32 x    83             52588800       0.0%    100.0%      0.0%     
 flops    32 x    88 x     2             54213632       0.0%    100.0%      0.0%     
 flops    32 x     2 x    83             54607360       0.0%    100.0%      0.0%     
 flops     2 x    88 x    32             54754304       0.0%    100.0%      0.0%     
 flops     2 x    32 x    88             55756800       0.0%    100.0%      0.0%     
 flops    32 x    93 x     2             57305856       0.0%    100.0%      0.0%     
 flops    32 x     2 x    88             57671680       0.0%    100.0%      0.0%     
 flops     2 x    93 x    32             57924864       0.0%    100.0%      0.0%     
 flops    32 x    95 x     2            117052160       0.0%    100.0%      0.0%     
 flops     2 x    95 x    32            118268160       0.0%    100.0%      0.0%     
 flops     2 x    32 x    95            120384000       0.0%    100.0%      0.0%     
 flops    32 x     2 x    95            124700800       0.0%    100.0%      0.0%     
 flops    32 x    29 x     2            155302656       0.0%    100.0%      0.0%     
 flops     2 x    29 x    32            158309376       0.0%    100.0%      0.0%     
 flops     2 x    32 x    29            404960640       0.0%    100.0%      0.0%     
 flops    32 x     2 x    29            405072000       0.0%    100.0%      0.0%     
 flops    83 x    83 x    32            436487040       0.0%    100.0%      0.0%     
 flops    32 x    83 x    83            456327360       0.0%    100.0%      0.0%     
 flops    83 x    88 x    32            461379072       0.0%    100.0%      0.0%     
 flops    88 x    83 x    32            462781440       0.0%    100.0%      0.0%     
 flops    32 x    83 x    88            483816960       0.0%    100.0%      0.0%     
 flops    32 x    88 x    83            483816960       0.0%    100.0%      0.0%     
 flops    83 x    93 x    32            487593792       0.0%    100.0%      0.0%     
 flops    88 x    88 x    32            489172992       0.0%    100.0%      0.0%     
 flops    32 x    93 x    83            511306560       0.0%    100.0%      0.0%     
 flops    32 x    88 x    88            512962560       0.0%    100.0%      0.0%     
 flops    88 x    93 x    32            516966912       0.0%    100.0%      0.0%     
 flops    32 x    93 x    88            542108160       0.0%    100.0%      0.0%     
 flops    83 x    95 x    32            998177920       0.0%    100.0%      0.0%     
 flops    95 x    83 x    32            999187200       0.0%    100.0%      0.0%     
 flops    32 x    83 x    95           1044604800       0.0%    100.0%      0.0%     
 flops    32 x    95 x    83           1044604800       0.0%    100.0%      0.0%     
 flops    95 x    88 x    32           1056168960       0.0%    100.0%      0.0%     
 flops    88 x    95 x    32           1058309120       0.0%    100.0%      0.0%     
 flops    32 x    95 x    88           1107532800       0.0%    100.0%      0.0%     
 flops    32 x    88 x    95           1107532800       0.0%    100.0%      0.0%     
 flops    95 x    93 x    32           1116178560       0.0%    100.0%      0.0%     
 flops    32 x    93 x    95           1170460800       0.0%    100.0%      0.0%     
 flops    95 x    95 x    32           2284985600       0.0%    100.0%      0.0%     
 flops    29 x    29 x    32           2351839680       0.0%    100.0%      0.0%     
 flops    32 x    95 x    95           2391264000       0.0%    100.0%      0.0%     
 flops    32 x    29 x    29           5873544000       0.0%    100.0%      0.0%     
 flops    32 x    83 x    32           7667298304       0.0%    100.0%      0.0%     
 flops    32 x    32 x    83           7863459840       0.0%    100.0%      0.0%     
 flops    32 x    88 x    32           8101969920       0.0%    100.0%      0.0%     
 flops    32 x    32 x    88           8304721920       0.0%    100.0%      0.0%     
 flops    32 x    93 x    32           8562690048       0.0%    100.0%      0.0%     
 flops    32 x    95 x    32          17504368640       0.0%    100.0%      0.0%     
 flops    32 x    32 x    95          17956915200       0.0%    100.0%      0.0%     
 flops    32 x    29 x    32          23419334656       0.0%    100.0%      0.0%     
 flops    32 x    32 x    29          58330368000       0.0%    100.0%      0.0%     
 flops inhomo. stacks                 17268197120     100.0%      0.0%      0.0%
 flops total                       206.794340E+09       8.4%     91.6%      0.0%
 flops max/rank                     43.878694E+09       8.0%     92.0%      0.0%
 matmuls inhomo. stacks                     68159     100.0%      0.0%      0.0%
 matmuls total                            2481603       2.7%     97.3%      0.0%
 number of processed stacks                110008       2.6%     97.4%      0.0%
 average stack size                                    23.9      22.5       0.0
 marketing flops                   274.989548E+09
 -------------------------------------------------------------------------------
 # multiplications                            505
 max memory usage/rank              21.707170E+09
 # max total images/rank                        5
 # max 3D layers                                1
 # MPI messages exchanged                   10100
 MPI messages size (bytes):
  total size                         8.559940E+09
  min size                           0.000000E+00
  max size                           3.712000E+06
  average size                     847.518750E+03
 MPI breakdown and total messages size (bytes):
             size <=      128                1132                        0
       128 < size <=     8192                  64                   245888
      8192 < size <=    32768                  24                   473280
     32768 < size <=   131072                 160                  5382400
    131072 < size <=  4194304                8720               8553894976
   4194304 < size <= 16777216                   0                        0
  16777216 < size                               0                        0
 -------------------------------------------------------------------------------

 *** WARNING in dbcsr_mm.F:301 :: Using a non-square number of MPI ranks ***
 *** might lead to poor performance. Used ranks: 5 Suggested: 4 9        ***

 -------------------------------------------------------------------------------
 -                                                                             -
 -                      DBCSR MESSAGE PASSING PERFORMANCE                      -
 -                                                                             -
 -------------------------------------------------------------------------------
 ROUTINE             CALLS      AVE VOLUME [Bytes]
 MP_Bcast               94                     12.
 MP_Allreduce         2310                     38.
 MP_Alltoall          3385                  41281.
 MP_ISend             7840                 250797.
 MP_IRecv             7800                 236019.
 -------------------------------------------------------------------------------

 -------------------------------------------------------------------------------
 -                                                                             -
 -                                GRID STATISTICS                              -
 -                                                                             -
 -------------------------------------------------------------------------------
 LP    KERNEL             BACKEND                              COUNT     PERCENT
 6     collocate ortho    CPU                                    144      49.15%
 6     integrate ortho    CPU                                    144      49.15%
 0     collocate general  CPU                                      5       1.71%
 -------------------------------------------------------------------------------

 -------------------------------------------------------------------------------
 -                                                                             -
 -                          OFFLOAD MEMPOOL STATISTICS                         -
 -                                                                             -
 -------------------------------------------------------------------------------
 Memory consumption                Number of allocations  Used [MiB]  Size [MiB]
 Host                                                  6         133    21896835
 -------------------------------------------------------------------------------

 MEMORY| Estimated peak process memory [MiB]                                3299

 -------------------------------------------------------------------------------
 -                                                                             -
 -                         MESSAGE PASSING PERFORMANCE                         -
 -                                                                             -
 -------------------------------------------------------------------------------

 ROUTINE             CALLS      AVE VOLUME [Bytes]
 MP_Group                5
 MP_Bcast              417                 301335.
 MP_Allreduce          729                  14976.
 MP_Sync                11
 MP_Alltoall            44              133881196.
 MP_SendRecv            24                3758933.
 MP_ISendRecv           24                3758933.
 MP_Wait                69
 MP_comm_split          11
 MP_ISend               35               11931429.
 MP_IRecv               35               11931429.
 -------------------------------------------------------------------------------


 -------------------------------------------------------------------------------
 -                                                                             -
 -                           R E F E R E N C E S                               -
 -                                                                             -
 -------------------------------------------------------------------------------
 
 CP2K version 2026.2 (Development Version), the CP2K developers group (2026).
 CP2K is freely available from https://www.cp2k.org/ .
 
 M. Iannuzzi, J. Wilhelm, F. Stein, A. Bussy, H. Elgabarty, D. Golze, A. Hehn, 
 M. Graml, S. Marek, B. Sertcan Gökmen, C. Schran, H. Forbert, R. Z. 
 Khaliullin, A. Kozhevnikov, M. Taillefumier, R. Meli, V. V. Rybkin, M. Brehm, 
 R. Schade, O. Schütt, J. V. Pototschnig, H. Mirhosseini, A. Knüpfer, D. Marx, 
 M. Krack, J. Hutter, T. D. Kühne.
 J. Phys. Chem. B 130, 1237-1310 (2026).
 The CP2K Program Package Made Simple.
 https://doi.org/10.1021/acs.jpcb.5c05851

 M. Graml, K. Zollner, D. Hernangómez-Pérez, P. E. Faria Junior, J. Wilhelm.
 J. Chem. Theory Comput. 20, 2202-2208 (2024).
 Low-scaling GW algorithm applied to twisted transition-metal dichalcogenide 
 heterobilayers.
 https://doi.org/10.1021/acs.jctc.3c01230

 T. D. Kühne, M. Iannuzzi, M. Del Ben, V. V. Rybkin, P. Seewald, F. Stein, T. 
 Laino, R. Z. Khaliullin, O. Schütt, F. Schiffmann, D. Golze, J. Wilhelm, S. 
 Chulkov, M. H. Bani-Hashemian, V. Weber, U. Borstnik, M. Taillefumier, A. S. 
 Jakobovits, A. Lazzaro, H. Pabst, T. Müller, R. Schade, M. Guidon, S. 
 Andermatt, N. Holmberg, G. K. Schenter, A. Hehn, A. Bussy, F. Belleflamme, G. 
 Tabacchi, A. Glöß, M. Lass, I. Bethune, C. J. Mundy, C. Plessl, M. Watkins, 
 J. VandeVondele, M. Krack, J. Hutter.
 J. Chem. Phys. 152, 194103 (2020).
 CP2K: An electronic structure and molecular dynamics software package - 
 Quickstep: Efficient and accurate electronic structure calculations.
 https://doi.org/10.1063/5.0007045

 O. Schuett, P. Messmer, J. Hutter, J. VandeVondele.
 Electronic Structure Calculations on Graphics Processing Units, 173-190 (2016).
 GPU-Accelerated Sparse Matrix-Matrix Multiplication for Linear Scaling Density 
 Functional Theory.
 https://doi.org/10.1002/9781118670712.ch8

 U. Borstnik, J. VandeVondele, V. Weber, J. Hutter.
 Parallel Comput. 40, 47-58 (2014).
 Sparse matrix multiplication: The distributed block-compressed sparse row 
 library.
 https://doi.org/10.1016/j.parco.2014.03.012

 J. VandeVondele, J. Hutter.
 J. Chem. Phys. 127, 114105 (2007).
 Gaussian basis sets for accurate calculations on molecular systems in gas and 
 condensed phases.
 https://doi.org/10.1063/1.2770708

 J. VandeVondele, M. Krack, F. Mohamed, M. Parrinello, T. Chassaing, J. Hutter.
 Comput. Phys. Commun. 167, 103-128 (2005).
 QUICKSTEP: Fast and accurate density functional calculations using a mixed 
 Gaussian and plane waves approach.
 https://doi.org/10.1016/j.cpc.2004.12.014

 M. Krack.
 Theor. Chem. Acc. 114, 145-152 (2005).
 Pseudopotentials for H to Kr optimized for gradient-corrected 
 exchange-correlation functionals.
 https://doi.org/10.1007/s00214-005-0655-y

 M. Frigo, S. G. Johnson.
 Proc. IEEE 93, 216-231 (2005).
 The design and implementation of FFTW3.
 https://doi.org/10.1109/JPROC.2004.840301

 J. VandeVondele, J. Hutter.
 J. Chem. Phys. 118, 4365-4369 (2003).
 An efficient orbital transformation method for electronic structure 
 calculations.
 https://doi.org/10.1063/1.1543154

 C. Hartwigsen, S. Goedecker, J. Hutter.
 Phys. Rev. B 58, 3641-3662 (1998).
 Relativistic separable dual-space Gaussian pseudopotentials from H to Rn.
 https://doi.org/10.1103/PhysRevB.58.3641

 G. Lippert, J. Hutter, M. Parrinello.
 Mol. Phys. 92, 477-487 (1997).
 A hybrid Gaussian and plane wave density functional scheme.
 https://doi.org/10.1080/002689797170220

 S. Goedecker, M. Teter, J. Hutter.
 Phys. Rev. B 54, 1703-1710 (1996).
 Separable dual-space Gaussian pseudopotentials.
 https://doi.org/10.1103/PhysRevB.54.1703

 J. P. Perdew, K. Burke, M. Ernzerhof.
 Phys. Rev. Lett. 77, 3865-3868 (1996).
 Generalized gradient approximation made simple.
 https://doi.org/10.1103/PhysRevLett.77.3865

 P. E. Blöchl.
 J. Chem. Phys. 103, 7422-7428 (1995).
 Electrostatic decoupling of periodic images of plane‐wave‐expanded 
 densities and derived atomic point charges.
 https://doi.org/10.1063/1.470314

 R. H. Byrd, P. H. Lu, J. Nocedal, C. Y. Zhu.
 SIAM J. Sci. Comput. 16, 1190-1208 (1995).
 A Limited Memory Algorithm for Bound Constrained Optimization.
 https://doi.org/10.1137/0916069


 -------------------------------------------------------------------------------
 -                                                                             -
 -                                T I M I N G                                  -
 -                                                                             -
 -------------------------------------------------------------------------------
 SUBROUTINE                       CALLS  ASD         SELF TIME        TOTAL TIME MAXRANK
                                MAXIMUM       AVERAGE  MAXIMUM  AVERAGE  MAXIMUM
 CP2K                                 1  1.0    0.007    0.016   71.553   71.553       0
 qs_energies                          1  2.0    0.000    0.000   70.258   70.258       0
 qs_energies_properties               1  3.0    0.000    0.000   66.481   66.481       2
 post_scf_bandstructure               1  4.0    0.000    0.000   66.481   66.481       3
 run_gw                               1  5.0    0.000    0.000   66.450   66.461       3
 gw_calc_ri_rs_non_periodic           1  6.0    0.000    0.000   63.859   64.033       3
 optimize_ri_rs_grid                  1  7.0    0.000    0.000   61.563   61.737       0
 rirs_grid_LBFGS                      1  8.0    0.831    1.074   58.719   59.513       4
 evaluate_rirs_grid_cluster          76  9.0    3.521    4.397   45.344   57.185       3
 mp_sum_d                           533  2.6   12.583   29.986   12.583   29.986       1
 rirs_cluster_gradient_products      76 10.0   11.849   14.872   11.849   14.872       0
 rirs_cluster_gradient_coordina      76 10.0   12.357   14.735   12.357   14.735       4
 rirs_cluster_D_ll                   76 10.0    8.018   11.476    8.018   11.476       3
 rirs_cluster_AO_products            76 10.0    3.531    4.826    3.531    4.826       3
 rirs_cluster_residual               76 10.0    3.144    3.907    3.144    3.907       4
 rirs_cluster_d_lP                   76 10.0    2.924    3.767    2.924    3.767       4
 create_and_init_bs_env_for_gw        1  6.0    0.004    0.005    2.591    2.866       3
 scf_env_do_scf                       1  3.0    0.000    0.000    2.771    2.771       0
 rirs_grid_build_clusters             1  8.0    1.288    1.614    2.144    2.689       3
 qs_ks_build_kohn_sham_matrix         2  7.5    0.001    0.001    2.684    2.684       3
 fft_wrap_pw1pw2                     28 10.0    0.001    0.001    2.437    2.503       3
 fft_wrap_pw1pw2_300                 16 11.2    0.132    0.155    2.294    2.374       3
 init_scf_loop                        1  4.0    0.000    0.000    2.068    2.068       1
 qs_ks_update_qs_env                  2  5.0    0.000    0.000    2.063    2.063       0
 rebuild_ks_matrix                    1  6.0    0.000    0.000    2.063    2.063       0
 fft3d_ps                            28 12.0    1.028    1.143    1.742    1.904       3
 generate_auto_ri_basis               1  7.0    0.000    0.000    1.530    1.530       3
 qs_vxc_create                        2  8.5    0.000    0.000    1.403    1.431       3
 xc_vxc_pw_create                     1  9.0    0.029    0.033    1.403    1.431       2
 qs_rho_update_rho_low                2  5.0    0.000    0.000    1.402    1.402       3
 calculate_rho_elec                   2  6.0    0.040    0.040    1.402    1.402       3
 dbcsr_multiply_generic             505  9.6    0.013    0.014    1.268    1.301       3
 abc_contract_xsmm                 3190  9.3    1.030    1.263    1.030    1.263       3
 xc_pw_derive                         6 11.0    0.000    0.000    1.044    1.120       3
 mp_alltoall_z22v                    28 14.0    0.461    1.107    0.461    1.107       4
 qs_init_subsys                       1  2.0    0.001    0.001    1.043    1.044       0
 qs_env_setup                         1  3.0    0.000    0.000    1.041    1.043       4
 qs_env_rebuild_pw_env                2  3.5    0.000    0.000    1.041    1.042       3
 pw_env_rebuild                       1  5.0    0.000    0.000    1.041    1.042       2
 pw_grid_setup                        5  5.2    0.000    0.000    1.034    1.036       3
 pw_grid_setup_internal               5  6.2    0.017    0.017    1.034    1.036       3
 compute_Sigma_c_and_QP_energie       1  7.0    0.000    0.000    0.984    0.994       3
 compute_Sigma_c                      1  8.0    0.001    0.001    0.958    0.958       0
 pw_grid_sort                         5  7.2    0.619    0.628    0.906    0.918       0
 contract_grid_panels_sigma_c        30  9.0    0.001    0.001    0.892    0.893       3
 mp_bcast_dm                         17  9.3    0.538    0.876    0.538    0.876       1
 initialize_ri_rs_grid                1  8.0    0.412    0.762    0.700    0.874       0
 compute_AB_optimized_RI_basis        1  8.0    0.000    0.000    0.847    0.847       2
 compute_AB_optimized_RI_basis_       1  9.0    0.000    0.000    0.760    0.846       1
 compute_B_PQ_AB                      2 10.0    0.191    0.211    0.732    0.816       3
 density_rs2pw                        2  7.0    0.000    0.000    0.801    0.816       3
 multiply_cannon                    505 10.6    0.024    0.026    0.741    0.785       3
 xc_pw_divergence                     1 10.0    0.000    0.000    0.701    0.756       1
 init_scf_run                         1  3.0    0.000    0.000    0.745    0.745       4
 scf_env_initial_rho_setup            1  4.0    0.000    0.000    0.745    0.745       0
 xc_rho_set_and_dset_create           1 10.0    0.024    0.035    0.653    0.710       2
 scf_env_do_scf_inner_loop            1  4.0    0.000    0.000    0.700    0.703       0
 yz_to_x                             14 12.2    0.121    0.133    0.376    0.686       1
 multiply_cannon_loop               505 11.6    0.017    0.021    0.639    0.668       3
 compute_V_xc                         1  7.0    0.000    0.000    0.622    0.622       3
 setup_time_and_frequency_minim       1  7.0    0.000    0.000    0.371    0.620       0
 build_minimax_time_frequency_g       1  8.0    0.000    0.000    0.371    0.620       2
 fit_l_sq_weights                     3  9.0    0.371    0.620    0.371    0.620       3
 x_to_yz                             14 13.8    0.130    0.155    0.336    0.590       3
 get_mat_chi_Gamma_tau                1  7.0    0.000    0.001    0.570    0.570       0
 grid_collocate_task_list             2  7.0    0.544    0.565    0.544    0.565       0
 contract_grid_panels                31  8.0    0.001    0.001    0.557    0.559       3
 sum_up_and_integrate                 2  8.5    0.000    0.000    0.528    0.555       3
 integrate_v_rspace                   2  9.5    0.000    0.000    0.520    0.549       1
 potential_pw2rs                      2 10.5    0.002    0.003    0.508    0.536       3
 compute_W                            1  7.0    0.000    0.000    0.484    0.484       1
 contract_B_PQ                       10 11.8    0.380    0.423    0.414    0.461       0
 mp_sum_dm                           22 10.6    0.107    0.453    0.107    0.453       4
 compute_AA_optimized_RI_basis        1  8.0    0.000    0.000    0.414    0.414       3
 multiply_cannon_multrec           2525 12.6    0.369    0.386    0.372    0.389       1
 qs_ks_ddapc                          2  8.5    0.000    0.000    0.376    0.387       3
 make_m2s                          1010 10.6    0.007    0.007    0.345    0.372       3
 pw_poisson_solve                     2  8.5    0.000    0.000    0.329    0.342       1
 make_images                       1010 11.6    0.068    0.078    0.314    0.336       3
 mp_waitall_1                     20234 13.9    0.235    0.327    0.235    0.327       4
 initialize_auto_ri_integrals         2  9.0    0.062    0.311    0.311    0.311       0
 compute_fm_W_freq                   30  8.0    0.000    0.000    0.307    0.310       3
 cp_fm_gemm                         434 10.5    0.294    0.299    0.294    0.299       2
 parallel_gemm_fm_gemm              431  9.6    0.000    0.000    0.294    0.298       3
 sort_shells                          5  8.2    0.287    0.290    0.287    0.290       0
 compute_M_pq_inv_and_V_pq            1  8.0    0.000    0.000    0.269    0.269       0
 qs_energies_init_hamiltonians        1  3.0    0.000    0.000    0.260    0.260       0
 qs_env_update_s_mstruct              1  4.0    0.000    0.000    0.256    0.256       4
 pw_derive                           12 11.2    0.216    0.235    0.216    0.235       3
 calculate_rho_core                   1  5.0    0.021    0.022    0.226    0.232       2
 compute_contracted_RI_matrix         2  9.0    0.000    0.000    0.231    0.232       4
 compute_B_PQ_exchange                5 10.8    0.000    0.000    0.207    0.231       3
 compute_B_PQ_transition              5 10.8    0.000    0.000    0.207    0.231       1
 compute_optimized_RI_matrix_bl       6 10.0    0.035    0.040    0.193    0.229       3
 pw_gather_p                         14 11.2    0.214    0.228    0.214    0.228       1
 compute_Z_lP                         1  7.0    0.000    0.000    0.228    0.228       4
 compute_Z_lP_auto_ri                 1  8.0    0.000    0.000    0.228    0.228       3
 multiply_cannon_metrocomm3        2525 12.6    0.004    0.004    0.165    0.227       3
 create_qs_kind_set                   1  2.0    0.000    0.000    0.220    0.222       4
 read_qs_kind                         2  3.0    0.098    0.103    0.220    0.222       0
 pw_copy                             28 10.5    0.210    0.220    0.210    0.220       1
 pw_scatter_p                        14 12.8    0.203    0.219    0.203    0.219       1
 transfer_rs2pw                       9  7.8    0.000    0.000    0.187    0.217       1
 compute_M_PQ_AB                    128 11.0    0.000    0.000    0.169    0.202       3
 compute_M_PQ                       128 12.0    0.000    0.000    0.169    0.202       1
 int_operators_r12_ab_os            128 13.0    0.000    0.000    0.168    0.201       1
 int_operator_ab_os_low             128 14.0    0.065    0.078    0.168    0.201       1
 pw_poisson_set                       3  8.3    0.000    0.000    0.181    0.194       3
 compute_d_lp_auto_ri_batch           1  9.0    0.000    0.000    0.172    0.185       0
 compute_d_lp_auto_ri_atom            1 10.0    0.059    0.078    0.171    0.184       0
 transfer_rs2pw_300                   3  8.3    0.071    0.077    0.143    0.173       0
 fft_wrap_pw1pw2_100                  4 10.8    0.007    0.010    0.118    0.163       3
 make_images_data                  1010 12.6    0.007    0.007    0.134    0.152       3
 pw_integral_ab_c1d_c1d_gs            4 10.0    0.134    0.137    0.140    0.152       1
 transfer_pw2rs                       8 11.5    0.000    0.000    0.151    0.151       3
 hybrid_alltoall_any               1114 13.4    0.078    0.101    0.117    0.140       3
 xc_functional_eval                   1 11.0    0.000    0.000    0.086    0.132       1
 pbe_lda_eval                         1 12.0    0.086    0.132    0.086    0.132       2
 mp_sum_l                          1708 10.5    0.071    0.130    0.071    0.130       4
 mp_waitany                          35 11.0    0.101    0.127    0.101    0.127       4
 dbcsr_finalize                    2095 10.8    0.012    0.014    0.114    0.127       3
 parser_read_line                 57619  4.0    0.010    0.010    0.122    0.125       0
 cp_ddapc_apply_CD                    2  9.5    0.000    0.000    0.098    0.124       0
 copy_dbcsr_to_fm                   104  9.5    0.001    0.001    0.084    0.122       2
 check_for_restart_files              1  7.0    0.060    0.120    0.060    0.120       2
 parser_read_line_low                60  5.0    0.015    0.062    0.112    0.116       0
 broadcast_input_information         60  6.0    0.018    0.025    0.097    0.113       3
 transfer_pw2rs_300                   2 12.5    0.052    0.057    0.106    0.108       0
 calculate_norms                   4250 12.6    0.076    0.100    0.076    0.100       3
 pw_axpy                             25  6.6    0.088    0.095    0.088    0.095       0
 dbcsr_desymmetrize_deep            104 10.5    0.002    0.002    0.052    0.093       3
 mp_alltoall_i22                    369 11.4    0.052    0.092    0.052    0.092       4
 dbcsr_merge_all                   1825 11.9    0.037    0.045    0.082    0.091       1
 pw_copy_to_array                    14 11.2    0.086    0.090    0.086    0.090       0
 cp_fm_cholesky_invert               31  9.0    0.085    0.088    0.085    0.088       0
 pw_grid_assign                       5  7.2    0.078    0.080    0.080    0.080       2
 mp_allgather_i34                   505 11.6    0.039    0.074    0.039    0.074       4
 operator2                        64532 15.0    0.062    0.073    0.062    0.073       1
 -------------------------------------------------------------------------------

 The number of warnings for this run is : 1
 
 -------------------------------------------------------------------------------
  **** **** ******  **  PROGRAM ENDED AT                 2026-10-03 19:15:10.837
 ***** ** ***  *** **   PROGRAM RAN ON                                  n2cn0514
 **    ****   ******    PROGRAM RAN BY                                  eprop2d1
 ***** **    ** ** **   PROGRAM PROCESS ID                               1212240
  **** **  *******  **  PROGRAM STOPPED IN /scratch/hpc-prf-metdyn/eprop2d1_Jan/
                                           53_benchmark_RI_opt/418_gw100_fig5_fu
                                           ll_epsfilter_1e12_20261002/calculatio
                                           ns/rc3p0/ri4_rs10/59_SF4
