 DBCSR| CPU Multiplication driver                                           XSMM (U)
 DBCSR| Multrec recursion limit                                              512 (U)
 DBCSR| Multiplication stack size                                           1000 (D)
 DBCSR| Maximum elements for images                                    UNLIMITED (U)
 DBCSR| Multiplicative factor virtual images                                   1 (U)
 DBCSR| Use multiplication densification                                       T (D)
 DBCSR| Multiplication size stacks                                             3 (U)
 DBCSR| Use memory pool for CPU allocation                                     F (U)
 DBCSR| Number of 3D layers                                               SINGLE (U)
 DBCSR| Use MPI memory allocation                                              F (U)
 DBCSR| Use RMA algorithm                                                      F (U)
 DBCSR| Use Communication thread                                               T (U)
 DBCSR| Communication thread load                                             64 (D)
 DBCSR| MPI: My process id                                                     8
 DBCSR| MPI: Number of processes                                              17
 DBCSR| OMP: Current number of threads                                         7
 DBCSR| OMP: Max number of threads                                             7
 DBCSR| Split modifier for TAS multiplication algorithm                  1.0E+00 (U)


  **** **** ******  **  PROGRAM STARTED AT               2026-10-03 11:47:35.203
 ***** ** ***  *** **   PROGRAM STARTED ON                              n2cn0938
 **    ****   ******    PROGRAM STARTED BY                              eprop2d1
 ***** **    ** ** **   PROGRAM PROCESS ID                               1425484
  **** **  *******  **  PROGRAM STARTED IN /scratch/hpc-prf-metdyn/eprop2d1_Jan/
                                           53_benchmark_RI_opt/418_gw100_fig5_fu
                                           ll_epsfilter_1e12_20261002/calculatio
                                           ns/rc5p0/ri2_rs03/41_Si2H6

 CP2K| version string:                 CP2K version 2026.2 (Development Version)
 CP2K| source code revision number:                                   0671c5aa6c
 CP2K| cp2kflags: omp libint fftw3 libxc parallel scalapack openblas            
 CP2K| is freely available from                            https://www.cp2k.org/
 CP2K| Program compiled at                                   2026-09-20 09:25:26
 CP2K| Program compiled on                                              n2login5
 CP2K| Program compiled for                                               x86_64
 CP2K| Data directory path    /scratch/hpc-prf-metdyn/eprop2d1_Jan/53_benchmark_
 CP2K| Input file name                                                 input.inp
 
 eprop2d1@n2cn0938 has created rank and process                      0   1425484
 eprop2d1@n2cn0938 has created rank and process                      1   1425485
 eprop2d1@n2cn0938 has created rank and process                      2   1425486
 eprop2d1@n2cn0938 has created rank and process                      3   1425487
 eprop2d1@n2cn0938 has created rank and process                      4   1425488
 eprop2d1@n2cn0938 has created rank and process                      5   1425489
 eprop2d1@n2cn0938 has created rank and process                      6   1425490
 eprop2d1@n2cn0938 has created rank and process                      7   1425491
 eprop2d1@n2cn0938 has created rank and process                      8   1425492
 
 eprop2d1@n2cn0938 is running                                        9 processes

 GLOBAL| Force Environment number                                              1
 GLOBAL| Basis set file name            /scratch/hpc-prf-metdyn/eprop2d1_Jan/53_
 GLOBAL| Potential file name            /scratch/hpc-prf-metdyn/eprop2d1_Jan/53_
 GLOBAL| MM Potential file name                                     MM_POTENTIAL
 GLOBAL| Coordinate file name                                      __STD_INPUT__
 GLOBAL| Method name                                                        CP2K
 GLOBAL| Project name                                             g418_e203_m041
 GLOBAL| Run type                                                         ENERGY
 GLOBAL| FFT library                                                       FFTW3
 GLOBAL| Diagonalization library                                       ScaLAPACK
 GLOBAL| Cholesky decomposition library                                ScaLAPACK
 GLOBAL| DGEMM library                                                      BLAS
 GLOBAL| Direct generalized diagonalization requested                          F
 GLOBAL| Orthonormality check for eigenvectors                          DISABLED
 GLOBAL| Matrix multiplication library                                 ScaLAPACK
 GLOBAL| All-to-all communication in single precision                          F
 GLOBAL| Grid backend                                                       AUTO
 GLOBAL| Global print level                                                  LOW
 GLOBAL| MPI I/O enabled                                                       T
 GLOBAL| Total number of message passing processes                             9
 GLOBAL| Number of distributed systems (nodes)                                 1
 GLOBAL| Number of threads for this process                                    7
 GLOBAL| This output is from process                                           0
 GLOBAL| OpenMP stack size per thread (OMP_STACKSIZE)                       512M
 GLOBAL| CPU model name                          AMD EPYC 7763 64-Core Processor

 MEMORY| system memory details [Kb]
 MEMORY|                        rank 0           min           max       average
 MEMORY| MemTotal            263897588     263897588     263897588     263897588
 MEMORY| MemFree             237431560     237431560     237431560     237431560
 MEMORY| Buffers                124408        124408        124408        124408
 MEMORY| Cached                8643376       8643376       8643376       8643376
 MEMORY| Slab                  1798784       1798784       1798784       1798784
 MEMORY| SReclaimable           358236        358236        358236        358236
 MEMORY| MemLikelyFree       246557580     246557580     246557580     246557580


 GENERATE|  Preliminary Number of Bonds generated:                             0
 GENERATE|  Achieved consistency in connectivity generation.

 *******************************************************************************
 *******************************************************************************
 **                                                                           **
 **     #####                         ##              ##                      **
 **    ##   ##            ##          ##              ##                      **
 **   ##     ##                       ##            ######                    **
 **   ##     ##  ##   ##  ##   #####  ##  ##   ####   ##    #####    #####    **
 **   ##     ##  ##   ##  ##  ##      ## ##   ##      ##   ##   ##  ##   ##   **
 **   ##  ## ##  ##   ##  ##  ##      ####     ###    ##   ######   ######    **
 **    ##  ###   ##   ##  ##  ##      ## ##      ##   ##   ##       ##        **
 **     #######   #####   ##   #####  ##  ##  ####    ##    #####   ##        **
 **           ##                                                    ##        **
 **                                                                           **
 **                                                ... make the atoms dance   **
 **                                                                           **
 **            Copyright (C) by CP2K developers group (2000-2026)             **
 **                      J. Chem. Phys. 152, 194103 (2020)                    **
 **                                                                           **
 *******************************************************************************


 TOTAL NUMBERS AND MAXIMUM NUMBERS

  Total number of            - Atomic kinds:                                   2
                             - Atoms:                                          8
                             - Shell sets:                                     8
                             - Shells:                                        48
                             - Primitive Cartesian functions:                 48
                             - Cartesian basis functions:                    122
                             - Spherical basis functions:                    112

  Maximum angular momentum of- Orbital basis functions:                        3
                             - Local part of the GTH pseudopotential:          2
                             - Non-local part of the GTH pseudopotential:      2


 SCF PARAMETERS         Density guess:                                   RESTART
                        --------------------------------------------------------
                        max_scf:                                             500
                        max_scf_history:                                       0
                        max_diis:                                              4
                        --------------------------------------------------------
                        eps_scf:                                        1.00E-08
                        eps_scf_history:                                0.00E+00
                        eps_diis:                                       0.00E+00
                        eps_eigval:                                     1.00E-05
                        --------------------------------------------------------
                        level_shift [a.u.]:                             0.000000
                        --------------------------------------------------------
                        Outer loop SCF in use 
                        No variables optimised in outer loop
                        eps_scf                                         1.00E-08
                        max_scf                                               20
                        No outer loop optimization
                        step_size                                       5.00E-01

 Extrapolation method: initial_guess

 Number of electrons:                                                         14
 Number of occupied orbitals:                                                  7
 Number of molecular orbitals:                                                 7

 Number of orbital functions:                                                112
 Number of independent orbital functions:                                    112


 SCF WAVEFUNCTION OPTIMIZATION

  ----------------------------------- OT ---------------------------------------
  Minimizer      : DIIS                : direct inversion
                                         in the iterative subspace
                                         using   7 DIIS vectors
                                         safer DIIS on
  Preconditioner : FULL_KINETIC        : inversion of T + eS
  Lattice FFT   : OFF
  Precond_solver : DEFAULT
  stepsize       :    0.15000000                  energy_gap     :    0.20000000
  eps_taylor     :   0.10000E-15                  max_taylor     :             4
  ----------------------------------- OT ---------------------------------------

  Step     Update method      Time    Convergence         Total energy    Change
  ------------------------------------------------------------------------------
  Decoupling Energy:                                              -0.0000006349
     1 OT DIIS     0.15E+00    1.7     7.7639E-09       -11.3643695321 -1.14E+01

  *** SCF run converged in     1 steps ***


  Electronic density on regular grids:        -14.0000000000        0.0000000000
  Core density on regular grids:               14.0000000000       -0.0000000000
  Total charge density on r-space grids:       -0.0000000000
  Total charge density g-space grids:          -0.0000000000

  Overlap energy of the core charge distribution:               0.00000004641156
  Self energy of the core charge distribution:                -28.97882860949839
  Core Hamiltonian energy:                                      7.22401713323294
  Hartree energy:                                              14.84229604082160
  Exchange-correlation energy:                                 -4.45185414307770

  Total energy:                                               -11.36436953210999

  outer SCF iter =    1 RMS gradient =   0.78E-08 energy =        -11.3643695321
  outer SCF loop converged in   1 iterations or    1 steps

  
 -------------------------------------------------------------------------------
 -                                                                             -
 -                          BANDSTRUCTURE CALCULATION                          -
 -                                                                             -
 -------------------------------------------------------------------------------
  
 Number of occupied molecular orbitals (MOs) = Number of occupied bands        7
 Number of unoccupied (= virtual) MOs = Number of unoccupied bands           105
 Number of Gaussian basis functions for MOs                                  112
  
 -------------------------------------------------------------------------------
 -                                                                             -
 -                                GW CALCULATION                               -
 -                                                                             -
 -------------------------------------------------------------------------------
  
 Input: Number of time/freq. points                                           30
 Input: ω_max for fitting Σ(iω) (eV)                                        10.0
 Input: Filter threshold for sparse tensor operations                    1.0E-12
 Input: Apply Hedin shift                                                      F
 Detected: Available memory per MPI process                              23.5 GB
 
 Input: RI-RS Tikhonov regularization                                   1.00E-04
 Input: AO grid hard cutoff radius                                        8.00 Å
 Input: MPI ranks per atom in Z_lP solve                                      -1
 Input: Keep sparsity in χ/G/W panels                                          T
 Input: GW flavour                                                          G0W0
 
 Input: RI-RS grid optimization activated                                      T
 Input: RS points per AO function                                            3.0
 Input: Cutoff radius for atomic clusters                                  5.0 Å
 Input: Maximum grid optimization iterations                                 300
 
 Input: AUTO_RI basis optimization activated:                                  T
 Input: AUTO_RI number of RI functions per AO function:                      2.0
 Input: AUTO_RI frontier orbital window:                                  5.0 eV
 Input: AUTO_RI neighbor radius:                                           3.0 Å
 
 Cutoff radius for the truncated Coulomb operator in RI metric:            7.0 Å
 Regularization parameter of RI                                          0.0E+00
 Regularization parameter of minimax grids                               1.0E-06
 
 AUTO_RI| Number of automatic RI functions for χ, ε, W:                      224
 AUTO_RI| Total RI basis optimization time:                                0.7 s
  Decoupling Energy:                                              -0.0000006349
 
 SCF direct band gap (eV)                                                   6.67
 Max. SCF eigval diff. (eV)                                               159.03
 E-Range for minimax grid                                                  23.83
 Number of Padé parameters for analytic continuation:                         16
 
 RI-RS basis radii (Å):
     Kind  Elem     r_AO (Å)     r_RI (Å)
        1    Si       10.6505        7.5377
        2    H        13.9082        8.7963
 
 Started RI-RS grid optimization
 RI-RS grid initial normalized error                          2.629594908111E-02
 RI-RS grid optimization completed, execution time:                       61.4 s
 Normalized 3C error:                                                    9.6E-06
 Maximum absolute 3C error:                                              2.7E-02
 Optimized points outside molecular Voronoi cells:                            97 / 336
 Total grid points used for RI-RS:                                           336
 
 RI-RS grid row-blocks of ϕ_μ(r_l)                                            12
 RI-RS grid points per block (max)                                            32
 
 Percentage of non-zero matrix elements in ϕ_μ(r_l)                     100.00 %
 
 RI-RS memory estimate per MPI process:
   Available memory per process (system)                                27.70 GB
   Required for Z_lP (dense upper bound; actual is sparser)              0.00 GB
   Required for χ, W, Σ panels (peak per panel step)                     0.00 GB
   Required for Z_lP solve peak (D_local+ϕ, worst-case atom)             0.00 GB
   Worst-case local-grid number of grid points:                              336
   Worst-case memory D_local:                                            0.00 GB
 
 Started computing Z_lP
 Computed Z_lP (MPI rank 0) for atom          1 /  1,    Execution time    0.1 s
 Computed Z_lP (all MPI ranks) for all atoms,            Execution time    0.1 s

 Memory per MPI process after computing Z_lP:
 Available memory per MPI process                               27.7 GB
 Used memory per MPI process                                     1.1 GB
 Number of batches for χ, Σ matrices                                           1
 
 Percentage of non-zero matrix elements in Z_lP                         100.00 %
 Percentage of non-zero matrix elements in G_ll', χ_ll', W_ll'          100.00 %
 Percentage of non-zero matrix elements in χ_PQ for time point 1        100.00 %
 
 Computed χ(iτ,k=0) for time point            1 / 30,    Execution time    0.0 s
 Computed χ(iτ,k=0) for time point            2 / 30,    Execution time    0.0 s
 Computed χ(iτ,k=0) for time point            3 / 30,    Execution time    0.0 s
 Computed χ(iτ,k=0) for time point            4 / 30,    Execution time    0.0 s
 Computed χ(iτ,k=0) for time point            5 / 30,    Execution time    0.0 s
 Computed χ(iτ,k=0) for time point            6 / 30,    Execution time    0.0 s
 Computed χ(iτ,k=0) for time point            7 / 30,    Execution time    0.0 s
 Computed χ(iτ,k=0) for time point            8 / 30,    Execution time    0.0 s
 Computed χ(iτ,k=0) for time point            9 / 30,    Execution time    0.0 s
 Computed χ(iτ,k=0) for time point           10 / 30,    Execution time    0.0 s
 Computed χ(iτ,k=0) for time point           11 / 30,    Execution time    0.0 s
 Computed χ(iτ,k=0) for time point           12 / 30,    Execution time    0.0 s
 Computed χ(iτ,k=0) for time point           13 / 30,    Execution time    0.0 s
 Computed χ(iτ,k=0) for time point           14 / 30,    Execution time    0.0 s
 Computed χ(iτ,k=0) for time point           15 / 30,    Execution time    0.0 s
 Computed χ(iτ,k=0) for time point           16 / 30,    Execution time    0.0 s
 Computed χ(iτ,k=0) for time point           17 / 30,    Execution time    0.0 s
 Computed χ(iτ,k=0) for time point           18 / 30,    Execution time    0.0 s
 Computed χ(iτ,k=0) for time point           19 / 30,    Execution time    0.0 s
 Computed χ(iτ,k=0) for time point           20 / 30,    Execution time    0.0 s
 Computed χ(iτ,k=0) for time point           21 / 30,    Execution time    0.0 s
 Computed χ(iτ,k=0) for time point           22 / 30,    Execution time    0.0 s
 Computed χ(iτ,k=0) for time point           23 / 30,    Execution time    0.0 s
 Computed χ(iτ,k=0) for time point           24 / 30,    Execution time    0.0 s
 Computed χ(iτ,k=0) for time point           25 / 30,    Execution time    0.0 s
 Computed χ(iτ,k=0) for time point           26 / 30,    Execution time    0.0 s
 Computed χ(iτ,k=0) for time point           27 / 30,    Execution time    0.0 s
 Computed χ(iτ,k=0) for time point           28 / 30,    Execution time    0.0 s
 Computed χ(iτ,k=0) for time point           29 / 30,    Execution time    0.0 s
 Computed χ(iτ,k=0) for time point           30 / 30,    Execution time    0.0 s
 
 Computed W(iτ),                                         Execution time    0.1 s
 
 Computed Σ^x(k=0),                                      Execution time    0.0 s
 
 Computed Σ^c(iτ) for time point              1 / 30,    Execution time    0.0 s
 Computed Σ^c(iτ) for time point              2 / 30,    Execution time    0.0 s
 Computed Σ^c(iτ) for time point              3 / 30,    Execution time    0.0 s
 Computed Σ^c(iτ) for time point              4 / 30,    Execution time    0.0 s
 Computed Σ^c(iτ) for time point              5 / 30,    Execution time    0.0 s
 Computed Σ^c(iτ) for time point              6 / 30,    Execution time    0.0 s
 Computed Σ^c(iτ) for time point              7 / 30,    Execution time    0.0 s
 Computed Σ^c(iτ) for time point              8 / 30,    Execution time    0.0 s
 Computed Σ^c(iτ) for time point              9 / 30,    Execution time    0.0 s
 Computed Σ^c(iτ) for time point             10 / 30,    Execution time    0.0 s
 Computed Σ^c(iτ) for time point             11 / 30,    Execution time    0.0 s
 Computed Σ^c(iτ) for time point             12 / 30,    Execution time    0.0 s
 Computed Σ^c(iτ) for time point             13 / 30,    Execution time    0.0 s
 Computed Σ^c(iτ) for time point             14 / 30,    Execution time    0.0 s
 Computed Σ^c(iτ) for time point             15 / 30,    Execution time    0.0 s
 Computed Σ^c(iτ) for time point             16 / 30,    Execution time    0.0 s
 Computed Σ^c(iτ) for time point             17 / 30,    Execution time    0.0 s
 Computed Σ^c(iτ) for time point             18 / 30,    Execution time    0.0 s
 Computed Σ^c(iτ) for time point             19 / 30,    Execution time    0.0 s
 Computed Σ^c(iτ) for time point             20 / 30,    Execution time    0.0 s
 Computed Σ^c(iτ) for time point             21 / 30,    Execution time    0.0 s
 Computed Σ^c(iτ) for time point             22 / 30,    Execution time    0.0 s
 Computed Σ^c(iτ) for time point             23 / 30,    Execution time    0.0 s
 Computed Σ^c(iτ) for time point             24 / 30,    Execution time    0.0 s
 Computed Σ^c(iτ) for time point             25 / 30,    Execution time    0.0 s
 Computed Σ^c(iτ) for time point             26 / 30,    Execution time    0.0 s
 Computed Σ^c(iτ) for time point             27 / 30,    Execution time    0.0 s
 Computed Σ^c(iτ) for time point             28 / 30,    Execution time    0.0 s
 Computed Σ^c(iτ) for time point             29 / 30,    Execution time    0.0 s
 Computed Σ^c(iτ) for time point             30 / 30,    Execution time    0.0 s

 *** WARNING in post_scf_bandstructure_utils.F:3161 :: G0W0 reorders the   ***
 *** empty levels: the SCF conduction band minimum (SCF LUMO) is level 8,  ***
 *** whereas the G0W0 conduction band minimum (G0W0 LUMO) is level 10. The ***
 *** SCF and G0W0 band edges printed below therefore belong to different   ***
 *** orbitals; see the eigenvalues in the file bandstructure_SCF_and_G0W0. ***

 
 SCF valence band maximum (eV):                                           -7.312
 SCF conduction band minimum (eV):                                        -0.637
 SCF indirect band gap (eV):                                               6.674
 SCF direct band gap (eV):                                                 6.674
 
 G0W0 valence band maximum (eV):                                         -10.064
 G0W0 conduction band minimum (eV):                                        1.305
 G0W0 indirect band gap (eV):                                             11.370
 G0W0 direct band gap (eV):                                               11.370
 
 Hartree-Fock with SCF orbitals valence band maximum (eV):               -10.696
 Hartree-Fock with SCF orbitals conduction band minimum (eV)               2.324
 Hartree-Fock with SCF orbitals indirect band gap (eV):                   13.020
 Hartree-Fock with SCF orbitals direct band gap (eV):                     13.020

 ENERGY| Total FORCE_EVAL ( QS ) energy [hartree]            -11.364369532109986

 -------------------------------------------------------------------------------
 -                                                                             -
 -                                DBCSR STATISTICS                             -
 -                                                                             -
 -------------------------------------------------------------------------------
 COUNTER                                    TOTAL       BLAS       SMM       ACC
 flops     7 x     7 x     7                  686     100.0%      0.0%      0.0%     
 flops     7 x     7 x    36                10584     100.0%      0.0%      0.0%     
 flops     9 x     7 x     7                21168     100.0%      0.0%      0.0%     
 flops     7 x     7 x    38                22344     100.0%      0.0%      0.0%     
 flops    29 x     7 x     7                22736     100.0%      0.0%      0.0%     
 flops    29 x     9 x     7                43848     100.0%      0.0%      0.0%     
 flops     9 x    29 x     7                43848     100.0%      0.0%      0.0%     
 flops     9 x     9 x     7                47628     100.0%      0.0%      0.0%     
 flops     9 x     7 x    36                54432     100.0%      0.0%      0.0%     
 flops    29 x     7 x    36                58464     100.0%      0.0%      0.0%     
 flops    29 x    29 x     7                70644     100.0%      0.0%      0.0%     
 flops     9 x     7 x    38               114912     100.0%      0.0%      0.0%     
 flops    29 x     7 x    38               123424     100.0%      0.0%      0.0%     
 flops    23 x    23 x    40               169280     100.0%      0.0%      0.0%     
 flops     9 x     7 x     9               244944     100.0%      0.0%      0.0%     
 flops    29 x     7 x     9               263088     100.0%      0.0%      0.0%     
 flops     9 x     7 x    29               263088     100.0%      0.0%      0.0%     
 flops    29 x     7 x    29               282576     100.0%      0.0%      0.0%     
 flops    32 x    23 x    40               471040     100.0%      0.0%      0.0%     
 flops    23 x    32 x    40               471040     100.0%      0.0%      0.0%     
 flops    27 x    23 x    40               596160     100.0%      0.0%      0.0%     
 flops    23 x    27 x    40               596160     100.0%      0.0%      0.0%     
 flops    32 x    32 x    40              1310720     100.0%      0.0%      0.0%     
 flops    23 x    23 x    18              1599696     100.0%      0.0%      0.0%     
 flops    32 x    27 x    40              1658880     100.0%      0.0%      0.0%     
 flops    27 x    32 x    40              1658880     100.0%      0.0%      0.0%     
 flops    27 x    27 x    40              2099520     100.0%      0.0%      0.0%     
 flops    22 x    22 x    23              3206016     100.0%      0.0%      0.0%     
 flops    23 x    22 x    22              3384128     100.0%      0.0%      0.0%     
 flops    23 x    22 x    23              3537952     100.0%      0.0%      0.0%     
 flops    32 x    23 x    18              4451328     100.0%      0.0%      0.0%     
 flops    23 x    32 x    18              4451328     100.0%      0.0%      0.0%     
 flops    27 x    23 x    18              5633712     100.0%      0.0%      0.0%     
 flops    23 x    27 x    18              5633712     100.0%      0.0%      0.0%     
 flops    40 x    22 x    23              5829120     100.0%      0.0%      0.0%     
 flops    23 x    22 x    40              6152960     100.0%      0.0%      0.0%     
 flops    23 x    40 x    22              6152960     100.0%      0.0%      0.0%     
 flops    22 x    40 x    23              6152960     100.0%      0.0%      0.0%     
 flops    23 x    40 x    23              6432640     100.0%      0.0%      0.0%     
 flops    23 x    23 x    87              6995496     100.0%      0.0%      0.0%     
 flops    23 x    23 x    90              7236720     100.0%      0.0%      0.0%     
 flops    25 x    22 x    23              7286400     100.0%      0.0%      0.0%     
 flops    22 x    25 x    23              7286400     100.0%      0.0%      0.0%     
 flops    23 x    25 x    22              7691200     100.0%      0.0%      0.0%     
 flops    23 x    22 x    25              7691200     100.0%      0.0%      0.0%     
 flops    23 x     9 x    23              7922304     100.0%      0.0%      0.0%     
 flops    23 x    25 x    23              8040800     100.0%      0.0%      0.0%     
 flops    23 x    29 x    23              8590960     100.0%      0.0%      0.0%     
 flops     9 x     9 x    23              8852976     100.0%      0.0%      0.0%     
 flops    22 x    22 x    32              9044992     100.0%      0.0%      0.0%     
 flops    32 x    22 x    22              9416704     100.0%      0.0%      0.0%     
 flops    29 x     9 x    23              9508752     100.0%      0.0%      0.0%     
 flops    23 x    22 x    32              9844736     100.0%      0.0%      0.0%     
 flops    32 x    22 x    23              9844736     100.0%      0.0%      0.0%     
 flops     9 x    29 x    23              9868932     100.0%      0.0%      0.0%     
 flops    29 x    29 x    23             10599964     100.0%      0.0%      0.0%     
 flops    40 x    40 x    23             11187200     100.0%      0.0%      0.0%     
 flops    23 x    40 x    40             11334400     100.0%      0.0%      0.0%     
 flops    22 x    22 x    27             11499840     100.0%      0.0%      0.0%     
 flops    27 x    22 x    22             11918016     100.0%      0.0%      0.0%     
 flops    23 x    23 x    47             12133144     100.0%      0.0%      0.0%     
 flops    32 x    32 x    18             12386304     100.0%      0.0%      0.0%     
 flops    27 x    22 x    23             12459744     100.0%      0.0%      0.0%     
 flops    23 x    22 x    27             12459744     100.0%      0.0%      0.0%     
 flops    40 x    25 x    23             13248000     100.0%      0.0%      0.0%     
 flops    23 x    25 x    40             13984000     100.0%      0.0%      0.0%     
 flops    23 x    40 x    25             13984000     100.0%      0.0%      0.0%     
 flops    25 x    40 x    23             13984000     100.0%      0.0%      0.0%     
 flops    23 x    23 x     9             14625792     100.0%      0.0%      0.0%     
 flops    32 x    27 x    18             15676416     100.0%      0.0%      0.0%     
 flops    27 x    32 x    18             15676416     100.0%      0.0%      0.0%     
 flops    23 x    23 x    29             15709184     100.0%      0.0%      0.0%     
 flops    40 x    22 x    32             16445440     100.0%      0.0%      0.0%     
 flops    25 x    25 x    23             16560000     100.0%      0.0%      0.0%     
 flops    22 x    40 x    32             17121280     100.0%      0.0%      0.0%     
 flops    32 x    22 x    40             17121280     100.0%      0.0%      0.0%     
 flops    32 x    40 x    22             17121280     100.0%      0.0%      0.0%     
 flops    23 x    25 x    25             17480000     100.0%      0.0%      0.0%     
 flops    23 x    40 x    32             17899520     100.0%      0.0%      0.0%     
 flops    32 x    40 x    23             17899520     100.0%      0.0%      0.0%     
 flops    32 x    23 x    87             19465728     100.0%      0.0%      0.0%     
 flops    23 x    32 x    87             19465728     100.0%      0.0%      0.0%     
 flops    27 x    27 x    18             19840464     100.0%      0.0%      0.0%     
 flops    32 x    23 x    90             20136960     100.0%      0.0%      0.0%     
 flops    23 x    32 x    90             20136960     100.0%      0.0%      0.0%     
 flops    25 x    22 x    32             20556800     100.0%      0.0%      0.0%     
 flops    22 x    25 x    32             20697600     100.0%      0.0%      0.0%     
 flops    40 x    22 x    27             20908800     100.0%      0.0%      0.0%     
 flops    32 x    22 x    25             21401600     100.0%      0.0%      0.0%     
 flops    32 x    25 x    22             21401600     100.0%      0.0%      0.0%     
 flops    27 x    22 x    40             21669120     100.0%      0.0%      0.0%     
 flops    27 x    40 x    22             21669120     100.0%      0.0%      0.0%     
 flops    22 x    40 x    27             21669120     100.0%      0.0%      0.0%     
 flops    32 x     9 x    23             22137408     100.0%      0.0%      0.0%     
 flops    23 x     9 x    32             22190400     100.0%      0.0%      0.0%     
 flops    23 x    25 x    32             22374400     100.0%      0.0%      0.0%     
 flops    32 x    25 x    23             22374400     100.0%      0.0%      0.0%     
 flops    27 x    40 x    23             22654080     100.0%      0.0%      0.0%     
 flops    23 x    40 x    27             22654080     100.0%      0.0%      0.0%     
 flops    23 x     9 x     9             22803120     100.0%      0.0%      0.0%     
 flops    23 x    29 x    32             23905280     100.0%      0.0%      0.0%     
 flops    32 x    29 x    23             23905280     100.0%      0.0%      0.0%     
 flops    23 x     9 x    29             24492240     100.0%      0.0%      0.0%     
 flops    23 x    29 x     9             24492240     100.0%      0.0%      0.0%     
 flops    27 x    23 x    87             24636312     100.0%      0.0%      0.0%     
 flops    23 x    27 x    87             24636312     100.0%      0.0%      0.0%     
 flops     9 x     9 x    32             24789888     100.0%      0.0%      0.0%     
 flops    27 x    23 x    90             25485840     100.0%      0.0%      0.0%     
 flops    23 x    27 x    90             25485840     100.0%      0.0%      0.0%     
 flops    25 x    22 x    27             26136000     100.0%      0.0%      0.0%     
 flops    22 x    25 x    27             26136000     100.0%      0.0%      0.0%     
 flops    23 x    29 x    29             26306480     100.0%      0.0%      0.0%     
 flops    29 x     9 x    32             26626176     100.0%      0.0%      0.0%     
 flops    27 x    25 x    22             27086400     100.0%      0.0%      0.0%     
 flops    27 x    22 x    25             27086400     100.0%      0.0%      0.0%     
 flops    23 x     9 x    27             27296676     100.0%      0.0%      0.0%     
 flops    32 x    22 x    32             27394048     100.0%      0.0%      0.0%     
 flops    27 x     9 x    23             27699084     100.0%      0.0%      0.0%     
 flops     9 x    29 x    32             27762048     100.0%      0.0%      0.0%     
 flops    27 x    25 x    23             28317600     100.0%      0.0%      0.0%     
 flops    23 x    25 x    27             28317600     100.0%      0.0%      0.0%     
 flops    29 x    29 x    32             29818496     100.0%      0.0%      0.0%     
 flops    23 x    29 x    27             29822904     100.0%      0.0%      0.0%     
 flops    27 x    29 x    23             30219102     100.0%      0.0%      0.0%     
 flops    40 x    40 x    32             31129600     100.0%      0.0%      0.0%     
 flops     9 x     9 x    27             31374702     100.0%      0.0%      0.0%     
 flops    32 x    40 x    40             31539200     100.0%      0.0%      0.0%     
 flops    29 x     9 x    27             33741036     100.0%      0.0%      0.0%     
 flops    32 x    23 x    47             33761792     100.0%      0.0%      0.0%     
 flops    23 x    32 x    47             33761792     100.0%      0.0%      0.0%     
 flops     9 x    29 x    27             34332984     100.0%      0.0%      0.0%     
 flops    27 x    22 x    32             34670592     100.0%      0.0%      0.0%     
 flops    32 x    22 x    27             34670592     100.0%      0.0%      0.0%     
 flops    29 x    29 x    27             37057824     100.0%      0.0%      0.0%     
 flops    40 x    25 x    32             37632000     100.0%      0.0%      0.0%     
 flops    32 x    25 x    40             38912000     100.0%      0.0%      0.0%     
 flops    32 x    40 x    25             38912000     100.0%      0.0%      0.0%     
 flops    25 x    40 x    32             38912000     100.0%      0.0%      0.0%     
 flops    40 x    40 x    27             39398400     100.0%      0.0%      0.0%     
 flops    27 x    40 x    40             39916800     100.0%      0.0%      0.0%     
 flops    32 x    23 x     9             40697856     100.0%      0.0%      0.0%     
 flops    23 x    32 x     9             40697856     100.0%      0.0%      0.0%     
 flops    27 x    23 x    47             42729768     100.0%      0.0%      0.0%     
 flops    23 x    27 x    47             42729768     100.0%      0.0%      0.0%     
 flops    32 x    23 x    29             43712512     100.0%      0.0%      0.0%     
 flops    23 x    32 x    29             43712512     100.0%      0.0%      0.0%     
 flops    27 x    22 x    27             43879968     100.0%      0.0%      0.0%     
 flops    25 x    25 x    32             47040000     100.0%      0.0%      0.0%     
 flops    40 x    25 x    27             47520000     100.0%      0.0%      0.0%     
 flops    32 x    25 x    25             48640000     100.0%      0.0%      0.0%     
 flops    27 x    25 x    40             49248000     100.0%      0.0%      0.0%     
 flops    27 x    40 x    25             49248000     100.0%      0.0%      0.0%     
 flops    25 x    40 x    27             49248000     100.0%      0.0%      0.0%     
 flops    32 x    40 x    32             49807360     100.0%      0.0%      0.0%     
 flops    27 x    23 x     9             51508224     100.0%      0.0%      0.0%     
 flops    23 x    27 x     9             51508224     100.0%      0.0%      0.0%     
 flops    32 x    32 x    87             54165504     100.0%      0.0%      0.0%     
 flops    27 x    23 x    29             55323648     100.0%      0.0%      0.0%     
 flops    23 x    27 x    29             55323648     100.0%      0.0%      0.0%     
 flops    32 x    32 x    90             56033280     100.0%      0.0%      0.0%     
 flops    25 x    25 x    27             59400000     100.0%      0.0%      0.0%     
 flops    27 x    25 x    25             61560000     100.0%      0.0%      0.0%     
 flops    32 x     9 x    32             61857792     100.0%      0.0%      0.0%     
 flops    32 x    25 x    32             62259200     100.0%      0.0%      0.0%     
 flops    27 x    40 x    32             63037440     100.0%      0.0%      0.0%     
 flops    32 x    40 x    27             63037440     100.0%      0.0%      0.0%     
 flops    32 x     9 x     9             63452160     100.0%      0.0%      0.0%     
 flops    32 x    29 x    32             66519040     100.0%      0.0%      0.0%     
 flops    32 x     9 x    29             68152320     100.0%      0.0%      0.0%     
 flops    32 x    29 x     9             68152320     100.0%      0.0%      0.0%     
 flops    32 x    27 x    87             68553216     100.0%      0.0%      0.0%     
 flops    27 x    32 x    87             68553216     100.0%      0.0%      0.0%     
 flops    32 x    27 x    90             70917120     100.0%      0.0%      0.0%     
 flops    27 x    32 x    90             70917120     100.0%      0.0%      0.0%     
 flops    32 x    29 x    29             73200640     100.0%      0.0%      0.0%     
 flops    32 x     9 x    27             75971520     100.0%      0.0%      0.0%     
 flops    27 x     9 x    32             77262336     100.0%      0.0%      0.0%     
 flops    27 x    25 x    32             78796800     100.0%      0.0%      0.0%     
 flops    32 x    25 x    27             78796800     100.0%      0.0%      0.0%     
 flops    27 x    40 x    27             79781760     100.0%      0.0%      0.0%     
 flops    27 x     9 x     9             80306640     100.0%      0.0%      0.0%     
 flops    32 x    29 x    27             82985472     100.0%      0.0%      0.0%     
 flops    27 x    29 x    32             84188160     100.0%      0.0%      0.0%     
 flops    27 x     9 x    29             86255280     100.0%      0.0%      0.0%     
 flops    27 x    29 x     9             86255280     100.0%      0.0%      0.0%     
 flops    27 x    27 x    87             86762664     100.0%      0.0%      0.0%     
 flops    27 x    27 x    90             89754480     100.0%      0.0%      0.0%     
 flops    27 x    29 x    29             92644560     100.0%      0.0%      0.0%     
 flops    32 x    32 x    47             93945856     100.0%      0.0%      0.0%     
 flops    27 x     9 x    27             96354846     100.0%      0.0%      0.0%     
 flops    27 x    25 x    27             99727200     100.0%      0.0%      0.0%     
 flops    27 x    29 x    27            104013720     100.0%      0.0%      0.0%     
 flops    32 x    32 x     9            113246208     100.0%      0.0%      0.0%     
 flops    32 x    27 x    47            118900224     100.0%      0.0%      0.0%     
 flops    27 x    32 x    47            118900224     100.0%      0.0%      0.0%     
 flops    32 x    32 x    29            121634816     100.0%      0.0%      0.0%     
 flops    32 x    27 x     9            143327232     100.0%      0.0%      0.0%     
 flops    27 x    32 x     9            143327232     100.0%      0.0%      0.0%     
 flops    27 x    27 x    47            150483096     100.0%      0.0%      0.0%     
 flops    32 x    27 x    29            153944064     100.0%      0.0%      0.0%     
 flops    27 x    32 x    29            153944064     100.0%      0.0%      0.0%     
 flops    27 x    27 x     9            181398528     100.0%      0.0%      0.0%     
 flops    27 x    27 x    29            194835456     100.0%      0.0%      0.0%     
 flops inhomo. stacks                           0       0.0%      0.0%      0.0%
 flops total                         7.222849E+09     100.0%      0.0%      0.0%
 flops max/rank                    954.807702E+06     100.0%      0.0%      0.0%
 matmuls inhomo. stacks                         0       0.0%      0.0%      0.0%
 matmuls total                             272954     100.0%      0.0%      0.0%
 number of processed stacks                 95978     100.0%      0.0%      0.0%
 average stack size                                     2.8       0.0       0.0
 marketing flops                    11.280609E+09
 -------------------------------------------------------------------------------
 # multiplications                           1515
 max memory usage/rank              24.822993E+09
 # max total images/rank                        1
 # max 3D layers                                1
 # MPI messages exchanged                   18180
 MPI messages size (bytes):
  total size                       632.843904E+06
  min size                           0.000000E+00
  max size                         111.392000E+03
  average size                      34.809895E+03
 MPI breakdown and total messages size (bytes):
             size <=      128                3278                        0
       128 < size <=     8192                1002                  5360736
      8192 < size <=    32768                3854                 71699792
     32768 < size <=   131072               10046                555783440
    131072 < size <=  4194304                   0                        0
   4194304 < size <= 16777216                   0                        0
  16777216 < size                               0                        0
 -------------------------------------------------------------------------------
 -                                                                             -
 -                      DBCSR MESSAGE PASSING PERFORMANCE                      -
 -                                                                             -
 -------------------------------------------------------------------------------
 ROUTINE             CALLS      AVE VOLUME [Bytes]
 MP_Bcast              204                     12.
 MP_Allreduce         2524                     13.
 MP_Alltoall          3385                   6414.
 MP_ISend             7524                  13249.
 MP_IRecv             7234                  10275.
 -------------------------------------------------------------------------------

 -------------------------------------------------------------------------------
 -                                                                             -
 -                                GRID STATISTICS                              -
 -                                                                             -
 -------------------------------------------------------------------------------
 LP    KERNEL             BACKEND                              COUNT     PERCENT
 2     collocate ortho    CPU                                   4068      27.83%
 2     integrate ortho    CPU                                   4068      27.83%
 4     collocate ortho    CPU                                   2484      17.00%
 4     integrate ortho    CPU                                   2484      17.00%
 6     collocate ortho    CPU                                    648       4.43%
 6     integrate ortho    CPU                                    648       4.43%
 0     collocate general  CPU                                    216       1.48%
 -------------------------------------------------------------------------------

 -------------------------------------------------------------------------------
 -                                                                             -
 -                          OFFLOAD MEMPOOL STATISTICS                         -
 -                                                                             -
 -------------------------------------------------------------------------------
 Memory consumption                Number of allocations  Used [MiB]  Size [MiB]
 Host                                                  6          86    22149133
 -------------------------------------------------------------------------------

 MEMORY| Estimated peak process memory [MiB]                                2075

 -------------------------------------------------------------------------------
 -                                                                             -
 -                         MESSAGE PASSING PERFORMANCE                         -
 -                                                                             -
 -------------------------------------------------------------------------------

 ROUTINE             CALLS      AVE VOLUME [Bytes]
 MP_Group                5
 MP_Bcast              305                 283086.
 MP_Allreduce         1864                   3124.
 MP_Sync                10
 MP_Alltoall            46               70816197.
 MP_SendRecv            32                 580800.
 MP_ISendRecv           32                 580800.
 MP_Wait               176
 MP_comm_split          10
 MP_ISend              117                3241797.
 MP_IRecv              117                3239746.
 -------------------------------------------------------------------------------


 -------------------------------------------------------------------------------
 -                                                                             -
 -                           R E F E R E N C E S                               -
 -                                                                             -
 -------------------------------------------------------------------------------
 
 CP2K version 2026.2 (Development Version), the CP2K developers group (2026).
 CP2K is freely available from https://www.cp2k.org/ .
 
 M. Iannuzzi, J. Wilhelm, F. Stein, A. Bussy, H. Elgabarty, D. Golze, A. Hehn, 
 M. Graml, S. Marek, B. Sertcan Gökmen, C. Schran, H. Forbert, R. Z. 
 Khaliullin, A. Kozhevnikov, M. Taillefumier, R. Meli, V. V. Rybkin, M. Brehm, 
 R. Schade, O. Schütt, J. V. Pototschnig, H. Mirhosseini, A. Knüpfer, D. Marx, 
 M. Krack, J. Hutter, T. D. Kühne.
 J. Phys. Chem. B 130, 1237-1310 (2026).
 The CP2K Program Package Made Simple.
 https://doi.org/10.1021/acs.jpcb.5c05851

 M. Graml, K. Zollner, D. Hernangómez-Pérez, P. E. Faria Junior, J. Wilhelm.
 J. Chem. Theory Comput. 20, 2202-2208 (2024).
 Low-scaling GW algorithm applied to twisted transition-metal dichalcogenide 
 heterobilayers.
 https://doi.org/10.1021/acs.jctc.3c01230

 T. D. Kühne, M. Iannuzzi, M. Del Ben, V. V. Rybkin, P. Seewald, F. Stein, T. 
 Laino, R. Z. Khaliullin, O. Schütt, F. Schiffmann, D. Golze, J. Wilhelm, S. 
 Chulkov, M. H. Bani-Hashemian, V. Weber, U. Borstnik, M. Taillefumier, A. S. 
 Jakobovits, A. Lazzaro, H. Pabst, T. Müller, R. Schade, M. Guidon, S. 
 Andermatt, N. Holmberg, G. K. Schenter, A. Hehn, A. Bussy, F. Belleflamme, G. 
 Tabacchi, A. Glöß, M. Lass, I. Bethune, C. J. Mundy, C. Plessl, M. Watkins, 
 J. VandeVondele, M. Krack, J. Hutter.
 J. Chem. Phys. 152, 194103 (2020).
 CP2K: An electronic structure and molecular dynamics software package - 
 Quickstep: Efficient and accurate electronic structure calculations.
 https://doi.org/10.1063/5.0007045

 O. Schuett, P. Messmer, J. Hutter, J. VandeVondele.
 Electronic Structure Calculations on Graphics Processing Units, 173-190 (2016).
 GPU-Accelerated Sparse Matrix-Matrix Multiplication for Linear Scaling Density 
 Functional Theory.
 https://doi.org/10.1002/9781118670712.ch8

 U. Borstnik, J. VandeVondele, V. Weber, J. Hutter.
 Parallel Comput. 40, 47-58 (2014).
 Sparse matrix multiplication: The distributed block-compressed sparse row 
 library.
 https://doi.org/10.1016/j.parco.2014.03.012

 J. VandeVondele, J. Hutter.
 J. Chem. Phys. 127, 114105 (2007).
 Gaussian basis sets for accurate calculations on molecular systems in gas and 
 condensed phases.
 https://doi.org/10.1063/1.2770708

 J. VandeVondele, M. Krack, F. Mohamed, M. Parrinello, T. Chassaing, J. Hutter.
 Comput. Phys. Commun. 167, 103-128 (2005).
 QUICKSTEP: Fast and accurate density functional calculations using a mixed 
 Gaussian and plane waves approach.
 https://doi.org/10.1016/j.cpc.2004.12.014

 M. Krack.
 Theor. Chem. Acc. 114, 145-152 (2005).
 Pseudopotentials for H to Kr optimized for gradient-corrected 
 exchange-correlation functionals.
 https://doi.org/10.1007/s00214-005-0655-y

 M. Frigo, S. G. Johnson.
 Proc. IEEE 93, 216-231 (2005).
 The design and implementation of FFTW3.
 https://doi.org/10.1109/JPROC.2004.840301

 J. VandeVondele, J. Hutter.
 J. Chem. Phys. 118, 4365-4369 (2003).
 An efficient orbital transformation method for electronic structure 
 calculations.
 https://doi.org/10.1063/1.1543154

 C. Hartwigsen, S. Goedecker, J. Hutter.
 Phys. Rev. B 58, 3641-3662 (1998).
 Relativistic separable dual-space Gaussian pseudopotentials from H to Rn.
 https://doi.org/10.1103/PhysRevB.58.3641

 G. Lippert, J. Hutter, M. Parrinello.
 Mol. Phys. 92, 477-487 (1997).
 A hybrid Gaussian and plane wave density functional scheme.
 https://doi.org/10.1080/002689797170220

 S. Goedecker, M. Teter, J. Hutter.
 Phys. Rev. B 54, 1703-1710 (1996).
 Separable dual-space Gaussian pseudopotentials.
 https://doi.org/10.1103/PhysRevB.54.1703

 J. P. Perdew, K. Burke, M. Ernzerhof.
 Phys. Rev. Lett. 77, 3865-3868 (1996).
 Generalized gradient approximation made simple.
 https://doi.org/10.1103/PhysRevLett.77.3865

 P. E. Blöchl.
 J. Chem. Phys. 103, 7422-7428 (1995).
 Electrostatic decoupling of periodic images of plane‐wave‐expanded 
 densities and derived atomic point charges.
 https://doi.org/10.1063/1.470314

 R. H. Byrd, P. H. Lu, J. Nocedal, C. Y. Zhu.
 SIAM J. Sci. Comput. 16, 1190-1208 (1995).
 A Limited Memory Algorithm for Bound Constrained Optimization.
 https://doi.org/10.1137/0916069


 -------------------------------------------------------------------------------
 -                                                                             -
 -                                T I M I N G                                  -
 -                                                                             -
 -------------------------------------------------------------------------------
 SUBROUTINE                       CALLS  ASD         SELF TIME        TOTAL TIME MAXRANK
                                MAXIMUM       AVERAGE  MAXIMUM  AVERAGE  MAXIMUM
 CP2K                                 1  1.0    0.009    0.020   69.994   69.994       0
 qs_energies                          1  2.0    0.000    0.000   69.002   69.002       0
 qs_energies_properties               1  3.0    0.000    0.000   66.087   66.088       5
 post_scf_bandstructure               1  4.0    0.000    0.000   66.087   66.088       0
 run_gw                               1  5.0    0.000    0.000   66.064   66.075       0
 gw_calc_ri_rs_non_periodic           1  6.0    0.000    0.000   64.509   64.693       0
 optimize_ri_rs_grid                  1  7.0    0.000    0.000   63.898   64.083       0
 mp_sum_d                           724  4.7   27.901   63.874   27.901   63.874       8
 rirs_grid_LBFGS                      1  8.0    0.749    1.705   62.734   63.625       7
 evaluate_rirs_grid_cluster         301  9.0    2.323    3.743   34.169   59.497       7
 rirs_cluster_gradient_products     301 10.0    8.081   17.532    8.081   17.532       7
 rirs_cluster_residual              301 10.0    4.936   10.076    4.936   10.076       7
 rirs_cluster_gradient_coordina     301 10.0    7.984    9.401    7.984    9.401       0
 rirs_cluster_d_lP                  301 10.0    3.743    8.746    3.743    8.746       7
 rirs_cluster_AO_products           301 10.0    4.707    5.570    4.707    5.570       5
 rirs_cluster_D_ll                  301 10.0    2.395    5.449    2.395    5.449       7
 rirs_grid_build_clusters             1  8.0    0.562    1.374    0.891    2.257       0
 scf_env_do_scf                       1  3.0    0.000    0.000    2.180    2.180       0
 qs_ks_build_kohn_sham_matrix         2  7.5    0.001    0.002    2.166    2.166       6
 fft_wrap_pw1pw2                     28 10.0    0.001    0.001    2.006    2.064       3
 fft_wrap_pw1pw2_300                 16 11.2    0.090    0.129    1.895    1.971       2
 create_and_init_bs_env_for_gw        1  6.0    0.003    0.004    1.556    1.775       6
 fft3d_ps                            28 12.0    0.672    0.928    1.543    1.758       1
 init_scf_loop                        1  4.0    0.000    0.000    1.668    1.668       0
 qs_ks_update_qs_env                  2  5.0    0.000    0.000    1.665    1.665       4
 rebuild_ks_matrix                    1  6.0    0.000    0.000    1.665    1.665       0
 mp_alltoall_z22v                    28 14.0    0.583    1.237    0.583    1.237       8
 qs_vxc_create                        2  8.5    0.000    0.000    1.146    1.171       2
 xc_vxc_pw_create                     1  9.0    0.018    0.021    1.146    1.171       2
 qs_rho_update_rho_low                2  5.0    0.000    0.000    1.033    1.033       0
 calculate_rho_elec                   2  6.0    0.023    0.026    1.033    1.033       0
 abc_contract_xsmm                10616  9.1    0.358    0.990    0.358    0.990       0
 xc_pw_derive                         6 11.0    0.000    0.000    0.858    0.943       3
 density_rs2pw                        2  7.0    0.000    0.000    0.672    0.771       3
 yz_to_x                             14 12.2    0.126    0.175    0.434    0.753       3
 qs_init_subsys                       1  2.0    0.001    0.001    0.668    0.670       0
 qs_env_setup                         1  3.0    0.000    0.000    0.667    0.669       0
 qs_env_rebuild_pw_env                2  3.5    0.000    0.000    0.667    0.669       0
 pw_env_rebuild                       1  5.0    0.000    0.000    0.667    0.669       0
 generate_auto_ri_basis               1  7.0    0.000    0.000    0.666    0.666       0
 pw_grid_setup                        5  5.2    0.000    0.000    0.661    0.663       0
 pw_grid_setup_internal               5  6.2    0.010    0.011    0.661    0.663       0
 x_to_yz                             14 13.8    0.159    0.208    0.434    0.626       3
 xc_pw_divergence                     1 10.0    0.000    0.000    0.553    0.616       3
 xc_rho_set_and_dset_create           1 10.0    0.018    0.036    0.549    0.604       3
 pw_grid_sort                         5  7.2    0.327    0.397    0.478    0.581       0
 setup_time_and_frequency_minim       1  7.0    0.000    0.000    0.347    0.568       0
 build_minimax_time_frequency_g       1  8.0    0.000    0.000    0.347    0.568       8
 fit_l_sq_weights                     3  9.0    0.347    0.568    0.347    0.568       3
 init_scf_run                         1  3.0    0.000    0.000    0.537    0.537       0
 scf_env_initial_rho_setup            1  4.0    0.000    0.000    0.537    0.537       0
 mp_sum_dm                           30 10.7    0.372    0.522    0.372    0.522       8
 scf_env_do_scf_inner_loop            1  4.0    0.000    0.000    0.511    0.512       0
 compute_V_xc                         1  7.0    0.000    0.000    0.501    0.501       0
 sum_up_and_integrate                 2  8.5    0.000    0.000    0.446    0.470       6
 integrate_v_rspace                   2  9.5    0.000    0.000    0.441    0.468       6
 compute_AB_optimized_RI_basis        1  8.0    0.000    0.000    0.463    0.463       0
 compute_AB_optimized_RI_basis_       1  9.0    0.000    0.000    0.446    0.462       0
 initialize_ri_rs_grid                1  8.0    0.060    0.160    0.273    0.458       0
 mp_bcast_dm                         23  9.2    0.213    0.457    0.213    0.457       8
 potential_pw2rs                      2 10.5    0.001    0.002    0.423    0.450       2
 compute_B_PQ_AB                      2 10.0    0.026    0.089    0.123    0.436       0
 cp_fm_get_submatrix                 26 10.0    0.000    0.000    0.315    0.418       0
 grid_collocate_task_list             2  7.0    0.307    0.358    0.307    0.358       2
 transfer_rs2pw                       9  7.8    0.000    0.000    0.186    0.327       3
 qs_ks_ddapc                          2  8.5    0.000    0.000    0.304    0.321       3
 transfer_rs2pw_300                   3  8.3    0.049    0.064    0.155    0.301       1
 mp_waitany                         117 11.3    0.145    0.300    0.145    0.300       8
 create_qs_kind_set                   1  2.0    0.000    0.000    0.290    0.292       0
 read_qs_kind                         2  3.0    0.071    0.102    0.290    0.292       0
 contract_B_PQ                       10 11.8    0.065    0.231    0.073    0.262       0
 compute_Sigma_c_and_QP_energie       1  7.0    0.000    0.000    0.249    0.260       2
 pw_poisson_solve                     2  8.5    0.000    0.000    0.232    0.251       3
 compute_Sigma_c                      1  8.0    0.002    0.002    0.232    0.232       0
 parser_read_line                 38066  4.0    0.007    0.008    0.219    0.225       0
 parser_read_line_low                42  5.0    0.009    0.059    0.212    0.218       0
 broadcast_input_information         42  6.0    0.011    0.030    0.204    0.216       0
 qs_energies_init_hamiltonians        1  3.0    0.000    0.000    0.198    0.198       3
 qs_env_update_s_mstruct              1  4.0    0.000    0.000    0.196    0.197       0
 contract_grid_panels_sigma_c        30  9.0    0.174    0.175    0.188    0.189       6
 sort_shells                          5  8.2    0.151    0.185    0.151    0.185       0
 calculate_rho_core                   1  5.0    0.012    0.013    0.170    0.179       4
 pw_copy                             28 10.5    0.151    0.176    0.151    0.176       2
 pw_derive                           12 11.2    0.143    0.172    0.143    0.172       1
 pw_scatter_p                        14 12.8    0.128    0.163    0.128    0.163       1
 pw_gather_p                         14 11.2    0.143    0.161    0.143    0.161       1
 compute_M_pq_inv_and_V_pq            1  8.0    0.000    0.000    0.154    0.154       0
 pw_grid_remap                        4  8.0    0.007    0.009    0.117    0.148       0
 get_mat_chi_Gamma_tau                1  7.0    0.000    0.001    0.147    0.147       0
 pw_poisson_set                       3  8.3    0.000    0.000    0.128    0.146       3
 mp_sum_im3                           5  9.0    0.110    0.142    0.110    0.142       8
 compute_M_PQ_AB                    120 11.0    0.000    0.000    0.096    0.140       0
 compute_M_PQ                       120 12.0    0.000    0.000    0.096    0.140       0
 int_operators_r12_ab_os            120 13.0    0.000    0.000    0.096    0.140       0
 int_operator_ab_os_low             120 14.0    0.043    0.056    0.096    0.140       0
 compute_contracted_RI_matrix         2  9.0    0.000    0.000    0.138    0.138       5
 compute_optimized_RI_matrix_bl       8 10.0    0.004    0.006    0.095    0.136       0
 cp_ddapc_apply_CD                    2  9.5    0.000    0.000    0.079    0.136       0
 mp_bcast_i_src                     173  7.0    0.107    0.134    0.107    0.134       8
 compute_B_PQ_exchange                5 10.8    0.000    0.000    0.037    0.132       0
 contract_grid_panels                31  8.0    0.117    0.120    0.128    0.131       8
 fft_wrap_pw1pw2_100                  4 10.8    0.006    0.010    0.092    0.130       4
 compute_B_PQ_transition              5 10.8    0.000    0.000    0.037    0.130       6
 transfer_pw2rs                       8 11.5    0.000    0.000    0.129    0.130       3
 compute_W                            1  7.0    0.000    0.000    0.126    0.126       0
 pw_integral_ab_c1d_c1d_gs            4 10.0    0.077    0.084    0.095    0.116       2
 copy_dbcsr_to_fm                   104  9.5    0.074    0.105    0.075    0.107       2
 xc_functional_eval                   1 11.0    0.000    0.000    0.070    0.106       4
 pbe_lda_eval                         1 12.0    0.070    0.106    0.070    0.106       4
 cp_fm_gemm                         434 10.5    0.095    0.099    0.095    0.099       1
 parallel_gemm_fm_gemm              431  9.6    0.000    0.000    0.095    0.099       8
 transfer_pw2rs_300                   2 12.5    0.035    0.048    0.088    0.097       2
 mp_bcast_am_src                     42  7.0    0.085    0.094    0.085    0.094       5
 get_ddapc                            2 10.5    0.000    0.000    0.034    0.092       2
 compute_Z_lP                         1  7.0    0.000    0.000    0.080    0.080       3
 compute_Z_lP_auto_ri                 1  8.0    0.000    0.000    0.080    0.080       3
 compute_d_lp_auto_ri_batch           1  9.0    0.000    0.000    0.037    0.075       1
 compute_d_lp_auto_ri_atom            1 10.0    0.011    0.031    0.036    0.074       3
 compute_fm_W_freq                   30  8.0    0.000    0.000    0.069    0.071       8
 -------------------------------------------------------------------------------

 The number of warnings for this run is : 3
 
 -------------------------------------------------------------------------------
  **** **** ******  **  PROGRAM ENDED AT                 2026-10-03 11:48:45.244
 ***** ** ***  *** **   PROGRAM RAN ON                                  n2cn0938
 **    ****   ******    PROGRAM RAN BY                                  eprop2d1
 ***** **    ** ** **   PROGRAM PROCESS ID                               1425484
  **** **  *******  **  PROGRAM STOPPED IN /scratch/hpc-prf-metdyn/eprop2d1_Jan/
                                           53_benchmark_RI_opt/418_gw100_fig5_fu
                                           ll_epsfilter_1e12_20261002/calculatio
                                           ns/rc5p0/ri2_rs03/41_Si2H6
