 DBCSR| CPU Multiplication driver                                           XSMM (U)
 DBCSR| Multrec recursion limit                                              512 (U)
 DBCSR| Multiplication stack size                                           1000 (D)
 DBCSR| Maximum elements for images                                    UNLIMITED (U)
 DBCSR| Multiplicative factor virtual images                                   1 (U)
 DBCSR| Use multiplication densification                                       T (D)
 DBCSR| Multiplication size stacks                                             3 (U)
 DBCSR| Use memory pool for CPU allocation                                     F (U)
 DBCSR| Number of 3D layers                                               SINGLE (U)
 DBCSR| Use MPI memory allocation                                              F (U)
 DBCSR| Use RMA algorithm                                                      F (U)
 DBCSR| Use Communication thread                                               T (U)
 DBCSR| Communication thread load                                             64 (D)
 DBCSR| MPI: My process id                                                     6
 DBCSR| MPI: Number of processes                                              17
 DBCSR| OMP: Current number of threads                                         7
 DBCSR| OMP: Max number of threads                                             7
 DBCSR| Split modifier for TAS multiplication algorithm                  1.0E+00 (U)


  **** **** ******  **  PROGRAM STARTED AT               2026-10-03 12:18:56.223
 ***** ** ***  *** **   PROGRAM STARTED ON                              n2cn0507
 **    ****   ******    PROGRAM STARTED BY                              eprop2d1
 ***** **    ** ** **   PROGRAM PROCESS ID                               2670648
  **** **  *******  **  PROGRAM STARTED IN /scratch/hpc-prf-metdyn/eprop2d1_Jan/
                                           53_benchmark_RI_opt/418_gw100_fig5_fu
                                           ll_epsfilter_1e12_20261002/calculatio
                                           ns/rc0p5/ri4_rs03/19_I2

 CP2K| version string:                 CP2K version 2026.2 (Development Version)
 CP2K| source code revision number:                                   0671c5aa6c
 CP2K| cp2kflags: omp libint fftw3 libxc parallel scalapack openblas            
 CP2K| is freely available from                            https://www.cp2k.org/
 CP2K| Program compiled at                                   2026-09-20 09:25:26
 CP2K| Program compiled on                                              n2login5
 CP2K| Program compiled for                                               x86_64
 CP2K| Data directory path    /scratch/hpc-prf-metdyn/eprop2d1_Jan/53_benchmark_
 CP2K| Input file name                                                 input.inp
 
 eprop2d1@n2cn0507 has created rank and process                      0   2670648
 eprop2d1@n2cn0507 has created rank and process                      1   2670649
 
 eprop2d1@n2cn0507 is running                                        2 processes

 GLOBAL| Force Environment number                                              1
 GLOBAL| Basis set file name            /scratch/hpc-prf-metdyn/eprop2d1_Jan/53_
 GLOBAL| Potential file name            /scratch/hpc-prf-metdyn/eprop2d1_Jan/53_
 GLOBAL| MM Potential file name                                     MM_POTENTIAL
 GLOBAL| Coordinate file name                                      __STD_INPUT__
 GLOBAL| Method name                                                        CP2K
 GLOBAL| Project name                                             g418_a403_m019
 GLOBAL| Run type                                                         ENERGY
 GLOBAL| FFT library                                                       FFTW3
 GLOBAL| Diagonalization library                                       ScaLAPACK
 GLOBAL| Cholesky decomposition library                                ScaLAPACK
 GLOBAL| DGEMM library                                                      BLAS
 GLOBAL| Direct generalized diagonalization requested                          F
 GLOBAL| Orthonormality check for eigenvectors                          DISABLED
 GLOBAL| Matrix multiplication library                                 ScaLAPACK
 GLOBAL| All-to-all communication in single precision                          F
 GLOBAL| Grid backend                                                       AUTO
 GLOBAL| Global print level                                                  LOW
 GLOBAL| MPI I/O enabled                                                       T
 GLOBAL| Total number of message passing processes                             2
 GLOBAL| Number of distributed systems (nodes)                                 1
 GLOBAL| Number of threads for this process                                    7
 GLOBAL| This output is from process                                           0
 GLOBAL| OpenMP stack size per thread (OMP_STACKSIZE)                       512M
 GLOBAL| CPU model name                          AMD EPYC 7763 64-Core Processor

 MEMORY| system memory details [Kb]
 MEMORY|                        rank 0           min           max       average
 MEMORY| MemTotal            263897580     263897580     263897580     263897580
 MEMORY| MemFree             248038644     248038644     248077956     248058300
 MEMORY| Buffers                282028        282028        282028        282028
 MEMORY| Cached                7247304       7247304       7247304       7247304
 MEMORY| Slab                  1942568       1942568       1942568       1942568
 MEMORY| SReclaimable           304668        304668        304668        304668
 MEMORY| MemLikelyFree       255872644     255872644     255911956     255892300


 GENERATE|  Preliminary Number of Bonds generated:                             0
 GENERATE|  Achieved consistency in connectivity generation.

 *******************************************************************************
 *******************************************************************************
 **                                                                           **
 **     #####                         ##              ##                      **
 **    ##   ##            ##          ##              ##                      **
 **   ##     ##                       ##            ######                    **
 **   ##     ##  ##   ##  ##   #####  ##  ##   ####   ##    #####    #####    **
 **   ##     ##  ##   ##  ##  ##      ## ##   ##      ##   ##   ##  ##   ##   **
 **   ##  ## ##  ##   ##  ##  ##      ####     ###    ##   ######   ######    **
 **    ##  ###   ##   ##  ##  ##      ## ##      ##   ##   ##       ##        **
 **     #######   #####   ##   #####  ##  ##  ####    ##    #####   ##        **
 **           ##                                                    ##        **
 **                                                                           **
 **                                                ... make the atoms dance   **
 **                                                                           **
 **            Copyright (C) by CP2K developers group (2000-2026)             **
 **                      J. Chem. Phys. 152, 194103 (2020)                    **
 **                                                                           **
 *******************************************************************************


 TOTAL NUMBERS AND MAXIMUM NUMBERS

  Total number of            - Atomic kinds:                                   1
                             - Atoms:                                          2
                             - Shell sets:                                     2
                             - Shells:                                        18
                             - Primitive Cartesian functions:                 14
                             - Cartesian basis functions:                     68
                             - Spherical basis functions:                     58

  Maximum angular momentum of- Orbital basis functions:                        3
                             - Local part of the GTH pseudopotential:          0
                             - Non-local part of the GTH pseudopotential:      4


 SCF PARAMETERS         Density guess:                                   RESTART
                        --------------------------------------------------------
                        max_scf:                                             500
                        max_scf_history:                                       0
                        max_diis:                                              4
                        --------------------------------------------------------
                        eps_scf:                                        1.00E-08
                        eps_scf_history:                                0.00E+00
                        eps_diis:                                       0.00E+00
                        eps_eigval:                                     1.00E-05
                        --------------------------------------------------------
                        level_shift [a.u.]:                             0.000000
                        --------------------------------------------------------
                        Outer loop SCF in use 
                        No variables optimised in outer loop
                        eps_scf                                         1.00E-08
                        max_scf                                               20
                        No outer loop optimization
                        step_size                                       5.00E-01

 Extrapolation method: initial_guess

 Number of electrons:                                                         14
 Number of occupied orbitals:                                                  7
 Number of molecular orbitals:                                                 7

 Number of orbital functions:                                                 58
 Number of independent orbital functions:                                     58


 SCF WAVEFUNCTION OPTIMIZATION

  ----------------------------------- OT ---------------------------------------
  Minimizer      : DIIS                : direct inversion
                                         in the iterative subspace
                                         using   7 DIIS vectors
                                         safer DIIS on
  Preconditioner : FULL_KINETIC        : inversion of T + eS
  Lattice FFT   : OFF
  Precond_solver : DEFAULT
  stepsize       :    0.15000000                  energy_gap     :    0.20000000
  eps_taylor     :   0.10000E-15                  max_taylor     :             4
  ----------------------------------- OT ---------------------------------------

  Step     Update method      Time    Convergence         Total energy    Change
  ------------------------------------------------------------------------------
  Decoupling Energy:                                               0.0000000000
     1 OT DIIS     0.15E+00    5.8     0.00000001       -22.9197378547 -2.29E+01
  Decoupling Energy:                                              -0.0000000000
     2 OT DIIS     0.15E+00    7.1     0.00000001       -22.9197378547 -1.10E-13
  Decoupling Energy:                                               0.0000000000
     3 OT DIIS     0.15E+00    7.2     8.6700E-09       -22.9197378547  4.97E-14

  *** SCF run converged in     3 steps ***


  Electronic density on regular grids:        -14.0000000000        0.0000000000
  Core density on regular grids:               14.0000000000       -0.0000000000
  Total charge density on r-space grids:       -0.0000000000
  Total charge density g-space grids:          -0.0000000000

  Overlap energy of the core charge distribution:               0.00000000193460
  Self energy of the core charge distribution:                -49.36658856042867
  Core Hamiltonian energy:                                      9.84354466602205
  Hartree energy:                                              21.07709839701389
  Exchange-correlation energy:                                 -4.47379235929057

  Total energy:                                               -22.91973785474871

  outer SCF iter =    1 RMS gradient =   0.87E-08 energy =        -22.9197378547
  outer SCF loop converged in   1 iterations or    3 steps

  
 -------------------------------------------------------------------------------
 -                                                                             -
 -                          BANDSTRUCTURE CALCULATION                          -
 -                                                                             -
 -------------------------------------------------------------------------------
  
 Number of occupied molecular orbitals (MOs) = Number of occupied bands        7
 Number of unoccupied (= virtual) MOs = Number of unoccupied bands            51
 Number of Gaussian basis functions for MOs                                   58
  
 -------------------------------------------------------------------------------
 -                                                                             -
 -                                GW CALCULATION                               -
 -                                                                             -
 -------------------------------------------------------------------------------
  
 Input: Number of time/freq. points                                           30
 Input: ω_max for fitting Σ(iω) (eV)                                        10.0
 Input: Filter threshold for sparse tensor operations                    1.0E-12
 Input: Apply Hedin shift                                                      F
 Detected: Available memory per MPI process                              70.6 GB
 
 Input: RI-RS Tikhonov regularization                                   1.00E-04
 Input: AO grid hard cutoff radius                                        8.00 Å
 Input: MPI ranks per atom in Z_lP solve                                      -1
 Input: Keep sparsity in χ/G/W panels                                          T
 Input: GW flavour                                                          G0W0
 
 Input: RI-RS grid optimization activated                                      T
 Input: RS points per AO function                                            3.0
 Input: Cutoff radius for atomic clusters                                  0.5 Å
 Input: Maximum grid optimization iterations                                 300
 
 Input: AUTO_RI basis optimization activated:                                  T
 Input: AUTO_RI number of RI functions per AO function:                      4.0
 Input: AUTO_RI frontier orbital window:                                  5.0 eV
 Input: AUTO_RI neighbor radius:                                           3.0 Å
 
 Cutoff radius for the truncated Coulomb operator in RI metric:            7.0 Å
 Regularization parameter of RI                                          0.0E+00
 Regularization parameter of minimax grids                               1.0E-06
 
 AUTO_RI| Number of automatic RI functions for χ, ε, W:                      216
 AUTO_RI| Total RI basis optimization time:                                1.1 s
  Decoupling Energy:                                               0.0000000000
 
 SCF direct band gap (eV)                                                   1.77
 Max. SCF eigval diff. (eV)                                               122.28
 E-Range for minimax grid                                                  68.90
 Number of Padé parameters for analytic continuation:                         16
 
 RI-RS basis radii (Å):
     Kind  Elem     r_AO (Å)     r_RI (Å)
        1    I        12.4398        8.3031
 
 Started RI-RS grid optimization
 RI-RS grid initial normalized error                          6.748190037892E-02
 RI-RS grid optimization completed, execution time:                        0.5 s
 Normalized 3C error:                                                    3.9E-04
 Maximum absolute 3C error:                                              7.7E-02
 Optimized points outside molecular Voronoi cells:                            16 / 174
 Total grid points used for RI-RS:                                           174
 
 RI-RS grid row-blocks of ϕ_μ(r_l)                                             6
 RI-RS grid points per block (max)                                            32
 
 Percentage of non-zero matrix elements in ϕ_μ(r_l)                     100.00 %
 
 RI-RS memory estimate per MPI process:
   Available memory per process (system)                                87.47 GB
   Required for Z_lP (dense upper bound; actual is sparser)              0.00 GB
   Required for χ, W, Σ panels (peak per panel step)                     0.00 GB
   Required for Z_lP solve peak (D_local+ϕ, worst-case atom)             0.00 GB
   Worst-case local-grid number of grid points:                              174
   Worst-case memory D_local:                                            0.00 GB
 
 Started computing Z_lP
 Computed Z_lP (MPI rank 0) for atom          1 /  1,    Execution time    0.1 s
 Computed Z_lP (all MPI ranks) for all atoms,            Execution time    0.1 s

 Memory per MPI process after computing Z_lP:
 Available memory per MPI process                               87.7 GB
 Used memory per MPI process                                     1.6 GB
 Number of batches for χ, Σ matrices                                           1
 
 Percentage of non-zero matrix elements in Z_lP                         100.00 %
 Percentage of non-zero matrix elements in G_ll', χ_ll', W_ll'          100.00 %
 Percentage of non-zero matrix elements in χ_PQ for time point 1        100.00 %
 
 Computed χ(iτ,k=0) for time point            1 / 30,    Execution time    0.0 s
 Computed χ(iτ,k=0) for time point            2 / 30,    Execution time    0.0 s
 Computed χ(iτ,k=0) for time point            3 / 30,    Execution time    0.0 s
 Computed χ(iτ,k=0) for time point            4 / 30,    Execution time    0.0 s
 Computed χ(iτ,k=0) for time point            5 / 30,    Execution time    0.0 s
 Computed χ(iτ,k=0) for time point            6 / 30,    Execution time    0.0 s
 Computed χ(iτ,k=0) for time point            7 / 30,    Execution time    0.0 s
 Computed χ(iτ,k=0) for time point            8 / 30,    Execution time    0.0 s
 Computed χ(iτ,k=0) for time point            9 / 30,    Execution time    0.0 s
 Computed χ(iτ,k=0) for time point           10 / 30,    Execution time    0.0 s
 Computed χ(iτ,k=0) for time point           11 / 30,    Execution time    0.0 s
 Computed χ(iτ,k=0) for time point           12 / 30,    Execution time    0.0 s
 Computed χ(iτ,k=0) for time point           13 / 30,    Execution time    0.0 s
 Computed χ(iτ,k=0) for time point           14 / 30,    Execution time    0.0 s
 Computed χ(iτ,k=0) for time point           15 / 30,    Execution time    0.0 s
 Computed χ(iτ,k=0) for time point           16 / 30,    Execution time    0.0 s
 Computed χ(iτ,k=0) for time point           17 / 30,    Execution time    0.0 s
 Computed χ(iτ,k=0) for time point           18 / 30,    Execution time    0.0 s
 Computed χ(iτ,k=0) for time point           19 / 30,    Execution time    0.0 s
 Computed χ(iτ,k=0) for time point           20 / 30,    Execution time    0.0 s
 Computed χ(iτ,k=0) for time point           21 / 30,    Execution time    0.0 s
 Computed χ(iτ,k=0) for time point           22 / 30,    Execution time    0.0 s
 Computed χ(iτ,k=0) for time point           23 / 30,    Execution time    0.0 s
 Computed χ(iτ,k=0) for time point           24 / 30,    Execution time    0.0 s
 Computed χ(iτ,k=0) for time point           25 / 30,    Execution time    0.0 s
 Computed χ(iτ,k=0) for time point           26 / 30,    Execution time    0.0 s
 Computed χ(iτ,k=0) for time point           27 / 30,    Execution time    0.0 s
 Computed χ(iτ,k=0) for time point           28 / 30,    Execution time    0.0 s
 Computed χ(iτ,k=0) for time point           29 / 30,    Execution time    0.0 s
 Computed χ(iτ,k=0) for time point           30 / 30,    Execution time    0.0 s
 
 Computed W(iτ),                                         Execution time    0.1 s
 
 Computed Σ^x(k=0),                                      Execution time    0.0 s
 
 Computed Σ^c(iτ) for time point              1 / 30,    Execution time    0.0 s
 Computed Σ^c(iτ) for time point              2 / 30,    Execution time    0.0 s
 Computed Σ^c(iτ) for time point              3 / 30,    Execution time    0.0 s
 Computed Σ^c(iτ) for time point              4 / 30,    Execution time    0.0 s
 Computed Σ^c(iτ) for time point              5 / 30,    Execution time    0.0 s
 Computed Σ^c(iτ) for time point              6 / 30,    Execution time    0.0 s
 Computed Σ^c(iτ) for time point              7 / 30,    Execution time    0.0 s
 Computed Σ^c(iτ) for time point              8 / 30,    Execution time    0.0 s
 Computed Σ^c(iτ) for time point              9 / 30,    Execution time    0.0 s
 Computed Σ^c(iτ) for time point             10 / 30,    Execution time    0.0 s
 Computed Σ^c(iτ) for time point             11 / 30,    Execution time    0.0 s
 Computed Σ^c(iτ) for time point             12 / 30,    Execution time    0.0 s
 Computed Σ^c(iτ) for time point             13 / 30,    Execution time    0.0 s
 Computed Σ^c(iτ) for time point             14 / 30,    Execution time    0.0 s
 Computed Σ^c(iτ) for time point             15 / 30,    Execution time    0.0 s
 Computed Σ^c(iτ) for time point             16 / 30,    Execution time    0.0 s
 Computed Σ^c(iτ) for time point             17 / 30,    Execution time    0.0 s
 Computed Σ^c(iτ) for time point             18 / 30,    Execution time    0.0 s
 Computed Σ^c(iτ) for time point             19 / 30,    Execution time    0.0 s
 Computed Σ^c(iτ) for time point             20 / 30,    Execution time    0.0 s
 Computed Σ^c(iτ) for time point             21 / 30,    Execution time    0.0 s
 Computed Σ^c(iτ) for time point             22 / 30,    Execution time    0.0 s
 Computed Σ^c(iτ) for time point             23 / 30,    Execution time    0.0 s
 Computed Σ^c(iτ) for time point             24 / 30,    Execution time    0.0 s
 Computed Σ^c(iτ) for time point             25 / 30,    Execution time    0.0 s
 Computed Σ^c(iτ) for time point             26 / 30,    Execution time    0.0 s
 Computed Σ^c(iτ) for time point             27 / 30,    Execution time    0.0 s
 Computed Σ^c(iτ) for time point             28 / 30,    Execution time    0.0 s
 Computed Σ^c(iτ) for time point             29 / 30,    Execution time    0.0 s
 Computed Σ^c(iτ) for time point             30 / 30,    Execution time    0.0 s
 
 SCF valence band maximum (eV):                                           -6.205
 SCF conduction band minimum (eV):                                        -4.430
 SCF indirect band gap (eV):                                               1.775
 SCF direct band gap (eV):                                                 1.775
 
 G0W0 valence band maximum (eV):                                          -8.785
 G0W0 conduction band minimum (eV):                                       -1.560
 G0W0 indirect band gap (eV):                                              7.225
 G0W0 direct band gap (eV):                                                7.225
 
 Hartree-Fock with SCF orbitals valence band maximum (eV):                -9.536
 Hartree-Fock with SCF orbitals conduction band minimum (eV)              -0.337
 Hartree-Fock with SCF orbitals indirect band gap (eV):                    9.200
 Hartree-Fock with SCF orbitals direct band gap (eV):                      9.200

 ENERGY| Total FORCE_EVAL ( QS ) energy [hartree]            -22.919737854748714

 -------------------------------------------------------------------------------
 -                                                                             -
 -                                DBCSR STATISTICS                             -
 -                                                                             -
 -------------------------------------------------------------------------------
 COUNTER                                    TOTAL       BLAS       SMM       ACC
 flops     7 x     7 x     7                 2058     100.0%      0.0%      0.0%     
 flops     7 x     7 x    29                62524     100.0%      0.0%      0.0%     
 flops    29 x     7 x     7                79576     100.0%      0.0%      0.0%     
 flops    29 x    29 x     7               141288     100.0%      0.0%      0.0%     
 flops    29 x     7 x    29               659344     100.0%      0.0%      0.0%     
 flops    23 x    29 x    23              9818240     100.0%      0.0%      0.0%     
 flops    29 x    29 x    23             12070032     100.0%      0.0%      0.0%     
 flops    23 x   108 x    23             21024576     100.0%      0.0%      0.0%     
 flops    23 x    23 x   108             21024576     100.0%      0.0%      0.0%     
 flops    23 x    23 x    29             24791056     100.0%      0.0%      0.0%     
 flops    32 x    29 x    23             28003328     100.0%      0.0%      0.0%     
 flops    23 x    29 x    32             28003328     100.0%      0.0%      0.0%     
 flops    23 x    29 x    29             31258288     100.0%      0.0%      0.0%     
 flops    29 x    29 x    32             35200896     100.0%      0.0%      0.0%     
 flops    23 x   108 x    32             56595456     100.0%      0.0%      0.0%     
 flops    32 x   108 x    23             58503168     100.0%      0.0%      0.0%     
 flops    32 x    23 x   108             58503168     100.0%      0.0%      0.0%     
 flops    23 x    32 x   108             58503168     100.0%      0.0%      0.0%     
 flops    32 x    23 x    29             68983808     100.0%      0.0%      0.0%     
 flops    23 x    32 x    29             68983808     100.0%      0.0%      0.0%     
 flops    32 x    29 x    32             77922304     100.0%      0.0%      0.0%     
 flops    32 x    29 x    29             86979584     100.0%      0.0%      0.0%     
 flops   108 x   108 x    23             94431744     100.0%      0.0%      0.0%     
 flops    23 x   108 x   108             98724096     100.0%      0.0%      0.0%     
 flops    32 x   108 x    32            157483008     100.0%      0.0%      0.0%     
 flops    32 x    32 x   108            162791424     100.0%      0.0%      0.0%     
 flops    32 x    32 x    29            191954944     100.0%      0.0%      0.0%     
 flops   108 x   108 x    32            262766592     100.0%      0.0%      0.0%     
 flops    32 x   108 x   108            274710528     100.0%      0.0%      0.0%     
 flops inhomo. stacks                           0       0.0%      0.0%      0.0%
 flops total                         1.989976E+09     100.0%      0.0%      0.0%
 flops max/rank                    995.043794E+06     100.0%      0.0%      0.0%
 matmuls inhomo. stacks                         0       0.0%      0.0%      0.0%
 matmuls total                              18083     100.0%      0.0%      0.0%
 number of processed stacks                  6613     100.0%      0.0%      0.0%
 average stack size                                     2.7       0.0       0.0
 marketing flops                     2.641504E+09
 -------------------------------------------------------------------------------
 # multiplications                            533
 max memory usage/rank              19.210596E+09
 # max total images/rank                        2
 # max 3D layers                                1
 # MPI messages exchanged                    1066
 MPI messages size (bytes):
  total size                        54.313464E+06
  min size                           0.000000E+00
  max size                         186.624000E+03
  average size                      50.950715E+03
 MPI breakdown and total messages size (bytes):
             size <=      128                 135                        0
       128 < size <=     8192                  71                   100856
      8192 < size <=    32768                 206                  2829472
     32768 < size <=   131072                 442                 17842656
    131072 < size <=  4194304                 212                 33540480
   4194304 < size <= 16777216                   0                        0
  16777216 < size                               0                        0
 -------------------------------------------------------------------------------

 *** WARNING in dbcsr_mm.F:301 :: Using a non-square number of MPI ranks ***
 *** might lead to poor performance. Used ranks: 2 Suggested: 1 4        ***

 -------------------------------------------------------------------------------
 -                                                                             -
 -                      DBCSR MESSAGE PASSING PERFORMANCE                      -
 -                                                                             -
 -------------------------------------------------------------------------------
 ROUTINE             CALLS      AVE VOLUME [Bytes]
 MP_Bcast               30                     12.
 MP_Allreduce         2316                      9.
 MP_Alltoall          3469                  21170.
 MP_ISend             3502                  10924.
 MP_IRecv             3512                  10873.
 -------------------------------------------------------------------------------

 -------------------------------------------------------------------------------
 -                                                                             -
 -                                GRID STATISTICS                              -
 -                                                                             -
 -------------------------------------------------------------------------------
 LP    KERNEL             BACKEND                              COUNT     PERCENT
 6     collocate ortho    CPU                                    588      49.92%
 6     integrate ortho    CPU                                    588      49.92%
 0     collocate general  CPU                                      2       0.17%
 -------------------------------------------------------------------------------

 -------------------------------------------------------------------------------
 -                                                                             -
 -                          OFFLOAD MEMPOOL STATISTICS                         -
 -                                                                             -
 -------------------------------------------------------------------------------
 Memory consumption                Number of allocations  Used [MiB]  Size [MiB]
 Host                                                  6         260    22034547
 -------------------------------------------------------------------------------

 MEMORY| Estimated peak process memory [MiB]                                7299

 -------------------------------------------------------------------------------
 -                                                                             -
 -                         MESSAGE PASSING PERFORMANCE                         -
 -                                                                             -
 -------------------------------------------------------------------------------

 ROUTINE             CALLS      AVE VOLUME [Bytes]
 MP_Group                5
 MP_Bcast              696                 324744.
 MP_Allreduce         1871                   1937.
 MP_Sync                10
 MP_Alltoall            62              558651210.
 MP_SendRecv            17               38398118.
 MP_ISendRecv           16               34048000.
 MP_Wait                16
 MP_comm_split          10
 -------------------------------------------------------------------------------


 -------------------------------------------------------------------------------
 -                                                                             -
 -                           R E F E R E N C E S                               -
 -                                                                             -
 -------------------------------------------------------------------------------
 
 CP2K version 2026.2 (Development Version), the CP2K developers group (2026).
 CP2K is freely available from https://www.cp2k.org/ .
 
 M. Iannuzzi, J. Wilhelm, F. Stein, A. Bussy, H. Elgabarty, D. Golze, A. Hehn, 
 M. Graml, S. Marek, B. Sertcan Gökmen, C. Schran, H. Forbert, R. Z. 
 Khaliullin, A. Kozhevnikov, M. Taillefumier, R. Meli, V. V. Rybkin, M. Brehm, 
 R. Schade, O. Schütt, J. V. Pototschnig, H. Mirhosseini, A. Knüpfer, D. Marx, 
 M. Krack, J. Hutter, T. D. Kühne.
 J. Phys. Chem. B 130, 1237-1310 (2026).
 The CP2K Program Package Made Simple.
 https://doi.org/10.1021/acs.jpcb.5c05851

 M. Graml, K. Zollner, D. Hernangómez-Pérez, P. E. Faria Junior, J. Wilhelm.
 J. Chem. Theory Comput. 20, 2202-2208 (2024).
 Low-scaling GW algorithm applied to twisted transition-metal dichalcogenide 
 heterobilayers.
 https://doi.org/10.1021/acs.jctc.3c01230

 T. D. Kühne, M. Iannuzzi, M. Del Ben, V. V. Rybkin, P. Seewald, F. Stein, T. 
 Laino, R. Z. Khaliullin, O. Schütt, F. Schiffmann, D. Golze, J. Wilhelm, S. 
 Chulkov, M. H. Bani-Hashemian, V. Weber, U. Borstnik, M. Taillefumier, A. S. 
 Jakobovits, A. Lazzaro, H. Pabst, T. Müller, R. Schade, M. Guidon, S. 
 Andermatt, N. Holmberg, G. K. Schenter, A. Hehn, A. Bussy, F. Belleflamme, G. 
 Tabacchi, A. Glöß, M. Lass, I. Bethune, C. J. Mundy, C. Plessl, M. Watkins, 
 J. VandeVondele, M. Krack, J. Hutter.
 J. Chem. Phys. 152, 194103 (2020).
 CP2K: An electronic structure and molecular dynamics software package - 
 Quickstep: Efficient and accurate electronic structure calculations.
 https://doi.org/10.1063/5.0007045

 O. Schuett, P. Messmer, J. Hutter, J. VandeVondele.
 Electronic Structure Calculations on Graphics Processing Units, 173-190 (2016).
 GPU-Accelerated Sparse Matrix-Matrix Multiplication for Linear Scaling Density 
 Functional Theory.
 https://doi.org/10.1002/9781118670712.ch8

 U. Borstnik, J. VandeVondele, V. Weber, J. Hutter.
 Parallel Comput. 40, 47-58 (2014).
 Sparse matrix multiplication: The distributed block-compressed sparse row 
 library.
 https://doi.org/10.1016/j.parco.2014.03.012

 J. VandeVondele, J. Hutter.
 J. Chem. Phys. 127, 114105 (2007).
 Gaussian basis sets for accurate calculations on molecular systems in gas and 
 condensed phases.
 https://doi.org/10.1063/1.2770708

 J. VandeVondele, M. Krack, F. Mohamed, M. Parrinello, T. Chassaing, J. Hutter.
 Comput. Phys. Commun. 167, 103-128 (2005).
 QUICKSTEP: Fast and accurate density functional calculations using a mixed 
 Gaussian and plane waves approach.
 https://doi.org/10.1016/j.cpc.2004.12.014

 M. Krack.
 Theor. Chem. Acc. 114, 145-152 (2005).
 Pseudopotentials for H to Kr optimized for gradient-corrected 
 exchange-correlation functionals.
 https://doi.org/10.1007/s00214-005-0655-y

 M. Frigo, S. G. Johnson.
 Proc. IEEE 93, 216-231 (2005).
 The design and implementation of FFTW3.
 https://doi.org/10.1109/JPROC.2004.840301

 J. VandeVondele, J. Hutter.
 J. Chem. Phys. 118, 4365-4369 (2003).
 An efficient orbital transformation method for electronic structure 
 calculations.
 https://doi.org/10.1063/1.1543154

 C. Hartwigsen, S. Goedecker, J. Hutter.
 Phys. Rev. B 58, 3641-3662 (1998).
 Relativistic separable dual-space Gaussian pseudopotentials from H to Rn.
 https://doi.org/10.1103/PhysRevB.58.3641

 G. Lippert, J. Hutter, M. Parrinello.
 Mol. Phys. 92, 477-487 (1997).
 A hybrid Gaussian and plane wave density functional scheme.
 https://doi.org/10.1080/002689797170220

 S. Goedecker, M. Teter, J. Hutter.
 Phys. Rev. B 54, 1703-1710 (1996).
 Separable dual-space Gaussian pseudopotentials.
 https://doi.org/10.1103/PhysRevB.54.1703

 J. P. Perdew, K. Burke, M. Ernzerhof.
 Phys. Rev. Lett. 77, 3865-3868 (1996).
 Generalized gradient approximation made simple.
 https://doi.org/10.1103/PhysRevLett.77.3865

 P. E. Blöchl.
 J. Chem. Phys. 103, 7422-7428 (1995).
 Electrostatic decoupling of periodic images of plane‐wave‐expanded 
 densities and derived atomic point charges.
 https://doi.org/10.1063/1.470314

 R. H. Byrd, P. H. Lu, J. Nocedal, C. Y. Zhu.
 SIAM J. Sci. Comput. 16, 1190-1208 (1995).
 A Limited Memory Algorithm for Bound Constrained Optimization.
 https://doi.org/10.1137/0916069


 -------------------------------------------------------------------------------
 -                                                                             -
 -                                T I M I N G                                  -
 -                                                                             -
 -------------------------------------------------------------------------------
 SUBROUTINE                       CALLS  ASD         SELF TIME        TOTAL TIME MAXRANK
                                MAXIMUM       AVERAGE  MAXIMUM  AVERAGE  MAXIMUM
 CP2K                                 1  1.0    0.011    0.016   31.781   31.783       0
 qs_energies                          1  2.0    0.000    0.000   28.102   28.102       1
 scf_env_do_scf                       1  3.0    0.000    0.000   21.643   21.643       0
 qs_ks_build_kohn_sham_matrix         4  7.2    0.005    0.005   18.707   18.707       1
 qs_ks_update_qs_env                  4  5.0    0.000    0.000   16.969   16.969       0
 rebuild_ks_matrix                    3  6.0    0.000    0.000   16.968   16.968       0
 fft_wrap_pw1pw2                     62 10.2    0.002    0.002   16.037   16.145       0
 scf_env_do_scf_inner_loop            3  4.0    0.000    0.001   15.853   15.853       0
 fft_wrap_pw1pw2_300                 38 11.6    0.766    0.834   15.073   15.168       0
 qs_vxc_create                        4  8.2    0.000    0.000   11.727   11.779       0
 xc_vxc_pw_create                     3  9.0    0.280    0.300   11.727   11.779       0
 fft3d_ps                            62 12.2    6.048    6.499   10.374   10.884       0
 xc_pw_derive                        18 11.0    0.000    0.000    8.680    8.804       0
 qs_rho_update_rho_low                4  5.0    0.000    0.000    6.230    6.230       1
 calculate_rho_elec                   4  6.0    0.201    0.201    6.230    6.230       0
 init_scf_loop                        1  4.0    0.000    0.000    5.789    5.789       0
 xc_pw_divergence                     3 10.0    0.000    0.000    5.613    5.738       1
 xc_rho_set_and_dset_create           3 10.0    0.286    0.364    5.663    5.727       0
 density_rs2pw                        4  7.0    0.000    0.000    4.449    4.544       1
 qs_energies_properties               1  3.0    0.000    0.000    4.164    4.164       1
 post_scf_bandstructure               1  4.0    0.000    0.000    4.164    4.164       1
 run_gw                               1  5.0    0.000    0.000    4.151    4.159       0
 mp_alltoall_z22v                    62 14.2    2.594    3.645    2.594    3.645       1
 qs_init_subsys                       1  2.0    0.001    0.001    3.157    3.157       0
 qs_env_setup                         1  3.0    0.000    0.000    3.155    3.156       0
 qs_env_rebuild_pw_env                2  3.5    0.000    0.000    3.155    3.156       0
 pw_env_rebuild                       1  5.0    0.000    0.000    3.155    3.156       0
 pw_grid_setup                        5  5.2    0.000    0.000    3.151    3.152       0
 pw_grid_setup_internal               5  6.2    0.042    0.042    3.151    3.152       0
 create_and_init_bs_env_for_gw        1  6.0    0.009    0.010    3.086    3.127       0
 sum_up_and_integrate                 4  8.2    0.000    0.000    2.926    2.933       0
 pw_grid_sort                         5  7.2    2.030    2.060    2.844    2.878       0
 integrate_v_rspace                   4  9.2    0.000    0.000    2.858    2.858       0
 potential_pw2rs                      4 10.2    0.012    0.012    2.823    2.823       0
 x_to_yz                             32 13.8    1.056    1.113    2.383    2.823       0
 pw_gather_p                         30 11.6    2.292    2.503    2.292    2.503       0
 yz_to_x                             30 12.6    0.671    0.706    1.940    2.460       0
 qs_ks_ddapc                          4  8.2    0.000    0.000    2.095    2.096       1
 pw_scatter_p                        32 12.8    1.676    1.766    1.676    1.766       0
 compute_V_xc                         1  7.0    0.000    0.000    1.739    1.739       0
 pw_poisson_solve                     4  8.2    0.000    0.000    1.679    1.722       0
 grid_collocate_task_list             4  7.0    1.534    1.669    1.534    1.669       0
 init_scf_run                         1  3.0    0.000    0.000    1.613    1.613       0
 scf_env_initial_rho_setup            1  4.0    0.000    0.000    1.613    1.613       0
 pw_derive                           30 11.3    1.487    1.561    1.487    1.561       0
 pw_copy                             60 10.5    1.284    1.291    1.284    1.291       0
 generate_auto_ri_basis               1  7.0    0.000    0.000    1.106    1.106       0
 gw_calc_ri_rs_non_periodic           1  6.0    0.000    0.000    1.066    1.100       0
 fft_wrap_pw1pw2_100                  8 10.6    0.037    0.042    0.836    1.028       0
 transfer_rs2pw                      17  7.9    0.000    0.000    0.873    1.013       1
 pw_poisson_set                       5  8.6    0.000    0.000    0.885    0.928       1
 transfer_rs2pw_300                   5  8.6    0.528    0.577    0.724    0.881       1
 sort_shells                          5  8.2    0.814    0.818    0.814    0.818       0
 pw_integral_ab_c1d_c1d_gs            8  9.8    0.712    0.721    0.780    0.788       1
 transfer_pw2rs                      16 11.2    0.000    0.000    0.711    0.711       0
 xc_functional_eval                   3 11.0    0.000    0.000    0.698    0.709       0
 pbe_lda_eval                         3 12.0    0.698    0.709    0.698    0.709       0
 qs_energies_init_hamiltonians        1  3.0    0.000    0.000    0.682    0.682       1
 qs_env_update_s_mstruct              1  4.0    0.000    0.000    0.679    0.679       1
 pw_axpy                             45  7.8    0.609    0.634    0.609    0.634       0
 mp_sum_dm                            6  9.5    0.317    0.633    0.317    0.633       1
 optimize_ri_rs_grid                  1  7.0    0.000    0.000    0.585    0.627       0
 calculate_rho_core                   1  5.0    0.052    0.052    0.604    0.624       0
 compute_AB_optimized_RI_basis        1  8.0    0.000    0.000    0.609    0.609       0
 compute_AB_optimized_RI_basis_       1  9.0    0.000    0.000    0.304    0.608       0
 compute_B_PQ_AB                      1 10.0    0.080    0.160    0.293    0.586       0
 cp_ddapc_apply_CD                    4  9.2    0.000    0.001    0.534    0.577       0
 transfer_pw2rs_300                   4 12.2    0.434    0.440    0.553    0.556       0
 rirs_grid_LBFGS                      1  8.0    0.071    0.073    0.511    0.511       0
 create_qs_kind_set                   1  2.0    0.000    0.000    0.487    0.493       1
 read_qs_kind                         1  3.0    0.187    0.188    0.487    0.493       0
 pw_copy_to_array                    30 11.6    0.478    0.483    0.478    0.483       0
 mp_bcast_dm                          8 10.4    0.238    0.475    0.238    0.475       1
 compute_AA_optimized_RI_basis        1  8.0    0.000    0.000    0.457    0.457       0
 evaluate_rirs_grid_cluster         301  9.0    0.056    0.063    0.401    0.435       0
 pw_copy_from_array                  32 12.8    0.404    0.425    0.404    0.425       0
 initialize_auto_ri_integrals         2  9.0    0.196    0.391    0.392    0.392       0
 mp_sum_d                           751  5.0    0.236    0.358    0.236    0.358       1
 contract_B_PQ                        6 11.5    0.162    0.314    0.174    0.338       0
 mp_sendrecv_dv                      17  9.9    0.241    0.322    0.241    0.322       1
 parser_read_line                107343  4.0    0.018    0.018    0.300    0.306       0
 parser_read_line_low               109  5.0    0.110    0.214    0.282    0.288       0
 broadcast_input_information        109  6.0    0.029    0.040    0.172    0.283       0
 setup_time_and_frequency_minim       1  7.0    0.000    0.000    0.202    0.242       0
 build_minimax_time_frequency_g       1  8.0    0.000    0.000    0.202    0.242       0
 fit_l_sq_weights                     3  9.0    0.202    0.242    0.202    0.242       0
 mp_bcast_i_src                     441  7.0    0.115    0.230    0.115    0.230       1
 pw_zero                             35  6.3    0.218    0.221    0.218    0.221       1
 mp_waitall_1                        16 13.2    0.192    0.211    0.192    0.211       1
 pw_grid_assign                       5  7.2    0.192    0.197    0.195    0.198       0
 get_ddapc                            4 10.2    0.000    0.000    0.137    0.180       1
 compute_Sigma_c_and_QP_energie       1  7.0    0.000    0.000    0.171    0.178       1
 compute_B_PQ_transition              3 10.5    0.000    0.000    0.087    0.169       0
 compute_B_PQ_exchange                3 10.5    0.000    0.000    0.087    0.169       0
 compute_Sigma_c                      1  8.0    0.002    0.003    0.156    0.156       0
 rirs_cluster_gradient_coordina     301 10.0    0.135    0.135    0.135    0.135       1
 transfer_rs2pw_100                   4  9.0    0.087    0.094    0.120    0.131       1
 transfer_pw2rs_100                   4 12.2    0.070    0.082    0.130    0.131       0
 compute_W                            1  7.0    0.000    0.000    0.131    0.131       0
 abc_contract_xsmm                  228 10.7    0.087    0.131    0.087    0.131       0
 contract_grid_panels_sigma_c        30  9.0    0.115    0.115    0.127    0.128       1
 pw_multiply_with                     4  9.2    0.121    0.122    0.121    0.122       0
 pw_scale                            13  9.8    0.112    0.118    0.112    0.118       0
 fft_wrap_pw1pw2_40                   8 10.6    0.007    0.007    0.108    0.116       0
 pw_grid_remap                        4  8.0    0.028    0.028    0.067    0.104       0
 get_mat_chi_Gamma_tau                1  7.0    0.000    0.001    0.097    0.097       0
 cp_ddapc_init                        1  5.0    0.000    0.000    0.074    0.095       1
 cp_ddapc_create                      1  6.0    0.000    0.000    0.074    0.095       0
 contract_grid_panels                31  8.0    0.079    0.079    0.088    0.088       0
 initialize_ri_rs_grid                1  8.0    0.003    0.003    0.045    0.086       0
 rirs_cluster_gradient_products     301 10.0    0.078    0.086    0.078    0.086       0
 compute_Z_lP                         1  7.0    0.000    0.000    0.077    0.077       0
 compute_Z_lP_auto_ri                 1  8.0    0.000    0.000    0.077    0.077       0
 mp_sum_im3                           5  9.0    0.039    0.077    0.039    0.077       1
 compute_d_lp_auto_ri_batch           1  9.0    0.000    0.000    0.074    0.075       0
 compute_d_lp_auto_ri_atom            1 10.0    0.007    0.008    0.074    0.075       0
 compute_fm_W_freq                   30  8.0    0.000    0.000    0.073    0.074       0
 ddapc_eval_gfunc                     1  7.0    0.062    0.072    0.062    0.072       1
 cp_fm_gemm                         434 10.5    0.069    0.070    0.069    0.070       1
 parallel_gemm_fm_gemm              431  9.6    0.000    0.000    0.068    0.070       0
 pw_poisson_rebuild                   4  9.2    0.047    0.050    0.047    0.050       0
 xc_pw_smooth                         3 10.0    0.000    0.000    0.042    0.049       0
 rirs_cluster_residual              301 10.0    0.038    0.043    0.038    0.043       0
 rirs_cluster_AO_products           301 10.0    0.036    0.043    0.036    0.043       0
 compute_M_pq_inv_and_V_pq            1  8.0    0.000    0.000    0.040    0.040       1
 copy_dbcsr_to_fm                   104  9.5    0.030    0.039    0.031    0.040       1
 compute_fm_chi_Gamma_freq           30  8.0    0.022    0.025    0.035    0.035       0
 mp_bcast_am_src                    109  7.0    0.027    0.035    0.027    0.035       1
 build_3c_integral_block_auto_r      12 11.0    0.035    0.035    0.035    0.035       0
 grid_integrate_task_list             4 10.2    0.035    0.035    0.035    0.035       0
 compute_M_PQ_AB                     16 11.0    0.000    0.000    0.025    0.034       0
 compute_M_PQ                        16 12.0    0.000    0.000    0.025    0.034       0
 int_operators_r12_ab_os             16 13.0    0.000    0.000    0.025    0.034       0
 int_operator_ab_os_low              16 14.0    0.009    0.012    0.025    0.034       0
 compute_contracted_RI_matrix         2  9.0    0.000    0.000    0.034    0.034       0
 compute_B_PQ_AA                      2  9.0    0.000    0.000    0.023    0.034       0
 compute_optimized_RI_matrix_bl       4 10.0    0.006    0.007    0.027    0.033       0
 build_3c_integral_block_auto_r      12 11.0    0.000    0.000    0.032    0.032       0
 rirs_cluster_D_ll                  301 10.0    0.027    0.032    0.027    0.032       0
 -------------------------------------------------------------------------------

 The number of warnings for this run is : 0
 
 -------------------------------------------------------------------------------
  **** **** ******  **  PROGRAM ENDED AT                 2026-10-03 12:19:29.860
 ***** ** ***  *** **   PROGRAM RAN ON                                  n2cn0507
 **    ****   ******    PROGRAM RAN BY                                  eprop2d1
 ***** **    ** ** **   PROGRAM PROCESS ID                               2670648
  **** **  *******  **  PROGRAM STOPPED IN /scratch/hpc-prf-metdyn/eprop2d1_Jan/
                                           53_benchmark_RI_opt/418_gw100_fig5_fu
                                           ll_epsfilter_1e12_20261002/calculatio
                                           ns/rc0p5/ri4_rs03/19_I2
