 DBCSR| CPU Multiplication driver                                           XSMM (U)
 DBCSR| Multrec recursion limit                                              512 (U)
 DBCSR| Multiplication stack size                                           1000 (D)
 DBCSR| Maximum elements for images                                    UNLIMITED (U)
 DBCSR| Multiplicative factor virtual images                                   1 (U)
 DBCSR| Use multiplication densification                                       T (D)
 DBCSR| Multiplication size stacks                                             3 (U)
 DBCSR| Use memory pool for CPU allocation                                     F (U)
 DBCSR| Number of 3D layers                                               SINGLE (U)
 DBCSR| Use MPI memory allocation                                              F (U)
 DBCSR| Use RMA algorithm                                                      F (U)
 DBCSR| Use Communication thread                                               T (U)
 DBCSR| Communication thread load                                             30 (D)
 DBCSR| MPI: My process id                                                     7
 DBCSR| MPI: Number of processes                                               8
 DBCSR| OMP: Current number of threads                                        16
 DBCSR| OMP: Max number of threads                                            16
 DBCSR| Split modifier for TAS multiplication algorithm                  1.0E+00 (U)


  **** **** ******  **  PROGRAM STARTED AT               2026-09-15 20:26:42.308
 ***** ** ***  *** **   PROGRAM STARTED ON                              n2cn0444
 **    ****   ******    PROGRAM STARTED BY                              eprop2d1
 ***** **    ** ** **   PROGRAM PROCESS ID                                121010
  **** **  *******  **  PROGRAM STARTED IN /scratch/hpc-prf-metdyn/eprop2d1_Jan/
                                           53_benchmark_RI_opt/106_GW100_GTH_RIR
                                           S_riao5_7_c7/calculations/69_H2CO/ria
                                           o4/leb_r09

 CP2K| version string:                 CP2K version 2026.2 (Development Version)
 CP2K| source code revision number:                                      unknown
 CP2K| cp2kflags: omp libint fftw3 libxc parallel scalapack openblas            
 CP2K| is freely available from                            https://www.cp2k.org/
 CP2K| Program compiled at                                   2026-09-15 17:57:52
 CP2K| Program compiled on                                              n2login6
 CP2K| Program compiled for                                               x86_64
 CP2K| Data directory path    /scratch/hpc-prf-metdyn/eprop2d1_Jan/53_benchmark_
 CP2K| Input file name                                                 input.inp
 
 eprop2d1@n2cn0444 has created rank and process                      0    121010
 
 eprop2d1@n2cn0444 is running                                        1 processes

 GLOBAL| Force Environment number                                              1
 GLOBAL| Basis set file name            /scratch/hpc-prf-metdyn/eprop2d1_Jan/53_
 GLOBAL| Potential file name            /scratch/hpc-prf-metdyn/eprop2d1_Jan/53_
 GLOBAL| MM Potential file name                                     MM_POTENTIAL
 GLOBAL| Coordinate file name                                      __STD_INPUT__
 GLOBAL| Method name                                                        CP2K
 GLOBAL| Project name                               gw100_106_69_H2CO_a4_leb_r09
 GLOBAL| Run type                                                         ENERGY
 GLOBAL| FFT library                                                       FFTW3
 GLOBAL| Diagonalization library                                       ScaLAPACK
 GLOBAL| Cholesky decomposition library                                ScaLAPACK
 GLOBAL| DGEMM library                                                      BLAS
 GLOBAL| Direct generalized diagonalization requested                          F
 GLOBAL| Orthonormality check for eigenvectors                          DISABLED
 GLOBAL| Matrix multiplication library                                 ScaLAPACK
 GLOBAL| All-to-all communication in single precision                          F
 GLOBAL| Grid backend                                                       AUTO
 GLOBAL| Global print level                                                  LOW
 GLOBAL| MPI I/O enabled                                                       T
 GLOBAL| Total number of message passing processes                             1
 GLOBAL| Number of distributed systems (nodes)                                 1
 GLOBAL| Number of threads for this process                                   16
 GLOBAL| This output is from process                                           0
 GLOBAL| OpenMP stack size per thread (OMP_STACKSIZE)                       128M
 GLOBAL| CPU model name                          AMD EPYC 7763 64-Core Processor

 MEMORY| system memory details [Kb]
 MEMORY|                        rank 0           min           max       average
 MEMORY| MemTotal            263897608     263897608     263897608     263897608
 MEMORY| MemFree             242612276     242612276     242612276     242612276
 MEMORY| Buffers                392236        392236        392236        392236
 MEMORY| Cached               14819224      14819224      14819224      14819224
 MEMORY| Slab                  1919728       1919728       1919728       1919728
 MEMORY| SReclaimable           373764        373764        373764        373764
 MEMORY| MemLikelyFree       258197500     258197500     258197500     258197500


 GENERATE|  Preliminary Number of Bonds generated:                             0
 GENERATE|  Achieved consistency in connectivity generation.

 *******************************************************************************
 *******************************************************************************
 **                                                                           **
 **     #####                         ##              ##                      **
 **    ##   ##            ##          ##              ##                      **
 **   ##     ##                       ##            ######                    **
 **   ##     ##  ##   ##  ##   #####  ##  ##   ####   ##    #####    #####    **
 **   ##     ##  ##   ##  ##  ##      ## ##   ##      ##   ##   ##  ##   ##   **
 **   ##  ## ##  ##   ##  ##  ##      ####     ###    ##   ######   ######    **
 **    ##  ###   ##   ##  ##  ##      ## ##      ##   ##   ##       ##        **
 **     #######   #####   ##   #####  ##  ##  ####    ##    #####   ##        **
 **           ##                                                    ##        **
 **                                                                           **
 **                                                ... make the atoms dance   **
 **                                                                           **
 **            Copyright (C) by CP2K developers group (2000-2026)             **
 **                      J. Chem. Phys. 152, 194103 (2020)                    **
 **                                                                           **
 *******************************************************************************


 TOTAL NUMBERS AND MAXIMUM NUMBERS

  Total number of            - Atomic kinds:                                   3
                             - Atoms:                                          4
                             - Shell sets:                                     4
                             - Shells:                                        18
                             - Primitive Cartesian functions:                 26
                             - Cartesian basis functions:                     40
                             - Spherical basis functions:                     38

  Maximum angular momentum of- Orbital basis functions:                        2
                             - Local part of the GTH pseudopotential:          2
                             - Non-local part of the GTH pseudopotential:      0


 SCF PARAMETERS         Density guess:                                    ATOMIC
                        --------------------------------------------------------
                        max_scf:                                             500
                        max_scf_history:                                       0
                        max_diis:                                              4
                        --------------------------------------------------------
                        eps_scf:                                        1.00E-08
                        eps_scf_history:                                0.00E+00
                        eps_diis:                                       0.00E+00
                        eps_eigval:                                     1.00E-05
                        --------------------------------------------------------
                        level_shift [a.u.]:                             0.000000
                        --------------------------------------------------------
                        Outer loop SCF in use 
                        No variables optimised in outer loop
                        eps_scf                                         1.00E-08
                        max_scf                                               20
                        No outer loop optimization
                        step_size                                       5.00E-01

 Extrapolation method: initial_guess

 Number of electrons:                                                         12
 Number of occupied orbitals:                                                  6
 Number of molecular orbitals:                                                 6

 Number of orbital functions:                                                 38
 Number of independent orbital functions:                                     38


 SCF WAVEFUNCTION OPTIMIZATION

  ----------------------------------- OT ---------------------------------------
  Minimizer      : DIIS                : direct inversion
                                         in the iterative subspace
                                         using   7 DIIS vectors
                                         safer DIIS on
  Preconditioner : FULL_KINETIC        : inversion of T + eS
  Lattice FFT   : OFF
  Precond_solver : DEFAULT
  stepsize       :    0.15000000                  energy_gap     :    0.20000000
  eps_taylor     :   0.10000E-15                  max_taylor     :             4
  ----------------------------------- OT ---------------------------------------

  Step     Update method      Time    Convergence         Total energy    Change
  ------------------------------------------------------------------------------
  Decoupling Energy:                                               0.0000476746
     1 OT DIIS     0.15E+00    5.6     0.12634308       -22.1728854905 -2.22E+01
  Decoupling Energy:                                               0.0000339511
     2 OT DIIS     0.15E+00    6.9     0.06569842       -22.5152240420 -3.42E-01
  Decoupling Energy:                                               0.0000328930
     3 OT DIIS     0.15E+00    6.9     0.04894724       -22.6174451081 -1.02E-01
  Decoupling Energy:                                               0.0000339604
     4 OT DIIS     0.15E+00    6.9     0.03456802       -22.6832198594 -6.58E-02
  Decoupling Energy:                                               0.0000356282
     5 OT DIIS     0.15E+00    6.9     0.02499180       -22.7349574675 -5.17E-02
  Decoupling Energy:                                               0.0000384616
     6 OT DIIS     0.15E+00    6.9     0.01729597       -22.7767153243 -4.18E-02
  Decoupling Energy:                                               0.0000395776
     7 OT DIIS     0.15E+00    6.9     0.01252172       -22.7996738183 -2.30E-02
  Decoupling Energy:                                               0.0000388103
     8 OT DIIS     0.15E+00    6.9     0.00863273       -22.8143045293 -1.46E-02
  Decoupling Energy:                                               0.0000382678
     9 OT DIIS     0.15E+00    6.9     0.00617389       -22.8213334846 -7.03E-03
  Decoupling Energy:                                               0.0000381292
    10 OT DIIS     0.15E+00    6.9     0.00456035       -22.8243233033 -2.99E-03
  Decoupling Energy:                                               0.0000381708
    11 OT DIIS     0.15E+00    6.9     0.00306384       -22.8261994772 -1.88E-03
  Decoupling Energy:                                               0.0000384563
    12 OT DIIS     0.15E+00    6.9     0.00224547       -22.8269281782 -7.29E-04
  Decoupling Energy:                                               0.0000385849
    13 OT DIIS     0.15E+00    6.9     0.00158694       -22.8273647039 -4.37E-04
  Decoupling Energy:                                               0.0000386325
    14 OT DIIS     0.15E+00    6.9     0.00109583       -22.8275853917 -2.21E-04
  Decoupling Energy:                                               0.0000386014
    15 OT DIIS     0.15E+00    6.9     0.00081321       -22.8276624211 -7.70E-05
  Decoupling Energy:                                               0.0000385276
    16 OT DIIS     0.15E+00    6.9     0.00059800       -22.8277028798 -4.05E-05
  Decoupling Energy:                                               0.0000384854
    17 OT DIIS     0.15E+00    6.9     0.00047470       -22.8277220627 -1.92E-05
  Decoupling Energy:                                               0.0000384559
    18 OT DIIS     0.15E+00    6.9     0.00038043       -22.8277332081 -1.11E-05
  Decoupling Energy:                                               0.0000384467
    19 OT DIIS     0.15E+00    6.9     0.00030187       -22.8277416307 -8.42E-06
  Decoupling Energy:                                               0.0000384474
    20 OT DIIS     0.15E+00    6.9     0.00025044       -22.8277471502 -5.52E-06
  Decoupling Energy:                                               0.0000384465
    21 OT DIIS     0.15E+00    6.9     0.00020270       -22.8277517319 -4.58E-06
  Decoupling Energy:                                               0.0000384379
    22 OT DIIS     0.15E+00    6.9     0.00016567       -22.8277548220 -3.09E-06
  Decoupling Energy:                                               0.0000384263
    23 OT DIIS     0.15E+00    6.9     0.00013888       -22.8277569252 -2.10E-06
  Decoupling Energy:                                               0.0000384142
    24 OT DIIS     0.15E+00    6.9     0.00011643       -22.8277585552 -1.63E-06
  Decoupling Energy:                                               0.0000384043
    25 OT DIIS     0.15E+00    6.9     0.00009643       -22.8277598390 -1.28E-06
  Decoupling Energy:                                               0.0000384009
    26 OT DIIS     0.15E+00    6.9     0.00007620       -22.8277609247 -1.09E-06
  Decoupling Energy:                                               0.0000384028
    27 OT DIIS     0.15E+00    6.9     0.00006201       -22.8277615306 -6.06E-07
  Decoupling Energy:                                               0.0000384061
    28 OT DIIS     0.15E+00    6.9     0.00004856       -22.8277619624 -4.32E-07
  Decoupling Energy:                                               0.0000384093
    29 OT DIIS     0.15E+00    6.9     0.00003749       -22.8277622159 -2.53E-07
  Decoupling Energy:                                               0.0000384109
    30 OT DIIS     0.15E+00    6.9     0.00002980       -22.8277623400 -1.24E-07
  Decoupling Energy:                                               0.0000384113
    31 OT DIIS     0.15E+00    6.9     0.00002323       -22.8277624104 -7.04E-08
  Decoupling Energy:                                               0.0000384124
    32 OT DIIS     0.15E+00    6.9     0.00001836       -22.8277624492 -3.88E-08
  Decoupling Energy:                                               0.0000384141
    33 OT DIIS     0.15E+00    6.9     0.00001394       -22.8277624739 -2.47E-08
  Decoupling Energy:                                               0.0000384156
    34 OT DIIS     0.15E+00    6.9     0.00001052       -22.8277624864 -1.25E-08
  Decoupling Energy:                                               0.0000384174
    35 OT DIIS     0.15E+00    6.9     0.00000808       -22.8277624940 -7.57E-09
  Decoupling Energy:                                               0.0000384185
    36 OT DIIS     0.15E+00    6.9     0.00000618       -22.8277624981 -4.12E-09
  Decoupling Energy:                                               0.0000384191
    37 OT DIIS     0.15E+00    6.9     0.00000452       -22.8277625009 -2.83E-09
  Decoupling Energy:                                               0.0000384193
    38 OT DIIS     0.15E+00    6.9     0.00000349       -22.8277625024 -1.46E-09
  Decoupling Energy:                                               0.0000384193
    39 OT DIIS     0.15E+00    6.9     0.00000249       -22.8277625032 -8.70E-10
  Decoupling Energy:                                               0.0000384192
    40 OT DIIS     0.15E+00    6.9     0.00000190       -22.8277625037 -4.18E-10
  Decoupling Energy:                                               0.0000384190
    41 OT DIIS     0.15E+00    6.9     0.00000147       -22.8277625039 -2.27E-10
  Decoupling Energy:                                               0.0000384190
    42 OT DIIS     0.15E+00    6.9     0.00000113       -22.8277625040 -1.23E-10
  Decoupling Energy:                                               0.0000384189
    43 OT DIIS     0.15E+00    6.9     0.00000091       -22.8277625041 -8.12E-11
  Decoupling Energy:                                               0.0000384189
    44 OT DIIS     0.15E+00    6.9     0.00000077       -22.8277625041 -4.44E-11
  Decoupling Energy:                                               0.0000384188
    45 OT DIIS     0.15E+00    6.9     0.00000067       -22.8277625042 -3.66E-11
  Decoupling Energy:                                               0.0000384188
    46 OT DIIS     0.15E+00    6.9     0.00000060       -22.8277625042 -3.08E-11
  Decoupling Energy:                                               0.0000384188
    47 OT DIIS     0.15E+00    6.9     0.00000053       -22.8277625042 -3.14E-11
  Decoupling Energy:                                               0.0000384188
    48 OT DIIS     0.15E+00    6.9     0.00000045       -22.8277625043 -3.46E-11
  Decoupling Energy:                                               0.0000384188
    49 OT DIIS     0.15E+00    6.9     0.00000037       -22.8277625043 -2.94E-11
  Decoupling Energy:                                               0.0000384188
    50 OT DIIS     0.15E+00    6.9     0.00000028       -22.8277625043 -2.18E-11
  Decoupling Energy:                                               0.0000384188
    51 OT DIIS     0.15E+00    6.9     0.00000021       -22.8277625043 -1.23E-11
  Decoupling Energy:                                               0.0000384188
    52 OT DIIS     0.15E+00    6.9     0.00000016       -22.8277625043 -6.28E-12
  Decoupling Energy:                                               0.0000384188
    53 OT DIIS     0.15E+00    6.9     0.00000011       -22.8277625043 -2.80E-12
  Decoupling Energy:                                               0.0000384188
    54 OT DIIS     0.15E+00    6.9     0.00000008       -22.8277625043 -1.16E-12
  Decoupling Energy:                                               0.0000384188
    55 OT DIIS     0.15E+00    6.9     0.00000006       -22.8277625043 -4.19E-13
  Decoupling Energy:                                               0.0000384188
    56 OT DIIS     0.15E+00    6.9     0.00000004       -22.8277625043 -2.20E-13
  Decoupling Energy:                                               0.0000384188
    57 OT DIIS     0.15E+00    6.9     0.00000004       -22.8277625043 -1.03E-13
  Decoupling Energy:                                               0.0000384188
    58 OT DIIS     0.15E+00    6.9     0.00000003       -22.8277625043 -9.95E-14
  Decoupling Energy:                                               0.0000384188
    59 OT DIIS     0.15E+00    6.9     0.00000002       -22.8277625043 -4.62E-14
  Decoupling Energy:                                               0.0000384188
    60 OT DIIS     0.15E+00    6.9     0.00000002       -22.8277625043 -4.62E-14
  Decoupling Energy:                                               0.0000384188
    61 OT DIIS     0.15E+00    6.9     0.00000002       -22.8277625043 -2.13E-14
  Decoupling Energy:                                               0.0000384188
    62 OT DIIS     0.15E+00    6.9     0.00000002       -22.8277625043 -1.07E-14
  Decoupling Energy:                                               0.0000384188
    63 OT DIIS     0.15E+00    6.9     0.00000001       -22.8277625043 -2.49E-14
  Decoupling Energy:                                               0.0000384188
    64 OT DIIS     0.15E+00    6.9     0.00000001       -22.8277625043 -2.84E-14
  Decoupling Energy:                                               0.0000384188
    65 OT DIIS     0.15E+00    6.9     0.00000001       -22.8277625043 -2.49E-14
  Decoupling Energy:                                               0.0000384188
    66 OT DIIS     0.15E+00    6.9     8.7286E-09       -22.8277625043 -7.11E-15

  *** SCF run converged in    66 steps ***


  Electronic density on regular grids:        -12.0000000000        0.0000000000
  Core density on regular grids:               12.0000000000       -0.0000000000
  Total charge density on r-space grids:       -0.0000000000
  Total charge density g-space grids:          -0.0000000000

  Overlap energy of the core charge distribution:               0.00000078991935
  Self energy of the core charge distribution:                -57.68216292350287
  Core Hamiltonian energy:                                     16.92644243413327
  Hartree energy:                                              23.78740164375934
  Exchange-correlation energy:                                 -5.85944444864904

  Total energy:                                               -22.82776250433995

  outer SCF iter =    1 RMS gradient =   0.87E-08 energy =        -22.8277625043
  outer SCF loop converged in   1 iterations or   66 steps

  
 -------------------------------------------------------------------------------
 -                                                                             -
 -                          BANDSTRUCTURE CALCULATION                          -
 -                                                                             -
 -------------------------------------------------------------------------------
  
 Number of occupied molecular orbitals (MOs) = Number of occupied bands        6
 Number of unoccupied (= virtual) MOs = Number of unoccupied bands            32
 Number of Gaussian basis functions for MOs                                   38
  
 -------------------------------------------------------------------------------
 -                                                                             -
 -                                GW CALCULATION                               -
 -                                                                             -
 -------------------------------------------------------------------------------
  
 Input: Number of time/freq. points                                           30
 Input: ω_max for fitting Σ(iω) (eV)                                        10.0
 Input: Filter threshold for sparse tensor operations                    1.0E-07
 Input: Apply Hedin shift                                                      F
 Input: Available memory per MPI process                                  8.0 GB
 
 Input: RI-RS Tikhonov regularization                                   1.00E-04
 Input: AO grid hard cutoff radius                                        8.00 Å
 Input: MPI ranks per atom in Z_lP solve                                      -1
 Input: Keep sparsity in χ/G/W panels                                          T
 Input: GW flavour                                                          G0W0
 
 Input: RI-RS grid optimization activated                                      T
 Input: Initial RI-RS grid                                              CHOLESKY
 Input: RS points per AO function                                         9.0000
 Input: Initial RS candidates per AO function                            30.0000
 Input: Additional Lebedev degree                                              2
 Input: Cholesky selection matrix                                        D_PRIME
 Input: Cholesky candidate domain                                      FULL_ATOM
 Input: Initial radial quadrature                                       GAPW_LOG
 Input: Cutoff radius for atomic clusters                                  5.0 Å
 Input: Maximum grid optimization iterations                                 300
 Input: L-BFGS history size                                                    7
 Input: L-BFGS relative-function factor                              0.00000E+00
 Input: L-BFGS projected-gradient tolerance                          1.00000E-09
 
 Input: AUTO_RI basis optimization activated:                                  T
 Input: AUTO_RI requested RI/AO ratio:                                       4.0
 Input: AUTO_RI frontier orbital window:                                  5.0 eV
 Input: AUTO_RI neighbor radius:                                           3.0 Å
 
 Cutoff radius for the truncated Coulomb operator in RI metric:            7.0 Å
 Regularization parameter of RI                                          0.0E+00
 Regularization parameter of minimax grids                               1.0E-06
 
 AUTO_RI| Number of automatic RI functions for χ, ε, W:                      152
 AUTO_RI| Total RI basis optimization time:                                0.8 s
  Decoupling Energy:                                               0.0000384188
 
 SCF direct band gap (eV)                                                   3.61
 Max. SCF eigval diff. (eV)                                               154.69
 E-Range for minimax grid                                                  42.90
 Number of Padé parameters for analytic continuation:                         16
 
 RI-RS basis radii (Å):
     Kind  Elem     r_AO (Å)     r_RI (Å)
        1    C         8.0299        5.0785
        2    O         7.0817        4.4789
        3    H         9.5011        6.0090
 
 RI-RS initialization: atomic kind                                             1
 RI-RS initialization: Lebedev degree                                         11
 RI-RS initialization: radial shells                                           8
 RI-RS initialization: candidates per atom                                   400
 RI-RS initialization: retained points per atom                              117
 RI-RS initialization: atomic kind                                             2
 RI-RS initialization: Lebedev degree                                          9
 RI-RS initialization: radial shells                                          11
 RI-RS initialization: candidates per atom                                   418
 RI-RS initialization: retained points per atom                              117
 RI-RS initialization: atomic kind                                             3
 RI-RS initialization: Lebedev degree                                          7
 RI-RS initialization: radial shells                                           7
 RI-RS initialization: candidates per atom                                   182
 RI-RS initialization: retained points per atom                               54
 RI-RS initialization: largest cluster candidate count                      1182
 RI-RS initialization: most pivots in one cluster                            699
 RI-RS initialization: most stored AO values in one cluster                44916
 RI-RS initialization: wall time [s]                                       0.085
 Started RI-RS grid optimization
 RI-RS grid initial normalized error                          3.460110835582E-06
 RI-RS grid optimization completed, execution time:                       11.1 s
 Normalized 3C error:                                                    9.4E-09
 Maximum absolute 3C error:                                              3.6E-04
 Optimized points outside molecular Voronoi cells:                            42 / 342
 Total grid points used for RI-RS:                                           342
 
 RI-RS grid row-blocks of Φ_μ(r_l)                                            12
 RI-RS grid points per block (max)                                            32
 
 Percentage of non-zero matrix elements in Φ_μ(r_l)                     100.00 %
 
 RI-RS memory estimate per MPI process:
   Available memory per process (system)                               187.88 GB
   Required for Z_lP (dense upper bound; actual is sparser)              0.00 GB
   Required for χ, W, Σ panels (peak per panel step)                     0.00 GB
   Required for Z_lP solve peak (D_local+φ, worst-case atom)             0.00 GB
   Worst-case local-grid number of grid points:                              342
   Worst-case memory D_local:                                            0.00 GB
 
 Started computing Z_lP
 Computed Z_lP (MPI rank 0) for atom          1 /  4,    Execution time    0.0 s
 Computed Z_lP (MPI rank 0) for atom          2 /  4,    Execution time    0.0 s
 Computed Z_lP (MPI rank 0) for atom          3 /  4,    Execution time    0.0 s
 Computed Z_lP (MPI rank 0) for atom          4 /  4,    Execution time    0.0 s
 Computed Z_lP (all MPI ranks) for all atoms,            Execution time    0.0 s

 Number of batches for χ, Σ matrices                                           1
 
 Percentage of non-zero matrix elements in Z_lP                         100.00 %
 Percentage of non-zero matrix elements in G_ll', χ_ll', W_ll'          100.00 %
 Percentage of non-zero matrix elements in χ_PQ for time point 1        100.00 %
 
 Computed χ(iτ,k=0) for time point            1 / 30,    Execution time    0.0 s
 Computed χ(iτ,k=0) for time point            2 / 30,    Execution time    0.0 s
 Computed χ(iτ,k=0) for time point            3 / 30,    Execution time    0.0 s
 Computed χ(iτ,k=0) for time point            4 / 30,    Execution time    0.0 s
 Computed χ(iτ,k=0) for time point            5 / 30,    Execution time    0.0 s
 Computed χ(iτ,k=0) for time point            6 / 30,    Execution time    0.0 s
 Computed χ(iτ,k=0) for time point            7 / 30,    Execution time    0.0 s
 Computed χ(iτ,k=0) for time point            8 / 30,    Execution time    0.0 s
 Computed χ(iτ,k=0) for time point            9 / 30,    Execution time    0.0 s
 Computed χ(iτ,k=0) for time point           10 / 30,    Execution time    0.0 s
 Computed χ(iτ,k=0) for time point           11 / 30,    Execution time    0.0 s
 Computed χ(iτ,k=0) for time point           12 / 30,    Execution time    0.0 s
 Computed χ(iτ,k=0) for time point           13 / 30,    Execution time    0.0 s
 Computed χ(iτ,k=0) for time point           14 / 30,    Execution time    0.0 s
 Computed χ(iτ,k=0) for time point           15 / 30,    Execution time    0.0 s
 Computed χ(iτ,k=0) for time point           16 / 30,    Execution time    0.0 s
 Computed χ(iτ,k=0) for time point           17 / 30,    Execution time    0.0 s
 Computed χ(iτ,k=0) for time point           18 / 30,    Execution time    0.0 s
 Computed χ(iτ,k=0) for time point           19 / 30,    Execution time    0.0 s
 Computed χ(iτ,k=0) for time point           20 / 30,    Execution time    0.0 s
 Computed χ(iτ,k=0) for time point           21 / 30,    Execution time    0.0 s
 Computed χ(iτ,k=0) for time point           22 / 30,    Execution time    0.0 s
 Computed χ(iτ,k=0) for time point           23 / 30,    Execution time    0.0 s
 Computed χ(iτ,k=0) for time point           24 / 30,    Execution time    0.0 s
 Computed χ(iτ,k=0) for time point           25 / 30,    Execution time    0.0 s
 Computed χ(iτ,k=0) for time point           26 / 30,    Execution time    0.0 s
 Computed χ(iτ,k=0) for time point           27 / 30,    Execution time    0.0 s
 Computed χ(iτ,k=0) for time point           28 / 30,    Execution time    0.0 s
 Computed χ(iτ,k=0) for time point           29 / 30,    Execution time    0.0 s
 Computed χ(iτ,k=0) for time point           30 / 30,    Execution time    0.0 s
 
 Computed W(iτ),                                         Execution time    0.1 s
 
 Computed Σ^x(k=0),                                      Execution time    0.0 s
 
 Computed Σ^c(iτ) for time point              1 / 30,    Execution time    0.0 s
 Computed Σ^c(iτ) for time point              2 / 30,    Execution time    0.0 s
 Computed Σ^c(iτ) for time point              3 / 30,    Execution time    0.0 s
 Computed Σ^c(iτ) for time point              4 / 30,    Execution time    0.0 s
 Computed Σ^c(iτ) for time point              5 / 30,    Execution time    0.0 s
 Computed Σ^c(iτ) for time point              6 / 30,    Execution time    0.0 s
 Computed Σ^c(iτ) for time point              7 / 30,    Execution time    0.0 s
 Computed Σ^c(iτ) for time point              8 / 30,    Execution time    0.0 s
 Computed Σ^c(iτ) for time point              9 / 30,    Execution time    0.0 s
 Computed Σ^c(iτ) for time point             10 / 30,    Execution time    0.0 s
 Computed Σ^c(iτ) for time point             11 / 30,    Execution time    0.0 s
 Computed Σ^c(iτ) for time point             12 / 30,    Execution time    0.0 s
 Computed Σ^c(iτ) for time point             13 / 30,    Execution time    0.0 s
 Computed Σ^c(iτ) for time point             14 / 30,    Execution time    0.0 s
 Computed Σ^c(iτ) for time point             15 / 30,    Execution time    0.0 s
 Computed Σ^c(iτ) for time point             16 / 30,    Execution time    0.0 s
 Computed Σ^c(iτ) for time point             17 / 30,    Execution time    0.0 s
 Computed Σ^c(iτ) for time point             18 / 30,    Execution time    0.0 s
 Computed Σ^c(iτ) for time point             19 / 30,    Execution time    0.0 s
 Computed Σ^c(iτ) for time point             20 / 30,    Execution time    0.0 s
 Computed Σ^c(iτ) for time point             21 / 30,    Execution time    0.0 s
 Computed Σ^c(iτ) for time point             22 / 30,    Execution time    0.0 s
 Computed Σ^c(iτ) for time point             23 / 30,    Execution time    0.0 s
 Computed Σ^c(iτ) for time point             24 / 30,    Execution time    0.0 s
 Computed Σ^c(iτ) for time point             25 / 30,    Execution time    0.0 s
 Computed Σ^c(iτ) for time point             26 / 30,    Execution time    0.0 s
 Computed Σ^c(iτ) for time point             27 / 30,    Execution time    0.0 s
 Computed Σ^c(iτ) for time point             28 / 30,    Execution time    0.0 s
 Computed Σ^c(iτ) for time point             29 / 30,    Execution time    0.0 s
 Computed Σ^c(iτ) for time point             30 / 30,    Execution time    0.0 s
 
 SCF valence band maximum (eV):                                           -6.633
 SCF conduction band minimum (eV):                                        -3.027
 SCF indirect band gap (eV):                                               3.606
 SCF direct band gap (eV):                                                 3.606
 
 G0W0 valence band maximum (eV):                                          -9.936
 G0W0 conduction band minimum (eV):                                        1.571
 G0W0 indirect band gap (eV):                                             11.507
 G0W0 direct band gap (eV):                                               11.507
 
 Hartree-Fock with SCF orbitals valence band maximum (eV):               -12.351
 Hartree-Fock with SCF orbitals conduction band minimum (eV)               2.251
 Hartree-Fock with SCF orbitals indirect band gap (eV):                   14.602
 Hartree-Fock with SCF orbitals direct band gap (eV):                     14.602

 ENERGY| Total FORCE_EVAL ( QS ) energy [hartree]            -22.827762504339947

 -------------------------------------------------------------------------------
 -                                                                             -
 -                                DBCSR STATISTICS                             -
 -                                                                             -
 -------------------------------------------------------------------------------
 COUNTER                                    TOTAL       BLAS       SMM       ACC
 flops     6 x    13 x     6               125424     100.0%      0.0%      0.0%     
 flops    21 x    21 x    36               127008     100.0%      0.0%      0.0%     
 flops    21 x    22 x    36               133056     100.0%      0.0%      0.0%     
 flops    21 x    21 x    40               141120     100.0%      0.0%      0.0%     
 flops    21 x    22 x    40               147840     100.0%      0.0%      0.0%     
 flops    22 x    21 x    36               266112     100.0%      0.0%      0.0%     
 flops    22 x    22 x    36               278784     100.0%      0.0%      0.0%     
 flops    22 x    21 x    40               295680     100.0%      0.0%      0.0%     
 flops    22 x    22 x    40               309760     100.0%      0.0%      0.0%     
 flops     6 x     6 x    21               338688     100.0%      0.0%      0.0%     
 flops     6 x     6 x    22               367488     100.0%      0.0%      0.0%     
 flops    13 x    13 x     6               407628     100.0%      0.0%      0.0%     
 flops     6 x     6 x    13               527904     100.0%      0.0%      0.0%     
 flops    13 x     6 x    21               733824     100.0%      0.0%      0.0%     
 flops    21 x    32 x    36               774144     100.0%      0.0%      0.0%     
 flops    13 x     6 x    38               794352     100.0%      0.0%      0.0%     
 flops    13 x     6 x    22               796224     100.0%      0.0%      0.0%     
 flops     6 x    13 x    21               799344     100.0%      0.0%      0.0%     
 flops     6 x    13 x    22               830544     100.0%      0.0%      0.0%     
 flops    21 x    32 x    40               860160     100.0%      0.0%      0.0%     
 flops     6 x     6 x     6               868752     100.0%      0.0%      0.0%     
 flops    21 x     6 x     6               979776     100.0%      0.0%      0.0%     
 flops    22 x     6 x     6              1026432     100.0%      0.0%      0.0%     
 flops     6 x     6 x    38              1086192     100.0%      0.0%      0.0%     
 flops    13 x     6 x    13              1143792     100.0%      0.0%      0.0%     
 flops    32 x    21 x    36              1161216     100.0%      0.0%      0.0%     
 flops    32 x    22 x    36              1216512     100.0%      0.0%      0.0%     
 flops    13 x     6 x     6              1269216     100.0%      0.0%      0.0%     
 flops    21 x     6 x    21              1312416     100.0%      0.0%      0.0%     
 flops    21 x     6 x    22              1358280     100.0%      0.0%      0.0%     
 flops    22 x     6 x    21              1374912     100.0%      0.0%      0.0%     
 flops    32 x    21 x    40              1397760     100.0%      0.0%      0.0%     
 flops    22 x     6 x    22              1434576     100.0%      0.0%      0.0%     
 flops    32 x    22 x    40              1464320     100.0%      0.0%      0.0%     
 flops    22 x    32 x    36              1622016     100.0%      0.0%      0.0%     
 flops    13 x    13 x    21              1731912     100.0%      0.0%      0.0%     
 flops    13 x    13 x    22              1799512     100.0%      0.0%      0.0%     
 flops    22 x    32 x    40              1802240     100.0%      0.0%      0.0%     
 flops     6 x     6 x    32              2119680     100.0%      0.0%      0.0%     
 flops    21 x    13 x     6              2188368     100.0%      0.0%      0.0%     
 flops    21 x     6 x    13              2201472     100.0%      0.0%      0.0%     
 flops    22 x    13 x     6              2299440     100.0%      0.0%      0.0%     
 flops    22 x     6 x    13              2306304     100.0%      0.0%      0.0%     
 flops    21 x    21 x     6              2667168     100.0%      0.0%      0.0%     
 flops    21 x    21 x    38              2681280     100.0%      0.0%      0.0%     
 flops    22 x    21 x     6              2794176     100.0%      0.0%      0.0%     
 flops    21 x    22 x     6              2794176     100.0%      0.0%      0.0%     
 flops    22 x    21 x    38              2808960     100.0%      0.0%      0.0%     
 flops    21 x    22 x    38              2808960     100.0%      0.0%      0.0%     
 flops    21 x    13 x    21              2900898     100.0%      0.0%      0.0%     
 flops    22 x    22 x     6              2927232     100.0%      0.0%      0.0%     
 flops    22 x    22 x    38              2942720     100.0%      0.0%      0.0%     
 flops    21 x    13 x    22              2942940     100.0%      0.0%      0.0%     
 flops    22 x    13 x    21              3003000     100.0%      0.0%      0.0%     
 flops    22 x    13 x    22              3146000     100.0%      0.0%      0.0%     
 flops    13 x     6 x    32              4592640     100.0%      0.0%      0.0%     
 flops    21 x    13 x    13              4826640     100.0%      0.0%      0.0%     
 flops     6 x    13 x    32              4882176     100.0%      0.0%      0.0%     
 flops    21 x    36 x    21              4953312     100.0%      0.0%      0.0%     
 flops    22 x    36 x    21              5056128     100.0%      0.0%      0.0%     
 flops    22 x    13 x    13              5056480     100.0%      0.0%      0.0%     
 flops    21 x    36 x    22              5322240     100.0%      0.0%      0.0%     
 flops    22 x    36 x    22              5540832     100.0%      0.0%      0.0%     
 flops    21 x    40 x    21              5574240     100.0%      0.0%      0.0%     
 flops    22 x    40 x    21              5617920     100.0%      0.0%      0.0%     
 flops    21 x    40 x    22              5913600     100.0%      0.0%      0.0%     
 flops    21 x    21 x    13              5962320     100.0%      0.0%      0.0%     
 flops    32 x     6 x     6              5971968     100.0%      0.0%      0.0%     
 flops    22 x    40 x    22              6195200     100.0%      0.0%      0.0%     
 flops    22 x    21 x    13              6246240     100.0%      0.0%      0.0%     
 flops    21 x    22 x    13              6246240     100.0%      0.0%      0.0%     
 flops    22 x    22 x    13              6543680     100.0%      0.0%      0.0%     
 flops    32 x    32 x    36              7077888     100.0%      0.0%      0.0%     
 flops    36 x    36 x    21              7838208     100.0%      0.0%      0.0%     
 flops    36 x    36 x    22              7869312     100.0%      0.0%      0.0%     
 flops    32 x     6 x    21              8015616     100.0%      0.0%      0.0%     
 flops    21 x     6 x    32              8023680     100.0%      0.0%      0.0%     
 flops    32 x     6 x    22              8405760     100.0%      0.0%      0.0%     
 flops    22 x     6 x    32              8422656     100.0%      0.0%      0.0%     
 flops    32 x    32 x    40              8519680     100.0%      0.0%      0.0%     
 flops    40 x    36 x    21              8709120     100.0%      0.0%      0.0%     
 flops    36 x    40 x    21              8709120     100.0%      0.0%      0.0%     
 flops    40 x    36 x    22              8743680     100.0%      0.0%      0.0%     
 flops    36 x    40 x    22              8870400     100.0%      0.0%      0.0%     
 flops    21 x    36 x    36              9144576     100.0%      0.0%      0.0%     
 flops    22 x    36 x    36              9580032     100.0%      0.0%      0.0%     
 flops    40 x    40 x    21              9676800     100.0%      0.0%      0.0%     
 flops    40 x    40 x    22              9856000     100.0%      0.0%      0.0%     
 flops    21 x    36 x    40             10160640     100.0%      0.0%      0.0%     
 flops    21 x    40 x    36             10160640     100.0%      0.0%      0.0%     
 flops    13 x    13 x    32             10578048     100.0%      0.0%      0.0%     
 flops    22 x    36 x    40             10644480     100.0%      0.0%      0.0%     
 flops    22 x    40 x    36             10644480     100.0%      0.0%      0.0%     
 flops    21 x    21 x   152             10725120     100.0%      0.0%      0.0%     
 flops    22 x    21 x   152             11235840     100.0%      0.0%      0.0%     
 flops    21 x    22 x   152             11235840     100.0%      0.0%      0.0%     
 flops    21 x    40 x    40             11289600     100.0%      0.0%      0.0%     
 flops    22 x    22 x   152             11770880     100.0%      0.0%      0.0%     
 flops    22 x    40 x    40             11827200     100.0%      0.0%      0.0%     
 flops    32 x     6 x    13             13418496     100.0%      0.0%      0.0%     
 flops    32 x    13 x     6             13418496     100.0%      0.0%      0.0%     
 flops    32 x    21 x     6             16257024     100.0%      0.0%      0.0%     
 flops    21 x    32 x     6             16257024     100.0%      0.0%      0.0%     
 flops    32 x    21 x    38             16343040     100.0%      0.0%      0.0%     
 flops    21 x    32 x    38             16343040     100.0%      0.0%      0.0%     
 flops    32 x    22 x     6             17031168     100.0%      0.0%      0.0%     
 flops    22 x    32 x     6             17031168     100.0%      0.0%      0.0%     
 flops    32 x    22 x    38             17121280     100.0%      0.0%      0.0%     
 flops    22 x    32 x    38             17121280     100.0%      0.0%      0.0%     
 flops    32 x    13 x    21             17734080     100.0%      0.0%      0.0%     
 flops    21 x    13 x    32             17821440     100.0%      0.0%      0.0%     
 flops    32 x    13 x    22             18194176     100.0%      0.0%      0.0%     
 flops    22 x    13 x    32             18633472     100.0%      0.0%      0.0%     
 flops    32 x    13 x    13             29419520     100.0%      0.0%      0.0%     
 flops    32 x    36 x    21             30530304     100.0%      0.0%      0.0%     
 flops    21 x    36 x    32             30820608     100.0%      0.0%      0.0%     
 flops    22 x    36 x    32             32186880     100.0%      0.0%      0.0%     
 flops    32 x    36 x    22             32592384     100.0%      0.0%      0.0%     
 flops    32 x    40 x    21             34137600     100.0%      0.0%      0.0%     
 flops    21 x    40 x    32             34298880     100.0%      0.0%      0.0%     
 flops    22 x    40 x    32             35819520     100.0%      0.0%      0.0%     
 flops    32 x    21 x    13             36341760     100.0%      0.0%      0.0%     
 flops    21 x    32 x    13             36341760     100.0%      0.0%      0.0%     
 flops    32 x    40 x    22             36382720     100.0%      0.0%      0.0%     
 flops    32 x    22 x    13             38072320     100.0%      0.0%      0.0%     
 flops    22 x    32 x    13             38072320     100.0%      0.0%      0.0%     
 flops    36 x    36 x    32             48439296     100.0%      0.0%      0.0%     
 flops    32 x     6 x    32             49446912     100.0%      0.0%      0.0%     
 flops    36 x    40 x    32             53637120     100.0%      0.0%      0.0%     
 flops    40 x    36 x    32             53821440     100.0%      0.0%      0.0%     
 flops    32 x    36 x    36             55738368     100.0%      0.0%      0.0%     
 flops    40 x    40 x    32             59596800     100.0%      0.0%      0.0%     
 flops    32 x    36 x    40             61931520     100.0%      0.0%      0.0%     
 flops    32 x    40 x    36             61931520     100.0%      0.0%      0.0%     
 flops    32 x    21 x   152             65372160     100.0%      0.0%      0.0%     
 flops    21 x    32 x   152             65372160     100.0%      0.0%      0.0%     
 flops    32 x    22 x   152             68485120     100.0%      0.0%      0.0%     
 flops    22 x    32 x   152             68485120     100.0%      0.0%      0.0%     
 flops    32 x    40 x    40             68812800     100.0%      0.0%      0.0%     
 flops    32 x    32 x     6             99090432     100.0%      0.0%      0.0%     
 flops    32 x    32 x    38             99614720     100.0%      0.0%      0.0%     
 flops    32 x    13 x    32            109504512     100.0%      0.0%      0.0%     
 flops    32 x    36 x    32            189186048     100.0%      0.0%      0.0%     
 flops    32 x    40 x    32            211025920     100.0%      0.0%      0.0%     
 flops    32 x    32 x    13            221511680     100.0%      0.0%      0.0%     
 flops    32 x    32 x   152            398458880     100.0%      0.0%      0.0%     
 flops inhomo. stacks                           0       0.0%      0.0%      0.0%
 flops total                         3.218079E+09     100.0%      0.0%      0.0%
 flops max/rank                      3.218079E+09     100.0%      0.0%      0.0%
 matmuls inhomo. stacks                         0       0.0%      0.0%      0.0%
 matmuls total                             107282     100.0%      0.0%      0.0%
 number of processed stacks                 20177     100.0%      0.0%      0.0%
 average stack size                                     5.3       0.0       0.0
 marketing flops                     4.937222E+09
 -------------------------------------------------------------------------------
 # multiplications                           1942
 max memory usage/rank              22.624166E+09
 # max total images/rank                        1
 # max 3D layers                                1
 # MPI messages exchanged                       0
 -------------------------------------------------------------------------------
 -                                                                             -
 -                      DBCSR MESSAGE PASSING PERFORMANCE                      -
 -                                                                             -
 -------------------------------------------------------------------------------
 ROUTINE             CALLS      AVE VOLUME [Bytes]
 MP_Bcast              147                     12.
 MP_Allreduce         9325                     10.
 MP_Alltoall          8099                   9910.
 MP_ISend             7444                    275.
 MP_IRecv             7444                    275.
 -------------------------------------------------------------------------------

 -------------------------------------------------------------------------------
 -                                                                             -
 -                                GRID STATISTICS                              -
 -                                                                             -
 -------------------------------------------------------------------------------
 LP    KERNEL             BACKEND                              COUNT     PERCENT
 3     collocate ortho    CPU                                  10854      19.47%
 3     integrate ortho    CPU                                  10854      19.47%
 2     collocate ortho    CPU                                   9782      17.55%
 2     integrate ortho    CPU                                   9782      17.55%
 4     collocate ortho    CPU                                   7236      12.98%
 4     integrate ortho    CPU                                   7236      12.98%
 0     collocate general  CPU                                      4       0.01%
 -------------------------------------------------------------------------------

 -------------------------------------------------------------------------------
 -                                                                             -
 -                          OFFLOAD MEMPOOL STATISTICS                         -
 -                                                                             -
 -------------------------------------------------------------------------------
 Memory consumption                Number of allocations  Used [MiB]  Size [MiB]
 Host                                                  6         260    21851269
 -------------------------------------------------------------------------------

 MEMORY| Estimated peak process memory [MiB]                               11920

 -------------------------------------------------------------------------------
 -                                                                             -
 -                         MESSAGE PASSING PERFORMANCE                         -
 -                                                                             -
 -------------------------------------------------------------------------------

 ROUTINE             CALLS      AVE VOLUME [Bytes]
 MP_Group                5
 MP_Bcast             1011                   2423.
 MP_Allreduce         5142                    704.
 MP_Sync                79
 MP_comm_split          76
 -------------------------------------------------------------------------------


 -------------------------------------------------------------------------------
 -                                                                             -
 -                           R E F E R E N C E S                               -
 -                                                                             -
 -------------------------------------------------------------------------------
 
 CP2K version 2026.2 (Development Version), the CP2K developers group (2026).
 CP2K is freely available from https://www.cp2k.org/ .
 
 M. Iannuzzi, J. Wilhelm, F. Stein, A. Bussy, H. Elgabarty, D. Golze, A. Hehn, 
 M. Graml, S. Marek, B. Sertcan Gökmen, C. Schran, H. Forbert, R. Z. 
 Khaliullin, A. Kozhevnikov, M. Taillefumier, R. Meli, V. V. Rybkin, M. Brehm, 
 R. Schade, O. Schütt, J. V. Pototschnig, H. Mirhosseini, A. Knüpfer, D. Marx, 
 M. Krack, J. Hutter, T. D. Kühne.
 J. Phys. Chem. B 130, 1237-1310 (2026).
 The CP2K Program Package Made Simple.
 https://doi.org/10.1021/acs.jpcb.5c05851

 M. Graml, K. Zollner, D. Hernangómez-Pérez, P. E. Faria Junior, J. Wilhelm.
 J. Chem. Theory Comput. 20, 2202-2208 (2024).
 Low-scaling GW algorithm applied to twisted transition-metal dichalcogenide 
 heterobilayers.
 https://doi.org/10.1021/acs.jctc.3c01230

 T. D. Kühne, M. Iannuzzi, M. Del Ben, V. V. Rybkin, P. Seewald, F. Stein, T. 
 Laino, R. Z. Khaliullin, O. Schütt, F. Schiffmann, D. Golze, J. Wilhelm, S. 
 Chulkov, M. H. Bani-Hashemian, V. Weber, U. Borstnik, M. Taillefumier, A. S. 
 Jakobovits, A. Lazzaro, H. Pabst, T. Müller, R. Schade, M. Guidon, S. 
 Andermatt, N. Holmberg, G. K. Schenter, A. Hehn, A. Bussy, F. Belleflamme, G. 
 Tabacchi, A. Glöß, M. Lass, I. Bethune, C. J. Mundy, C. Plessl, M. Watkins, 
 J. VandeVondele, M. Krack, J. Hutter.
 J. Chem. Phys. 152, 194103 (2020).
 CP2K: An electronic structure and molecular dynamics software package - 
 Quickstep: Efficient and accurate electronic structure calculations.
 https://doi.org/10.1063/5.0007045

 O. Schuett, P. Messmer, J. Hutter, J. VandeVondele.
 Electronic Structure Calculations on Graphics Processing Units, 173-190 (2016).
 GPU-Accelerated Sparse Matrix-Matrix Multiplication for Linear Scaling Density 
 Functional Theory.
 https://doi.org/10.1002/9781118670712.ch8

 U. Borstnik, J. VandeVondele, V. Weber, J. Hutter.
 Parallel Comput. 40, 47-58 (2014).
 Sparse matrix multiplication: The distributed block-compressed sparse row 
 library.
 https://doi.org/10.1016/j.parco.2014.03.012

 J. VandeVondele, J. Hutter.
 J. Chem. Phys. 127, 114105 (2007).
 Gaussian basis sets for accurate calculations on molecular systems in gas and 
 condensed phases.
 https://doi.org/10.1063/1.2770708

 J. VandeVondele, M. Krack, F. Mohamed, M. Parrinello, T. Chassaing, J. Hutter.
 Comput. Phys. Commun. 167, 103-128 (2005).
 QUICKSTEP: Fast and accurate density functional calculations using a mixed 
 Gaussian and plane waves approach.
 https://doi.org/10.1016/j.cpc.2004.12.014

 M. Krack.
 Theor. Chem. Acc. 114, 145-152 (2005).
 Pseudopotentials for H to Kr optimized for gradient-corrected 
 exchange-correlation functionals.
 https://doi.org/10.1007/s00214-005-0655-y

 M. Frigo, S. G. Johnson.
 Proc. IEEE 93, 216-231 (2005).
 The design and implementation of FFTW3.
 https://doi.org/10.1109/JPROC.2004.840301

 J. VandeVondele, J. Hutter.
 J. Chem. Phys. 118, 4365-4369 (2003).
 An efficient orbital transformation method for electronic structure 
 calculations.
 https://doi.org/10.1063/1.1543154

 C. Hartwigsen, S. Goedecker, J. Hutter.
 Phys. Rev. B 58, 3641-3662 (1998).
 Relativistic separable dual-space Gaussian pseudopotentials from H to Rn.
 https://doi.org/10.1103/PhysRevB.58.3641

 G. Lippert, J. Hutter, M. Parrinello.
 Mol. Phys. 92, 477-487 (1997).
 A hybrid Gaussian and plane wave density functional scheme.
 https://doi.org/10.1080/002689797170220

 S. Goedecker, M. Teter, J. Hutter.
 Phys. Rev. B 54, 1703-1710 (1996).
 Separable dual-space Gaussian pseudopotentials.
 https://doi.org/10.1103/PhysRevB.54.1703

 J. P. Perdew, K. Burke, M. Ernzerhof.
 Phys. Rev. Lett. 77, 3865-3868 (1996).
 Generalized gradient approximation made simple.
 https://doi.org/10.1103/PhysRevLett.77.3865

 P. E. Blöchl.
 J. Chem. Phys. 103, 7422-7428 (1995).
 Electrostatic decoupling of periodic images of plane‐wave‐expanded 
 densities and derived atomic point charges.
 https://doi.org/10.1063/1.470314

 R. H. Byrd, P. H. Lu, J. Nocedal, C. Y. Zhu.
 SIAM J. Sci. Comput. 16, 1190-1208 (1995).
 A Limited Memory Algorithm for Bound Constrained Optimization.
 https://doi.org/10.1137/0916069


 -------------------------------------------------------------------------------
 -                                                                             -
 -                                T I M I N G                                  -
 -                                                                             -
 -------------------------------------------------------------------------------
 SUBROUTINE                       CALLS  ASD         SELF TIME        TOTAL TIME MAXRANK
                                MAXIMUM       AVERAGE  MAXIMUM  AVERAGE  MAXIMUM
 CP2K                                 1  1.0    0.029    0.029  478.105  478.105       0
 qs_energies                          1  2.0    0.005    0.005  471.332  471.332       0
 scf_env_do_scf                       1  3.0    0.001    0.001  454.316  454.316       0
 scf_env_do_scf_inner_loop           66  4.0    0.041    0.041  448.721  448.721       0
 qs_ks_build_kohn_sham_matrix        67  7.0    0.060    0.060  358.360  358.360       0
 qs_ks_update_qs_env                 67  5.0    0.001    0.001  356.720  356.720       0
 rebuild_ks_matrix                   66  6.0    0.002    0.002  356.714  356.714       0
 fft_wrap_pw1pw2                   1133 10.3    0.029    0.029  278.119  278.119       0
 fft_wrap_pw1pw2_300                731 11.8   13.355   13.355  268.475  268.475       0
 qs_vxc_create                       67  8.0    0.004    0.004  246.330  246.330       0
 xc_vxc_pw_create                    66  9.0    9.867    9.867  246.326  246.326       0
 xc_pw_derive                       396 11.0    0.004    0.004  175.936  175.936       0
 fft3d_s                           1134 12.3  164.387  164.387  164.401  164.401       0
 xc_pw_divergence                    66 10.0    0.002    0.002  119.263  119.263       0
 xc_rho_set_and_dset_create          66 10.0    5.369    5.369  113.958  113.958       0
 qs_rho_update_rho_low               67  5.0    0.000    0.000   98.274   98.274       0
 calculate_rho_elec                  67  6.0    6.718    6.718   98.273   98.273       0
 density_rs2pw                       67  7.0    0.004    0.004   60.160   60.160       0
 pw_scatter_s                       599 12.8   52.764   52.764   52.764   52.764       0
 qs_ks_ddapc                         67  8.0    0.001    0.001   37.049   37.049       0
 sum_up_and_integrate                67  8.0    0.002    0.002   35.331   35.331       0
 pw_derive                          597 11.3   35.312   35.312   35.312   35.312       0
 pw_poisson_solve                    67  8.0    0.002    0.002   35.189   35.189       0
 integrate_v_rspace                  67  9.0    0.003    0.003   33.600   33.600       0
 potential_pw2rs                     67 10.0    0.239    0.239   33.325   33.325       0
 grid_collocate_task_list            67  7.0   31.395   31.395   31.395   31.395       0
 pw_gather_s                        534 11.9   27.808   27.808   27.808   27.808       0
 pw_copy                           1068 10.6   26.186   26.186   26.186   26.186       0
 pw_integral_ab_c1d_c1d_gs          134  9.5   19.744   19.744   19.744   19.744       0
 pw_poisson_set                      68  9.0    0.002    0.002   18.608   18.608       0
 xc_functional_eval                  66 11.0    0.002    0.002   15.730   15.730       0
 pbe_lda_eval                        66 12.0   15.728   15.728   15.728   15.728       0
 pw_axpy                            675  9.2   14.603   14.603   14.603   14.603       0
 qs_energies_properties               1  3.0    0.000    0.000   14.502   14.502       0
 post_scf_bandstructure               1  4.0    0.000    0.000   14.502   14.502       0
 gw                                   1  5.0    0.000    0.000   14.500   14.500       0
 cp_ddapc_apply_CD                   67  9.0    0.010    0.010   12.409   12.409       0
 gw_calc_non_periodic_ri_rs           1  6.0    0.000    0.000   11.704   11.704       0
 ri_rs_grid_assembler                 1  7.0    0.000    0.000   11.174   11.174       0
 optimize_ri_rs_grid                  1  8.0    0.000    0.000   11.089   11.089       0
 rirs_grid_LBFGS                      1  9.0    0.368    0.368   10.657   10.657       0
 evaluate_rirs_grid_cluster        1204 10.0    1.994    1.994   10.288   10.288       0
 pw_copy_to_array                   534 11.9    9.697    9.697    9.697    9.697       0
 pw_copy_from_array                 599 12.8    9.385    9.385    9.385    9.385       0
 fft_wrap_pw1pw2_100                134 10.5    0.613    0.613    8.778    8.778       0
 qs_init_subsys                       1  2.0    0.022    0.022    6.531    6.531       0
 qs_env_setup                         1  3.0    0.004    0.004    6.493    6.493       0
 qs_env_rebuild_pw_env                2  3.5    0.002    0.002    6.481    6.481       0
 pw_env_rebuild                       1  5.0    0.015    0.015    6.479    6.479       0
 pw_grid_setup                        5  5.2    0.000    0.000    6.457    6.457       0
 pw_grid_setup_internal               5  6.2    0.082    0.082    6.457    6.457       0
 pw_grid_sort                         5  7.2    4.706    4.706    6.075    6.075       0
 init_scf_loop                        1  4.0    0.009    0.009    5.594    5.594       0
 pw_zero                            350 10.0    5.076    5.076    5.076    5.076       0
 rirs_cluster_gradient_coordina    1204 11.0    3.595    3.595    3.595    3.595       0
 pw_scale                           265  9.8    2.835    2.835    2.835    2.835       0
 create_and_init_bs_env_for_gw        1  6.0    0.013    0.013    2.796    2.796       0
 get_ddapc                           67 10.0    0.002    0.002    2.351    2.351       0
 pw_multiply_with                    67  9.0    2.201    2.201    2.201    2.201       0
 init_scf_run                         1  3.0    0.013    0.013    1.735    1.735       0
 scf_env_initial_rho_setup            1  4.0    0.001    0.001    1.721    1.721       0
 rirs_cluster_gradient_products    1204 11.0    1.669    1.669    1.669    1.669       0
 compute_V_xc                         1  7.0    0.000    0.000    1.649    1.649       0
 transfer_rs2pw                     269  8.0    0.005    0.005    1.490    1.490       0
 transfer_pw2rs                     268 11.0    0.003    0.003    1.454    1.454       0
 sort_shells                          5  8.2    1.369    1.369    1.369    1.369       0
 transfer_rs2pw_300                  68  9.0    1.174    1.174    1.174    1.174       0
 transfer_pw2rs_300                  67 12.0    1.143    1.143    1.143    1.143       0
 xc_pw_smooth                        66 10.0    0.000    0.000    1.056    1.056       0
 rirs_cluster_AO_products          1204 11.0    1.017    1.017    1.017    1.017       0
 rirs_cluster_residual             1204 11.0    0.898    0.898    0.898    0.898       0
 qs_scf_new_mos                      66  5.0    0.000    0.000    0.797    0.797       0
 qs_scf_loop_do_ot                   66  6.0    0.000    0.000    0.797    0.797       0
 generate_auto_ri_basis               1  7.0    0.000    0.000    0.791    0.791       0
 qs_energies_init_hamiltonians        1  3.0    0.006    0.006    0.773    0.773       0
 ot_scf_mini                         66  7.0    0.021    0.021    0.766    0.766       0
 fft_wrap_pw1pw2_40                 134 10.5    0.053    0.053    0.681    0.681       0
 qs_env_update_s_mstruct              1  4.0    0.007    0.007    0.680    0.680       0
 rirs_cluster_D_ll                 1204 11.0    0.594    0.594    0.594    0.594       0
 calculate_rho_core                   1  5.0    0.110    0.110    0.552    0.552       0
 rirs_cluster_d_lP                 1204 11.0    0.520    0.520    0.520    0.520       0
 ot_mini                             66  8.0    0.001    0.001    0.500    0.500       0
 -------------------------------------------------------------------------------

 The number of warnings for this run is : 0
 
 -------------------------------------------------------------------------------
  **** **** ******  **  PROGRAM ENDED AT                 2026-09-15 20:34:42.510
 ***** ** ***  *** **   PROGRAM RAN ON                                  n2cn0444
 **    ****   ******    PROGRAM RAN BY                                  eprop2d1
 ***** **    ** ** **   PROGRAM PROCESS ID                                121010
  **** **  *******  **  PROGRAM STOPPED IN /scratch/hpc-prf-metdyn/eprop2d1_Jan/
                                           53_benchmark_RI_opt/106_GW100_GTH_RIR
                                           S_riao5_7_c7/calculations/69_H2CO/ria
                                           o4/leb_r09
