 DBCSR| CPU Multiplication driver                                           XSMM (U)
 DBCSR| Multrec recursion limit                                              512 (U)
 DBCSR| Multiplication stack size                                           1000 (D)
 DBCSR| Maximum elements for images                                    UNLIMITED (U)
 DBCSR| Multiplicative factor virtual images                                   1 (U)
 DBCSR| Use multiplication densification                                       T (D)
 DBCSR| Multiplication size stacks                                             3 (U)
 DBCSR| Use memory pool for CPU allocation                                     F (U)
 DBCSR| Number of 3D layers                                               SINGLE (U)
 DBCSR| Use MPI memory allocation                                              F (U)
 DBCSR| Use RMA algorithm                                                      F (U)
 DBCSR| Use Communication thread                                               T (U)
 DBCSR| Communication thread load                                             64 (D)
 DBCSR| MPI: My process id                                                     8
 DBCSR| MPI: Number of processes                                              17
 DBCSR| OMP: Current number of threads                                         7
 DBCSR| OMP: Max number of threads                                             7
 DBCSR| Split modifier for TAS multiplication algorithm                  1.0E+00 (U)


  **** **** ******  **  PROGRAM STARTED AT               2026-10-03 12:02:49.317
 ***** ** ***  *** **   PROGRAM STARTED ON                              n2cn0569
 **    ****   ******    PROGRAM STARTED BY                              eprop2d1
 ***** **    ** ** **   PROGRAM PROCESS ID                               1392025
  **** **  *******  **  PROGRAM STARTED IN /scratch/hpc-prf-metdyn/eprop2d1_Jan/
                                           53_benchmark_RI_opt/418_gw100_fig5_fu
                                           ll_epsfilter_1e12_20261002/calculatio
                                           ns/rc5p0/ri5_rs08/97_urea

 CP2K| version string:                 CP2K version 2026.2 (Development Version)
 CP2K| source code revision number:                                   0671c5aa6c
 CP2K| cp2kflags: omp libint fftw3 libxc parallel scalapack openblas            
 CP2K| is freely available from                            https://www.cp2k.org/
 CP2K| Program compiled at                                   2026-09-20 09:25:26
 CP2K| Program compiled on                                              n2login5
 CP2K| Program compiled for                                               x86_64
 CP2K| Data directory path    /scratch/hpc-prf-metdyn/eprop2d1_Jan/53_benchmark_
 CP2K| Input file name                                                 input.inp
 
 eprop2d1@n2cn0569 has created rank and process                      0   1392025
 eprop2d1@n2cn0569 has created rank and process                      1   1392026
 eprop2d1@n2cn0569 has created rank and process                      2   1392027
 eprop2d1@n2cn0569 has created rank and process                      3   1392028
 eprop2d1@n2cn0569 has created rank and process                      4   1392029
 eprop2d1@n2cn0569 has created rank and process                      5   1392030
 eprop2d1@n2cn0569 has created rank and process                      6   1392031
 eprop2d1@n2cn0569 has created rank and process                      7   1392032
 eprop2d1@n2cn0569 has created rank and process                      8   1392033
 
 eprop2d1@n2cn0569 is running                                        9 processes

 GLOBAL| Force Environment number                                              1
 GLOBAL| Basis set file name            /scratch/hpc-prf-metdyn/eprop2d1_Jan/53_
 GLOBAL| Potential file name            /scratch/hpc-prf-metdyn/eprop2d1_Jan/53_
 GLOBAL| MM Potential file name                                     MM_POTENTIAL
 GLOBAL| Coordinate file name                                      __STD_INPUT__
 GLOBAL| Method name                                                        CP2K
 GLOBAL| Project name                                             g418_e508_m097
 GLOBAL| Run type                                                         ENERGY
 GLOBAL| FFT library                                                       FFTW3
 GLOBAL| Diagonalization library                                       ScaLAPACK
 GLOBAL| Cholesky decomposition library                                ScaLAPACK
 GLOBAL| DGEMM library                                                      BLAS
 GLOBAL| Direct generalized diagonalization requested                          F
 GLOBAL| Orthonormality check for eigenvectors                          DISABLED
 GLOBAL| Matrix multiplication library                                 ScaLAPACK
 GLOBAL| All-to-all communication in single precision                          F
 GLOBAL| Grid backend                                                       AUTO
 GLOBAL| Global print level                                                  LOW
 GLOBAL| MPI I/O enabled                                                       T
 GLOBAL| Total number of message passing processes                             9
 GLOBAL| Number of distributed systems (nodes)                                 1
 GLOBAL| Number of threads for this process                                    7
 GLOBAL| This output is from process                                           0
 GLOBAL| OpenMP stack size per thread (OMP_STACKSIZE)                       512M
 GLOBAL| CPU model name                          AMD EPYC 7763 64-Core Processor

 MEMORY| system memory details [Kb]
 MEMORY|                        rank 0           min           max       average
 MEMORY| MemTotal            263897576     263897576     263897576     263897576
 MEMORY| MemFree             232828824     232828824     232992380     232972159
 MEMORY| Buffers                279956        279956        279956        279956
 MEMORY| Cached                7963092       7963020       7963092       7963028
 MEMORY| Slab                  1637232       1637232       1637232       1637232
 MEMORY| SReclaimable           299068        299068        299068        299068
 MEMORY| MemLikelyFree       241370940     241370940     241534424     241514211


 GENERATE|  Preliminary Number of Bonds generated:                             0
 GENERATE|  Achieved consistency in connectivity generation.

 *******************************************************************************
 *******************************************************************************
 **                                                                           **
 **     #####                         ##              ##                      **
 **    ##   ##            ##          ##              ##                      **
 **   ##     ##                       ##            ######                    **
 **   ##     ##  ##   ##  ##   #####  ##  ##   ####   ##    #####    #####    **
 **   ##     ##  ##   ##  ##  ##      ## ##   ##      ##   ##   ##  ##   ##   **
 **   ##  ## ##  ##   ##  ##  ##      ####     ###    ##   ######   ######    **
 **    ##  ###   ##   ##  ##  ##      ## ##      ##   ##   ##       ##        **
 **     #######   #####   ##   #####  ##  ##  ####    ##    #####   ##        **
 **           ##                                                    ##        **
 **                                                                           **
 **                                                ... make the atoms dance   **
 **                                                                           **
 **            Copyright (C) by CP2K developers group (2000-2026)             **
 **                      J. Chem. Phys. 152, 194103 (2020)                    **
 **                                                                           **
 *******************************************************************************


 TOTAL NUMBERS AND MAXIMUM NUMBERS

  Total number of            - Atomic kinds:                                   4
                             - Atoms:                                          8
                             - Shell sets:                                     8
                             - Shells:                                        56
                             - Primitive Cartesian functions:                 52
                             - Cartesian basis functions:                    172
                             - Spherical basis functions:                    152

  Maximum angular momentum of- Orbital basis functions:                        3
                             - Local part of the GTH pseudopotential:          2
                             - Non-local part of the GTH pseudopotential:      0


 SCF PARAMETERS         Density guess:                                   RESTART
                        --------------------------------------------------------
                        max_scf:                                             500
                        max_scf_history:                                       0
                        max_diis:                                              4
                        --------------------------------------------------------
                        eps_scf:                                        1.00E-08
                        eps_scf_history:                                0.00E+00
                        eps_diis:                                       0.00E+00
                        eps_eigval:                                     1.00E-05
                        --------------------------------------------------------
                        level_shift [a.u.]:                             0.000000
                        --------------------------------------------------------
                        Outer loop SCF in use 
                        No variables optimised in outer loop
                        eps_scf                                         1.00E-08
                        max_scf                                               20
                        No outer loop optimization
                        step_size                                       5.00E-01

 Extrapolation method: initial_guess

 Number of electrons:                                                         24
 Number of occupied orbitals:                                                 12
 Number of molecular orbitals:                                                12

 Number of orbital functions:                                                152
 Number of independent orbital functions:                                    152


 SCF WAVEFUNCTION OPTIMIZATION

  ----------------------------------- OT ---------------------------------------
  Minimizer      : DIIS                : direct inversion
                                         in the iterative subspace
                                         using   7 DIIS vectors
                                         safer DIIS on
  Preconditioner : FULL_KINETIC        : inversion of T + eS
  Lattice FFT   : OFF
  Precond_solver : DEFAULT
  stepsize       :    0.15000000                  energy_gap     :    0.20000000
  eps_taylor     :   0.10000E-15                  max_taylor     :             4
  ----------------------------------- OT ---------------------------------------

  Step     Update method      Time    Convergence         Total energy    Change
  ------------------------------------------------------------------------------
  Decoupling Energy:                                               0.0000846252
     1 OT DIIS     0.15E+00    1.7     6.9881E-09       -44.0252937672 -4.40E+01

  *** SCF run converged in     1 steps ***


  Electronic density on regular grids:        -24.0000000000        0.0000000000
  Core density on regular grids:               24.0000000000       -0.0000000000
  Total charge density on r-space grids:       -0.0000000000
  Total charge density g-space grids:          -0.0000000000

  Overlap energy of the core charge distribution:               0.00000083685395
  Self energy of the core charge distribution:               -110.20434852073244
  Core Hamiltonian energy:                                     32.88981581993376
  Hartree energy:                                              45.09246196905936
  Exchange-correlation energy:                                -11.80322387229109

  Total energy:                                               -44.02529376717646

  outer SCF iter =    1 RMS gradient =   0.70E-08 energy =        -44.0252937672
  outer SCF loop converged in   1 iterations or    1 steps

  
 -------------------------------------------------------------------------------
 -                                                                             -
 -                          BANDSTRUCTURE CALCULATION                          -
 -                                                                             -
 -------------------------------------------------------------------------------
  
 Number of occupied molecular orbitals (MOs) = Number of occupied bands       12
 Number of unoccupied (= virtual) MOs = Number of unoccupied bands           140
 Number of Gaussian basis functions for MOs                                  152
  
 -------------------------------------------------------------------------------
 -                                                                             -
 -                                GW CALCULATION                               -
 -                                                                             -
 -------------------------------------------------------------------------------
  
 Input: Number of time/freq. points                                           30
 Input: ω_max for fitting Σ(iω) (eV)                                        10.0
 Input: Filter threshold for sparse tensor operations                    1.0E-12
 Input: Apply Hedin shift                                                      F
 Detected: Available memory per MPI process                              23.2 GB
 
 Input: RI-RS Tikhonov regularization                                   1.00E-04
 Input: AO grid hard cutoff radius                                        8.00 Å
 Input: MPI ranks per atom in Z_lP solve                                      -1
 Input: Keep sparsity in χ/G/W panels                                          T
 Input: GW flavour                                                          G0W0
 
 Input: RI-RS grid optimization activated                                      T
 Input: RS points per AO function                                            8.0
 Input: Cutoff radius for atomic clusters                                  5.0 Å
 Input: Maximum grid optimization iterations                                 300
 
 Input: AUTO_RI basis optimization activated:                                  T
 Input: AUTO_RI number of RI functions per AO function:                      5.0
 Input: AUTO_RI frontier orbital window:                                  5.0 eV
 Input: AUTO_RI neighbor radius:                                           3.0 Å
 
 Cutoff radius for the truncated Coulomb operator in RI metric:            7.0 Å
 Regularization parameter of RI                                          0.0E+00
 Regularization parameter of minimax grids                               1.0E-06
 
 AUTO_RI| Number of automatic RI functions for χ, ε, W:                      680
 AUTO_RI| Total RI basis optimization time:                                2.2 s
  Decoupling Energy:                                               0.0000846252
 
 SCF direct band gap (eV)                                                   5.09
 Max. SCF eigval diff. (eV)                                               280.84
 E-Range for minimax grid                                                  55.14
 Number of Padé parameters for analytic continuation:                         16
 
 RI-RS basis radii (Å):
     Kind  Elem     r_AO (Å)     r_RI (Å)
        1    O        12.8635        8.6829
        2    C        15.9835       10.1279
        3    N        14.0505        8.8909
        4    H        13.9082        8.7963
 
 Started RI-RS grid optimization
 RI-RS grid initial normalized error                          2.923317010747E-03
 RI-RS grid optimization completed, execution time:                      306.3 s
 Normalized 3C error:                                                    1.9E-08
 Maximum absolute 3C error:                                              8.1E-04
 Optimized points outside molecular Voronoi cells:                           210 / 1216
 Total grid points used for RI-RS:                                          1216
 
 RI-RS grid row-blocks of ϕ_μ(r_l)                                            44
 RI-RS grid points per block (max)                                            32
 
 Percentage of non-zero matrix elements in ϕ_μ(r_l)                     100.00 %
 
 RI-RS memory estimate per MPI process:
   Available memory per process (system)                                27.36 GB
   Required for Z_lP (dense upper bound; actual is sparser)              0.00 GB
   Required for χ, W, Σ panels (peak per panel step)                     0.01 GB
   Required for Z_lP solve peak (D_local+ϕ, worst-case atom)             0.02 GB
   Worst-case local-grid number of grid points:                             1216
   Worst-case memory D_local:                                            0.01 GB
 
 Started computing Z_lP
 Computed Z_lP (MPI rank 0) for atom          1 /  1,    Execution time    0.3 s
 Computed Z_lP (all MPI ranks) for all atoms,            Execution time    0.4 s

 Memory per MPI process after computing Z_lP:
 Available memory per MPI process                               27.3 GB
 Used memory per MPI process                                     1.2 GB
 Number of batches for χ, Σ matrices                                           1
 
 Percentage of non-zero matrix elements in Z_lP                         100.00 %
 Percentage of non-zero matrix elements in G_ll', χ_ll', W_ll'          100.00 %
 Percentage of non-zero matrix elements in χ_PQ for time point 1        100.00 %
 
 Computed χ(iτ,k=0) for time point            1 / 30,    Execution time    0.1 s
 Computed χ(iτ,k=0) for time point            2 / 30,    Execution time    0.0 s
 Computed χ(iτ,k=0) for time point            3 / 30,    Execution time    0.0 s
 Computed χ(iτ,k=0) for time point            4 / 30,    Execution time    0.0 s
 Computed χ(iτ,k=0) for time point            5 / 30,    Execution time    0.0 s
 Computed χ(iτ,k=0) for time point            6 / 30,    Execution time    0.0 s
 Computed χ(iτ,k=0) for time point            7 / 30,    Execution time    0.0 s
 Computed χ(iτ,k=0) for time point            8 / 30,    Execution time    0.0 s
 Computed χ(iτ,k=0) for time point            9 / 30,    Execution time    0.0 s
 Computed χ(iτ,k=0) for time point           10 / 30,    Execution time    0.0 s
 Computed χ(iτ,k=0) for time point           11 / 30,    Execution time    0.0 s
 Computed χ(iτ,k=0) for time point           12 / 30,    Execution time    0.0 s
 Computed χ(iτ,k=0) for time point           13 / 30,    Execution time    0.0 s
 Computed χ(iτ,k=0) for time point           14 / 30,    Execution time    0.0 s
 Computed χ(iτ,k=0) for time point           15 / 30,    Execution time    0.0 s
 Computed χ(iτ,k=0) for time point           16 / 30,    Execution time    0.0 s
 Computed χ(iτ,k=0) for time point           17 / 30,    Execution time    0.0 s
 Computed χ(iτ,k=0) for time point           18 / 30,    Execution time    0.0 s
 Computed χ(iτ,k=0) for time point           19 / 30,    Execution time    0.0 s
 Computed χ(iτ,k=0) for time point           20 / 30,    Execution time    0.0 s
 Computed χ(iτ,k=0) for time point           21 / 30,    Execution time    0.0 s
 Computed χ(iτ,k=0) for time point           22 / 30,    Execution time    0.0 s
 Computed χ(iτ,k=0) for time point           23 / 30,    Execution time    0.0 s
 Computed χ(iτ,k=0) for time point           24 / 30,    Execution time    0.0 s
 Computed χ(iτ,k=0) for time point           25 / 30,    Execution time    0.0 s
 Computed χ(iτ,k=0) for time point           26 / 30,    Execution time    0.0 s
 Computed χ(iτ,k=0) for time point           27 / 30,    Execution time    0.0 s
 Computed χ(iτ,k=0) for time point           28 / 30,    Execution time    0.0 s
 Computed χ(iτ,k=0) for time point           29 / 30,    Execution time    0.0 s
 Computed χ(iτ,k=0) for time point           30 / 30,    Execution time    0.0 s
 
 Computed W(iτ),                                         Execution time    0.7 s
 
 Computed Σ^x(k=0),                                      Execution time    0.0 s
 
 Computed Σ^c(iτ) for time point              1 / 30,    Execution time    0.0 s
 Computed Σ^c(iτ) for time point              2 / 30,    Execution time    0.0 s
 Computed Σ^c(iτ) for time point              3 / 30,    Execution time    0.0 s
 Computed Σ^c(iτ) for time point              4 / 30,    Execution time    0.0 s
 Computed Σ^c(iτ) for time point              5 / 30,    Execution time    0.0 s
 Computed Σ^c(iτ) for time point              6 / 30,    Execution time    0.0 s
 Computed Σ^c(iτ) for time point              7 / 30,    Execution time    0.0 s
 Computed Σ^c(iτ) for time point              8 / 30,    Execution time    0.0 s
 Computed Σ^c(iτ) for time point              9 / 30,    Execution time    0.0 s
 Computed Σ^c(iτ) for time point             10 / 30,    Execution time    0.0 s
 Computed Σ^c(iτ) for time point             11 / 30,    Execution time    0.0 s
 Computed Σ^c(iτ) for time point             12 / 30,    Execution time    0.0 s
 Computed Σ^c(iτ) for time point             13 / 30,    Execution time    0.0 s
 Computed Σ^c(iτ) for time point             14 / 30,    Execution time    0.0 s
 Computed Σ^c(iτ) for time point             15 / 30,    Execution time    0.0 s
 Computed Σ^c(iτ) for time point             16 / 30,    Execution time    0.0 s
 Computed Σ^c(iτ) for time point             17 / 30,    Execution time    0.0 s
 Computed Σ^c(iτ) for time point             18 / 30,    Execution time    0.0 s
 Computed Σ^c(iτ) for time point             19 / 30,    Execution time    0.0 s
 Computed Σ^c(iτ) for time point             20 / 30,    Execution time    0.0 s
 Computed Σ^c(iτ) for time point             21 / 30,    Execution time    0.0 s
 Computed Σ^c(iτ) for time point             22 / 30,    Execution time    0.0 s
 Computed Σ^c(iτ) for time point             23 / 30,    Execution time    0.0 s
 Computed Σ^c(iτ) for time point             24 / 30,    Execution time    0.0 s
 Computed Σ^c(iτ) for time point             25 / 30,    Execution time    0.0 s
 Computed Σ^c(iτ) for time point             26 / 30,    Execution time    0.0 s
 Computed Σ^c(iτ) for time point             27 / 30,    Execution time    0.0 s
 Computed Σ^c(iτ) for time point             28 / 30,    Execution time    0.0 s
 Computed Σ^c(iτ) for time point             29 / 30,    Execution time    0.0 s
 Computed Σ^c(iτ) for time point             30 / 30,    Execution time    0.0 s
 
 SCF valence band maximum (eV):                                           -5.914
 SCF conduction band minimum (eV):                                        -0.821
 SCF indirect band gap (eV):                                               5.093
 SCF direct band gap (eV):                                                 5.093
 
 G0W0 valence band maximum (eV):                                          -8.969
 G0W0 conduction band minimum (eV):                                        0.995
 G0W0 indirect band gap (eV):                                              9.963
 G0W0 direct band gap (eV):                                                9.963
 
 Hartree-Fock with SCF orbitals valence band maximum (eV):               -11.458
 Hartree-Fock with SCF orbitals conduction band minimum (eV)               1.818
 Hartree-Fock with SCF orbitals indirect band gap (eV):                   13.276
 Hartree-Fock with SCF orbitals direct band gap (eV):                     13.276

 ENERGY| Total FORCE_EVAL ( QS ) energy [hartree]            -44.025293767176464

 -------------------------------------------------------------------------------
 -                                                                             -
 -                                DBCSR STATISTICS                             -
 -                                                                             -
 -------------------------------------------------------------------------------
 COUNTER                                    TOTAL       BLAS       SMM       ACC
 flops    12 x    12 x    12                 3456     100.0%      0.0%      0.0%     
 flops     9 x     9 x    12                38880     100.0%      0.0%      0.0%     
 flops    18 x    12 x    12                41472     100.0%      0.0%      0.0%     
 flops    12 x    12 x    58                50112     100.0%      0.0%      0.0%     
 flops    12 x    12 x    47                81216     100.0%      0.0%      0.0%     
 flops    29 x     9 x    12               100224     100.0%      0.0%      0.0%     
 flops     9 x    29 x    12               100224     100.0%      0.0%      0.0%     
 flops    18 x    12 x    58               100224     100.0%      0.0%      0.0%     
 flops    29 x    12 x    12               133632     100.0%      0.0%      0.0%     
 flops    18 x    12 x    47               162432     100.0%      0.0%      0.0%     
 flops     9 x    12 x     9               186624     100.0%      0.0%      0.0%     
 flops    29 x    12 x    58               322944     100.0%      0.0%      0.0%     
 flops    29 x    29 x    12               403680     100.0%      0.0%      0.0%     
 flops     8 x     8 x    71               508928     100.0%      0.0%      0.0%     
 flops    29 x    12 x    47               523392     100.0%      0.0%      0.0%     
 flops    29 x    12 x     9               601344     100.0%      0.0%      0.0%     
 flops     9 x    12 x    29               601344     100.0%      0.0%      0.0%     
 flops     8 x     8 x    72              1105920     100.0%      0.0%      0.0%     
 flops    29 x    12 x    29              1937664     100.0%      0.0%      0.0%     
 flops     9 x     9 x     8              6241536     100.0%      0.0%      0.0%     
 flops    32 x     8 x    71              6979584     100.0%      0.0%      0.0%     
 flops     8 x     8 x    38              7159808     100.0%      0.0%      0.0%     
 flops     8 x     8 x    47              8855552     100.0%      0.0%      0.0%     
 flops     8 x    32 x    71              9160704     100.0%      0.0%      0.0%     
 flops     8 x     9 x     8             11179008     100.0%      0.0%      0.0%     
 flops     8 x    67 x     8             11560448     100.0%      0.0%      0.0%     
 flops    67 x    67 x     8             11779136     100.0%      0.0%      0.0%     
 flops     8 x    71 x     8             12250624     100.0%      0.0%      0.0%     
 flops    67 x    71 x     8             12482368     100.0%      0.0%      0.0%     
 flops    71 x    67 x     8             12482368     100.0%      0.0%      0.0%     
 flops     8 x     8 x    67             13104128     100.0%      0.0%      0.0%     
 flops     8 x    67 x    67             13215616     100.0%      0.0%      0.0%     
 flops    71 x    71 x     8             13227584     100.0%      0.0%      0.0%     
 flops     8 x    80 x     8             13813760     100.0%      0.0%      0.0%     
 flops     8 x    67 x    71             14004608     100.0%      0.0%      0.0%     
 flops     8 x    71 x    67             14004608     100.0%      0.0%      0.0%     
 flops    80 x    67 x     8             14064640     100.0%      0.0%      0.0%     
 flops    67 x    80 x     8             14064640     100.0%      0.0%      0.0%     
 flops    32 x     8 x    72             14745600     100.0%      0.0%      0.0%     
 flops     8 x    71 x    71             14840704     100.0%      0.0%      0.0%     
 flops    80 x    71 x     8             14904320     100.0%      0.0%      0.0%     
 flops    71 x    80 x     8             14904320     100.0%      0.0%      0.0%     
 flops     8 x     9 x     9             15759360     100.0%      0.0%      0.0%     
 flops     8 x    80 x    67             15779840     100.0%      0.0%      0.0%     
 flops     8 x    80 x    71             16721920     100.0%      0.0%      0.0%     
 flops    80 x    80 x     8             16793600     100.0%      0.0%      0.0%     
 flops     8 x   103 x     8             17785216     100.0%      0.0%      0.0%     
 flops   103 x    67 x     8             18108224     100.0%      0.0%      0.0%     
 flops    67 x   103 x     8             18108224     100.0%      0.0%      0.0%     
 flops     8 x   107 x     8             18475904     100.0%      0.0%      0.0%     
 flops     8 x   108 x     8             18648576     100.0%      0.0%      0.0%     
 flops    67 x   107 x     8             18811456     100.0%      0.0%      0.0%     
 flops   107 x    67 x     8             18811456     100.0%      0.0%      0.0%     
 flops   108 x    67 x     8             18987264     100.0%      0.0%      0.0%     
 flops    67 x   108 x     8             18987264     100.0%      0.0%      0.0%     
 flops   103 x    71 x     8             19189312     100.0%      0.0%      0.0%     
 flops    71 x   103 x     8             19189312     100.0%      0.0%      0.0%     
 flops     8 x    32 x    72             19906560     100.0%      0.0%      0.0%     
 flops   107 x    71 x     8             19934528     100.0%      0.0%      0.0%     
 flops    71 x   107 x     8             19934528     100.0%      0.0%      0.0%     
 flops    29 x     9 x     8             20111616     100.0%      0.0%      0.0%     
 flops   108 x    71 x     8             20120832     100.0%      0.0%      0.0%     
 flops    71 x   108 x     8             20120832     100.0%      0.0%      0.0%     
 flops     9 x    29 x     8             20178432     100.0%      0.0%      0.0%     
 flops     8 x   103 x    67             20316544     100.0%      0.0%      0.0%     
 flops     8 x     8 x     9             21066624     100.0%      0.0%      0.0%     
 flops     8 x   107 x    67             21105536     100.0%      0.0%      0.0%     
 flops     8 x   108 x    67             21302784     100.0%      0.0%      0.0%     
 flops     8 x   103 x    71             21529472     100.0%      0.0%      0.0%     
 flops   103 x    80 x     8             21621760     100.0%      0.0%      0.0%     
 flops    80 x   103 x     8             21621760     100.0%      0.0%      0.0%     
 flops     8 x   107 x    71             22365568     100.0%      0.0%      0.0%     
 flops    80 x   107 x     8             22461440     100.0%      0.0%      0.0%     
 flops   107 x    80 x     8             22461440     100.0%      0.0%      0.0%     
 flops     8 x   108 x    71             22574592     100.0%      0.0%      0.0%     
 flops    80 x   108 x     8             22671360     100.0%      0.0%      0.0%     
 flops   108 x    80 x     8             22671360     100.0%      0.0%      0.0%     
 flops     8 x    72 x     8             24846336     100.0%      0.0%      0.0%     
 flops    67 x    72 x     8             25316352     100.0%      0.0%      0.0%     
 flops    72 x    67 x     8             25316352     100.0%      0.0%      0.0%     
 flops    72 x    71 x     8             26827776     100.0%      0.0%      0.0%     
 flops    71 x    72 x     8             26827776     100.0%      0.0%      0.0%     
 flops   103 x   103 x     8             27838016     100.0%      0.0%      0.0%     
 flops     8 x    72 x    67             28403712     100.0%      0.0%      0.0%     
 flops     8 x    67 x    72             28403712     100.0%      0.0%      0.0%     
 flops   103 x   107 x     8             28919104     100.0%      0.0%      0.0%     
 flops   107 x   103 x     8             28919104     100.0%      0.0%      0.0%     
 flops   103 x   108 x     8             29189376     100.0%      0.0%      0.0%     
 flops   108 x   103 x     8             29189376     100.0%      0.0%      0.0%     
 flops   107 x   107 x     8             30042176     100.0%      0.0%      0.0%     
 flops     8 x    72 x    71             30099456     100.0%      0.0%      0.0%     
 flops     8 x    71 x    72             30099456     100.0%      0.0%      0.0%     
 flops    80 x    72 x     8             30228480     100.0%      0.0%      0.0%     
 flops    72 x    80 x     8             30228480     100.0%      0.0%      0.0%     
 flops   108 x   107 x     8             30322944     100.0%      0.0%      0.0%     
 flops   107 x   108 x     8             30322944     100.0%      0.0%      0.0%     
 flops   108 x   108 x     8             30606336     100.0%      0.0%      0.0%     
 flops     8 x     8 x   175             31539200     100.0%      0.0%      0.0%     
 flops     8 x    80 x    72             33914880     100.0%      0.0%      0.0%     
 flops     8 x    29 x     8             36229120     100.0%      0.0%      0.0%     
 flops   103 x    72 x     8             38919168     100.0%      0.0%      0.0%     
 flops    72 x   103 x     8             38919168     100.0%      0.0%      0.0%     
 flops   107 x    72 x     8             40430592     100.0%      0.0%      0.0%     
 flops    72 x   107 x     8             40430592     100.0%      0.0%      0.0%     
 flops   108 x    72 x     8             40808448     100.0%      0.0%      0.0%     
 flops    72 x   108 x     8             40808448     100.0%      0.0%      0.0%     
 flops     8 x   103 x    72             43665408     100.0%      0.0%      0.0%     
 flops     8 x     8 x   246             44335104     100.0%      0.0%      0.0%     
 flops     8 x   107 x    72             45361152     100.0%      0.0%      0.0%     
 flops     8 x   108 x    72             45785088     100.0%      0.0%      0.0%     
 flops     8 x     8 x   259             46678016     100.0%      0.0%      0.0%     
 flops     8 x    29 x     9             51531840     100.0%      0.0%      0.0%     
 flops     8 x     9 x    29             51682176     100.0%      0.0%      0.0%     
 flops    72 x    72 x     8             54411264     100.0%      0.0%      0.0%     
 flops     8 x    72 x    72             61046784     100.0%      0.0%      0.0%     
 flops    29 x    29 x     8             65019392     100.0%      0.0%      0.0%     
 flops     8 x     8 x    29             68813056     100.0%      0.0%      0.0%     
 flops     9 x     9 x    32            111684096     100.0%      0.0%      0.0%     
 flops    32 x    32 x    71            125632512     100.0%      0.0%      0.0%     
 flops    32 x     8 x    38            128876544     100.0%      0.0%      0.0%     
 flops     8 x    32 x    38            128876544     100.0%      0.0%      0.0%     
 flops    32 x     8 x    47            159399936     100.0%      0.0%      0.0%     
 flops     8 x    32 x    47            159399936     100.0%      0.0%      0.0%     
 flops     8 x    29 x    29            167015872     100.0%      0.0%      0.0%     
 flops    32 x     9 x     8            200890368     100.0%      0.0%      0.0%     
 flops     8 x     9 x    32            203033088     100.0%      0.0%      0.0%     
 flops     8 x    67 x    32            210009088     100.0%      0.0%      0.0%     
 flops    32 x    67 x     8            211038208     100.0%      0.0%      0.0%     
 flops    67 x    67 x    32            216333888     100.0%      0.0%      0.0%     
 flops     8 x    71 x    32            222546944     100.0%      0.0%      0.0%     
 flops    32 x    71 x     8            224073728     100.0%      0.0%      0.0%     
 flops    71 x    67 x    32            229249344     100.0%      0.0%      0.0%     
 flops    67 x    71 x    32            229858240     100.0%      0.0%      0.0%     
 flops    32 x     8 x    67            234364928     100.0%      0.0%      0.0%     
 flops     8 x    32 x    67            235874304     100.0%      0.0%      0.0%     
 flops    32 x    67 x    67            237881088     100.0%      0.0%      0.0%     
 flops    71 x    71 x    32            243581120     100.0%      0.0%      0.0%     
 flops     8 x    80 x    32            251043840     100.0%      0.0%      0.0%     
 flops    32 x    67 x    71            252082944     100.0%      0.0%      0.0%     
 flops    32 x    71 x    67            252082944     100.0%      0.0%      0.0%     
 flops    32 x    80 x     8            252354560     100.0%      0.0%      0.0%     
 flops    67 x    80 x    32            257966080     100.0%      0.0%      0.0%     
 flops    80 x    67 x    32            258309120     100.0%      0.0%      0.0%     
 flops    32 x    32 x    72            265420800     100.0%      0.0%      0.0%     
 flops    32 x    71 x    71            267132672     100.0%      0.0%      0.0%     
 flops    71 x    80 x    32            273367040     100.0%      0.0%      0.0%     
 flops    80 x    71 x    32            274457600     100.0%      0.0%      0.0%     
 flops    32 x     9 x     9            283668480     100.0%      0.0%      0.0%     
 flops    32 x    80 x    67            284037120     100.0%      0.0%      0.0%     
 flops    32 x    80 x    71            300994560     100.0%      0.0%      0.0%     
 flops    80 x    80 x    32            308019200     100.0%      0.0%      0.0%     
 flops     8 x   103 x    32            323535360     100.0%      0.0%      0.0%     
 flops    32 x   103 x     8            326119424     100.0%      0.0%      0.0%     
 flops   103 x    67 x    32            332572992     100.0%      0.0%      0.0%     
 flops    67 x   103 x    32            333456320     100.0%      0.0%      0.0%     
 flops     8 x   107 x    32            335935488     100.0%      0.0%      0.0%     
 flops    32 x   107 x     8            338017280     100.0%      0.0%      0.0%     
 flops     8 x   108 x    32            339185664     100.0%      0.0%      0.0%     
 flops    32 x   108 x     8            341563392     100.0%      0.0%      0.0%     
 flops   107 x    67 x    32            345488448     100.0%      0.0%      0.0%     
 flops    67 x   107 x    32            346406080     100.0%      0.0%      0.0%     
 flops   108 x    67 x    32            348717312     100.0%      0.0%      0.0%     
 flops    67 x   108 x    32            349643520     100.0%      0.0%      0.0%     
 flops   103 x    71 x    32            353364160     100.0%      0.0%      0.0%     
 flops    71 x   103 x    32            353364160     100.0%      0.0%      0.0%     
 flops    29 x     9 x    32            359870976     100.0%      0.0%      0.0%     
 flops     9 x    29 x    32            364080384     100.0%      0.0%      0.0%     
 flops    32 x   103 x    67            365697792     100.0%      0.0%      0.0%     
 flops   107 x    71 x    32            367087040     100.0%      0.0%      0.0%     
 flops    71 x   107 x    32            367087040     100.0%      0.0%      0.0%     
 flops   108 x    71 x    32            370517760     100.0%      0.0%      0.0%     
 flops    71 x   108 x    32            370517760     100.0%      0.0%      0.0%     
 flops    32 x   107 x    67            379899648     100.0%      0.0%      0.0%     
 flops     8 x    32 x     9            382795776     100.0%      0.0%      0.0%     
 flops    32 x   108 x    67            383450112     100.0%      0.0%      0.0%     
 flops    32 x     8 x     9            386588160     100.0%      0.0%      0.0%     
 flops    32 x   103 x    71            387530496     100.0%      0.0%      0.0%     
 flops   103 x    80 x    32            396574720     100.0%      0.0%      0.0%     
 flops    80 x   103 x    32            398156800     100.0%      0.0%      0.0%     
 flops    32 x   107 x    71            402580224     100.0%      0.0%      0.0%     
 flops    32 x   108 x    71            406342656     100.0%      0.0%      0.0%     
 flops   107 x    80 x    32            411975680     100.0%      0.0%      0.0%     
 flops    80 x   107 x    32            413619200     100.0%      0.0%      0.0%     
 flops   108 x    80 x    32            415825920     100.0%      0.0%      0.0%     
 flops    80 x   108 x    32            417484800     100.0%      0.0%      0.0%     
 flops     8 x    72 x    32            451289088     100.0%      0.0%      0.0%     
 flops    32 x    72 x     8            453611520     100.0%      0.0%      0.0%     
 flops    72 x    67 x    32            464956416     100.0%      0.0%      0.0%     
 flops    67 x    72 x    32            465882624     100.0%      0.0%      0.0%     
 flops    71 x    72 x    32            493696512     100.0%      0.0%      0.0%     
 flops    72 x    71 x    32            494023680     100.0%      0.0%      0.0%     
 flops    32 x    72 x    67            511266816     100.0%      0.0%      0.0%     
 flops    32 x    67 x    72            511266816     100.0%      0.0%      0.0%     
 flops   103 x   103 x    32            512626880     100.0%      0.0%      0.0%     
 flops   103 x   107 x    32            532534720     100.0%      0.0%      0.0%     
 flops   107 x   103 x    32            532534720     100.0%      0.0%      0.0%     
 flops   103 x   108 x    32            537511680     100.0%      0.0%      0.0%     
 flops   108 x   103 x    32            537511680     100.0%      0.0%      0.0%     
 flops    32 x    72 x    71            541790208     100.0%      0.0%      0.0%     
 flops    32 x    71 x    72            541790208     100.0%      0.0%      0.0%     
 flops   107 x   107 x    32            553215680     100.0%      0.0%      0.0%     
 flops    72 x    80 x    32            554434560     100.0%      0.0%      0.0%     
 flops    80 x    72 x    32            556277760     100.0%      0.0%      0.0%     
 flops   108 x   107 x    32            558385920     100.0%      0.0%      0.0%     
 flops   107 x   108 x    32            558385920     100.0%      0.0%      0.0%     
 flops   108 x   108 x    32            563604480     100.0%      0.0%      0.0%     
 flops    32 x     8 x   175            567705600     100.0%      0.0%      0.0%     
 flops     8 x    32 x   175            567705600     100.0%      0.0%      0.0%     
 flops    32 x    80 x    72            610467840     100.0%      0.0%      0.0%     
 flops    32 x    29 x     8            652525056     100.0%      0.0%      0.0%     
 flops     8 x    29 x    32            661834752     100.0%      0.0%      0.0%     
 flops   103 x    72 x    32            716207616     100.0%      0.0%      0.0%     
 flops    72 x   103 x    32            716682240     100.0%      0.0%      0.0%     
 flops   107 x    72 x    32            744021504     100.0%      0.0%      0.0%     
 flops    72 x   107 x    32            744514560     100.0%      0.0%      0.0%     
 flops   108 x    72 x    32            750974976     100.0%      0.0%      0.0%     
 flops    72 x   108 x    32            751472640     100.0%      0.0%      0.0%     
 flops    32 x   103 x    72            785977344     100.0%      0.0%      0.0%     
 flops    32 x     8 x   246            798031872     100.0%      0.0%      0.0%     
 flops     8 x    32 x   246            798031872     100.0%      0.0%      0.0%     
 flops    32 x   107 x    72            816500736     100.0%      0.0%      0.0%     
 flops    32 x   108 x    72            824131584     100.0%      0.0%      0.0%     
 flops    32 x     8 x   259            840204288     100.0%      0.0%      0.0%     
 flops     8 x    32 x   259            840204288     100.0%      0.0%      0.0%     
 flops    32 x    29 x     9            930546432     100.0%      0.0%      0.0%     
 flops    32 x     9 x    29            930880512     100.0%      0.0%      0.0%     
 flops    72 x    72 x    32           1001299968     100.0%      0.0%      0.0%     
 flops    32 x    72 x    72           1098842112     100.0%      0.0%      0.0%     
 flops    29 x    29 x    32           1173147904     100.0%      0.0%      0.0%     
 flops     8 x    32 x    29           1245569024     100.0%      0.0%      0.0%     
 flops    32 x     8 x    29           1258694656     100.0%      0.0%      0.0%     
 flops    32 x    32 x    38           2319777792     100.0%      0.0%      0.0%     
 flops    32 x    32 x    47           2869198848     100.0%      0.0%      0.0%     
 flops    32 x    29 x    29           3007254528     100.0%      0.0%      0.0%     
 flops    32 x     9 x    32           3672373248     100.0%      0.0%      0.0%     
 flops    32 x    67 x    32           3847262208     100.0%      0.0%      0.0%     
 flops    32 x    71 x    32           4081311744     100.0%      0.0%      0.0%     
 flops    32 x    32 x    67           4218568704     100.0%      0.0%      0.0%     
 flops    32 x    80 x    32           4603248640     100.0%      0.0%      0.0%     
 flops    32 x   103 x    32           5943558144     100.0%      0.0%      0.0%     
 flops    32 x   107 x    32           6168020992     100.0%      0.0%      0.0%     
 flops    32 x   108 x    32           6223675392     100.0%      0.0%      0.0%     
 flops    32 x    32 x     9           7005966336     100.0%      0.0%      0.0%     
 flops    32 x    72 x    32           8273756160     100.0%      0.0%      0.0%     
 flops    32 x    32 x   175          10218700800     100.0%      0.0%      0.0%     
 flops    32 x    29 x    32          11947651072     100.0%      0.0%      0.0%     
 flops    32 x    32 x   246          14364573696     100.0%      0.0%      0.0%     
 flops    32 x    32 x   259          15123677184     100.0%      0.0%      0.0%     
 flops    32 x    32 x    29          22756401152     100.0%      0.0%      0.0%     
 flops inhomo. stacks                 24624635904     100.0%      0.0%      0.0%
 flops total                       215.670535E+09     100.0%      0.0%      0.0%
 flops max/rank                     28.633353E+09     100.0%      0.0%      0.0%
 matmuls inhomo. stacks                     36696     100.0%      0.0%      0.0%
 matmuls total                            2838345     100.0%      0.0%      0.0%
 number of processed stacks                303131     100.0%      0.0%      0.0%
 average stack size                                     9.4       0.0       0.0
 marketing flops                   283.310359E+09
 -------------------------------------------------------------------------------
 # multiplications                           3031
 max memory usage/rank              22.391640E+09
 # max total images/rank                        1
 # max 3D layers                                1
 # MPI messages exchanged                   18180
 MPI messages size (bytes):
  total size                         5.596146E+09
  min size                           0.000000E+00
  max size                           1.492992E+06
  average size                     307.818781E+03
 MPI breakdown and total messages size (bytes):
             size <=      128                2430                        0
       128 < size <=     8192                 144                   655872
      8192 < size <=    32768                1704                 31938832
     32768 < size <=   131072                1834                200958832
    131072 < size <=  4194304               12068               5362592768
   4194304 < size <= 16777216                   0                        0
  16777216 < size                               0                        0
 -------------------------------------------------------------------------------
 -                                                                             -
 -                      DBCSR MESSAGE PASSING PERFORMANCE                      -
 -                                                                             -
 -------------------------------------------------------------------------------
 ROUTINE             CALLS      AVE VOLUME [Bytes]
 MP_Bcast              250                     12.
 MP_Allreduce         2621                     19.
 MP_Alltoall          3385                  45268.
 MP_ISend             7644                 106560.
 MP_IRecv             7464                  94900.
 -------------------------------------------------------------------------------

 -------------------------------------------------------------------------------
 -                                                                             -
 -                                GRID STATISTICS                              -
 -                                                                             -
 -------------------------------------------------------------------------------
 LP    KERNEL             BACKEND                              COUNT     PERCENT
 4     collocate ortho    CPU                                   7488      21.44%
 4     integrate ortho    CPU                                   7488      21.44%
 6     collocate ortho    CPU                                   5736      16.43%
 6     integrate ortho    CPU                                   5736      16.43%
 2     collocate ortho    CPU                                   4020      11.51%
 2     integrate ortho    CPU                                   4020      11.51%
 0     collocate general  CPU                                    432       1.24%
 -------------------------------------------------------------------------------

 -------------------------------------------------------------------------------
 -                                                                             -
 -                          OFFLOAD MEMPOOL STATISTICS                         -
 -                                                                             -
 -------------------------------------------------------------------------------
 Memory consumption                Number of allocations  Used [MiB]  Size [MiB]
 Host                                                  6          86    22164565
 -------------------------------------------------------------------------------

 MEMORY| Estimated peak process memory [MiB]                                2183

 -------------------------------------------------------------------------------
 -                                                                             -
 -                         MESSAGE PASSING PERFORMANCE                         -
 -                                                                             -
 -------------------------------------------------------------------------------

 ROUTINE             CALLS      AVE VOLUME [Bytes]
 MP_Group                5
 MP_Bcast              474                 295610.
 MP_Allreduce         1884                  10365.
 MP_Sync                10
 MP_Alltoall            46               70822180.
 MP_SendRecv            32                 580800.
 MP_ISendRecv           32                 580800.
 MP_Wait               176
 MP_comm_split          10
 MP_ISend              117                3224648.
 MP_IRecv              117                3222597.
 -------------------------------------------------------------------------------


 -------------------------------------------------------------------------------
 -                                                                             -
 -                           R E F E R E N C E S                               -
 -                                                                             -
 -------------------------------------------------------------------------------
 
 CP2K version 2026.2 (Development Version), the CP2K developers group (2026).
 CP2K is freely available from https://www.cp2k.org/ .
 
 M. Iannuzzi, J. Wilhelm, F. Stein, A. Bussy, H. Elgabarty, D. Golze, A. Hehn, 
 M. Graml, S. Marek, B. Sertcan Gökmen, C. Schran, H. Forbert, R. Z. 
 Khaliullin, A. Kozhevnikov, M. Taillefumier, R. Meli, V. V. Rybkin, M. Brehm, 
 R. Schade, O. Schütt, J. V. Pototschnig, H. Mirhosseini, A. Knüpfer, D. Marx, 
 M. Krack, J. Hutter, T. D. Kühne.
 J. Phys. Chem. B 130, 1237-1310 (2026).
 The CP2K Program Package Made Simple.
 https://doi.org/10.1021/acs.jpcb.5c05851

 M. Graml, K. Zollner, D. Hernangómez-Pérez, P. E. Faria Junior, J. Wilhelm.
 J. Chem. Theory Comput. 20, 2202-2208 (2024).
 Low-scaling GW algorithm applied to twisted transition-metal dichalcogenide 
 heterobilayers.
 https://doi.org/10.1021/acs.jctc.3c01230

 T. D. Kühne, M. Iannuzzi, M. Del Ben, V. V. Rybkin, P. Seewald, F. Stein, T. 
 Laino, R. Z. Khaliullin, O. Schütt, F. Schiffmann, D. Golze, J. Wilhelm, S. 
 Chulkov, M. H. Bani-Hashemian, V. Weber, U. Borstnik, M. Taillefumier, A. S. 
 Jakobovits, A. Lazzaro, H. Pabst, T. Müller, R. Schade, M. Guidon, S. 
 Andermatt, N. Holmberg, G. K. Schenter, A. Hehn, A. Bussy, F. Belleflamme, G. 
 Tabacchi, A. Glöß, M. Lass, I. Bethune, C. J. Mundy, C. Plessl, M. Watkins, 
 J. VandeVondele, M. Krack, J. Hutter.
 J. Chem. Phys. 152, 194103 (2020).
 CP2K: An electronic structure and molecular dynamics software package - 
 Quickstep: Efficient and accurate electronic structure calculations.
 https://doi.org/10.1063/5.0007045

 O. Schuett, P. Messmer, J. Hutter, J. VandeVondele.
 Electronic Structure Calculations on Graphics Processing Units, 173-190 (2016).
 GPU-Accelerated Sparse Matrix-Matrix Multiplication for Linear Scaling Density 
 Functional Theory.
 https://doi.org/10.1002/9781118670712.ch8

 U. Borstnik, J. VandeVondele, V. Weber, J. Hutter.
 Parallel Comput. 40, 47-58 (2014).
 Sparse matrix multiplication: The distributed block-compressed sparse row 
 library.
 https://doi.org/10.1016/j.parco.2014.03.012

 J. VandeVondele, J. Hutter.
 J. Chem. Phys. 127, 114105 (2007).
 Gaussian basis sets for accurate calculations on molecular systems in gas and 
 condensed phases.
 https://doi.org/10.1063/1.2770708

 J. VandeVondele, M. Krack, F. Mohamed, M. Parrinello, T. Chassaing, J. Hutter.
 Comput. Phys. Commun. 167, 103-128 (2005).
 QUICKSTEP: Fast and accurate density functional calculations using a mixed 
 Gaussian and plane waves approach.
 https://doi.org/10.1016/j.cpc.2004.12.014

 M. Krack.
 Theor. Chem. Acc. 114, 145-152 (2005).
 Pseudopotentials for H to Kr optimized for gradient-corrected 
 exchange-correlation functionals.
 https://doi.org/10.1007/s00214-005-0655-y

 M. Frigo, S. G. Johnson.
 Proc. IEEE 93, 216-231 (2005).
 The design and implementation of FFTW3.
 https://doi.org/10.1109/JPROC.2004.840301

 J. VandeVondele, J. Hutter.
 J. Chem. Phys. 118, 4365-4369 (2003).
 An efficient orbital transformation method for electronic structure 
 calculations.
 https://doi.org/10.1063/1.1543154

 C. Hartwigsen, S. Goedecker, J. Hutter.
 Phys. Rev. B 58, 3641-3662 (1998).
 Relativistic separable dual-space Gaussian pseudopotentials from H to Rn.
 https://doi.org/10.1103/PhysRevB.58.3641

 G. Lippert, J. Hutter, M. Parrinello.
 Mol. Phys. 92, 477-487 (1997).
 A hybrid Gaussian and plane wave density functional scheme.
 https://doi.org/10.1080/002689797170220

 S. Goedecker, M. Teter, J. Hutter.
 Phys. Rev. B 54, 1703-1710 (1996).
 Separable dual-space Gaussian pseudopotentials.
 https://doi.org/10.1103/PhysRevB.54.1703

 J. P. Perdew, K. Burke, M. Ernzerhof.
 Phys. Rev. Lett. 77, 3865-3868 (1996).
 Generalized gradient approximation made simple.
 https://doi.org/10.1103/PhysRevLett.77.3865

 P. E. Blöchl.
 J. Chem. Phys. 103, 7422-7428 (1995).
 Electrostatic decoupling of periodic images of plane‐wave‐expanded 
 densities and derived atomic point charges.
 https://doi.org/10.1063/1.470314

 R. H. Byrd, P. H. Lu, J. Nocedal, C. Y. Zhu.
 SIAM J. Sci. Comput. 16, 1190-1208 (1995).
 A Limited Memory Algorithm for Bound Constrained Optimization.
 https://doi.org/10.1137/0916069


 -------------------------------------------------------------------------------
 -                                                                             -
 -                                T I M I N G                                  -
 -                                                                             -
 -------------------------------------------------------------------------------
 SUBROUTINE                       CALLS  ASD         SELF TIME        TOTAL TIME MAXRANK
                                MAXIMUM       AVERAGE  MAXIMUM  AVERAGE  MAXIMUM
 CP2K                                 1  1.0    0.028    0.041  322.482  322.483       0
 qs_energies                          1  2.0    0.005    0.005  321.204  321.204       7
 qs_energies_properties               1  3.0    0.001    0.001  318.289  318.289       2
 post_scf_bandstructure               1  4.0    0.000    0.000  318.288  318.289       5
 run_gw                               1  5.0    0.000    0.000  318.254  318.264       2
 gw_calc_ri_rs_non_periodic           1  6.0    0.002    0.002  315.212  315.403       8
 optimize_ri_rs_grid                  1  7.0    0.000    0.001  312.995  313.187       5
 mp_sum_d                           724  4.7   43.595  310.958   43.595  310.958       8
 rirs_grid_LBFGS                      1  8.0    3.872    5.443  307.420  310.756       7
 evaluate_rirs_grid_cluster         301  9.0   17.453   22.129  260.024  301.653       2
 rirs_cluster_gradient_products     301 10.0   86.689  101.506   86.689  101.506       1
 rirs_cluster_gradient_coordina     301 10.0   52.565   65.219   52.565   65.219       0
 rirs_cluster_D_ll                  301 10.0   38.637   45.714   38.637   45.714       5
 rirs_cluster_residual              301 10.0   26.147   32.314   26.147   32.314       2
 rirs_cluster_d_lP                  301 10.0   21.558   25.668   21.558   25.668       5
 rirs_cluster_AO_products           301 10.0   16.974   21.447   16.974   21.447       3
 rirs_grid_build_clusters             1  8.0    2.101    2.799    3.338    4.449       0
 create_and_init_bs_env_for_gw        1  6.0    0.004    0.006    3.042    3.292       2
 initialize_ri_rs_grid                1  8.0    0.686    1.987    2.237    2.430       2
 mp_bcast_dm                         31  9.1    1.551    2.427    1.551    2.427       8
 scf_env_do_scf                       1  3.0    0.000    0.000    2.181    2.181       0
 qs_ks_build_kohn_sham_matrix         2  7.5    0.002    0.002    2.160    2.160       3
 generate_auto_ri_basis               1  7.0    0.000    0.000    2.156    2.156       0
 fft_wrap_pw1pw2                     28 10.0    0.001    0.001    1.991    2.056       3
 fft_wrap_pw1pw2_300                 16 11.2    0.087    0.121    1.881    1.943       2
 abc_contract_xsmm                12122  9.1    1.361    1.824    1.361    1.824       2
 fft3d_ps                            28 12.0    0.668    0.916    1.528    1.750       2
 init_scf_loop                        1  4.0    0.000    0.000    1.670    1.670       0
 qs_ks_update_qs_env                  2  5.0    0.000    0.000    1.667    1.667       0
 rebuild_ks_matrix                    1  6.0    0.000    0.000    1.667    1.667       0
 compute_AB_optimized_RI_basis        1  8.0    0.000    0.000    1.486    1.486       1
 compute_AB_optimized_RI_basis_       1  9.0    0.000    0.000    1.468    1.484       1
 mp_sum_dm                           46 10.8    0.939    1.481    0.939    1.481       8
 compute_B_PQ_AB                      3 10.0    0.166    0.364    0.640    1.331       2
 mp_alltoall_z22v                    28 14.0    0.574    1.236    0.574    1.236       8
 qs_vxc_create                        2  8.5    0.000    0.000    1.149    1.173       2
 xc_vxc_pw_create                     1  9.0    0.019    0.022    1.149    1.173       0
 cp_fm_get_submatrix                 42 10.0    0.000    0.000    0.792    1.148       0
 qs_rho_update_rho_low                2  5.0    0.000    0.000    1.030    1.030       0
 calculate_rho_elec                   2  6.0    0.023    0.030    1.030    1.030       0
 xc_pw_derive                         6 11.0    0.000    0.000    0.850    0.944       3
 density_rs2pw                        2  7.0    0.000    0.000    0.663    0.762       3
 yz_to_x                             14 12.2    0.123    0.155    0.433    0.761       3
 contract_B_PQ                       14 11.8    0.336    0.688    0.363    0.739       2
 qs_init_subsys                       1  2.0    0.000    0.001    0.710    0.712       0
 qs_env_setup                         1  3.0    0.000    0.000    0.709    0.711       0
 qs_env_rebuild_pw_env                2  3.5    0.000    0.000    0.709    0.711       0
 pw_env_rebuild                       1  5.0    0.000    0.000    0.709    0.711       0
 pw_grid_setup                        5  5.2    0.000    0.000    0.689    0.690       0
 pw_grid_setup_internal               5  6.2    0.010    0.010    0.689    0.690       0
 compute_Sigma_c_and_QP_energie       1  7.0    0.000    0.000    0.671    0.682       2
 compute_W                            1  7.0    0.001    0.001    0.679    0.679       2
 compute_Sigma_c                      1  8.0    0.003    0.003    0.626    0.626       0
 xc_pw_divergence                     1 10.0    0.000    0.000    0.553    0.624       2
 pw_grid_sort                         5  7.2    0.330    0.418    0.485    0.623       0
 x_to_yz                             14 13.8    0.160    0.210    0.423    0.616       3
 xc_rho_set_and_dset_create           1 10.0    0.017    0.039    0.551    0.602       3
 setup_time_and_frequency_minim       1  7.0    0.000    0.000    0.351    0.601       0
 build_minimax_time_frequency_g       1  8.0    0.000    0.000    0.351    0.601       8
 fit_l_sq_weights                     3  9.0    0.351    0.601    0.351    0.601       3
 contract_grid_panels_sigma_c        30  9.0    0.502    0.511    0.560    0.561       8
 init_scf_run                         1  3.0    0.000    0.000    0.535    0.535       0
 scf_env_initial_rho_setup            1  4.0    0.000    0.000    0.535    0.535       0
 scf_env_do_scf_inner_loop            1  4.0    0.000    0.000    0.510    0.510       0
 create_qs_kind_set                   1  2.0    0.000    0.000    0.503    0.505       0
 read_qs_kind                         4  3.0    0.113    0.166    0.503    0.505       0
 compute_V_xc                         1  7.0    0.000    0.000    0.494    0.494       4
 parallel_gemm_fm_gemm              431  9.6    0.001    0.001    0.455    0.487       2
 cp_fm_gemm                         434 10.5    0.455    0.487    0.455    0.487       8
 compute_M_pq_inv_and_V_pq            1  8.0    0.000    0.000    0.472    0.473       0
 compute_fm_W_freq                   30  8.0    0.000    0.001    0.466    0.471       2
 sum_up_and_integrate                 2  8.5    0.000    0.000    0.445    0.469       3
 integrate_v_rspace                   2  9.5    0.000    0.000    0.440    0.467       4
 potential_pw2rs                      2 10.5    0.001    0.002    0.424    0.451       4
 get_mat_chi_Gamma_tau                1  7.0    0.000    0.001    0.447    0.447       0
 contract_grid_panels                31  8.0    0.368    0.378    0.408    0.421       3
 compute_contracted_RI_matrix         2  9.0    0.000    0.001    0.401    0.402       3
 compute_optimized_RI_matrix_bl       8 10.0    0.052    0.069    0.323    0.398       4
 parser_read_line                 60548  4.0    0.011    0.013    0.389    0.398       0
 parser_read_line_low                68  5.0    0.015    0.105    0.379    0.387       0
 broadcast_input_information         68  6.0    0.015    0.045    0.364    0.384       0
 compute_B_PQ_transition              7 10.8    0.000    0.000    0.180    0.374       2
 compute_Z_lP                         1  7.0    0.001    0.001    0.372    0.372       8
 compute_Z_lP_auto_ri                 1  8.0    0.017    0.022    0.372    0.372       6
 compute_B_PQ_exchange                7 10.8    0.000    0.000    0.183    0.365       1
 grid_collocate_task_list             2  7.0    0.313    0.362    0.313    0.362       2
 compute_M_PQ_AB                    212 11.0    0.000    0.000    0.286    0.340       7
 compute_M_PQ                       212 12.0    0.000    0.000    0.285    0.340       4
 int_operators_r12_ab_os            212 13.0    0.000    0.000    0.285    0.340       7
 int_operator_ab_os_low             212 14.0    0.111    0.134    0.285    0.339       7
 transfer_rs2pw                       9  7.8    0.000    0.000    0.178    0.323       3
 -------------------------------------------------------------------------------

 The number of warnings for this run is : 0
 
 -------------------------------------------------------------------------------
  **** **** ******  **  PROGRAM ENDED AT                 2026-10-03 12:08:11.851
 ***** ** ***  *** **   PROGRAM RAN ON                                  n2cn0569
 **    ****   ******    PROGRAM RAN BY                                  eprop2d1
 ***** **    ** ** **   PROGRAM PROCESS ID                               1392025
  **** **  *******  **  PROGRAM STOPPED IN /scratch/hpc-prf-metdyn/eprop2d1_Jan/
                                           53_benchmark_RI_opt/418_gw100_fig5_fu
                                           ll_epsfilter_1e12_20261002/calculatio
                                           ns/rc5p0/ri5_rs08/97_urea
