 DBCSR| CPU Multiplication driver                                           XSMM (U)
 DBCSR| Multrec recursion limit                                              512 (U)
 DBCSR| Multiplication stack size                                           1000 (D)
 DBCSR| Maximum elements for images                                    UNLIMITED (U)
 DBCSR| Multiplicative factor virtual images                                   1 (U)
 DBCSR| Use multiplication densification                                       T (D)
 DBCSR| Multiplication size stacks                                             3 (U)
 DBCSR| Use memory pool for CPU allocation                                     F (U)
 DBCSR| Number of 3D layers                                               SINGLE (U)
 DBCSR| Use MPI memory allocation                                              F (U)
 DBCSR| Use RMA algorithm                                                      F (U)
 DBCSR| Use Communication thread                                               T (U)
 DBCSR| Communication thread load                                             75 (D)
 DBCSR| MPI: My process id                                                     0
 DBCSR| MPI: Number of processes                                              32
 DBCSR| OMP: Current number of threads                                         4
 DBCSR| OMP: Max number of threads                                             4
 DBCSR| Split modifier for TAS multiplication algorithm                  1.0E+00 (U)


  **** **** ******  **  PROGRAM STARTED AT               2026-09-18 14:55:48.156
 ***** ** ***  *** **   PROGRAM STARTED ON                              n2cn0713
 **    ****   ******    PROGRAM STARTED BY                              eprop2d1
 ***** **    ** ** **   PROGRAM PROCESS ID                                442157
  **** **  *******  **  PROGRAM STARTED IN /scratch/hpc-prf-metdyn/eprop2d1_Jan/
                                           53_benchmark_RI_opt/129_GW100_Si293_A
                                           O_frontier_optimization_coopfst/follo
                                           wups/figure1_missing/gw100/61_GaCl/sz
                                           v_t1/initial

 CP2K| version string:                 CP2K version 2026.2 (Development Version)
 CP2K| source code revision number:                                      d1dff42
 CP2K| cp2kflags: omp libint fftw3 libxc parallel scalapack openblas            
 CP2K| is freely available from                            https://www.cp2k.org/
 CP2K| Program compiled at                                   2026-09-17 17:57:35
 CP2K| Program compiled on                                              n2login6
 CP2K| Program compiled for                                               x86_64
 CP2K| Data directory path    /scratch/hpc-prf-metdyn/eprop2d1_Jan/53_benchmark_
 CP2K| Input file name        /scratch/hpc-prf-metdyn/eprop2d1_Jan/53_benchmark_

 GLOBAL| Force Environment number                                              1
 GLOBAL| Basis set file name            /scratch/hpc-prf-metdyn/eprop2d1_Jan/53_
 GLOBAL| Potential file name            /scratch/hpc-prf-metdyn/eprop2d1_Jan/53_
 GLOBAL| MM Potential file name                                     MM_POTENTIAL
 GLOBAL| Coordinate file name                                      __STD_INPUT__
 GLOBAL| Method name                                                        CP2K
 GLOBAL| Project name                                                 f1i_061_s1
 GLOBAL| Run type                                                         ENERGY
 GLOBAL| FFT library                                                       FFTW3
 GLOBAL| Diagonalization library                                       ScaLAPACK
 GLOBAL| Cholesky decomposition library                                ScaLAPACK
 GLOBAL| DGEMM library                                                      BLAS
 GLOBAL| Direct generalized diagonalization requested                          F
 GLOBAL| Orthonormality check for eigenvectors                          DISABLED
 GLOBAL| Matrix multiplication library                                 ScaLAPACK
 GLOBAL| All-to-all communication in single precision                          F
 GLOBAL| Grid backend                                                       AUTO
 GLOBAL| Global print level                                               MEDIUM
 GLOBAL| MPI I/O enabled                                                       T
 GLOBAL| Total number of message passing processes                            32
 GLOBAL| Number of distributed systems (nodes)                                 1
 GLOBAL| Number of threads for this process                                    4
 GLOBAL| This output is from process                                           0
 GLOBAL| OpenMP stack size per thread (OMP_STACKSIZE)                       512M
 GLOBAL| CPU model name                          AMD EPYC 7763 64-Core Processor

 MEMORY| system memory details [Kb]
 MEMORY|                        rank 0           min           max       average
 MEMORY| MemTotal            263897576     263897576     263897576     263897576
 MEMORY| MemFree             244910292     244910292     244911016     244910485
 MEMORY| Buffers                342456        342456        342456        342456
 MEMORY| Cached                8433240       8433240       8433240       8433240
 MEMORY| Slab                  1285372       1285372       1285372       1285372
 MEMORY| SReclaimable           242168        242168        242168        242168
 MEMORY| MemLikelyFree       253928156     253928156     253928880     253928349


 *** Fundamental physical constants (SI units) ***

 *** Literature: B. J. Mohr and B. N. Taylor,
 ***             CODATA recommended values of the fundamental physical
 ***             constants: 2006, Web Version 5.1
 ***             http://physics.nist.gov/constants

 Speed of light in vacuum [m/s]                             2.99792458000000E+08
 Magnetic constant or permeability of vacuum [N/A**2]       1.25663706143592E-06
 Electric constant or permittivity of vacuum [F/m]          8.85418781762039E-12
 Planck constant (h) [J*s]                                  6.62606896000000E-34
 Planck constant (h-bar) [J*s]                              1.05457162825177E-34
 Elementary charge [C]                                      1.60217648700000E-19
 Electron mass [kg]                                         9.10938215000000E-31
 Electron g factor [ ]                                     -2.00231930436220E+00
 Proton mass [kg]                                           1.67262163700000E-27
 Fine-structure constant                                    7.29735253760000E-03
 Rydberg constant [1/m]                                     1.09737315685270E+07
 Avogadro constant [1/mol]                                  6.02214179000000E+23
 Boltzmann constant [J/K]                                   1.38065040000000E-23
 Atomic mass unit [kg]                                      1.66053878200000E-27
 Bohr radius [m]                                            5.29177208590000E-11

 *** Conversion factors ***

 [u] -> [a.u.]                                              1.82288848426455E+03
 [Angstrom] -> [Bohr] = [a.u.]                              1.88972613288564E+00
 [a.u.] = [Bohr] -> [Angstrom]                              5.29177208590000E-01
 [a.u.] -> [s]                                              2.41888432650478E-17
 [a.u.] -> [fs]                                             2.41888432650478E-02
 [a.u.] -> [J]                                              4.35974393937059E-18
 [a.u.] -> [N]                                              8.23872205491840E-08
 [a.u.] -> [K]                                              3.15774647902944E+05
 [a.u.] -> [kJ/mol]                                         2.62549961709828E+03
 [a.u.] -> [kcal/mol]                                       6.27509468713739E+02
 [a.u.] -> [Pa]                                             2.94210107994716E+13
 [a.u.] -> [bar]                                            2.94210107994716E+08
 [a.u.] -> [atm]                                            2.90362800883016E+08
 [a.u.] -> [eV]                                             2.72113838565563E+01
 [a.u.] -> [Hz]                                             6.57968392072181E+15
 [a.u.] -> [1/cm] (wave numbers)                            2.19474631370540E+05
 [a.u./Bohr**2] -> [1/cm]                                   5.14048714338585E+03
 

 CELL| Volume [angstrom^3]:                                          8000.000000
 CELL| Vector a [angstrom]:      20.000     0.000     0.000   |a| =    20.000000
 CELL| Vector b [angstrom]:       0.000    20.000     0.000   |b| =    20.000000
 CELL| Vector c [angstrom]:       0.000     0.000    20.000   |c| =    20.000000
 CELL| Angle (b,c), alpha [degree]:                                    90.000000
 CELL| Angle (a,c), beta  [degree]:                                    90.000000
 CELL| Angle (a,b), gamma [degree]:                                    90.000000
 CELL| Numerically orthorhombic:                                             YES
 CELL| Periodicity                                                          NONE

 CELL_REF| Volume [angstrom^3]:                                      8000.000000
 CELL_REF| Vector a [angstrom    20.000     0.000     0.000   |a| =    20.000000
 CELL_REF| Vector b [angstrom     0.000    20.000     0.000   |b| =    20.000000
 CELL_REF| Vector c [angstrom     0.000     0.000    20.000   |c| =    20.000000
 CELL_REF| Angle (b,c), alpha [degree]:                                90.000000
 CELL_REF| Angle (a,c), beta  [degree]:                                90.000000
 CELL_REF| Angle (a,b), gamma [degree]:                                90.000000
 CELL_REF| Numerically orthorhombic:                                         YES
 CELL_REF| Periodicity                                                      NONE

 GENERATE|  Preliminary Number of Bonds generated:                             0
 GENERATE|  Achieved consistency in connectivity generation.

 PW_GRID| Information for grid number                                          1
 PW_GRID| Cutoff [a.u.]                                                      8.0
 PW_GRID| spherical cutoff:                                                   NO
 PW_GRID|   Bounds   1              0      49                Points:          50
 PW_GRID|   Bounds   2              0      49                Points:          50
 PW_GRID|   Bounds   3              0      49                Points:          50
 PW_GRID| Volume element (a.u.^3)  0.4319         Volume (a.u.^3)     53986.6767
 PW_GRID| Grid span                                                    HALFSPACE

 *******************************************************************************
 *******************************************************************************
 **                                                                           **
 **     #####                         ##              ##                      **
 **    ##   ##            ##          ##              ##                      **
 **   ##     ##                       ##            ######                    **
 **   ##     ##  ##   ##  ##   #####  ##  ##   ####   ##    #####    #####    **
 **   ##     ##  ##   ##  ##  ##      ## ##   ##      ##   ##   ##  ##   ##   **
 **   ##  ## ##  ##   ##  ##  ##      ####     ###    ##   ######   ######    **
 **    ##  ###   ##   ##  ##  ##      ## ##      ##   ##   ##       ##        **
 **     #######   #####   ##   #####  ##  ##  ####    ##    #####   ##        **
 **           ##                                                    ##        **
 **                                                                           **
 **                                                ... make the atoms dance   **
 **                                                                           **
 **            Copyright (C) by CP2K developers group (2000-2026)             **
 **                      J. Chem. Phys. 152, 194103 (2020)                    **
 **                                                                           **
 *******************************************************************************

 DFT| Spin restricted Kohn-Sham (RKS) calculation                            RKS
 DFT| Multiplicity                                                             1
 DFT| Number of spin states                                                    1
 DFT| Charge                                                                   0
 DFT| Self-interaction correction (SIC)                                       NO
 DFT| Cutoffs: density                                              1.000000E-10
 DFT|          gradient                                             1.000000E-10
 DFT|          tau                                                  1.000000E-10
 DFT|          cutoff_smoothing_range                               0.000000E+00
 DFT| XC density smoothing                                                  NONE
 DFT| XC derivatives                                                          PW

 FUNCTIONAL| PBE:
 FUNCTIONAL| J.P.Perdew, K.Burke, M.Ernzerhof, Phys. Rev. Letter, vol. 77, n 18,
 FUNCTIONAL|  pp. 3865-3868, (1996) {spin unpolarized}                          


 QS| Method:                                                                 GPW
 QS| Density plane wave grid type                        NON-SPHERICAL FULLSPACE
 QS| Number of grid levels:                                                    5
 QS| Density cutoff [a.u.]:                                                300.0
 QS| Multi grid cutoff [a.u.]: 1) grid level                               300.0
 QS|                           2) grid level                               100.0
 QS|                           3) grid level                                33.3
 QS|                           4) grid level                                11.1
 QS|                           5) grid level                                 3.7
 QS| Grid level progression factor:                                          3.0
 QS| Relative density cutoff [a.u.]:                                        30.0
 QS| Interaction thresholds: eps_pgf_orb:                                1.0E-12
 QS|                         eps_filter_matrix:                          0.0E+00
 QS|                         eps_core_charge:                            1.0E-14
 QS|                         eps_rho_gspace:                             1.0E-12
 QS|                         eps_rho_rspace:                             1.0E-12
 QS|                         eps_gvg_rspace:                             1.0E-06
 QS|                         eps_ppl:                                    1.0E-02
 QS|                         eps_ppnl:                                   1.0E-08


 ATOMIC KIND INFORMATION

  1. Atomic kind: Ga                                    Number of atoms:       1

     Orbital Basis Set                                 aug-SZV-MOLOPT-GTH-tier-1

       Number of orbital shell sets:                                           1
       Number of orbital shells:                                               6
       Number of primitive Cartesian functions:                                7
       Number of Cartesian basis functions:                                   20
       Number of spherical basis functions:                                   18
       Norm type:                                                              2

       Normalised Cartesian orbitals:

                        Set   Shell   Orbital            Exponent    Coefficient

                          1       1    2s                0.045000       0.000000
                                                         0.076562      -0.044987
                                                         0.232197      -0.192187
                                                         0.571611       0.056465
                                                         1.430064       0.265436
                                                         3.428369      -0.094392
                                                         7.066654       0.013136

                          1       2    3s                0.045000      -0.150737
                                                         0.076562       0.160704
                                                         0.232197      -0.113326
                                                         0.571611       0.014105
                                                         1.430064       0.120757
                                                         3.428369       0.000000
                                                         7.066654       0.000000

                          1       3    3px               0.045000       0.000000
                                                         0.076562      -0.020696
                                                         0.232197      -0.159451
                                                         0.571611      -0.058486
                                                         1.430064       0.250131
                                                         3.428369       0.019224
                                                         7.066654       0.002358
                          1       3    3py               0.045000       0.000000
                                                         0.076562      -0.020696
                                                         0.232197      -0.159451
                                                         0.571611      -0.058486
                                                         1.430064       0.250131
                                                         3.428369       0.019224
                                                         7.066654       0.002358
                          1       3    3pz               0.045000       0.000000
                                                         0.076562      -0.020696
                                                         0.232197      -0.159451
                                                         0.571611      -0.058486
                                                         1.430064       0.250131
                                                         3.428369       0.019224
                                                         7.066654       0.002358

                          1       4    4px               0.045000      -0.025468
                                                         0.076562       0.005827
                                                         0.232197      -0.105636
                                                         0.571611       0.070301
                                                         1.430064       0.247988
                                                         3.428369       0.000000
                                                         7.066654       0.000000
                          1       4    4py               0.045000      -0.025468
                                                         0.076562       0.005827
                                                         0.232197      -0.105636
                                                         0.571611       0.070301
                                                         1.430064       0.247988
                                                         3.428369       0.000000
                                                         7.066654       0.000000
                          1       4    4pz               0.045000      -0.025468
                                                         0.076562       0.005827
                                                         0.232197      -0.105636
                                                         0.571611       0.070301
                                                         1.430064       0.247988
                                                         3.428369       0.000000
                                                         7.066654       0.000000

                          1       5    4dx2              0.045000       0.000000
                                                         0.076562      -0.000022
                                                         0.232197      -0.006983
                                                         0.571611      -0.123148
                                                         1.430064      -1.022731
                                                         3.428369      -5.345729
                                                         7.066654     -15.264848
                          1       5    4dxy              0.045000       0.000000
                                                         0.076562      -0.000037
                                                         0.232197      -0.012094
                                                         0.571611      -0.213299
                                                         1.430064      -1.771423
                                                         3.428369      -9.259074
                                                         7.066654     -26.439493
                          1       5    4dxz              0.045000       0.000000
                                                         0.076562      -0.000037
                                                         0.232197      -0.012094
                                                         0.571611      -0.213299
                                                         1.430064      -1.771423
                                                         3.428369      -9.259074
                                                         7.066654     -26.439493
                          1       5    4dy2              0.045000       0.000000
                                                         0.076562      -0.000022
                                                         0.232197      -0.006983
                                                         0.571611      -0.123148
                                                         1.430064      -1.022731
                                                         3.428369      -5.345729
                                                         7.066654     -15.264848
                          1       5    4dyz              0.045000       0.000000
                                                         0.076562      -0.000037
                                                         0.232197      -0.012094
                                                         0.571611      -0.213299
                                                         1.430064      -1.771423
                                                         3.428369      -9.259074
                                                         7.066654     -26.439493
                          1       5    4dz2              0.045000       0.000000
                                                         0.076562      -0.000022
                                                         0.232197      -0.006983
                                                         0.571611      -0.123148
                                                         1.430064      -1.022731
                                                         3.428369      -5.345729
                                                         7.066654     -15.264848

                          1       6    5dx2              0.045000       0.006812
                                                         0.076562      -0.001179
                                                         0.232197       0.034734
                                                         0.571611      -0.015200
                                                         1.430064       0.009091
                                                         3.428369       0.000000
                                                         7.066654       0.000000
                          1       6    5dxy              0.045000       0.011799
                                                         0.076562      -0.002041
                                                         0.232197       0.060161
                                                         0.571611      -0.026328
                                                         1.430064       0.015745
                                                         3.428369       0.000000
                                                         7.066654       0.000000
                          1       6    5dxz              0.045000       0.011799
                                                         0.076562      -0.002041
                                                         0.232197       0.060161
                                                         0.571611      -0.026328
                                                         1.430064       0.015745
                                                         3.428369       0.000000
                                                         7.066654       0.000000
                          1       6    5dy2              0.045000       0.006812
                                                         0.076562      -0.001179
                                                         0.232197       0.034734
                                                         0.571611      -0.015200
                                                         1.430064       0.009091
                                                         3.428369       0.000000
                                                         7.066654       0.000000
                          1       6    5dyz              0.045000       0.011799
                                                         0.076562      -0.002041
                                                         0.232197       0.060161
                                                         0.571611      -0.026328
                                                         1.430064       0.015745
                                                         3.428369       0.000000
                                                         7.066654       0.000000
                          1       6    5dz2              0.045000       0.006812
                                                         0.076562      -0.001179
                                                         0.232197       0.034734
                                                         0.571611      -0.015200
                                                         1.430064       0.009091
                                                         3.428369       0.000000
                                                         7.066654       0.000000

     RI Auxiliary Basis Set             RI_aug-SZV-MOLOPT-GTH-tier-1_N_RI_100_s_

       Number of orbital shell sets:                                          24
       Number of orbital shells:                                              24
       Number of primitive Cartesian functions:                               24
       Number of Cartesian basis functions:                                  134
       Number of spherical basis functions:                                  100
       Norm type:                                                              2

       Normalised Cartesian orbitals:

                        Set   Shell   Orbital            Exponent    Coefficient

                          1       1    1s                0.110094       0.136218

                          2       1    2s                0.241729       0.245701

                          3       1    3s                0.530005       0.442711

                          4       1    4s                1.152009       0.792505

                          5       1    5s                2.498866       1.416503

                          6       1    6s                5.421564       2.532232

                          7       1    7s               11.772738       4.529687

                          8       1    8px               0.108561       0.088824
                          8       1    8py               0.108561       0.088824
                          8       1    8pz               0.108561       0.088824

                          9       1    9px               0.301178       0.318031
                          9       1    9py               0.301178       0.318031
                          9       1    9pz               0.301178       0.318031

                         10       1   10px               0.706910       0.923943
                         10       1   10py               0.706910       0.923943
                         10       1   10pz               0.706910       0.923943

                         11       1   11px               1.775985       2.922397
                         11       1   11py               1.775985       2.922397
                         11       1   11pz               1.775985       2.922397

                         12       1   12px               4.613011       9.636531
                         12       1   12py               4.613011       9.636531
                         12       1   12pz               4.613011       9.636531

                         13       1   13px              11.686084      30.798272
                         13       1   13py              11.686084      30.798272
                         13       1   13pz              11.686084      30.798272

                         14       1   14dx2              0.150276       0.059699
                         14       1   14dxy              0.150276       0.103402
                         14       1   14dxz              0.150276       0.103402
                         14       1   14dy2              0.150276       0.059699
                         14       1   14dyz              0.150276       0.103402
                         14       1   14dz2              0.150276       0.059699

                         15       1   15dx2              0.520391       0.524791
                         15       1   15dxy              0.520391       0.908965
                         15       1   15dxz              0.520391       0.908965
                         15       1   15dy2              0.520391       0.524791
                         15       1   15dyz              0.520391       0.908965
                         15       1   15dz2              0.520391       0.524791

                         16       1   16dx2              1.603764       3.761883
                         16       1   16dxy              1.603764       6.515773
                         16       1   16dxz              1.603764       6.515773
                         16       1   16dy2              1.603764       3.761883
                         16       1   16dyz              1.603764       6.515773
                         16       1   16dz2              1.603764       3.761883

                         17       1   17dx2              5.088932      28.379586
                         17       1   17dxy              5.088932      49.154884
                         17       1   17dxz              5.088932      49.154884
                         17       1   17dy2              5.088932      28.379586
                         17       1   17dyz              5.088932      49.154884
                         17       1   17dz2              5.088932      28.379586

                         18       1   18fx3              0.134177       0.016041
                         18       1   18fx2y             0.134177       0.035869
                         18       1   18fx2z             0.134177       0.035869
                         18       1   18fxy2             0.134177       0.035869
                         18       1   18fxyz             0.134177       0.062127
                         18       1   18fxz2             0.134177       0.035869
                         18       1   18fy3              0.134177       0.016041
                         18       1   18fy2z             0.134177       0.035869
                         18       1   18fyz2             0.134177       0.035869
                         18       1   18fz3              0.134177       0.016041

                         19       1   19fx3              0.760836       0.795901
                         19       1   19fx2y             0.760836       1.779688
                         19       1   19fx2z             0.760836       1.779688
                         19       1   19fxy2             0.760836       1.779688
                         19       1   19fxyz             0.760836       3.082510
                         19       1   19fxz2             0.760836       1.779688
                         19       1   19fy3              0.760836       0.795901
                         19       1   19fy2z             0.760836       1.779688
                         19       1   19fyz2             0.760836       1.779688
                         19       1   19fz3              0.760836       0.795901

                         20       1   20fx3              2.243291       9.066654
                         20       1   20fx2y             2.243291      20.273655
                         20       1   20fx2z             2.243291      20.273655
                         20       1   20fxy2             2.243291      20.273655
                         20       1   20fxyz             2.243291      35.115001
                         20       1   20fxz2             2.243291      20.273655
                         20       1   20fy3              2.243291       9.066654
                         20       1   20fy2z             2.243291      20.273655
                         20       1   20fyz2             2.243291      20.273655
                         20       1   20fz3              2.243291       9.066654

                         21       1   21fx3              8.289997     171.672914
                         21       1   21fx2y             8.289997     383.872305
                         21       1   21fx2z             8.289997     383.872305
                         21       1   21fxy2             8.289997     383.872305
                         21       1   21fxyz             8.289997     664.886336
                         21       1   21fxz2             8.289997     383.872305
                         21       1   21fy3              8.289997     171.672914
                         21       1   21fy2z             8.289997     383.872305
                         21       1   21fyz2             8.289997     383.872305
                         21       1   21fz3              8.289997     171.672914

                         22       1   22gx4              0.122267       0.003440
                         22       1   22gx3y             0.122267       0.009101
                         22       1   22gx3z             0.122267       0.009101
                         22       1   22gx2y2            0.122267       0.011749
                         22       1   22gx2yz            0.122267       0.020350
                         22       1   22gx2z2            0.122267       0.011749
                         22       1   22gxy3             0.122267       0.009101
                         22       1   22gxy2z            0.122267       0.020350
                         22       1   22gxyz2            0.122267       0.020350
                         22       1   22gxz3             0.122267       0.009101
                         22       1   22gy4              0.122267       0.003440
                         22       1   22gy3z             0.122267       0.009101
                         22       1   22gy2z2            0.122267       0.011749
                         22       1   22gyz3             0.122267       0.009101
                         22       1   22gz4              0.122267       0.003440

                         23       1   23gx4              0.632542       0.315813
                         23       1   23gx3y             0.632542       0.835563
                         23       1   23gx3z             0.632542       0.835563
                         23       1   23gx2y2            0.632542       1.078708
                         23       1   23gx2yz            0.632542       1.868377
                         23       1   23gx2z2            0.632542       1.078708
                         23       1   23gxy3             0.632542       0.835563
                         23       1   23gxy2z            0.632542       1.868377
                         23       1   23gxyz2            0.632542       1.868377
                         23       1   23gxz3             0.632542       0.835563
                         23       1   23gy4              0.632542       0.315813
                         23       1   23gy3z             0.632542       0.835563
                         23       1   23gy2z2            0.632542       1.078708
                         23       1   23gyz3             0.632542       0.835563
                         23       1   23gz4              0.632542       0.315813

                         24       1   24gx4              7.763561     311.962996
                         24       1   24gx3y             7.763561     825.376505
                         24       1   24gx3z             7.763561     825.376505
                         24       1   24gx2y2            7.763561    1065.556486
                         24       1   24gx2yz            7.763561    1845.597972
                         24       1   24gx2z2            7.763561    1065.556486
                         24       1   24gxy3             7.763561     825.376505
                         24       1   24gxy2z            7.763561    1845.597972
                         24       1   24gxyz2            7.763561    1845.597972
                         24       1   24gxz3             7.763561     825.376505
                         24       1   24gy4              7.763561     311.962996
                         24       1   24gy3z             7.763561     825.376505
                         24       1   24gy2z2            7.763561    1065.556486
                         24       1   24gyz3             7.763561     825.376505
                         24       1   24gz4              7.763561     311.962996

       Atomic covalent radius [Angstrom]:                                  1.260

       Atomic van der Waals radius [Angstrom]:                             1.870

     GTH Potential information for                                       GTH-PBE

       Description:                       Goedecker-Teter-Hutter pseudopotential
                                           Goedecker et al., PRB 54, 1703 (1996)
                                          Hartwigsen et al., PRB 58, 3641 (1998)
                                                      Krack, TCA 114, 145 (2005)

       Gaussian exponent of the core charge distribution:               2.082466
       Electronic configuration (s p d ...):                           2   1  10

       Parameters of the local part of the GTH pseudopotential:

                          rloc        C1          C2          C3          C4
                        0.490000

       Parameters of the non-local part of the GTH pseudopotential:

                   l      r(l)      h(i,j,l)

                   0    0.416777   10.475690   -4.921768    0.870706
                                   -4.921768    7.770178   -2.248152
                                    0.870706   -2.248152    1.784415
                   1    0.569627    1.777985    0.195860
                                    0.195860   -0.231744
                   2    0.238126  -16.248680

  2. Atomic kind: Cl                                    Number of atoms:       1

     Orbital Basis Set                                 aug-SZV-MOLOPT-GTH-tier-1

       Number of orbital shell sets:                                           1
       Number of orbital shells:                                               4
       Number of primitive Cartesian functions:                                5
       Number of Cartesian basis functions:                                    8
       Number of spherical basis functions:                                    8
       Norm type:                                                              2

       Normalised Cartesian orbitals:

                        Set   Shell   Orbital            Exponent    Coefficient

                          1       1    2s                0.150015      -0.058490
                                                         0.200000       0.000000
                                                         0.461213      -0.342539
                                                         1.470718       0.018727
                                                         2.379078       0.403013

                          1       2    3s                0.150015       0.141828
                                                         0.200000       0.046346
                                                         0.461213      -0.020842
                                                         1.470718       0.004143
                                                         2.379078       0.000000

                          1       3    3px               0.150015      -0.051764
                                                         0.200000       0.000000
                                                         0.461213      -0.325785
                                                         1.470718      -0.580854
                                                         2.379078       0.636314
                          1       3    3py               0.150015      -0.051764
                                                         0.200000       0.000000
                                                         0.461213      -0.325785
                                                         1.470718      -0.580854
                                                         2.379078       0.636314
                          1       3    3pz               0.150015      -0.051764
                                                         0.200000       0.000000
                                                         0.461213      -0.325785
                                                         1.470718      -0.580854
                                                         2.379078       0.636314

                          1       4    4px               0.150015       0.262897
                                                         0.200000      -0.229930
                                                         0.461213       0.148576
                                                         1.470718       0.008236
                                                         2.379078       0.000000
                          1       4    4py               0.150015       0.262897
                                                         0.200000      -0.229930
                                                         0.461213       0.148576
                                                         1.470718       0.008236
                                                         2.379078       0.000000
                          1       4    4pz               0.150015       0.262897
                                                         0.200000      -0.229930
                                                         0.461213       0.148576
                                                         1.470718       0.008236
                                                         2.379078       0.000000

     RI Auxiliary Basis Set             RI_aug-SZV-MOLOPT-GTH-tier-1_N_RI_046_s_

       Number of orbital shell sets:                                          16
       Number of orbital shells:                                              16
       Number of primitive Cartesian functions:                               16
       Number of Cartesian basis functions:                                   51
       Number of spherical basis functions:                                   46
       Norm type:                                                              2

       Normalised Cartesian orbitals:

                        Set   Shell   Orbital            Exponent    Coefficient

                          1       1    1s                0.270303       0.267177

                          2       1    2s                0.470651       0.404981

                          3       1    3s                0.807601       0.607167

                          4       1    4s                1.355298       0.895233

                          5       1    5s                2.263231       1.315094

                          6       1    6s                3.777708       1.931218

                          7       1    7px               0.320492       0.343725
                          7       1    7py               0.320492       0.343725
                          7       1    7pz               0.320492       0.343725

                          8       1    8px               0.645440       0.824632
                          8       1    8py               0.645440       0.824632
                          8       1    8pz               0.645440       0.824632

                          9       1    9px               1.250636       1.885184
                          9       1    9py               1.250636       1.885184
                          9       1    9pz               1.250636       1.885184

                         10       1   10px               2.213078       3.847565
                         10       1   10py               2.213078       3.847565
                         10       1   10pz               2.213078       3.847565

                         11       1   11px               3.907168       7.830107
                         11       1   11py               3.907168       7.830107
                         11       1   11pz               3.907168       7.830107

                         12       1   12dx2              0.280412       0.177850
                         12       1   12dxy              0.280412       0.308046
                         12       1   12dxz              0.280412       0.308046
                         12       1   12dy2              0.280412       0.177850
                         12       1   12dyz              0.280412       0.308046
                         12       1   12dz2              0.280412       0.177850

                         13       1   13dx2              0.533248       0.547692
                         13       1   13dxy              0.533248       0.948630
                         13       1   13dxz              0.533248       0.948630
                         13       1   13dy2              0.533248       0.547692
                         13       1   13dyz              0.533248       0.948630
                         13       1   13dz2              0.533248       0.547692

                         14       1   14dx2              1.016938       1.695021
                         14       1   14dxy              1.016938       2.935862
                         14       1   14dxz              1.016938       2.935862
                         14       1   14dy2              1.016938       1.695021
                         14       1   14dyz              1.016938       2.935862
                         14       1   14dz2              1.016938       1.695021

                         15       1   15dx2              1.948014       5.286833
                         15       1   15dxy              1.948014       9.157063
                         15       1   15dxz              1.948014       9.157063
                         15       1   15dy2              1.948014       5.286833
                         15       1   15dyz              1.948014       9.157063
                         15       1   15dz2              1.948014       5.286833

                         16       1   16dx2              3.721753      16.414121
                         16       1   16dxy              3.721753      28.430092
                         16       1   16dxz              3.721753      28.430092
                         16       1   16dy2              3.721753      16.414121
                         16       1   16dyz              3.721753      28.430092
                         16       1   16dz2              3.721753      16.414121

       Atomic covalent radius [Angstrom]:                                  0.990

       Atomic van der Waals radius [Angstrom]:                             1.750

     GTH Potential information for                                       GTH-PBE

       Description:                       Goedecker-Teter-Hutter pseudopotential
                                           Goedecker et al., PRB 54, 1703 (1996)
                                          Hartwigsen et al., PRB 58, 3641 (1998)
                                                      Krack, TCA 114, 145 (2005)

       Gaussian exponent of the core charge distribution:               2.974420
       Electronic configuration (s p d ...):                               2   5

       Parameters of the local part of the GTH pseudopotential:

                          rloc        C1          C2          C3          C4
                        0.410000   -6.392082

       Parameters of the non-local part of the GTH pseudopotential:

                   l      r(l)      h(i,j,l)

                   0    0.339539   15.218990   -4.934523
                                   -4.934523    6.370442
                   1    0.378474    4.338775


 MOLECULE KIND INFORMATION


 All atoms are their own molecule, skipping detailed information


 TOTAL NUMBERS AND MAXIMUM NUMBERS

  Total number of            - Atomic kinds:                                   2
                             - Atoms:                                          2
                             - Shell sets:                                     2
                             - Shells:                                        10
                             - Primitive Cartesian functions:                 12
                             - Cartesian basis functions:                     28
                             - Spherical basis functions:                     26

  Maximum angular momentum of- Orbital basis functions:                        2
                             - Local part of the GTH pseudopotential:          0
                             - Non-local part of the GTH pseudopotential:      4


 MODULE QUICKSTEP: ATOMIC COORDINATES IN ANGSTROM

   Atom Kind Element         X             Y             Z       Z(eff)     Mass
      1    1 Ga   31     10.000000     10.000000      8.899150  13.0000  69.7230
      2    2 Cl   17     10.000000     10.000000     11.100850   7.0000  35.4530



 SCF PARAMETERS         Density guess:                                    ATOMIC
                        --------------------------------------------------------
                        max_scf:                                             200
                        max_scf_history:                                       0
                        max_diis:                                              4
                        --------------------------------------------------------
                        eps_scf:                                        1.00E-07
                        eps_scf_history:                                0.00E+00
                        eps_diis:                                       1.00E-01
                        eps_eigval:                                     1.00E-05
                        --------------------------------------------------------
                        level_shift [a.u.]:                             0.000000
                        SCF update method:                                MIXING
                        added MOs                                        16    0
                        --------------------------------------------------------
                        Mixing method:                            BROYDEN_MIXING
                                                charge density mixing in g-space
                        --------------------------------------------------------
                        Outer loop SCF in use 
                        No variables optimised in outer loop
                        eps_scf                                         1.00E-07
                        max_scf                                               20
                        No outer loop optimization
                        step_size                                       5.00E-01

 PW_GRID| Information for grid number                                          2
 PW_GRID| Grid distributed over                                    32 processors
 PW_GRID| Real space group dimensions                                    32    1
 PW_GRID| the grid is blocked:                                                NO
 PW_GRID| Cutoff [a.u.]                                                    300.0
 PW_GRID| spherical cutoff:                                                   NO
 PW_GRID|   Bounds   1           -150     149                Points:         300
 PW_GRID|   Bounds   2           -150     149                Points:         300
 PW_GRID|   Bounds   3           -150     149                Points:         300
 PW_GRID| Volume element (a.u.^3)  0.2000E-02     Volume (a.u.^3)     53986.6767
 PW_GRID| Grid span                                                    FULLSPACE
 PW_GRID|   Distribution                         Average         Max         Min
 PW_GRID|   G-Vectors                           843750.0      843900      843600
 PW_GRID|   G-Rays                                2812.5        2813        2812
 PW_GRID|   Real Space Points                   843750.0      900000      810000

 PW_GRID| Information for grid number                                          3
 PW_GRID| Number of the reference grid                                         2
 PW_GRID| Grid distributed over                                    32 processors
 PW_GRID| Real space group dimensions                                    32    1
 PW_GRID| the grid is blocked:                                                NO
 PW_GRID| Cutoff [a.u.]                                                    100.0
 PW_GRID| spherical cutoff:                                                   NO
 PW_GRID|   Bounds   1            -90      89                Points:         180
 PW_GRID|   Bounds   2            -90      89                Points:         180
 PW_GRID|   Bounds   3            -90      89                Points:         180
 PW_GRID| Volume element (a.u.^3)  0.9257E-02     Volume (a.u.^3)     53986.6767
 PW_GRID| Grid span                                                    FULLSPACE
 PW_GRID|   Distribution                         Average         Max         Min
 PW_GRID|   G-Vectors                           182250.0      182520      181980
 PW_GRID|   G-Rays                                1012.5        1014        1011
 PW_GRID|   Real Space Points                   182250.0      194400      162000

 PW_GRID| Information for grid number                                          4
 PW_GRID| Number of the reference grid                                         2
 PW_GRID| Grid distributed over                                    32 processors
 PW_GRID| Real space group dimensions                                    32    1
 PW_GRID| the grid is blocked:                                                NO
 PW_GRID| Cutoff [a.u.]                                                     33.3
 PW_GRID| spherical cutoff:                                                   NO
 PW_GRID|   Bounds   1            -50      49                Points:         100
 PW_GRID|   Bounds   2            -50      49                Points:         100
 PW_GRID|   Bounds   3            -50      49                Points:         100
 PW_GRID| Volume element (a.u.^3)  0.5399E-01     Volume (a.u.^3)     53986.6767
 PW_GRID| Grid span                                                    FULLSPACE
 PW_GRID|   Distribution                         Average         Max         Min
 PW_GRID|   G-Vectors                            31250.0       31500       31000
 PW_GRID|   G-Rays                                 312.5         315         310
 PW_GRID|   Real Space Points                    31250.0       40000       30000

 PW_GRID| Information for grid number                                          5
 PW_GRID| Number of the reference grid                                         2
 PW_GRID| Grid distributed over                                    32 processors
 PW_GRID| Real space group dimensions                                    32    1
 PW_GRID| the grid is blocked:                                                NO
 PW_GRID| Cutoff [a.u.]                                                     11.1
 PW_GRID| spherical cutoff:                                                   NO
 PW_GRID|   Bounds   1            -30      29                Points:          60
 PW_GRID|   Bounds   2            -30      29                Points:          60
 PW_GRID|   Bounds   3            -30      29                Points:          60
 PW_GRID| Volume element (a.u.^3)  0.2499         Volume (a.u.^3)     53986.6767
 PW_GRID| Grid span                                                    FULLSPACE
 PW_GRID|   Distribution                         Average         Max         Min
 PW_GRID|   G-Vectors                             6750.0        6780        6720
 PW_GRID|   G-Rays                                 112.5         113         112
 PW_GRID|   Real Space Points                     6750.0        7200        3600

 PW_GRID| Information for grid number                                          6
 PW_GRID| Number of the reference grid                                         2
 PW_GRID| Grid distributed over                                    32 processors
 PW_GRID| Real space group dimensions                                    32    1
 PW_GRID| the grid is blocked:                                                NO
 PW_GRID| Cutoff [a.u.]                                                      3.7
 PW_GRID| spherical cutoff:                                                   NO
 PW_GRID|   Bounds   1            -18      17                Points:          36
 PW_GRID|   Bounds   2            -18      17                Points:          36
 PW_GRID|   Bounds   3            -18      17                Points:          36
 PW_GRID| Volume element (a.u.^3)   1.157         Volume (a.u.^3)     53986.6767
 PW_GRID| Grid span                                                    FULLSPACE
 PW_GRID|   Distribution                         Average         Max         Min
 PW_GRID|   G-Vectors                             1458.0        1548        1368
 PW_GRID|   G-Rays                                  40.5          43          38
 PW_GRID|   Real Space Points                     1458.0        2592        1296

 POISSON| Solver                                             MULTIPOLE (Bloechl)
 POISSON| Periodicity                                                       NONE

 RS_GRID| Information for grid number                                          2
 RS_GRID|   Bounds   1           -150     149                Points:         300
 RS_GRID|   Bounds   2           -150     149                Points:         300
 RS_GRID|   Bounds   3           -150     149                Points:         300
 RS_GRID| Real space distribution over                                  2 groups
 RS_GRID| Real space distribution along direction                              1
 RS_GRID| Border size                                                         33
 RS_GRID| Real space distribution over                                  4 groups
 RS_GRID| Real space distribution along direction                              2
 RS_GRID| Border size                                                         33
 RS_GRID| Real space distribution over                                  4 groups
 RS_GRID| Real space distribution along direction                              3
 RS_GRID| Border size                                                         33
 RS_GRID|   Distribution                         Average         Max         Min
 RS_GRID|   Planes                                 216.0         216         216
 RS_GRID|   Distribution                         Average         Max         Min
 RS_GRID|   Planes                                 141.0         141         141
 RS_GRID|   Distribution                         Average         Max         Min
 RS_GRID|   Planes                                 141.0         141         141

 RS_GRID| Information for grid number                                          3
 RS_GRID|   Bounds   1            -90      89                Points:         180
 RS_GRID|   Bounds   2            -90      89                Points:         180
 RS_GRID|   Bounds   3            -90      89                Points:         180
 RS_GRID| Real space distribution over                                  2 groups
 RS_GRID| Real space distribution along direction                              1
 RS_GRID| Border size                                                         29
 RS_GRID| Real space distribution over                                  4 groups
 RS_GRID| Real space distribution along direction                              2
 RS_GRID| Border size                                                         29
 RS_GRID| Real space distribution over                                  4 groups
 RS_GRID| Real space distribution along direction                              3
 RS_GRID| Border size                                                         29
 RS_GRID|   Distribution                         Average         Max         Min
 RS_GRID|   Planes                                 148.0         148         148
 RS_GRID|   Distribution                         Average         Max         Min
 RS_GRID|   Planes                                 103.0         103         103
 RS_GRID|   Distribution                         Average         Max         Min
 RS_GRID|   Planes                                 103.0         103         103

 RS_GRID| Information for grid number                                          4
 RS_GRID|   Bounds   1            -50      49                Points:         100
 RS_GRID|   Bounds   2            -50      49                Points:         100
 RS_GRID|   Bounds   3            -50      49                Points:         100
 RS_GRID| Real space fully replicated
 RS_GRID| Group size                                                           1

 RS_GRID| Information for grid number                                          5
 RS_GRID|   Bounds   1            -30      29                Points:          60
 RS_GRID|   Bounds   2            -30      29                Points:          60
 RS_GRID|   Bounds   3            -30      29                Points:          60
 RS_GRID| Real space fully replicated
 RS_GRID| Group size                                                           1

 RS_GRID| Information for grid number                                          6
 RS_GRID|   Bounds   1            -18      17                Points:          36
 RS_GRID|   Bounds   2            -18      17                Points:          36
 RS_GRID|   Bounds   3            -18      17                Points:          36
 RS_GRID| Real space fully replicated
 RS_GRID| Group size                                                           1

 Extrapolation method: initial_guess

 Atomic guess: The first density matrix is obtained in terms of atomic orbitals
               and electronic configurations assigned to each atomic kind

 Guess for atomic kind: Ga

 Electronic structure
    Total number of core electrons                                         18.00
    Total number of valence electrons                                      13.00
    Total number of electrons                                              31.00
    Multiplicity                                                   not specified
    S   [  2.00  2.00  2.00] 2.00
    P   [  6.00  6.00] 1.00
    D     10.00


 *******************************************************************************
                  Iteration          Convergence                     Energy [au]
 *******************************************************************************
                          1         14.6267                     -30.278590780619
                          2        0.584311                     -73.926303346161
                          3        0.114056                     -74.131533965677
                          4        0.795886E-02                 -74.135235267634
                          5        0.586484E-02                 -74.135238808760
                          6        0.521376E-02                 -74.135239877291
                          7        0.743475E-05                 -74.135243884417
                          8        0.878785E-06                 -74.135243884518

 Energy components [Hartree]           Total Energy ::          -74.135243884518
                                        Band Energy ::           -6.976093420236
                                     Kinetic Energy ::           99.957079189531
                                   Potential Energy ::         -174.092323074049
                                      Virial (-V/T) ::            1.741670769951
                                        Core Energy ::         -134.569749534153
                                          XC Energy ::           -9.820493113088
                                     Coulomb Energy ::           70.254998762724
                       Total Pseudopotential Energy ::         -234.591217066289
                       Local Pseudopotential Energy ::         -163.857179108626
                    Nonlocal Pseudopotential Energy ::          -70.734037957663
                                        Confinement ::            0.643883426040

 Orbital energies  State     L     Occupation   Energy[a.u.]          Energy[eV]

                       1     0          2.000      -0.293772           -7.993948

                       1     1          1.000      -0.041206           -1.121268

                       1     2         10.000      -0.634734          -17.271999


 Total Electron Density at R=0:                                         0.000031

 Guess for atomic kind: Cl

 Electronic structure
    Total number of core electrons                                         10.00
    Total number of valence electrons                                       7.00
    Total number of electrons                                              17.00
    Multiplicity                                                   not specified
    S   [  2.00  2.00] 2.00
    P   [  6.00] 5.00


 *******************************************************************************
                  Iteration          Convergence                     Energy [au]
 *******************************************************************************
                          1        0.191474E-01                 -14.773649416245
                          2        0.136940E-01                 -14.773720828867
                          3        0.292780E-03                 -14.773762943121
                          4        0.139478E-07                 -14.773762962728

 Energy components [Hartree]           Total Energy ::          -14.773762962728
                                        Band Energy ::           -2.963744653547
                                     Kinetic Energy ::            5.569519242071
                                   Potential Energy ::          -20.343282204799
                                      Virial (-V/T) ::            3.652610094446
                                        Core Energy ::          -24.683016563487
                                          XC Energy ::           -2.745606838153
                                     Coulomb Energy ::           12.654860438912
                       Total Pseudopotential Energy ::          -30.311443963096
                       Local Pseudopotential Energy ::          -33.425325407042
                    Nonlocal Pseudopotential Energy ::            3.113881443946
                                        Confinement ::            0.589081575379

 Orbital energies  State     L     Occupation   Energy[a.u.]          Energy[eV]

                       1     0          2.000      -0.739791          -20.130746

                       1     1          5.000      -0.296832           -8.077220


 Total Electron Density at R=0:                                         0.000345
 Re-scaling the density matrix to get the right number of electrons
                  # Electrons              Trace(P)               Scaling factor
                           20                20.000                        1.000

 Number of electrons:                                                         20
 Number of occupied orbitals:                                                 10
 Number of molecular orbitals:                                                26

 Number of orbital functions:                                                 26
 Number of independent orbital functions:                                     26


 SCF WAVEFUNCTION OPTIMIZATION

  Step     Update method      Time    Convergence         Total energy    Change
  ------------------------------------------------------------------------------
     1 NoMix/Diag. 0.20E+00    0.7     0.48311188       -89.4821449977 -8.95E+01
     2 Broy./Diag. 0.20E+00    1.0     0.08873247       -89.0126720638  4.69E-01
     3 Broy./Diag. 0.20E+00    1.0     0.18119456       -89.3735907607 -3.61E-01
     4 Broy./Diag. 0.20E+00    1.0     0.04273706       -89.6405427059 -2.67E-01
     5 Broy./Diag. 0.20E+00    1.0     0.02454093       -89.5302082329  1.10E-01
     6 Broy./Diag. 0.20E+00    1.0     0.01014048       -89.5640236550 -3.38E-02
     7 Broy./Diag. 0.20E+00    1.0     0.01389912       -89.5470334221  1.70E-02
     8 Broy./Diag. 0.20E+00    1.0     0.00368603       -89.5725645780 -2.55E-02
     9 Broy./Diag. 0.20E+00    1.1     0.00176858       -89.5650209140  7.54E-03
    10 Broy./Diag. 0.20E+00    1.1     0.00212966       -89.5634104459  1.61E-03
    11 Broy./Diag. 0.20E+00    1.1     0.00218088       -89.5607440613  2.67E-03
    12 Broy./Diag. 0.20E+00    1.1     0.00022883       -89.5642092227 -3.47E-03
    13 Broy./Diag. 0.20E+00    1.1     0.00198226       -89.5637753661  4.34E-04
    14 Broy./Diag. 0.20E+00    1.1     0.00019566       -89.5644830389 -7.08E-04
    15 Broy./Diag. 0.20E+00    1.1     0.00042998       -89.5634816498  1.00E-03
    16 Broy./Diag. 0.20E+00    1.1     0.00009474       -89.5635213033 -3.97E-05
    17 Broy./Diag. 0.20E+00    1.1     0.00018323       -89.5637433225 -2.22E-04
    18 Broy./Diag. 0.20E+00    1.1     0.00006541       -89.5636126516  1.31E-04
    19 Broy./Diag. 0.20E+00    1.1     0.00006996       -89.5635529304  5.97E-05
    20 Broy./Diag. 0.20E+00    1.1     0.00007004       -89.5635790560 -2.61E-05
    21 Broy./Diag. 0.20E+00    1.1     0.00001931       -89.5635797714 -7.15E-07
    22 Broy./Diag. 0.20E+00    1.1     0.00002332       -89.5635775312  2.24E-06
    23 Broy./Diag. 0.20E+00    1.1     0.00002323       -89.5635819243 -4.39E-06
    24 Broy./Diag. 0.20E+00    1.1     0.00001888       -89.5635822316 -3.07E-07
    25 Broy./Diag. 0.20E+00    1.1     0.00000594       -89.5635847452 -2.51E-06
    26 Broy./Diag. 0.20E+00    1.1     0.00000679       -89.5635804933  4.25E-06
    27 Broy./Diag. 0.20E+00    1.1     0.00000158       -89.5635744223  6.07E-06
    28 Broy./Diag. 0.20E+00    1.1     0.00000252       -89.5635754485 -1.03E-06
    29 Broy./Diag. 0.20E+00    1.1     0.00000048       -89.5635773503 -1.90E-06
    30 Broy./Diag. 0.20E+00    1.1     0.00000056       -89.5635790937 -1.74E-06
    31 Broy./Diag. 0.20E+00    1.1     0.00000046       -89.5635782448  8.49E-07
    32 Broy./Diag. 0.20E+00    1.1     0.00000011       -89.5635769379  1.31E-06
    33 Broy./Diag. 0.20E+00    1.1     0.00000025       -89.5635769270  1.09E-08
    34 Broy./Diag. 0.20E+00    1.1     0.00000004       -89.5635773991 -4.72E-07

  *** SCF run converged in    34 steps ***


  Electronic density on regular grids:        -20.0000000000        0.0000000000
  Core density on regular grids:               20.0000000000       -0.0000000000
  Total charge density on r-space grids:        0.0000000000
  Total charge density g-space grids:           0.0000000000

  Overlap energy of the core charge distribution:               0.00000000162095
  Self energy of the core charge distribution:               -131.00768577651985
  Core Hamiltonian energy:                                     37.01439368925972
  Hartree energy:                                              17.47282317097288
  Exchange-correlation energy:                                -13.04310848446164

  Total energy:                                               -89.56357739912795

  outer SCF iter =    1 RMS gradient =   0.41E-07 energy =        -89.5635773991
  outer SCF loop converged in   1 iterations or   34 steps


 !-----------------------------------------------------------------------------!
                     Mulliken Population Analysis

 #  Atom  Element  Kind  Atomic population                           Net charge
       1     Ga       1         12.782683                              0.217317
       2     Cl       2          7.217317                             -0.217317
 # Total charge                             20.000000                  0.000000

 !-----------------------------------------------------------------------------!

 !-----------------------------------------------------------------------------!
                           Hirshfeld Charges

  #Atom  Element  Kind  Ref Charge     Population                    Net charge
      1       Ga     1      13.000         13.094                        -0.094
      2       Cl     2       7.000          6.905                         0.095

  Total Charge                                                            0.001
 !-----------------------------------------------------------------------------!
  
 -------------------------------------------------------------------------------
 -                                                                             -
 -                          BANDSTRUCTURE CALCULATION                          -
 -                                                                             -
 -------------------------------------------------------------------------------
  
 Number of occupied molecular orbitals (MOs) = Number of occupied bands       10
 Number of unoccupied (= virtual) MOs = Number of unoccupied bands            16
 Number of Gaussian basis functions for MOs                                   26
  
 -------------------------------------------------------------------------------
 -                                                                             -
 -                                GW CALCULATION                               -
 -                                                                             -
 -------------------------------------------------------------------------------
  
 Input: Number of time/freq. points                                           30
 Input: ω_max for fitting Σ(iω) (eV)                                        10.0
 Input: Filter threshold for sparse tensor operations                    1.0E-07
 Input: Apply Hedin shift                                                      F
 Detected: Available memory per MPI process                               7.0 GB
 
 Input: RI-RS Tikhonov regularization                                   1.00E-08
 Input: AO grid hard cutoff radius                                        8.00 Å
 Input: MPI ranks per atom in Z_lP solve                                      -1
 Input: Keep sparsity in χ/G/W panels                                          T
 Input: GW flavour                                                          G0W0
 
 Input: RI-RS grid optimization activated                                      T
 Input: RS points per AO function                                            7.0
 Input: Cutoff radius for atomic clusters                                  3.0 Å
 Input: Maximum grid optimization iterations                                 300
 
 Input: AUTO_RI basis optimization activated:                                  T
 Input: AUTO_RI number of RI functions per AO function:                      4.0
 Input: AUTO_RI frontier orbital window:                                  5.0 eV
 Input: AUTO_RI neighbor radius:                                           3.0 Å
 
 Cutoff radius for the truncated Coulomb operator in RI metric:            6.0 Å
 Regularization parameter of RI                                          0.0E+00
 Regularization parameter of minimax grids                               1.0E-06
 
 AUTO_RI| Number of automatic RI functions for χ, ε, W:                      104
 AUTO_RI| Total RI basis optimization time:                                0.3 s
 
 SCF direct band gap (eV)                                                   4.37
 Max. SCF eigval diff. (eV)                                                67.14
 E-Range for minimax grid                                                  15.37
 Number of Padé parameters for analytic continuation:                         16
 
 RI-RS basis radii (Å):
     Kind  Elem     r_AO (Å)     r_RI (Å)
        1    Ga       10.0150        6.4479
        2    Cl        5.4852        4.0863
 
 Started RI-RS grid optimization
 RI-RS grid initial normalized error                          3.185739765632E-04
 RI-RS grid optimization completed, execution time:                        0.9 s
 Normalized 3C error:                                                    3.6E-08
 Maximum absolute 3C error:                                              7.0E-04
 Optimized points outside molecular Voronoi cells:                             3 / 182
 Total grid points used for RI-RS:                                           182
 
 RI-RS grid row-blocks of ϕ_μ(r_l)                                             6
 RI-RS grid points per block (max)                                            32
 
 Percentage of non-zero matrix elements in ϕ_μ(r_l)                     100.00 %
 
 RI-RS memory estimate per MPI process:
   Available memory per process (system)                                 7.71 GB
   Required for Z_lP (dense upper bound; actual is sparser)              0.00 GB
   Required for χ, W, Σ panels (peak per panel step)                     0.00 GB
   Required for Z_lP solve peak (D_local+ϕ, worst-case atom)             0.00 GB
   Worst-case local-grid number of grid points:                              182
   Worst-case memory D_local:                                            0.00 GB
 
 Started computing Z_lP
 Computed Z_lP (MPI rank 0) for atom          1 /  1,    Execution time    0.0 s
 Computed Z_lP (all MPI ranks) for all atoms,            Execution time    0.0 s

 Memory per MPI process after computing Z_lP:
 Available memory per MPI process                                7.7 GB
 Used memory per MPI process                                     1.0 GB
 Number of batches for χ, Σ matrices                                           1
 
 Percentage of non-zero matrix elements in Z_lP                         100.00 %
 Percentage of non-zero matrix elements in G_ll', χ_ll', W_ll'          100.00 %
 Percentage of non-zero matrix elements in χ_PQ for time point 1        100.00 %
 
 Computed χ(iτ,k=0) for time point            1 / 30,    Execution time    0.0 s
 Computed χ(iτ,k=0) for time point            2 / 30,    Execution time    0.0 s
 Computed χ(iτ,k=0) for time point            3 / 30,    Execution time    0.0 s
 Computed χ(iτ,k=0) for time point            4 / 30,    Execution time    0.0 s
 Computed χ(iτ,k=0) for time point            5 / 30,    Execution time    0.0 s
 Computed χ(iτ,k=0) for time point            6 / 30,    Execution time    0.0 s
 Computed χ(iτ,k=0) for time point            7 / 30,    Execution time    0.0 s
 Computed χ(iτ,k=0) for time point            8 / 30,    Execution time    0.0 s
 Computed χ(iτ,k=0) for time point            9 / 30,    Execution time    0.0 s
 Computed χ(iτ,k=0) for time point           10 / 30,    Execution time    0.0 s
 Computed χ(iτ,k=0) for time point           11 / 30,    Execution time    0.0 s
 Computed χ(iτ,k=0) for time point           12 / 30,    Execution time    0.0 s
 Computed χ(iτ,k=0) for time point           13 / 30,    Execution time    0.0 s
 Computed χ(iτ,k=0) for time point           14 / 30,    Execution time    0.0 s
 Computed χ(iτ,k=0) for time point           15 / 30,    Execution time    0.0 s
 Computed χ(iτ,k=0) for time point           16 / 30,    Execution time    0.0 s
 Computed χ(iτ,k=0) for time point           17 / 30,    Execution time    0.0 s
 Computed χ(iτ,k=0) for time point           18 / 30,    Execution time    0.0 s
 Computed χ(iτ,k=0) for time point           19 / 30,    Execution time    0.0 s
 Computed χ(iτ,k=0) for time point           20 / 30,    Execution time    0.0 s
 Computed χ(iτ,k=0) for time point           21 / 30,    Execution time    0.0 s
 Computed χ(iτ,k=0) for time point           22 / 30,    Execution time    0.0 s
 Computed χ(iτ,k=0) for time point           23 / 30,    Execution time    0.0 s
 Computed χ(iτ,k=0) for time point           24 / 30,    Execution time    0.0 s
 Computed χ(iτ,k=0) for time point           25 / 30,    Execution time    0.0 s
 Computed χ(iτ,k=0) for time point           26 / 30,    Execution time    0.0 s
 Computed χ(iτ,k=0) for time point           27 / 30,    Execution time    0.0 s
 Computed χ(iτ,k=0) for time point           28 / 30,    Execution time    0.0 s
 Computed χ(iτ,k=0) for time point           29 / 30,    Execution time    0.0 s
 Computed χ(iτ,k=0) for time point           30 / 30,    Execution time    0.0 s
 
 Computed W(iτ),                                         Execution time    0.1 s
 
 Computed Σ^x(k=0),                                      Execution time    0.0 s
 
 Computed Σ^c(iτ) for time point              1 / 30,    Execution time    0.0 s
 Computed Σ^c(iτ) for time point              2 / 30,    Execution time    0.0 s
 Computed Σ^c(iτ) for time point              3 / 30,    Execution time    0.0 s
 Computed Σ^c(iτ) for time point              4 / 30,    Execution time    0.0 s
 Computed Σ^c(iτ) for time point              5 / 30,    Execution time    0.0 s
 Computed Σ^c(iτ) for time point              6 / 30,    Execution time    0.0 s
 Computed Σ^c(iτ) for time point              7 / 30,    Execution time    0.0 s
 Computed Σ^c(iτ) for time point              8 / 30,    Execution time    0.0 s
 Computed Σ^c(iτ) for time point              9 / 30,    Execution time    0.0 s
 Computed Σ^c(iτ) for time point             10 / 30,    Execution time    0.0 s
 Computed Σ^c(iτ) for time point             11 / 30,    Execution time    0.0 s
 Computed Σ^c(iτ) for time point             12 / 30,    Execution time    0.0 s
 Computed Σ^c(iτ) for time point             13 / 30,    Execution time    0.0 s
 Computed Σ^c(iτ) for time point             14 / 30,    Execution time    0.0 s
 Computed Σ^c(iτ) for time point             15 / 30,    Execution time    0.0 s
 Computed Σ^c(iτ) for time point             16 / 30,    Execution time    0.0 s
 Computed Σ^c(iτ) for time point             17 / 30,    Execution time    0.0 s
 Computed Σ^c(iτ) for time point             18 / 30,    Execution time    0.0 s
 Computed Σ^c(iτ) for time point             19 / 30,    Execution time    0.0 s
 Computed Σ^c(iτ) for time point             20 / 30,    Execution time    0.0 s
 Computed Σ^c(iτ) for time point             21 / 30,    Execution time    0.0 s
 Computed Σ^c(iτ) for time point             22 / 30,    Execution time    0.0 s
 Computed Σ^c(iτ) for time point             23 / 30,    Execution time    0.0 s
 Computed Σ^c(iτ) for time point             24 / 30,    Execution time    0.0 s
 Computed Σ^c(iτ) for time point             25 / 30,    Execution time    0.0 s
 Computed Σ^c(iτ) for time point             26 / 30,    Execution time    0.0 s
 Computed Σ^c(iτ) for time point             27 / 30,    Execution time    0.0 s
 Computed Σ^c(iτ) for time point             28 / 30,    Execution time    0.0 s
 Computed Σ^c(iτ) for time point             29 / 30,    Execution time    0.0 s
 Computed Σ^c(iτ) for time point             30 / 30,    Execution time    0.0 s
 
 SCF valence band maximum (eV):                                           -6.410
 SCF conduction band minimum (eV):                                        -2.043
 SCF indirect band gap (eV):                                               4.367
 SCF direct band gap (eV):                                                 4.367
 
 G0W0 valence band maximum (eV):                                          -8.845
 G0W0 conduction band minimum (eV):                                        1.162
 G0W0 indirect band gap (eV):                                             10.007
 G0W0 direct band gap (eV):                                               10.007
 
 Hartree-Fock with SCF orbitals valence band maximum (eV):                -9.608
 Hartree-Fock with SCF orbitals conduction band minimum (eV)               1.772
 Hartree-Fock with SCF orbitals indirect band gap (eV):                   11.380
 Hartree-Fock with SCF orbitals direct band gap (eV):                     11.380

 ENERGY| Total FORCE_EVAL ( QS ) energy [hartree]            -89.563577399127951

 -------------------------------------------------------------------------------
 -                                                                             -
 -                                DBCSR STATISTICS                             -
 -                                                                             -
 -------------------------------------------------------------------------------
 COUNTER                                    TOTAL       BLAS       SMM       ACC
 flops     8 x     8 x    24                76800       0.0%    100.0%      0.0%     
 flops     8 x     8 x    30                96000       0.0%    100.0%      0.0%     
 flops     8 x     8 x    26               113152       0.0%    100.0%      0.0%     
 flops     8 x    18 x    24               172800       0.0%    100.0%      0.0%     
 flops    18 x     8 x    24               172800       0.0%    100.0%      0.0%     
 flops    18 x     8 x    30               216000       0.0%    100.0%      0.0%     
 flops    24 x     8 x     8               224256       0.0%    100.0%      0.0%     
 flops     8 x    18 x    30               224640       0.0%    100.0%      0.0%     
 flops    24 x     8 x    24               239616       0.0%    100.0%      0.0%     
 flops     8 x    18 x    26               254592       0.0%    100.0%      0.0%     
 flops    30 x     8 x     8               280320       0.0%    100.0%      0.0%     
 flops    24 x     8 x    30               299520       0.0%    100.0%      0.0%     
 flops    30 x     8 x    24               311040       0.0%    100.0%      0.0%     
 flops    18 x    18 x    24               388800       0.0%    100.0%      0.0%     
 flops    30 x     8 x    30               388800       0.0%    100.0%      0.0%     
 flops     8 x     8 x    32               409600       0.0%    100.0%      0.0%     
 flops    24 x     8 x    18               504576       0.0%    100.0%      0.0%     
 flops    24 x    18 x     8               504576       0.0%    100.0%      0.0%     
 flops    18 x    18 x    30               505440       0.0%    100.0%      0.0%     
 flops    24 x    18 x    24               539136       0.0%    100.0%      0.0%     
 flops    18 x    18 x    26               572832       0.0%    100.0%      0.0%     
 flops    30 x     8 x    18               630720       0.0%    100.0%      0.0%     
 flops    30 x    18 x     8               630720       0.0%    100.0%      0.0%     
 flops    24 x    24 x     8               654336       0.0%    100.0%      0.0%     
 flops    30 x    18 x    24               673920       0.0%    100.0%      0.0%     
 flops    24 x    18 x    30               699840       0.0%    100.0%      0.0%     
 flops    24 x    30 x     8               817920       0.0%    100.0%      0.0%     
 flops    30 x    24 x     8               840960       0.0%    100.0%      0.0%     
 flops    30 x    18 x    30               907200       0.0%    100.0%      0.0%     
 flops    18 x     8 x    32               921600       0.0%    100.0%      0.0%     
 flops     8 x    18 x    32               967680       0.0%    100.0%      0.0%     
 flops    30 x    30 x     8              1051200       0.0%    100.0%      0.0%     
 flops    24 x    18 x    18              1135296       0.0%    100.0%      0.0%     
 flops    32 x     8 x     8              1196032       0.0%    100.0%      0.0%     
 flops    24 x     8 x    32              1265664       0.0%    100.0%      0.0%     
 flops    32 x     8 x    24              1302528       0.0%    100.0%      0.0%     
 flops    30 x    18 x    18              1419120       0.0%    100.0%      0.0%     
 flops    24 x    24 x    18              1492992       0.0%    100.0%      0.0%     
 flops    32 x     8 x    30              1628160       0.0%    100.0%      0.0%     
 flops    30 x     8 x    32              1643520       0.0%    100.0%      0.0%     
 flops    24 x    24 x    52              1797120       0.0%    100.0%      0.0%     
 flops    30 x    24 x    18              1892160       0.0%    100.0%      0.0%     
 flops    24 x    30 x    18              1892160       0.0%    100.0%      0.0%     
 flops    24 x    52 x    24              1916928       0.0%    100.0%      0.0%     
 flops    18 x    18 x    32              2177280       0.0%    100.0%      0.0%     
 flops    30 x    24 x    52              2246400       0.0%    100.0%      0.0%     
 flops    24 x    30 x    52              2246400       0.0%    100.0%      0.0%     
 flops    30 x    30 x    18              2365200       0.0%    100.0%      0.0%     
 flops    30 x    52 x    24              2396160       0.0%    100.0%      0.0%     
 flops    24 x    52 x    30              2396160       0.0%    100.0%      0.0%     
 flops    32 x    18 x     8              2691072       0.0%    100.0%      0.0%     
 flops    32 x     8 x    18              2691072       0.0%    100.0%      0.0%     
 flops    30 x    30 x    52              2808000       0.0%    100.0%      0.0%     
 flops    32 x    18 x    24              2903040       0.0%    100.0%      0.0%     
 flops    24 x    18 x    32              2958336       0.0%    100.0%      0.0%     
 flops    30 x    52 x    30              2995200       0.0%    100.0%      0.0%     
 flops    24 x    32 x     8              3489792       0.0%    100.0%      0.0%     
 flops    32 x    24 x     8              3588096       0.0%    100.0%      0.0%     
 flops    32 x    18 x    30              3801600       0.0%    100.0%      0.0%     
 flops    30 x    18 x    32              3801600       0.0%    100.0%      0.0%     
 flops    30 x    32 x     8              4469760       0.0%    100.0%      0.0%     
 flops    32 x    30 x     8              4485120       0.0%    100.0%      0.0%     
 flops    32 x    18 x    18              6054912       0.0%    100.0%      0.0%     
 flops    32 x     8 x    32              6979584       0.0%    100.0%      0.0%     
 flops    52 x    52 x    24              7787520       0.0%    100.0%      0.0%     
 flops    24 x    52 x    52              7787520       0.0%    100.0%      0.0%     
 flops    32 x    24 x    18              8073216       0.0%    100.0%      0.0%     
 flops    24 x    32 x    18              8073216       0.0%    100.0%      0.0%     
 flops    32 x    24 x    52              9584640       0.0%    100.0%      0.0%     
 flops    24 x    32 x    52              9584640       0.0%    100.0%      0.0%     
 flops    52 x    52 x    30              9734400       0.0%    100.0%      0.0%     
 flops    30 x    52 x    52              9734400       0.0%    100.0%      0.0%     
 flops    24 x    52 x    32              9904128       0.0%    100.0%      0.0%     
 flops    30 x    32 x    18             10091520       0.0%    100.0%      0.0%     
 flops    32 x    30 x    18             10091520       0.0%    100.0%      0.0%     
 flops    32 x    52 x    24             10223616       0.0%    100.0%      0.0%     
 flops    30 x    32 x    52             11980800       0.0%    100.0%      0.0%     
 flops    32 x    30 x    52             11980800       0.0%    100.0%      0.0%     
 flops    30 x    52 x    32             12480000       0.0%    100.0%      0.0%     
 flops    32 x    52 x    30             12779520       0.0%    100.0%      0.0%     
 flops    32 x    18 x    32             16109568       0.0%    100.0%      0.0%     
 flops    32 x    32 x     8             19070976       0.0%    100.0%      0.0%     
 flops    52 x    52 x    32             41533440       0.0%    100.0%      0.0%     
 flops    32 x    52 x    52             41533440       0.0%    100.0%      0.0%     
 flops    32 x    32 x    18             43020288       0.0%    100.0%      0.0%     
 flops    32 x    32 x    52             51118080       0.0%    100.0%      0.0%     
 flops    32 x    52 x    32             53780480       0.0%    100.0%      0.0%     
 flops inhomo. stacks                           0       0.0%      0.0%      0.0%
 flops total                       527.475584E+06       0.0%    100.0%      0.0%
 flops max/rank                     94.009664E+06       0.0%    100.0%      0.0%
 matmuls inhomo. stacks                         0       0.0%      0.0%      0.0%
 matmuls total                              12571       0.0%    100.0%      0.0%
 number of processed stacks                 10661       0.0%    100.0%      0.0%
 average stack size                                     0.0       1.2       0.0
 marketing flops                     1.019165E+09
 -------------------------------------------------------------------------------
 # multiplications                            520
 max memory usage/rank              20.234785E+09
 # max total images/rank                        2
 # max 3D layers                                1
 # MPI messages exchanged                  216320
 MPI messages size (bytes):
  total size                       314.512608E+06
  min size                           0.000000E+00
  max size                          26.624000E+03
  average size                       1.453923E+03
 MPI breakdown and total messages size (bytes):
             size <=      128              178156                        0
       128 < size <=     8192               25490                116532704
      8192 < size <=    32768               12674                197979904
     32768 < size <=   131072                   0                        0
    131072 < size <=  4194304                   0                        0
   4194304 < size <= 16777216                   0                        0
  16777216 < size                               0                        0
 -------------------------------------------------------------------------------

 *** WARNING in dbcsr_mm.F:301 :: Using a non-square number of MPI ranks ***
 *** might lead to poor performance. Used ranks: 32 Suggested: 36 64     ***

 -------------------------------------------------------------------------------
 -                                                                             -
 -                      DBCSR MESSAGE PASSING PERFORMANCE                      -
 -                                                                             -
 -------------------------------------------------------------------------------
 ROUTINE             CALLS      AVE VOLUME [Bytes]
 MP_Bcast               88                     12.
 MP_Allreduce         2372                     10.
 MP_Alltoall          4152                   4571.
 MP_ISend            18274                   1834.
 MP_IRecv            15658                   1157.
 -------------------------------------------------------------------------------

 -------------------------------------------------------------------------------
 -                                                                             -
 -                                GRID STATISTICS                              -
 -                                                                             -
 -------------------------------------------------------------------------------
 LP    KERNEL             BACKEND                              COUNT     PERCENT
 3     collocate ortho    CPU                                    315      27.98%
 3     integrate ortho    CPU                                    315      27.98%
 2     collocate ortho    CPU                                    245      21.76%
 2     integrate ortho    CPU                                    245      21.76%
 0     collocate general  CPU                                      4       0.36%
 0     integrate general  CPU                                      2       0.18%
 -------------------------------------------------------------------------------

 -------------------------------------------------------------------------------
 -                                                                             -
 -                          OFFLOAD MEMPOOL STATISTICS                         -
 -                                                                             -
 -------------------------------------------------------------------------------
 Memory consumption                Number of allocations  Used [MiB]  Size [MiB]
 Host                                                  7          54    21684030
 -------------------------------------------------------------------------------

 MEMORY| Estimated peak process memory [MiB]                                1135

 -------------------------------------------------------------------------------
 -                                                                             -
 -                         MESSAGE PASSING PERFORMANCE                         -
 -                                                                             -
 -------------------------------------------------------------------------------

 ROUTINE             CALLS      AVE VOLUME [Bytes]
 MP_Group                6
 MP_Bcast              684                 305671.
 MP_Allreduce         2460                   1418.
 MP_Sync                44
 MP_Alltoall           778               29339294.
 MP_SendRecv          3255                 132779.
 MP_ISendRecv         3255                 132779.
 MP_Wait              6973
 MP_comm_split          43
 MP_ISend             3146                1074642.
 MP_IRecv             3146                1074557.
 -------------------------------------------------------------------------------


 -------------------------------------------------------------------------------
 -                                                                             -
 -                           R E F E R E N C E S                               -
 -                                                                             -
 -------------------------------------------------------------------------------
 
 CP2K version 2026.2 (Development Version), the CP2K developers group (2026).
 CP2K is freely available from https://www.cp2k.org/ .
 
 M. Iannuzzi, J. Wilhelm, F. Stein, A. Bussy, H. Elgabarty, D. Golze, A. Hehn, 
 M. Graml, S. Marek, B. Sertcan Gökmen, C. Schran, H. Forbert, R. Z. 
 Khaliullin, A. Kozhevnikov, M. Taillefumier, R. Meli, V. V. Rybkin, M. Brehm, 
 R. Schade, O. Schütt, J. V. Pototschnig, H. Mirhosseini, A. Knüpfer, D. Marx, 
 M. Krack, J. Hutter, T. D. Kühne.
 J. Phys. Chem. B 130, 1237-1310 (2026).
 The CP2K Program Package Made Simple.
 https://doi.org/10.1021/acs.jpcb.5c05851

 M. Graml, K. Zollner, D. Hernangómez-Pérez, P. E. Faria Junior, J. Wilhelm.
 J. Chem. Theory Comput. 20, 2202-2208 (2024).
 Low-scaling GW algorithm applied to twisted transition-metal dichalcogenide 
 heterobilayers.
 https://doi.org/10.1021/acs.jctc.3c01230

 T. D. Kühne, M. Iannuzzi, M. Del Ben, V. V. Rybkin, P. Seewald, F. Stein, T. 
 Laino, R. Z. Khaliullin, O. Schütt, F. Schiffmann, D. Golze, J. Wilhelm, S. 
 Chulkov, M. H. Bani-Hashemian, V. Weber, U. Borstnik, M. Taillefumier, A. S. 
 Jakobovits, A. Lazzaro, H. Pabst, T. Müller, R. Schade, M. Guidon, S. 
 Andermatt, N. Holmberg, G. K. Schenter, A. Hehn, A. Bussy, F. Belleflamme, G. 
 Tabacchi, A. Glöß, M. Lass, I. Bethune, C. J. Mundy, C. Plessl, M. Watkins, 
 J. VandeVondele, M. Krack, J. Hutter.
 J. Chem. Phys. 152, 194103 (2020).
 CP2K: An electronic structure and molecular dynamics software package - 
 Quickstep: Efficient and accurate electronic structure calculations.
 https://doi.org/10.1063/5.0007045

 O. Schuett, P. Messmer, J. Hutter, J. VandeVondele.
 Electronic Structure Calculations on Graphics Processing Units, 173-190 (2016).
 GPU-Accelerated Sparse Matrix-Matrix Multiplication for Linear Scaling Density 
 Functional Theory.
 https://doi.org/10.1002/9781118670712.ch8

 U. Borstnik, J. VandeVondele, V. Weber, J. Hutter.
 Parallel Comput. 40, 47-58 (2014).
 Sparse matrix multiplication: The distributed block-compressed sparse row 
 library.
 https://doi.org/10.1016/j.parco.2014.03.012

 J. VandeVondele, J. Hutter.
 J. Chem. Phys. 127, 114105 (2007).
 Gaussian basis sets for accurate calculations on molecular systems in gas and 
 condensed phases.
 https://doi.org/10.1063/1.2770708

 J. VandeVondele, M. Krack, F. Mohamed, M. Parrinello, T. Chassaing, J. Hutter.
 Comput. Phys. Commun. 167, 103-128 (2005).
 QUICKSTEP: Fast and accurate density functional calculations using a mixed 
 Gaussian and plane waves approach.
 https://doi.org/10.1016/j.cpc.2004.12.014

 M. Krack.
 Theor. Chem. Acc. 114, 145-152 (2005).
 Pseudopotentials for H to Kr optimized for gradient-corrected 
 exchange-correlation functionals.
 https://doi.org/10.1007/s00214-005-0655-y

 M. Frigo, S. G. Johnson.
 Proc. IEEE 93, 216-231 (2005).
 The design and implementation of FFTW3.
 https://doi.org/10.1109/JPROC.2004.840301

 C. Hartwigsen, S. Goedecker, J. Hutter.
 Phys. Rev. B 58, 3641-3662 (1998).
 Relativistic separable dual-space Gaussian pseudopotentials from H to Rn.
 https://doi.org/10.1103/PhysRevB.58.3641

 G. Lippert, J. Hutter, M. Parrinello.
 Mol. Phys. 92, 477-487 (1997).
 A hybrid Gaussian and plane wave density functional scheme.
 https://doi.org/10.1080/002689797170220

 S. Goedecker, M. Teter, J. Hutter.
 Phys. Rev. B 54, 1703-1710 (1996).
 Separable dual-space Gaussian pseudopotentials.
 https://doi.org/10.1103/PhysRevB.54.1703

 J. P. Perdew, K. Burke, M. Ernzerhof.
 Phys. Rev. Lett. 77, 3865-3868 (1996).
 Generalized gradient approximation made simple.
 https://doi.org/10.1103/PhysRevLett.77.3865

 P. E. Blöchl.
 J. Chem. Phys. 103, 7422-7428 (1995).
 Electrostatic decoupling of periodic images of plane‐wave‐expanded 
 densities and derived atomic point charges.
 https://doi.org/10.1063/1.470314

 R. H. Byrd, P. H. Lu, J. Nocedal, C. Y. Zhu.
 SIAM J. Sci. Comput. 16, 1190-1208 (1995).
 A Limited Memory Algorithm for Bound Constrained Optimization.
 https://doi.org/10.1137/0916069

 C. G. Broyden.
 Math. Comput. 19, 577-593 (1965).
 A class of methods for solving nonlinear simultaneous equations.
 https://doi.org/10.1090/S0025-5718-1965-0198670-6


 -------------------------------------------------------------------------------
 -                                                                             -
 -                                T I M I N G                                  -
 -                                                                             -
 -------------------------------------------------------------------------------
 SUBROUTINE                       CALLS  ASD         SELF TIME        TOTAL TIME
                                MAXIMUM       AVERAGE  MAXIMUM  AVERAGE  MAXIMUM
 CP2K                                 1  1.0    0.028    0.036   39.489   39.489
 qs_energies                          1  2.0    0.001    0.001   38.806   38.807
 scf_env_do_scf                       1  3.0    0.000    0.001   36.014   36.020
 scf_env_do_scf_inner_loop           34  4.0    0.003    0.004   36.013   36.020
 qs_ks_build_kohn_sham_matrix        35  7.0    0.007    0.008   22.176   22.204
 qs_ks_update_qs_env                 34  5.0    0.000    0.000   21.961   21.988
 rebuild_ks_matrix                   34  6.0    0.000    0.001   21.958   21.985
 fft_wrap_pw1pw2                    692 10.0    0.013    0.016   17.397   17.786
 fft_wrap_pw1pw2_300                412 11.4    1.125    1.320   16.761   17.250
 qs_vxc_create                       35  8.0    0.001    0.001   14.419   14.536
 xc_vxc_pw_create                    34  9.0    0.187    0.255   14.418   14.535
 fft3d_ps                           692 12.0    6.949    7.347   12.392   12.920
 xc_pw_derive                       204 11.0    0.002    0.002   10.106   10.433
 qs_rho_update_rho_low               35  5.0    0.000    0.000    8.549    8.550
 calculate_rho_elec                  35  6.0    0.111    0.118    8.549    8.550
 density_rs2pw                       35  7.0    0.003    0.003    6.321    8.001
 xc_rho_set_and_dset_create          34 10.0    0.242    0.337    7.403    7.580
 xc_pw_divergence                    34 10.0    0.001    0.001    6.630    6.939
 gspace_mixing                       33  5.0    0.105    0.111    5.584    5.584
 transfer_rs2pw                     177  8.0    0.004    0.007    3.152    4.784
 mp_waitany                        3146 11.5    2.965    4.645    2.965    4.645
 mp_alltoall_z22v                   692 14.0    3.673    4.486    3.673    4.486
 transfer_rs2pw_300                  37  8.9    0.517    0.594    2.641    4.284
 broyden_mixing                      33  6.0    3.982    4.024    4.097    4.109
 sum_up_and_integrate                35  8.0    0.001    0.001    3.941    3.972
 integrate_v_rspace                  35  9.0    0.001    0.001    3.877    3.910
 potential_pw2rs                     35 10.0    0.007    0.008    3.866    3.875
 grid_collocate_task_list            35  7.0    1.987    3.670    1.987    3.670
 x_to_yz                            379 13.4    1.112    1.588    3.085    3.491
 yz_to_x                            313 12.6    0.639    0.695    2.340    3.057
 qs_energies_properties               1  3.0    0.000    0.000    2.213    2.214
 post_scf_bandstructure               1  4.0    0.000    0.000    2.213    2.214
 run_gw                               1  5.0    0.000    0.000    2.184    2.194
 transfer_pw2rs                     176 11.0    0.002    0.003    2.140    2.143
 qs_ks_ddapc                         35  8.0    0.001    0.001    1.823    1.963
 xc_functional_eval                  34 11.0    0.001    0.001    1.832    1.940
 pbe_lda_eval                        34 12.0    1.832    1.940    1.832    1.940
 pw_derive                          309 11.3    1.705    1.827    1.705    1.827
 pw_poisson_solve                    35  8.0    0.001    0.001    1.688    1.704
 pw_scatter_p                       379 12.4    1.614    1.695    1.614    1.695
 mp_sum_d                          1140  5.8    1.280    1.574    1.280    1.574
 pw_copy                            591 10.6    1.506    1.558    1.506    1.558
 transfer_pw2rs_300                  36 11.9    0.609    0.640    1.350    1.389
 gw_calc_ri_rs_non_periodic           1  6.0    0.001    0.002    1.358    1.388
 pw_gather_p                        313 11.6    1.232    1.302    1.232    1.302
 pw_poisson_set                      36  8.9    0.001    0.001    1.032    1.048
 optimize_ri_rs_grid                  1  7.0    0.000    0.000    0.941    0.971
 rirs_grid_LBFGS                      1  8.0    0.016    0.135    0.902    0.945
 create_and_init_bs_env_for_gw        1  6.0    0.002    0.003    0.826    0.923
 -------------------------------------------------------------------------------

 The number of warnings for this run is : 1
 
 -------------------------------------------------------------------------------
  **** **** ******  **  PROGRAM ENDED AT                 2026-09-18 14:56:54.287
 ***** ** ***  *** **   PROGRAM RAN ON                                  n2cn0713
 **    ****   ******    PROGRAM RAN BY                                  eprop2d1
 ***** **    ** ** **   PROGRAM PROCESS ID                                442157
  **** **  *******  **  PROGRAM STOPPED IN /scratch/hpc-prf-metdyn/eprop2d1_Jan/
                                           53_benchmark_RI_opt/129_GW100_Si293_A
                                           O_frontier_optimization_coopfst/follo
                                           wups/figure1_missing/gw100/61_GaCl/sz
                                           v_t1/initial
