 DBCSR| CPU Multiplication driver                                           XSMM (U)
 DBCSR| Multrec recursion limit                                              512 (U)
 DBCSR| Multiplication stack size                                           1000 (D)
 DBCSR| Maximum elements for images                                    UNLIMITED (U)
 DBCSR| Multiplicative factor virtual images                                   1 (U)
 DBCSR| Use multiplication densification                                       T (D)
 DBCSR| Multiplication size stacks                                             3 (U)
 DBCSR| Use memory pool for CPU allocation                                     F (U)
 DBCSR| Number of 3D layers                                               SINGLE (U)
 DBCSR| Use MPI memory allocation                                              F (U)
 DBCSR| Use RMA algorithm                                                      F (U)
 DBCSR| Use Communication thread                                               T (U)
 DBCSR| Communication thread load                                             75 (D)
 DBCSR| MPI: My process id                                                     0
 DBCSR| MPI: Number of processes                                              32
 DBCSR| OMP: Current number of threads                                         4
 DBCSR| OMP: Max number of threads                                             4
 DBCSR| Split modifier for TAS multiplication algorithm                  1.0E+00 (U)


  **** **** ******  **  PROGRAM STARTED AT               2026-09-18 14:57:05.169
 ***** ** ***  *** **   PROGRAM STARTED ON                              n2cn0835
 **    ****   ******    PROGRAM STARTED BY                              eprop2d1
 ***** **    ** ** **   PROGRAM PROCESS ID                                429220
  **** **  *******  **  PROGRAM STARTED IN /scratch/hpc-prf-metdyn/eprop2d1_Jan/
                                           53_benchmark_RI_opt/129_GW100_Si293_A
                                           O_frontier_optimization_coopfst/follo
                                           wups/figure1_missing/gw100/79_OCS/dzv
                                           p_t1/initial

 CP2K| version string:                 CP2K version 2026.2 (Development Version)
 CP2K| source code revision number:                                      d1dff42
 CP2K| cp2kflags: omp libint fftw3 libxc parallel scalapack openblas            
 CP2K| is freely available from                            https://www.cp2k.org/
 CP2K| Program compiled at                                   2026-09-17 17:57:35
 CP2K| Program compiled on                                              n2login6
 CP2K| Program compiled for                                               x86_64
 CP2K| Data directory path    /scratch/hpc-prf-metdyn/eprop2d1_Jan/53_benchmark_
 CP2K| Input file name        /scratch/hpc-prf-metdyn/eprop2d1_Jan/53_benchmark_

 GLOBAL| Force Environment number                                              1
 GLOBAL| Basis set file name            /scratch/hpc-prf-metdyn/eprop2d1_Jan/53_
 GLOBAL| Potential file name            /scratch/hpc-prf-metdyn/eprop2d1_Jan/53_
 GLOBAL| MM Potential file name                                     MM_POTENTIAL
 GLOBAL| Coordinate file name                                      __STD_INPUT__
 GLOBAL| Method name                                                        CP2K
 GLOBAL| Project name                                                 f1i_079_d1
 GLOBAL| Run type                                                         ENERGY
 GLOBAL| FFT library                                                       FFTW3
 GLOBAL| Diagonalization library                                       ScaLAPACK
 GLOBAL| Cholesky decomposition library                                ScaLAPACK
 GLOBAL| DGEMM library                                                      BLAS
 GLOBAL| Direct generalized diagonalization requested                          F
 GLOBAL| Orthonormality check for eigenvectors                          DISABLED
 GLOBAL| Matrix multiplication library                                 ScaLAPACK
 GLOBAL| All-to-all communication in single precision                          F
 GLOBAL| Grid backend                                                       AUTO
 GLOBAL| Global print level                                               MEDIUM
 GLOBAL| MPI I/O enabled                                                       T
 GLOBAL| Total number of message passing processes                            32
 GLOBAL| Number of distributed systems (nodes)                                 1
 GLOBAL| Number of threads for this process                                    4
 GLOBAL| This output is from process                                           0
 GLOBAL| OpenMP stack size per thread (OMP_STACKSIZE)                       512M
 GLOBAL| CPU model name                          AMD EPYC 7763 64-Core Processor

 MEMORY| system memory details [Kb]
 MEMORY|                        rank 0           min           max       average
 MEMORY| MemTotal            263897556     263897556     263897556     263897556
 MEMORY| MemFree             244708848     244708848     244708848     244708848
 MEMORY| Buffers                301032        301032        301032        301032
 MEMORY| Cached                8373316       8373316       8373316       8373316
 MEMORY| Slab                  1391036       1391036       1391036       1391036
 MEMORY| SReclaimable           293252        293252        293252        293252
 MEMORY| MemLikelyFree       253676448     253676448     253676448     253676448


 *** Fundamental physical constants (SI units) ***

 *** Literature: B. J. Mohr and B. N. Taylor,
 ***             CODATA recommended values of the fundamental physical
 ***             constants: 2006, Web Version 5.1
 ***             http://physics.nist.gov/constants

 Speed of light in vacuum [m/s]                             2.99792458000000E+08
 Magnetic constant or permeability of vacuum [N/A**2]       1.25663706143592E-06
 Electric constant or permittivity of vacuum [F/m]          8.85418781762039E-12
 Planck constant (h) [J*s]                                  6.62606896000000E-34
 Planck constant (h-bar) [J*s]                              1.05457162825177E-34
 Elementary charge [C]                                      1.60217648700000E-19
 Electron mass [kg]                                         9.10938215000000E-31
 Electron g factor [ ]                                     -2.00231930436220E+00
 Proton mass [kg]                                           1.67262163700000E-27
 Fine-structure constant                                    7.29735253760000E-03
 Rydberg constant [1/m]                                     1.09737315685270E+07
 Avogadro constant [1/mol]                                  6.02214179000000E+23
 Boltzmann constant [J/K]                                   1.38065040000000E-23
 Atomic mass unit [kg]                                      1.66053878200000E-27
 Bohr radius [m]                                            5.29177208590000E-11

 *** Conversion factors ***

 [u] -> [a.u.]                                              1.82288848426455E+03
 [Angstrom] -> [Bohr] = [a.u.]                              1.88972613288564E+00
 [a.u.] = [Bohr] -> [Angstrom]                              5.29177208590000E-01
 [a.u.] -> [s]                                              2.41888432650478E-17
 [a.u.] -> [fs]                                             2.41888432650478E-02
 [a.u.] -> [J]                                              4.35974393937059E-18
 [a.u.] -> [N]                                              8.23872205491840E-08
 [a.u.] -> [K]                                              3.15774647902944E+05
 [a.u.] -> [kJ/mol]                                         2.62549961709828E+03
 [a.u.] -> [kcal/mol]                                       6.27509468713739E+02
 [a.u.] -> [Pa]                                             2.94210107994716E+13
 [a.u.] -> [bar]                                            2.94210107994716E+08
 [a.u.] -> [atm]                                            2.90362800883016E+08
 [a.u.] -> [eV]                                             2.72113838565563E+01
 [a.u.] -> [Hz]                                             6.57968392072181E+15
 [a.u.] -> [1/cm] (wave numbers)                            2.19474631370540E+05
 [a.u./Bohr**2] -> [1/cm]                                   5.14048714338585E+03
 

 CELL| Volume [angstrom^3]:                                          8000.000000
 CELL| Vector a [angstrom]:      20.000     0.000     0.000   |a| =    20.000000
 CELL| Vector b [angstrom]:       0.000    20.000     0.000   |b| =    20.000000
 CELL| Vector c [angstrom]:       0.000     0.000    20.000   |c| =    20.000000
 CELL| Angle (b,c), alpha [degree]:                                    90.000000
 CELL| Angle (a,c), beta  [degree]:                                    90.000000
 CELL| Angle (a,b), gamma [degree]:                                    90.000000
 CELL| Numerically orthorhombic:                                             YES
 CELL| Periodicity                                                          NONE

 CELL_REF| Volume [angstrom^3]:                                      8000.000000
 CELL_REF| Vector a [angstrom    20.000     0.000     0.000   |a| =    20.000000
 CELL_REF| Vector b [angstrom     0.000    20.000     0.000   |b| =    20.000000
 CELL_REF| Vector c [angstrom     0.000     0.000    20.000   |c| =    20.000000
 CELL_REF| Angle (b,c), alpha [degree]:                                90.000000
 CELL_REF| Angle (a,c), beta  [degree]:                                90.000000
 CELL_REF| Angle (a,b), gamma [degree]:                                90.000000
 CELL_REF| Numerically orthorhombic:                                         YES
 CELL_REF| Periodicity                                                      NONE

 GENERATE|  Preliminary Number of Bonds generated:                             0
 GENERATE|  Achieved consistency in connectivity generation.

 PW_GRID| Information for grid number                                          1
 PW_GRID| Cutoff [a.u.]                                                      8.0
 PW_GRID| spherical cutoff:                                                   NO
 PW_GRID|   Bounds   1              0      49                Points:          50
 PW_GRID|   Bounds   2              0      49                Points:          50
 PW_GRID|   Bounds   3              0      49                Points:          50
 PW_GRID| Volume element (a.u.^3)  0.4319         Volume (a.u.^3)     53986.6767
 PW_GRID| Grid span                                                    HALFSPACE

 *******************************************************************************
 *******************************************************************************
 **                                                                           **
 **     #####                         ##              ##                      **
 **    ##   ##            ##          ##              ##                      **
 **   ##     ##                       ##            ######                    **
 **   ##     ##  ##   ##  ##   #####  ##  ##   ####   ##    #####    #####    **
 **   ##     ##  ##   ##  ##  ##      ## ##   ##      ##   ##   ##  ##   ##   **
 **   ##  ## ##  ##   ##  ##  ##      ####     ###    ##   ######   ######    **
 **    ##  ###   ##   ##  ##  ##      ## ##      ##   ##   ##       ##        **
 **     #######   #####   ##   #####  ##  ##  ####    ##    #####   ##        **
 **           ##                                                    ##        **
 **                                                                           **
 **                                                ... make the atoms dance   **
 **                                                                           **
 **            Copyright (C) by CP2K developers group (2000-2026)             **
 **                      J. Chem. Phys. 152, 194103 (2020)                    **
 **                                                                           **
 *******************************************************************************

 DFT| Spin restricted Kohn-Sham (RKS) calculation                            RKS
 DFT| Multiplicity                                                             1
 DFT| Number of spin states                                                    1
 DFT| Charge                                                                   0
 DFT| Self-interaction correction (SIC)                                       NO
 DFT| Cutoffs: density                                              1.000000E-10
 DFT|          gradient                                             1.000000E-10
 DFT|          tau                                                  1.000000E-10
 DFT|          cutoff_smoothing_range                               0.000000E+00
 DFT| XC density smoothing                                                  NONE
 DFT| XC derivatives                                                          PW

 FUNCTIONAL| PBE:
 FUNCTIONAL| J.P.Perdew, K.Burke, M.Ernzerhof, Phys. Rev. Letter, vol. 77, n 18,
 FUNCTIONAL|  pp. 3865-3868, (1996) {spin unpolarized}                          


 QS| Method:                                                                 GPW
 QS| Density plane wave grid type                        NON-SPHERICAL FULLSPACE
 QS| Number of grid levels:                                                    5
 QS| Density cutoff [a.u.]:                                                300.0
 QS| Multi grid cutoff [a.u.]: 1) grid level                               300.0
 QS|                           2) grid level                               100.0
 QS|                           3) grid level                                33.3
 QS|                           4) grid level                                11.1
 QS|                           5) grid level                                 3.7
 QS| Grid level progression factor:                                          3.0
 QS| Relative density cutoff [a.u.]:                                        30.0
 QS| Interaction thresholds: eps_pgf_orb:                                1.0E-12
 QS|                         eps_filter_matrix:                          0.0E+00
 QS|                         eps_core_charge:                            1.0E-14
 QS|                         eps_rho_gspace:                             1.0E-12
 QS|                         eps_rho_rspace:                             1.0E-12
 QS|                         eps_gvg_rspace:                             1.0E-06
 QS|                         eps_ppl:                                    1.0E-02
 QS|                         eps_ppnl:                                   1.0E-08


 ATOMIC KIND INFORMATION

  1. Atomic kind: O                                     Number of atoms:       1

     Orbital Basis Set                                aug-DZVP-MOLOPT-GTH-tier-1

       Number of orbital shell sets:                                           1
       Number of orbital shells:                                               8
       Number of primitive Cartesian functions:                                7
       Number of Cartesian basis functions:                                   24
       Number of spherical basis functions:                                   22
       Norm type:                                                              2

       Normalised Cartesian orbitals:

                        Set   Shell   Orbital            Exponent    Coefficient

                          1       1    2s                0.046761      -0.000019
                                                         0.142977       0.015788
                                                         0.352316       0.150829
                                                         0.832382       0.295475
                                                         2.048398       0.148191
                                                         5.108150      -0.322498
                                                        12.015955      -0.284499

                          1       2    3s                0.046761       0.000658
                                                         0.142977       0.153978
                                                         0.352316       0.146068
                                                         0.832382      -0.853528
                                                         2.048398      -0.157350
                                                         5.108150       0.644384
                                                        12.015955       0.725622

                          1       3    4s                0.046761       0.000975
                                                         0.142977       0.055155
                                                         0.352316       0.271784
                                                         0.832382      -0.112397
                                                         2.048398       0.000000
                                                         5.108150       0.000000
                                                        12.015955       0.000000

                          1       4    3px               0.046761       0.000308
                                                         0.142977       0.022184
                                                         0.352316       0.116648
                                                         0.832382       0.408839
                                                         2.048398       0.897267
                                                         5.108150       1.354170
                                                        12.015955       1.192141
                          1       4    3py               0.046761       0.000308
                                                         0.142977       0.022184
                                                         0.352316       0.116648
                                                         0.832382       0.408839
                                                         2.048398       0.897267
                                                         5.108150       1.354170
                                                        12.015955       1.192141
                          1       4    3pz               0.046761       0.000308
                                                         0.142977       0.022184
                                                         0.352316       0.116648
                                                         0.832382       0.408839
                                                         2.048398       0.897267
                                                         5.108150       1.354170
                                                        12.015955       1.192141

                          1       5    4px               0.046761       0.000981
                                                         0.142977       0.087560
                                                         0.352316       0.182681
                                                         0.832382      -0.522764
                                                         2.048398      -0.727000
                                                         5.108150      -1.285791
                                                        12.015955      -1.062381
                          1       5    4py               0.046761       0.000981
                                                         0.142977       0.087560
                                                         0.352316       0.182681
                                                         0.832382      -0.522764
                                                         2.048398      -0.727000
                                                         5.108150      -1.285791
                                                        12.015955      -1.062381
                          1       5    4pz               0.046761       0.000981
                                                         0.142977       0.087560
                                                         0.352316       0.182681
                                                         0.832382      -0.522764
                                                         2.048398      -0.727000
                                                         5.108150      -1.285791
                                                        12.015955      -1.062381

                          1       6    5px               0.046761      -0.001014
                                                         0.142977      -0.074128
                                                         0.352316      -0.156117
                                                         0.832382      -0.072299
                                                         2.048398       0.000000
                                                         5.108150       0.000000
                                                        12.015955       0.000000
                          1       6    5py               0.046761      -0.001014
                                                         0.142977      -0.074128
                                                         0.352316      -0.156117
                                                         0.832382      -0.072299
                                                         2.048398       0.000000
                                                         5.108150       0.000000
                                                        12.015955       0.000000
                          1       6    5pz               0.046761      -0.001014
                                                         0.142977      -0.074128
                                                         0.352316      -0.156117
                                                         0.832382      -0.072299
                                                         2.048398       0.000000
                                                         5.108150       0.000000
                                                        12.015955       0.000000

                          1       7    4dx2              0.046761      -0.000027
                                                         0.142977       0.010378
                                                         0.352316       0.048604
                                                         0.832382       0.756334
                                                         2.048398       0.999335
                                                         5.108150       1.160468
                                                        12.015955       1.125955
                          1       7    4dxy              0.046761      -0.000046
                                                         0.142977       0.017974
                                                         0.352316       0.084185
                                                         0.832382       1.310009
                                                         2.048398       1.730899
                                                         5.108150       2.009990
                                                        12.015955       1.950212
                          1       7    4dxz              0.046761      -0.000046
                                                         0.142977       0.017974
                                                         0.352316       0.084185
                                                         0.832382       1.310009
                                                         2.048398       1.730899
                                                         5.108150       2.009990
                                                        12.015955       1.950212
                          1       7    4dy2              0.046761      -0.000027
                                                         0.142977       0.010378
                                                         0.352316       0.048604
                                                         0.832382       0.756334
                                                         2.048398       0.999335
                                                         5.108150       1.160468
                                                        12.015955       1.125955
                          1       7    4dyz              0.046761      -0.000046
                                                         0.142977       0.017974
                                                         0.352316       0.084185
                                                         0.832382       1.310009
                                                         2.048398       1.730899
                                                         5.108150       2.009990
                                                        12.015955       1.950212
                          1       7    4dz2              0.046761      -0.000027
                                                         0.142977       0.010378
                                                         0.352316       0.048604
                                                         0.832382       0.756334
                                                         2.048398       0.999335
                                                         5.108150       1.160468
                                                        12.015955       1.125955

                          1       8    5dx2              0.046761       0.000085
                                                         0.142977       0.007922
                                                         0.352316       0.062452
                                                         0.832382       0.850672
                                                         2.048398       0.239245
                                                         5.108150       0.360168
                                                        12.015955       0.000000
                          1       8    5dxy              0.046761       0.000147
                                                         0.142977       0.013721
                                                         0.352316       0.108170
                                                         0.832382       1.473406
                                                         2.048398       0.414384
                                                         5.108150       0.623830
                                                        12.015955       0.000000
                          1       8    5dxz              0.046761       0.000147
                                                         0.142977       0.013721
                                                         0.352316       0.108170
                                                         0.832382       1.473406
                                                         2.048398       0.414384
                                                         5.108150       0.623830
                                                        12.015955       0.000000
                          1       8    5dy2              0.046761       0.000085
                                                         0.142977       0.007922
                                                         0.352316       0.062452
                                                         0.832382       0.850672
                                                         2.048398       0.239245
                                                         5.108150       0.360168
                                                        12.015955       0.000000
                          1       8    5dyz              0.046761       0.000147
                                                         0.142977       0.013721
                                                         0.352316       0.108170
                                                         0.832382       1.473406
                                                         2.048398       0.414384
                                                         5.108150       0.623830
                                                        12.015955       0.000000
                          1       8    5dz2              0.046761       0.000085
                                                         0.142977       0.007922
                                                         0.352316       0.062452
                                                         0.832382       0.850672
                                                         2.048398       0.239245
                                                         5.108150       0.360168
                                                        12.015955       0.000000

     RI Auxiliary Basis Set             RI_aug-DZVP-MOLOPT-GTH-tier-1_N_RI_115_s

       Number of orbital shell sets:                                          27
       Number of orbital shells:                                              27
       Number of primitive Cartesian functions:                               27
       Number of Cartesian basis functions:                                  151
       Number of spherical basis functions:                                  115
       Norm type:                                                              2

       Normalised Cartesian orbitals:

                        Set   Shell   Orbital            Exponent    Coefficient

                          1       1    1s                0.120368       0.145644

                          2       1    2s                0.296311       0.286234

                          3       1    3s                0.730589       0.563203

                          4       1    4s                1.594562       1.011326

                          5       1    5s                3.319889       1.752882

                          6       1    6s                8.154762       3.439288

                          7       1    7s               19.895255       6.713859

                          8       1    8px               0.154396       0.137954
                          8       1    8py               0.154396       0.137954
                          8       1    8pz               0.154396       0.137954

                          9       1    9px               0.442882       0.514991
                          9       1    9py               0.442882       0.514991
                          9       1    9pz               0.442882       0.514991

                         10       1   10px               1.119706       1.641800
                         10       1   10py               1.119706       1.641800
                         10       1   10pz               1.119706       1.641800

                         11       1   11px               1.896740       3.172852
                         11       1   11py               1.896740       3.172852
                         11       1   11pz               1.896740       3.172852

                         12       1   12px               5.292999      11.443723
                         12       1   12py               5.292999      11.443723
                         12       1   12pz               5.292999      11.443723

                         13       1   13px              15.649534      44.367693
                         13       1   13py              15.649534      44.367693
                         13       1   13pz              15.649534      44.367693

                         14       1   14dx2              0.209636       0.106899
                         14       1   14dxy              0.209636       0.185155
                         14       1   14dxz              0.209636       0.185155
                         14       1   14dy2              0.209636       0.106899
                         14       1   14dyz              0.209636       0.185155
                         14       1   14dz2              0.209636       0.106899

                         15       1   15dx2              0.534518       0.549977
                         15       1   15dxy              0.534518       0.952587
                         15       1   15dxz              0.534518       0.952587
                         15       1   15dy2              0.534518       0.549977
                         15       1   15dyz              0.534518       0.952587
                         15       1   15dz2              0.534518       0.549977

                         16       1   16dx2              1.314306       2.655388
                         16       1   16dxy              1.314306       4.599268
                         16       1   16dxz              1.314306       4.599268
                         16       1   16dy2              1.314306       2.655388
                         16       1   16dyz              1.314306       4.599268
                         16       1   16dz2              1.314306       2.655388

                         17       1   17dx2              2.979612      11.122153
                         17       1   17dxy              2.979612      19.264133
                         17       1   17dxz              2.979612      19.264133
                         17       1   17dy2              2.979612      11.122153
                         17       1   17dyz              2.979612      19.264133
                         17       1   17dz2              2.979612      11.122153

                         18       1   18dx2              7.252807      52.758831
                         18       1   18dxy              7.252807      91.380976
                         18       1   18dxz              7.252807      91.380976
                         18       1   18dy2              7.252807      52.758831
                         18       1   18dyz              7.252807      91.380976
                         18       1   18dz2              7.252807      52.758831

                         19       1   19dx2             18.375586     268.430304
                         19       1   19dxy             18.375586     464.934924
                         19       1   19dxz             18.375586     464.934924
                         19       1   19dy2             18.375586     268.430304
                         19       1   19dyz             18.375586     464.934924
                         19       1   19dz2             18.375586     268.430304

                         20       1   20fx3              0.116599       0.011695
                         20       1   20fx2y             0.116599       0.026152
                         20       1   20fx2z             0.116599       0.026152
                         20       1   20fxy2             0.116599       0.026152
                         20       1   20fxyz             0.116599       0.045296
                         20       1   20fxz2             0.116599       0.026152
                         20       1   20fy3              0.116599       0.011695
                         20       1   20fy2z             0.116599       0.026152
                         20       1   20fyz2             0.116599       0.026152
                         20       1   20fz3              0.116599       0.011695

                         21       1   21fx3              0.319276       0.112805
                         21       1   21fx2y             0.319276       0.252240
                         21       1   21fx2z             0.319276       0.252240
                         21       1   21fxy2             0.319276       0.252240
                         21       1   21fxyz             0.319276       0.436893
                         21       1   21fxz2             0.319276       0.252240
                         21       1   21fy3              0.319276       0.112805
                         21       1   21fy2z             0.319276       0.252240
                         21       1   21fyz2             0.319276       0.252240
                         21       1   21fz3              0.319276       0.112805

                         22       1   22fx3              1.122948       1.911012
                         22       1   22fx2y             1.122948       4.273152
                         22       1   22fx2z             1.122948       4.273152
                         22       1   22fxy2             1.122948       4.273152
                         22       1   22fxyz             1.122948       7.401316
                         22       1   22fxz2             1.122948       4.273152
                         22       1   22fy3              1.122948       1.911012
                         22       1   22fy2z             1.122948       4.273152
                         22       1   22fyz2             1.122948       4.273152
                         22       1   22fz3              1.122948       1.911012

                         23       1   23fx3              2.136777       8.126666
                         23       1   23fx2y             2.136777      18.171778
                         23       1   23fx2z             2.136777      18.171778
                         23       1   23fxy2             2.136777      18.171778
                         23       1   23fxyz             2.136777      31.474444
                         23       1   23fxz2             2.136777      18.171778
                         23       1   23fy3              2.136777       8.126666
                         23       1   23fy2z             2.136777      18.171778
                         23       1   23fyz2             2.136777      18.171778
                         23       1   23fz3              2.136777       8.126666

                         24       1   24fx3              4.836619      51.070915
                         24       1   24fx2y             4.836619     114.198037
                         24       1   24fx2z             4.836619     114.198037
                         24       1   24fxy2             4.836619     114.198037
                         24       1   24fxyz             4.836619     197.796803
                         24       1   24fxz2             4.836619     114.198037
                         24       1   24fy3              4.836619      51.070915
                         24       1   24fy2z             4.836619     114.198037
                         24       1   24fyz2             4.836619     114.198037
                         24       1   24fz3              4.836619      51.070915

                         25       1   25fx3             14.235428     579.479542
                         25       1   25fx2y            14.235428    1295.755648
                         25       1   25fx2z            14.235428    1295.755648
                         25       1   25fxy2            14.235428    1295.755648
                         25       1   25fxyz            14.235428    2244.314617
                         25       1   25fxz2            14.235428    1295.755648
                         25       1   25fy3             14.235428     579.479542
                         25       1   25fy2z            14.235428    1295.755648
                         25       1   25fyz2            14.235428    1295.755648
                         25       1   25fz3             14.235428     579.479542

                         26       1   26gx4              0.101733       0.002075
                         26       1   26gx3y             0.101733       0.005489
                         26       1   26gx3z             0.101733       0.005489
                         26       1   26gx2y2            0.101733       0.007086
                         26       1   26gx2yz            0.101733       0.012274
                         26       1   26gx2z2            0.101733       0.007086
                         26       1   26gxy3             0.101733       0.005489
                         26       1   26gxy2z            0.101733       0.012274
                         26       1   26gxyz2            0.101733       0.012274
                         26       1   26gxz3             0.101733       0.005489
                         26       1   26gy4              0.101733       0.002075
                         26       1   26gy3z             0.101733       0.005489
                         26       1   26gy2z2            0.101733       0.007086
                         26       1   26gyz3             0.101733       0.005489
                         26       1   26gz4              0.101733       0.002075

                         27       1   27gx4             15.532443    2100.606751
                         27       1   27gx3y            15.532443    5557.683065
                         27       1   27gx3z            15.532443    5557.683065
                         27       1   27gx2y2           15.532443    7174.937985
                         27       1   27gx2yz           15.532443   12427.357131
                         27       1   27gx2z2           15.532443    7174.937985
                         27       1   27gxy3            15.532443    5557.683065
                         27       1   27gxy2z           15.532443   12427.357131
                         27       1   27gxyz2           15.532443   12427.357131
                         27       1   27gxz3            15.532443    5557.683065
                         27       1   27gy4             15.532443    2100.606751
                         27       1   27gy3z            15.532443    5557.683065
                         27       1   27gy2z2           15.532443    7174.937985
                         27       1   27gyz3            15.532443    5557.683065
                         27       1   27gz4             15.532443    2100.606751

       Atomic covalent radius [Angstrom]:                                  0.730

       Atomic van der Waals radius [Angstrom]:                             1.520

     GTH Potential information for                                       GTH-PBE

       Description:                       Goedecker-Teter-Hutter pseudopotential
                                           Goedecker et al., PRB 54, 1703 (1996)
                                          Hartwigsen et al., PRB 58, 3641 (1998)
                                                      Krack, TCA 114, 145 (2005)

       Gaussian exponent of the core charge distribution:               8.360253
       Electronic configuration (s p d ...):                               2   4

       Parameters of the local part of the GTH pseudopotential:

                          rloc        C1          C2          C3          C4
                        0.244554  -16.667215    2.487311

       Parameters of the non-local part of the GTH pseudopotential:

                   l      r(l)      h(i,j,l)

                   0    0.220956   18.337458
                   1    0.211332

  2. Atomic kind: C                                     Number of atoms:       1

     Orbital Basis Set                                aug-DZVP-MOLOPT-GTH-tier-1

       Number of orbital shell sets:                                           1
       Number of orbital shells:                                               8
       Number of primitive Cartesian functions:                                7
       Number of Cartesian basis functions:                                   24
       Number of spherical basis functions:                                   22
       Norm type:                                                              2

       Normalised Cartesian orbitals:

                        Set   Shell   Orbital            Exponent    Coefficient

                          1       1    2s                0.030287       0.000417
                                                         0.075145       0.000568
                                                         0.178617       0.065483
                                                         0.478316       0.306085
                                                         1.045457       0.042712
                                                         2.625196      -0.231112
                                                         6.132625      -0.263661

                          1       2    3s                0.030287       0.008247
                                                         0.075145      -0.145101
                                                         0.178617       0.069203
                                                         0.478316       0.644922
                                                         1.045457      -0.593590
                                                         2.625196       0.414269
                                                         6.132625       0.131937

                          1       3    4s                0.030287      -0.016895
                                                         0.075145       0.030607
                                                         0.178617      -0.224246
                                                         0.478316       0.044532
                                                         1.045457       0.000000
                                                         2.625196       0.000000
                                                         6.132625       0.000000

                          1       4    3px               0.030287       0.000105
                                                         0.075145       0.003677
                                                         0.178617       0.052379
                                                         0.478316       0.235193
                                                         1.045457       0.379157
                                                         2.625196       0.633910
                                                         6.132625       0.562677
                          1       4    3py               0.030287       0.000105
                                                         0.075145       0.003677
                                                         0.178617       0.052379
                                                         0.478316       0.235193
                                                         1.045457       0.379157
                                                         2.625196       0.633910
                                                         6.132625       0.562677
                          1       4    3pz               0.030287       0.000105
                                                         0.075145       0.003677
                                                         0.178617       0.052379
                                                         0.478316       0.235193
                                                         1.045457       0.379157
                                                         2.625196       0.633910
                                                         6.132625       0.562677

                          1       5    4px               0.030287       0.002706
                                                         0.075145       0.024920
                                                         0.178617       0.072281
                                                         0.478316       0.135466
                                                         1.045457      -0.481781
                                                         2.625196      -0.221326
                                                         6.132625      -0.472364
                          1       5    4py               0.030287       0.002706
                                                         0.075145       0.024920
                                                         0.178617       0.072281
                                                         0.478316       0.135466
                                                         1.045457      -0.481781
                                                         2.625196      -0.221326
                                                         6.132625      -0.472364
                          1       5    4pz               0.030287       0.002706
                                                         0.075145       0.024920
                                                         0.178617       0.072281
                                                         0.478316       0.135466
                                                         1.045457      -0.481781
                                                         2.625196      -0.221326
                                                         6.132625      -0.472364

                          1       6    5px               0.030287       0.017352
                                                         0.075145      -0.002699
                                                         0.178617       0.032082
                                                         0.478316      -0.042679
                                                         1.045457      -0.009076
                                                         2.625196       0.000000
                                                         6.132625       0.000000
                          1       6    5py               0.030287       0.017352
                                                         0.075145      -0.002699
                                                         0.178617       0.032082
                                                         0.478316      -0.042679
                                                         1.045457      -0.009076
                                                         2.625196       0.000000
                                                         6.132625       0.000000
                          1       6    5pz               0.030287       0.017352
                                                         0.075145      -0.002699
                                                         0.178617       0.032082
                                                         0.478316      -0.042679
                                                         1.045457      -0.009076
                                                         2.625196       0.000000
                                                         6.132625       0.000000

                          1       7    4dx2              0.030287      -0.000011
                                                         0.075145       0.003649
                                                         0.178617       0.018656
                                                         0.478316       0.191007
                                                         1.045457       0.653959
                                                         2.625196       0.375772
                                                         6.132625       0.874783
                          1       7    4dxy              0.030287      -0.000019
                                                         0.075145       0.006321
                                                         0.178617       0.032314
                                                         0.478316       0.330834
                                                         1.045457       1.132690
                                                         2.625196       0.650856
                                                         6.132625       1.515169
                          1       7    4dxz              0.030287      -0.000019
                                                         0.075145       0.006321
                                                         0.178617       0.032314
                                                         0.478316       0.330834
                                                         1.045457       1.132690
                                                         2.625196       0.650856
                                                         6.132625       1.515169
                          1       7    4dy2              0.030287      -0.000011
                                                         0.075145       0.003649
                                                         0.178617       0.018656
                                                         0.478316       0.191007
                                                         1.045457       0.653959
                                                         2.625196       0.375772
                                                         6.132625       0.874783
                          1       7    4dyz              0.030287      -0.000019
                                                         0.075145       0.006321
                                                         0.178617       0.032314
                                                         0.478316       0.330834
                                                         1.045457       1.132690
                                                         2.625196       0.650856
                                                         6.132625       1.515169
                          1       7    4dz2              0.030287      -0.000011
                                                         0.075145       0.003649
                                                         0.178617       0.018656
                                                         0.478316       0.191007
                                                         1.045457       0.653959
                                                         2.625196       0.375772
                                                         6.132625       0.874783

                          1       8    5dx2              0.030287      -0.003947
                                                         0.075145       0.002963
                                                         0.178617       0.031728
                                                         0.478316       0.034826
                                                         1.045457       0.000000
                                                         2.625196       0.000000
                                                         6.132625       0.000000
                          1       8    5dxy              0.030287      -0.006837
                                                         0.075145       0.005132
                                                         0.178617       0.054954
                                                         0.478316       0.060321
                                                         1.045457       0.000000
                                                         2.625196       0.000000
                                                         6.132625       0.000000
                          1       8    5dxz              0.030287      -0.006837
                                                         0.075145       0.005132
                                                         0.178617       0.054954
                                                         0.478316       0.060321
                                                         1.045457       0.000000
                                                         2.625196       0.000000
                                                         6.132625       0.000000
                          1       8    5dy2              0.030287      -0.003947
                                                         0.075145       0.002963
                                                         0.178617       0.031728
                                                         0.478316       0.034826
                                                         1.045457       0.000000
                                                         2.625196       0.000000
                                                         6.132625       0.000000
                          1       8    5dyz              0.030287      -0.006837
                                                         0.075145       0.005132
                                                         0.178617       0.054954
                                                         0.478316       0.060321
                                                         1.045457       0.000000
                                                         2.625196       0.000000
                                                         6.132625       0.000000
                          1       8    5dz2              0.030287      -0.003947
                                                         0.075145       0.002963
                                                         0.178617       0.031728
                                                         0.478316       0.034826
                                                         1.045457       0.000000
                                                         2.625196       0.000000
                                                         6.132625       0.000000

     RI Auxiliary Basis Set             RI_aug-DZVP-MOLOPT-GTH-tier-1_N_RI_106_s

       Number of orbital shell sets:                                          26
       Number of orbital shells:                                              26
       Number of primitive Cartesian functions:                               26
       Number of Cartesian basis functions:                                  136
       Number of spherical basis functions:                                  106
       Norm type:                                                              2

       Normalised Cartesian orbitals:

                        Set   Shell   Orbital            Exponent    Coefficient

                          1       1    1s                0.075717       0.102874

                          2       1    2s                0.171492       0.189930

                          3       1    3s                0.388413       0.350655

                          4       1    4s                0.879719       0.647393

                          5       1    5s                1.992482       1.195242

                          6       1    6s                4.512786       2.206702

                          7       1    7s               10.221041       4.074098

                          8       1    8px               0.075717       0.056615
                          8       1    8py               0.075717       0.056615
                          8       1    8pz               0.075717       0.056615

                          9       1    9px               0.201954       0.192977
                          9       1    9py               0.201954       0.192977
                          9       1    9pz               0.201954       0.192977

                         10       1   10px               0.538659       0.657782
                         10       1   10py               0.538659       0.657782
                         10       1   10pz               0.538659       0.657782

                         11       1   11px               1.436727       2.242115
                         11       1   11py               1.436727       2.242115
                         11       1   11pz               1.436727       2.242115

                         12       1   12px               3.832081       7.642464
                         12       1   12py               3.832081       7.642464
                         12       1   12pz               3.832081       7.642464

                         13       1   13px              10.221041      26.050077
                         13       1   13py              10.221041      26.050077
                         13       1   13pz              10.221041      26.050077

                         14       1   14dx2              0.075717       0.017989
                         14       1   14dxy              0.075717       0.031157
                         14       1   14dxz              0.075717       0.031157
                         14       1   14dy2              0.075717       0.017989
                         14       1   14dyz              0.075717       0.031157
                         14       1   14dz2              0.075717       0.017989

                         15       1   15dx2              0.201954       0.100139
                         15       1   15dxy              0.201954       0.173446
                         15       1   15dxz              0.201954       0.173446
                         15       1   15dy2              0.201954       0.100139
                         15       1   15dyz              0.201954       0.173446
                         15       1   15dz2              0.201954       0.100139

                         16       1   16dx2              0.538659       0.557453
                         16       1   16dxy              0.538659       0.965537
                         16       1   16dxz              0.538659       0.965537
                         16       1   16dy2              0.538659       0.557453
                         16       1   16dyz              0.538659       0.965537
                         16       1   16dz2              0.538659       0.557453

                         17       1   17dx2              1.436727       3.103232
                         17       1   17dxy              1.436727       5.374956
                         17       1   17dxz              1.436727       5.374956
                         17       1   17dy2              1.436727       3.103232
                         17       1   17dyz              1.436727       5.374956
                         17       1   17dz2              1.436727       3.103232

                         18       1   18dx2              3.832081      17.275082
                         18       1   18dxy              3.832081      29.921319
                         18       1   18dxz              3.832081      29.921319
                         18       1   18dy2              3.832081      17.275082
                         18       1   18dyz              3.832081      29.921319
                         18       1   18dz2              3.832081      17.275082

                         19       1   19dx2             10.221041      96.166975
                         19       1   19dxy             10.221041     166.566087
                         19       1   19dxz             10.221041     166.566087
                         19       1   19dy2             10.221041      96.166975
                         19       1   19dyz             10.221041     166.566087
                         19       1   19dz2             10.221041      96.166975

                         20       1   20fx3              0.075717       0.004427
                         20       1   20fx2y             0.075717       0.009900
                         20       1   20fx2z             0.075717       0.009900
                         20       1   20fxy2             0.075717       0.009900
                         20       1   20fxyz             0.075717       0.017147
                         20       1   20fxz2             0.075717       0.009900
                         20       1   20fy3              0.075717       0.004427
                         20       1   20fy2z             0.075717       0.009900
                         20       1   20fyz2             0.075717       0.009900
                         20       1   20fz3              0.075717       0.004427

                         21       1   21fx3              0.201954       0.040251
                         21       1   21fx2y             0.201954       0.090003
                         21       1   21fx2z             0.201954       0.090003
                         21       1   21fxy2             0.201954       0.090003
                         21       1   21fxyz             0.201954       0.155891
                         21       1   21fxz2             0.201954       0.090003
                         21       1   21fy3              0.201954       0.040251
                         21       1   21fy2z             0.201954       0.090003
                         21       1   21fyz2             0.201954       0.090003
                         21       1   21fz3              0.201954       0.040251

                         22       1   22fx3              0.538659       0.365940
                         22       1   22fx2y             0.538659       0.818267
                         22       1   22fx2z             0.538659       0.818267
                         22       1   22fxy2             0.538659       0.818267
                         22       1   22fxyz             0.538659       1.417281
                         22       1   22fxz2             0.538659       0.818267
                         22       1   22fy3              0.538659       0.365940
                         22       1   22fy2z             0.538659       0.818267
                         22       1   22fyz2             0.538659       0.818267
                         22       1   22fz3              0.538659       0.365940

                         23       1   23fx3              1.436727       3.326951
                         23       1   23fx2y             1.436727       7.439288
                         23       1   23fx2z             1.436727       7.439288
                         23       1   23fxy2             1.436727       7.439288
                         23       1   23fxyz             1.436727      12.885224
                         23       1   23fxz2             1.436727       7.439288
                         23       1   23fy3              1.436727       3.326951
                         23       1   23fy2z             1.436727       7.439288
                         23       1   23fyz2             1.436727       7.439288
                         23       1   23fz3              1.436727       3.326951

                         24       1   24fx3              3.832081      30.247009
                         24       1   24fx2y             3.832081      67.634368
                         24       1   24fx2z             3.832081      67.634368
                         24       1   24fxy2             3.832081      67.634368
                         24       1   24fxyz             3.832081     117.146161
                         24       1   24fxz2             3.832081      67.634368
                         24       1   24fy3              3.832081      30.247009
                         24       1   24fy2z             3.832081      67.634368
                         24       1   24fyz2             3.832081      67.634368
                         24       1   24fz3              3.832081      30.247009

                         25       1   25fx3             10.221041     274.991025
                         25       1   25fx2y            10.221041     614.898625
                         25       1   25fx2z            10.221041     614.898625
                         25       1   25fxy2            10.221041     614.898625
                         25       1   25fxyz            10.221041    1065.035660
                         25       1   25fxz2            10.221041     614.898625
                         25       1   25fy3             10.221041     274.991025
                         25       1   25fy2z            10.221041     614.898625
                         25       1   25fyz2            10.221041     614.898625
                         25       1   25fz3             10.221041     274.991025

                         26       1   26gx4              5.148379     100.815973
                         26       1   26gx3y             5.148379     266.733994
                         26       1   26gx3z             5.148379     266.733994
                         26       1   26gx2y2            5.148379     344.352105
                         26       1   26gx2yz            5.148379     596.435341
                         26       1   26gx2z2            5.148379     344.352105
                         26       1   26gxy3             5.148379     266.733994
                         26       1   26gxy2z            5.148379     596.435341
                         26       1   26gxyz2            5.148379     596.435341
                         26       1   26gxz3             5.148379     266.733994
                         26       1   26gy4              5.148379     100.815973
                         26       1   26gy3z             5.148379     266.733994
                         26       1   26gy2z2            5.148379     344.352105
                         26       1   26gyz3             5.148379     266.733994
                         26       1   26gz4              5.148379     100.815973

       Atomic covalent radius [Angstrom]:                                  0.770

       Atomic van der Waals radius [Angstrom]:                             1.700

     GTH Potential information for                                       GTH-PBE

       Description:                       Goedecker-Teter-Hutter pseudopotential
                                           Goedecker et al., PRB 54, 1703 (1996)
                                          Hartwigsen et al., PRB 58, 3641 (1998)
                                                      Krack, TCA 114, 145 (2005)

       Gaussian exponent of the core charge distribution:               4.364419
       Electronic configuration (s p d ...):                               2   2

       Parameters of the local part of the GTH pseudopotential:

                          rloc        C1          C2          C3          C4
                        0.338471   -8.803674    1.339211

       Parameters of the non-local part of the GTH pseudopotential:

                   l      r(l)      h(i,j,l)

                   0    0.302576    9.622487
                   1    0.291507

  3. Atomic kind: S                                     Number of atoms:       1

     Orbital Basis Set                                aug-DZVP-MOLOPT-GTH-tier-1

       Number of orbital shell sets:                                           1
       Number of orbital shells:                                               8
       Number of primitive Cartesian functions:                                6
       Number of Cartesian basis functions:                                   24
       Number of spherical basis functions:                                   22
       Norm type:                                                              2

       Normalised Cartesian orbitals:

                        Set   Shell   Orbital            Exponent    Coefficient

                          1       1    2s                0.100000       0.000000
                                                         0.140587      -0.040370
                                                         0.181514       0.000000
                                                         0.410168      -0.373736
                                                         1.131471       0.138505
                                                         2.215855       0.308496

                          1       2    3s                0.100000       0.000000
                                                         0.140587      -0.322785
                                                         0.181514       0.000000
                                                         0.410168       0.787366
                                                         1.131471      -0.517507
                                                         2.215855      -0.329529

                          1       3    4s                0.100000      -0.264356
                                                         0.140587       0.200685
                                                         0.181514      -0.026164
                                                         0.410168       0.019194
                                                         1.131471       0.002585
                                                         2.215855       0.000000

                          1       4    3px               0.100000       0.000000
                                                         0.140587      -0.030976
                                                         0.181514       0.000000
                                                         0.410168      -0.335323
                                                         1.131471      -0.319283
                                                         2.215855       0.420435
                          1       4    3py               0.100000       0.000000
                                                         0.140587      -0.030976
                                                         0.181514       0.000000
                                                         0.410168      -0.335323
                                                         1.131471      -0.319283
                                                         2.215855       0.420435
                          1       4    3pz               0.100000       0.000000
                                                         0.140587      -0.030976
                                                         0.181514       0.000000
                                                         0.410168      -0.335323
                                                         1.131471      -0.319283
                                                         2.215855       0.420435

                          1       5    4px               0.100000       0.000000
                                                         0.140587       0.153509
                                                         0.181514       0.000000
                                                         0.410168      -0.186977
                                                         1.131471      -0.170581
                                                         2.215855       0.241295
                          1       5    4py               0.100000       0.000000
                                                         0.140587       0.153509
                                                         0.181514       0.000000
                                                         0.410168      -0.186977
                                                         1.131471      -0.170581
                                                         2.215855       0.241295
                          1       5    4pz               0.100000       0.000000
                                                         0.140587       0.153509
                                                         0.181514       0.000000
                                                         0.410168      -0.186977
                                                         1.131471      -0.170581
                                                         2.215855       0.241295

                          1       6    5px               0.100000       0.267931
                                                         0.140587      -0.591905
                                                         0.181514       0.458017
                                                         0.410168      -0.143395
                                                         1.131471       0.076952
                                                         2.215855       0.000000
                          1       6    5py               0.100000       0.267931
                                                         0.140587      -0.591905
                                                         0.181514       0.458017
                                                         0.410168      -0.143395
                                                         1.131471       0.076952
                                                         2.215855       0.000000
                          1       6    5pz               0.100000       0.267931
                                                         0.140587      -0.591905
                                                         0.181514       0.458017
                                                         0.410168      -0.143395
                                                         1.131471       0.076952
                                                         2.215855       0.000000

                          1       7    4dx2              0.100000       0.000000
                                                         0.140587       0.008811
                                                         0.181514       0.000000
                                                         0.410168       0.228284
                                                         1.131471       0.544927
                                                         2.215855       0.573560
                          1       7    4dxy              0.100000       0.000000
                                                         0.140587       0.015260
                                                         0.181514       0.000000
                                                         0.410168       0.395400
                                                         1.131471       0.943841
                                                         2.215855       0.993435
                          1       7    4dxz              0.100000       0.000000
                                                         0.140587       0.015260
                                                         0.181514       0.000000
                                                         0.410168       0.395400
                                                         1.131471       0.943841
                                                         2.215855       0.993435
                          1       7    4dy2              0.100000       0.000000
                                                         0.140587       0.008811
                                                         0.181514       0.000000
                                                         0.410168       0.228284
                                                         1.131471       0.544927
                                                         2.215855       0.573560
                          1       7    4dyz              0.100000       0.000000
                                                         0.140587       0.015260
                                                         0.181514       0.000000
                                                         0.410168       0.395400
                                                         1.131471       0.943841
                                                         2.215855       0.993435
                          1       7    4dz2              0.100000       0.000000
                                                         0.140587       0.008811
                                                         0.181514       0.000000
                                                         0.410168       0.228284
                                                         1.131471       0.544927
                                                         2.215855       0.573560

                          1       8    5dx2              0.100000       0.045593
                                                         0.140587      -0.048970
                                                         0.181514       0.027433
                                                         0.410168       0.025368
                                                         1.131471      -0.045069
                                                         2.215855       0.000000
                          1       8    5dxy              0.100000       0.078969
                                                         0.140587      -0.084818
                                                         0.181514       0.047516
                                                         0.410168       0.043939
                                                         1.131471      -0.078062
                                                         2.215855       0.000000
                          1       8    5dxz              0.100000       0.078969
                                                         0.140587      -0.084818
                                                         0.181514       0.047516
                                                         0.410168       0.043939
                                                         1.131471      -0.078062
                                                         2.215855       0.000000
                          1       8    5dy2              0.100000       0.045593
                                                         0.140587      -0.048970
                                                         0.181514       0.027433
                                                         0.410168       0.025368
                                                         1.131471      -0.045069
                                                         2.215855       0.000000
                          1       8    5dyz              0.100000       0.078969
                                                         0.140587      -0.084818
                                                         0.181514       0.047516
                                                         0.410168       0.043939
                                                         1.131471      -0.078062
                                                         2.215855       0.000000
                          1       8    5dz2              0.100000       0.045593
                                                         0.140587      -0.048970
                                                         0.181514       0.027433
                                                         0.410168       0.025368
                                                         1.131471      -0.045069
                                                         2.215855       0.000000

     RI Auxiliary Basis Set             RI_aug-DZVP-MOLOPT-GTH-tier-1_N_RI_068_s

       Number of orbital shell sets:                                          20
       Number of orbital shells:                                              20
       Number of primitive Cartesian functions:                               20
       Number of Cartesian basis functions:                                   82
       Number of spherical basis functions:                                   68
       Norm type:                                                              2

       Normalised Cartesian orbitals:

                        Set   Shell   Orbital            Exponent    Coefficient

                          1       1    1s                0.210203       0.221253

                          2       1    2s                0.338643       0.316385

                          3       1    3s                0.554247       0.457812

                          4       1    4s                0.899740       0.658412

                          5       1    5s                1.439935       0.936844

                          6       1    6s                2.287182       1.325518

                          7       1    7s                3.619180       1.870113

                          8       1    8px               0.181605       0.168986
                          8       1    8py               0.181605       0.168986
                          8       1    8pz               0.181605       0.168986

                          9       1    9px               0.383839       0.430653
                          9       1    9py               0.383839       0.430653
                          9       1    9pz               0.383839       0.430653

                         10       1   10px               0.767412       1.023825
                         10       1   10py               0.767412       1.023825
                         10       1   10pz               0.767412       1.023825

                         11       1   11px               1.659157       2.684105
                         11       1   11py               1.659157       2.684105
                         11       1   11pz               1.659157       2.684105

                         12       1   12px               3.519534       6.871420
                         12       1   12py               3.519534       6.871420
                         12       1   12pz               3.519534       6.871420

                         13       1   13dx2              0.198196       0.096901
                         13       1   13dxy              0.198196       0.167837
                         13       1   13dxz              0.198196       0.167837
                         13       1   13dy2              0.198196       0.096901
                         13       1   13dyz              0.198196       0.167837
                         13       1   13dz2              0.198196       0.096901

                         14       1   14dx2              0.387470       0.313203
                         14       1   14dxy              0.387470       0.542483
                         14       1   14dxz              0.387470       0.542483
                         14       1   14dy2              0.387470       0.313203
                         14       1   14dyz              0.387470       0.542483
                         14       1   14dz2              0.387470       0.313203

                         15       1   15dx2              0.836854       1.205165
                         15       1   15dxy              0.836854       2.087407
                         15       1   15dxz              0.836854       2.087407
                         15       1   15dy2              0.836854       1.205165
                         15       1   15dyz              0.836854       2.087407
                         15       1   15dz2              0.836854       1.205165

                         16       1   16dx2              1.857042       4.862366
                         16       1   16dxy              1.857042       8.421865
                         16       1   16dxz              1.857042       8.421865
                         16       1   16dy2              1.857042       4.862366
                         16       1   16dyz              1.857042       8.421865
                         16       1   16dz2              1.857042       4.862366

                         17       1   17dx2              3.677424      16.073521
                         17       1   17dxy              3.677424      27.840155
                         17       1   17dxz              3.677424      27.840155
                         17       1   17dy2              3.677424      16.073521
                         17       1   17dyz              3.677424      27.840155
                         17       1   17dz2              3.677424      16.073521

                         18       1   18fx3              0.206207       0.042183
                         18       1   18fx2y             0.206207       0.094324
                         18       1   18fx2z             0.206207       0.094324
                         18       1   18fxy2             0.206207       0.094324
                         18       1   18fxyz             0.206207       0.163373
                         18       1   18fxz2             0.206207       0.094324
                         18       1   18fy3              0.206207       0.042183
                         18       1   18fy2z             0.206207       0.094324
                         18       1   18fyz2             0.206207       0.094324
                         18       1   18fz3              0.206207       0.042183

                         19       1   19fx3              0.771319       0.820788
                         19       1   19fx2y             0.771319       1.835337
                         19       1   19fx2z             0.771319       1.835337
                         19       1   19fxy2             0.771319       1.835337
                         19       1   19fxyz             0.771319       3.178897
                         19       1   19fxz2             0.771319       1.835337
                         19       1   19fy3              0.771319       0.820788
                         19       1   19fy2z             0.771319       1.835337
                         19       1   19fyz2             0.771319       1.835337
                         19       1   19fz3              0.771319       0.820788

                         20       1   20fx3              1.916898       6.365053
                         20       1   20fx2y             1.916898      14.232691
                         20       1   20fx2z             1.916898      14.232691
                         20       1   20fxy2             1.916898      14.232691
                         20       1   20fxyz             1.916898      24.651743
                         20       1   20fxz2             1.916898      14.232691
                         20       1   20fy3              1.916898       6.365053
                         20       1   20fy2z             1.916898      14.232691
                         20       1   20fyz2             1.916898      14.232691
                         20       1   20fz3              1.916898       6.365053

       Atomic covalent radius [Angstrom]:                                  1.020

       Atomic van der Waals radius [Angstrom]:                             1.800

     GTH Potential information for                                       GTH-PBE

       Description:                       Goedecker-Teter-Hutter pseudopotential
                                           Goedecker et al., PRB 54, 1703 (1996)
                                          Hartwigsen et al., PRB 58, 3641 (1998)
                                                      Krack, TCA 114, 145 (2005)

       Gaussian exponent of the core charge distribution:               2.834467
       Electronic configuration (s p d ...):                               2   4

       Parameters of the local part of the GTH pseudopotential:

                          rloc        C1          C2          C3          C4
                        0.420000   -5.986260

       Parameters of the non-local part of the GTH pseudopotential:

                   l      r(l)      h(i,j,l)

                   0    0.364820   13.143544   -4.241830
                                   -4.241830    5.476180
                   1    0.409480    3.700891


 MOLECULE KIND INFORMATION


 All atoms are their own molecule, skipping detailed information


 TOTAL NUMBERS AND MAXIMUM NUMBERS

  Total number of            - Atomic kinds:                                   3
                             - Atoms:                                          3
                             - Shell sets:                                     3
                             - Shells:                                        24
                             - Primitive Cartesian functions:                 20
                             - Cartesian basis functions:                     72
                             - Spherical basis functions:                     66

  Maximum angular momentum of- Orbital basis functions:                        2
                             - Local part of the GTH pseudopotential:          2
                             - Non-local part of the GTH pseudopotential:      2


 MODULE QUICKSTEP: ATOMIC COORDINATES IN ANGSTROM

   Atom Kind Element         X             Y             Z       Z(eff)     Mass
      1    1 O     8     10.000000     10.000000     11.358950   6.0000  15.9994
      2    2 C     6     10.000000     10.000000     10.201150   4.0000  12.0107
      3    3 S    16     10.000000     10.000000      8.641050   6.0000  32.0650



 SCF PARAMETERS         Density guess:                                    ATOMIC
                        --------------------------------------------------------
                        max_scf:                                             200
                        max_scf_history:                                       0
                        max_diis:                                              4
                        --------------------------------------------------------
                        eps_scf:                                        1.00E-07
                        eps_scf_history:                                0.00E+00
                        eps_diis:                                       1.00E-01
                        eps_eigval:                                     1.00E-05
                        --------------------------------------------------------
                        level_shift [a.u.]:                             0.000000
                        SCF update method:                                MIXING
                        added MOs                                        58    0
                        --------------------------------------------------------
                        Mixing method:                            BROYDEN_MIXING
                                                charge density mixing in g-space
                        --------------------------------------------------------
                        Outer loop SCF in use 
                        No variables optimised in outer loop
                        eps_scf                                         1.00E-07
                        max_scf                                               20
                        No outer loop optimization
                        step_size                                       5.00E-01

 PW_GRID| Information for grid number                                          2
 PW_GRID| Grid distributed over                                    32 processors
 PW_GRID| Real space group dimensions                                    32    1
 PW_GRID| the grid is blocked:                                                NO
 PW_GRID| Cutoff [a.u.]                                                    300.0
 PW_GRID| spherical cutoff:                                                   NO
 PW_GRID|   Bounds   1           -150     149                Points:         300
 PW_GRID|   Bounds   2           -150     149                Points:         300
 PW_GRID|   Bounds   3           -150     149                Points:         300
 PW_GRID| Volume element (a.u.^3)  0.2000E-02     Volume (a.u.^3)     53986.6767
 PW_GRID| Grid span                                                    FULLSPACE
 PW_GRID|   Distribution                         Average         Max         Min
 PW_GRID|   G-Vectors                           843750.0      843900      843600
 PW_GRID|   G-Rays                                2812.5        2813        2812
 PW_GRID|   Real Space Points                   843750.0      900000      810000

 PW_GRID| Information for grid number                                          3
 PW_GRID| Number of the reference grid                                         2
 PW_GRID| Grid distributed over                                    32 processors
 PW_GRID| Real space group dimensions                                    32    1
 PW_GRID| the grid is blocked:                                                NO
 PW_GRID| Cutoff [a.u.]                                                    100.0
 PW_GRID| spherical cutoff:                                                   NO
 PW_GRID|   Bounds   1            -90      89                Points:         180
 PW_GRID|   Bounds   2            -90      89                Points:         180
 PW_GRID|   Bounds   3            -90      89                Points:         180
 PW_GRID| Volume element (a.u.^3)  0.9257E-02     Volume (a.u.^3)     53986.6767
 PW_GRID| Grid span                                                    FULLSPACE
 PW_GRID|   Distribution                         Average         Max         Min
 PW_GRID|   G-Vectors                           182250.0      182520      181980
 PW_GRID|   G-Rays                                1012.5        1014        1011
 PW_GRID|   Real Space Points                   182250.0      194400      162000

 PW_GRID| Information for grid number                                          4
 PW_GRID| Number of the reference grid                                         2
 PW_GRID| Grid distributed over                                    32 processors
 PW_GRID| Real space group dimensions                                    32    1
 PW_GRID| the grid is blocked:                                                NO
 PW_GRID| Cutoff [a.u.]                                                     33.3
 PW_GRID| spherical cutoff:                                                   NO
 PW_GRID|   Bounds   1            -50      49                Points:         100
 PW_GRID|   Bounds   2            -50      49                Points:         100
 PW_GRID|   Bounds   3            -50      49                Points:         100
 PW_GRID| Volume element (a.u.^3)  0.5399E-01     Volume (a.u.^3)     53986.6767
 PW_GRID| Grid span                                                    FULLSPACE
 PW_GRID|   Distribution                         Average         Max         Min
 PW_GRID|   G-Vectors                            31250.0       31500       31000
 PW_GRID|   G-Rays                                 312.5         315         310
 PW_GRID|   Real Space Points                    31250.0       40000       30000

 PW_GRID| Information for grid number                                          5
 PW_GRID| Number of the reference grid                                         2
 PW_GRID| Grid distributed over                                    32 processors
 PW_GRID| Real space group dimensions                                    32    1
 PW_GRID| the grid is blocked:                                                NO
 PW_GRID| Cutoff [a.u.]                                                     11.1
 PW_GRID| spherical cutoff:                                                   NO
 PW_GRID|   Bounds   1            -30      29                Points:          60
 PW_GRID|   Bounds   2            -30      29                Points:          60
 PW_GRID|   Bounds   3            -30      29                Points:          60
 PW_GRID| Volume element (a.u.^3)  0.2499         Volume (a.u.^3)     53986.6767
 PW_GRID| Grid span                                                    FULLSPACE
 PW_GRID|   Distribution                         Average         Max         Min
 PW_GRID|   G-Vectors                             6750.0        6780        6720
 PW_GRID|   G-Rays                                 112.5         113         112
 PW_GRID|   Real Space Points                     6750.0        7200        3600

 PW_GRID| Information for grid number                                          6
 PW_GRID| Number of the reference grid                                         2
 PW_GRID| Grid distributed over                                    32 processors
 PW_GRID| Real space group dimensions                                    32    1
 PW_GRID| the grid is blocked:                                                NO
 PW_GRID| Cutoff [a.u.]                                                      3.7
 PW_GRID| spherical cutoff:                                                   NO
 PW_GRID|   Bounds   1            -18      17                Points:          36
 PW_GRID|   Bounds   2            -18      17                Points:          36
 PW_GRID|   Bounds   3            -18      17                Points:          36
 PW_GRID| Volume element (a.u.^3)   1.157         Volume (a.u.^3)     53986.6767
 PW_GRID| Grid span                                                    FULLSPACE
 PW_GRID|   Distribution                         Average         Max         Min
 PW_GRID|   G-Vectors                             1458.0        1548        1368
 PW_GRID|   G-Rays                                  40.5          43          38
 PW_GRID|   Real Space Points                     1458.0        2592        1296

 POISSON| Solver                                             MULTIPOLE (Bloechl)
 POISSON| Periodicity                                                       NONE

 RS_GRID| Information for grid number                                          2
 RS_GRID|   Bounds   1           -150     149                Points:         300
 RS_GRID|   Bounds   2           -150     149                Points:         300
 RS_GRID|   Bounds   3           -150     149                Points:         300
 RS_GRID| Real space distribution over                                  2 groups
 RS_GRID| Real space distribution along direction                              1
 RS_GRID| Border size                                                         28
 RS_GRID| Real space distribution over                                  4 groups
 RS_GRID| Real space distribution along direction                              2
 RS_GRID| Border size                                                         28
 RS_GRID| Real space distribution over                                  4 groups
 RS_GRID| Real space distribution along direction                              3
 RS_GRID| Border size                                                         28
 RS_GRID|   Distribution                         Average         Max         Min
 RS_GRID|   Planes                                 206.0         206         206
 RS_GRID|   Distribution                         Average         Max         Min
 RS_GRID|   Planes                                 131.0         131         131
 RS_GRID|   Distribution                         Average         Max         Min
 RS_GRID|   Planes                                 131.0         131         131

 RS_GRID| Information for grid number                                          3
 RS_GRID|   Bounds   1            -90      89                Points:         180
 RS_GRID|   Bounds   2            -90      89                Points:         180
 RS_GRID|   Bounds   3            -90      89                Points:         180
 RS_GRID| Real space distribution over                                  2 groups
 RS_GRID| Real space distribution along direction                              1
 RS_GRID| Border size                                                         29
 RS_GRID| Real space distribution over                                  4 groups
 RS_GRID| Real space distribution along direction                              2
 RS_GRID| Border size                                                         29
 RS_GRID| Real space distribution over                                  4 groups
 RS_GRID| Real space distribution along direction                              3
 RS_GRID| Border size                                                         29
 RS_GRID|   Distribution                         Average         Max         Min
 RS_GRID|   Planes                                 148.0         148         148
 RS_GRID|   Distribution                         Average         Max         Min
 RS_GRID|   Planes                                 103.0         103         103
 RS_GRID|   Distribution                         Average         Max         Min
 RS_GRID|   Planes                                 103.0         103         103

 RS_GRID| Information for grid number                                          4
 RS_GRID|   Bounds   1            -50      49                Points:         100
 RS_GRID|   Bounds   2            -50      49                Points:         100
 RS_GRID|   Bounds   3            -50      49                Points:         100
 RS_GRID| Real space fully replicated
 RS_GRID| Group size                                                           1

 RS_GRID| Information for grid number                                          5
 RS_GRID|   Bounds   1            -30      29                Points:          60
 RS_GRID|   Bounds   2            -30      29                Points:          60
 RS_GRID|   Bounds   3            -30      29                Points:          60
 RS_GRID| Real space fully replicated
 RS_GRID| Group size                                                           1

 RS_GRID| Information for grid number                                          6
 RS_GRID|   Bounds   1            -18      17                Points:          36
 RS_GRID|   Bounds   2            -18      17                Points:          36
 RS_GRID|   Bounds   3            -18      17                Points:          36
 RS_GRID| Real space fully replicated
 RS_GRID| Group size                                                           1

 Extrapolation method: initial_guess

 Atomic guess: The first density matrix is obtained in terms of atomic orbitals
               and electronic configurations assigned to each atomic kind

 Guess for atomic kind: O

 Electronic structure
    Total number of core electrons                                          2.00
    Total number of valence electrons                                       6.00
    Total number of electrons                                               8.00
    Multiplicity                                                   not specified
    S   [  2.00] 2.00
    P      4.00


 *******************************************************************************
                  Iteration          Convergence                     Energy [au]
 *******************************************************************************
                          1        0.716460                     -15.573791650381
                          2        0.655845                     -15.574792490641
                          3        0.744530E-02                 -15.657140620045
                          4        0.102723E-02                 -15.657152646965
                          5        0.869428E-05                 -15.657152856715
                          6        0.328758E-07                 -15.657152856728

 Energy components [Hartree]           Total Energy ::          -15.657152856728
                                        Band Energy ::           -2.998156348359
                                     Kinetic Energy ::           11.769484636797
                                   Potential Energy ::          -27.426637493524
                                      Virial (-V/T) ::            2.330317625614
                                        Core Energy ::          -26.142911318198
                                          XC Energy ::           -3.154693293322
                                     Coulomb Energy ::           13.640451754792
                       Total Pseudopotential Energy ::          -37.947542806882
                       Local Pseudopotential Energy ::          -39.263559015359
                    Nonlocal Pseudopotential Energy ::            1.316016208476
                                        Confinement ::            0.351468518881

 Orbital energies  State     L     Occupation   Energy[a.u.]          Energy[eV]

                       1     0          2.000      -0.864254          -23.517548

                       1     1          4.000      -0.317412           -8.637222


 Total Electron Density at R=0:                                         0.000249

 Guess for atomic kind: C

 Electronic structure
    Total number of core electrons                                          2.00
    Total number of valence electrons                                       4.00
    Total number of electrons                                               6.00
    Multiplicity                                                   not specified
    S   [  2.00] 2.00
    P      2.00


 *******************************************************************************
                  Iteration          Convergence                     Energy [au]
 *******************************************************************************
                          1        0.847059E-01                  -5.270330147850
                          2        0.545415E-01                  -5.275201085285
                          3        0.656048E-03                  -5.278694674138
                          4        0.207053E-04                  -5.278695036098
                          5        0.945082E-08                  -5.278695036628

 Energy components [Hartree]           Total Energy ::           -5.278695036628
                                        Band Energy ::           -1.293837271012
                                     Kinetic Energy ::            3.406861322814
                                   Potential Energy ::           -8.685556359442
                                      Virial (-V/T) ::            2.549430556882
                                        Core Energy ::           -8.303656916162
                                          XC Energy ::           -1.384218149142
                                     Coulomb Energy ::            4.409180028677
                       Total Pseudopotential Energy ::          -11.744785124617
                       Local Pseudopotential Energy ::          -12.344468476380
                    Nonlocal Pseudopotential Energy ::            0.599683351762
                                        Confinement ::            0.342668856411

 Orbital energies  State     L     Occupation   Energy[a.u.]          Energy[eV]

                       1     0          2.000      -0.478272          -13.014454

                       1     1          2.000      -0.168646           -4.589097


 Total Electron Density at R=0:                                         0.000043

 Guess for atomic kind: S

 Electronic structure
    Total number of core electrons                                         10.00
    Total number of valence electrons                                       6.00
    Total number of electrons                                              16.00
    Multiplicity                                                   not specified
    S   [  2.00  2.00] 2.00
    P   [  6.00] 4.00


 *******************************************************************************
                  Iteration          Convergence                     Energy [au]
 *******************************************************************************
                          1        0.402781E-01                  -9.950579773335
                          2        0.287635E-01                  -9.951003643478
                          3        0.548587E-03                  -9.951247626413
                          4        0.525562E-05                  -9.951247717267
                          5        0.305415E-07                  -9.951247717276

 Energy components [Hartree]           Total Energy ::           -9.951247717276
                                        Band Energy ::           -2.167951073045
                                     Kinetic Energy ::            3.740387529183
                                   Potential Energy ::          -13.691635246459
                                      Virial (-V/T) ::            3.660485749039
                                        Core Energy ::          -16.315371404427
                                          XC Energy ::           -2.045540464031
                                     Coulomb Energy ::            8.409664151182
                       Total Pseudopotential Energy ::          -20.114255025992
                       Local Pseudopotential Energy ::          -22.266383923534
                    Nonlocal Pseudopotential Energy ::            2.152128897542
                                        Confinement ::            0.584960923820

 Orbital energies  State     L     Occupation   Energy[a.u.]          Energy[eV]

                       1     0          2.000      -0.610980          -16.625607

                       1     1          4.000      -0.236498           -6.435434


 Total Electron Density at R=0:                                         0.000065
 Re-scaling the density matrix to get the right number of electrons
                  # Electrons              Trace(P)               Scaling factor
                           16                16.000                        1.000

 Number of electrons:                                                         16
 Number of occupied orbitals:                                                  8
 Number of molecular orbitals:                                                66

 Number of orbital functions:                                                 66
 Number of independent orbital functions:                                     66


 SCF WAVEFUNCTION OPTIMIZATION

  Step     Update method      Time    Convergence         Total energy    Change
  ------------------------------------------------------------------------------
     1 NoMix/Diag. 0.20E+00    0.8     0.69907644       -31.7880872312 -3.18E+01
     2 Broy./Diag. 0.20E+00    1.0     0.31398648       -30.1188645051  1.67E+00
     3 Broy./Diag. 0.20E+00    1.0     0.17156361       -31.1640244332 -1.05E+00
     4 Broy./Diag. 0.20E+00    1.0     0.04398061       -31.7932322928 -6.29E-01
     5 Broy./Diag. 0.20E+00    1.0     0.01515670       -31.9499936038 -1.57E-01
     6 Broy./Diag. 0.20E+00    1.0     0.01403789       -31.9584281837 -8.43E-03
     7 Broy./Diag. 0.20E+00    1.0     0.00319952       -31.9294193735  2.90E-02
     8 Broy./Diag. 0.20E+00    1.0     0.00205484       -31.9231418886  6.28E-03
     9 Broy./Diag. 0.20E+00    1.0     0.00067947       -31.9209338410  2.21E-03
    10 Broy./Diag. 0.20E+00    1.1     0.00059647       -31.9225020944 -1.57E-03
    11 Broy./Diag. 0.20E+00    1.1     0.00071860       -31.9254357774 -2.93E-03
    12 Broy./Diag. 0.20E+00    1.1     0.00014715       -31.9271384678 -1.70E-03
    13 Broy./Diag. 0.20E+00    1.1     0.00047765       -31.9260417805  1.10E-03
    14 Broy./Diag. 0.20E+00    1.1     0.00008010       -31.9260869928 -4.52E-05
    15 Broy./Diag. 0.20E+00    1.1     0.00027154       -31.9262042099 -1.17E-04
    16 Broy./Diag. 0.20E+00    1.1     0.00029661       -31.9260380952  1.66E-04
    17 Broy./Diag. 0.20E+00    1.1     0.00005427       -31.9258896452  1.48E-04
    18 Broy./Diag. 0.20E+00    1.1     0.00005488       -31.9259725541 -8.29E-05
    19 Broy./Diag. 0.20E+00    1.1     0.00004516       -31.9259936712 -2.11E-05
    20 Broy./Diag. 0.20E+00    1.1     0.00007930       -31.9258567479  1.37E-04
    21 Broy./Diag. 0.20E+00    1.0     0.00005717       -31.9257599993  9.67E-05
    22 Broy./Diag. 0.20E+00    1.1     0.00006916       -31.9257857882 -2.58E-05
    23 Broy./Diag. 0.20E+00    1.0     0.00003125       -31.9258530281 -6.72E-05
    24 Broy./Diag. 0.20E+00    1.0     0.00001757       -31.9258845483 -3.15E-05
    25 Broy./Diag. 0.20E+00    1.0     0.00003842       -31.9259110180 -2.65E-05
    26 Broy./Diag. 0.20E+00    1.0     0.00001523       -31.9258923431  1.87E-05
    27 Broy./Diag. 0.20E+00    1.0     0.00000282       -31.9258683767  2.40E-05
    28 Broy./Diag. 0.20E+00    1.0     0.00000351       -31.9258549518  1.34E-05
    29 Broy./Diag. 0.20E+00    1.1     0.00000504       -31.9258575421 -2.59E-06
    30 Broy./Diag. 0.20E+00    1.1     0.00000209       -31.9258639537 -6.41E-06
    31 Broy./Diag. 0.20E+00    1.1     0.00000233       -31.9258627083  1.25E-06
    32 Broy./Diag. 0.20E+00    1.1     0.00000063       -31.9258622076  5.01E-07
    33 Broy./Diag. 0.20E+00    1.1     0.00000071       -31.9258630924 -8.85E-07
    34 Broy./Diag. 0.20E+00    1.1     0.00000056       -31.9258630953 -2.84E-09
    35 Broy./Diag. 0.20E+00    1.1     0.00000079       -31.9258628235  2.72E-07
    36 Broy./Diag. 0.20E+00    1.1     0.00000062       -31.9258624965  3.27E-07
    37 Broy./Diag. 0.20E+00    1.0     0.00000019       -31.9258619355  5.61E-07
    38 Broy./Diag. 0.20E+00    1.1     0.00000016       -31.9258618583  7.72E-08
    39 Broy./Diag. 0.20E+00    1.1     0.00000013       -31.9258623208 -4.63E-07
    40 Broy./Diag. 0.20E+00    1.0     0.00000012       -31.9258625911 -2.70E-07
    41 Broy./Diag. 0.20E+00    1.0     0.00000016       -31.9258623843  2.07E-07
    42 Broy./Diag. 0.20E+00    1.0     0.00000006       -31.9258623053  7.90E-08

  *** SCF run converged in    42 steps ***


  Electronic density on regular grids:        -16.0000000000        0.0000000000
  Core density on regular grids:               16.0000000000       -0.0000000000
  Total charge density on r-space grids:       -0.0000000000
  Total charge density g-space grids:          -0.0000000000

  Overlap energy of the core charge distribution:               0.00000214106459
  Self energy of the core charge distribution:                -79.04076858638221
  Core Hamiltonian energy:                                     21.28866630348316
  Hartree energy:                                              33.21765045063606
  Exchange-correlation energy:                                 -7.39141261413291

  Total energy:                                               -31.92586230533133

  outer SCF iter =    1 RMS gradient =   0.59E-07 energy =        -31.9258623053
  outer SCF loop converged in   1 iterations or   42 steps


 !-----------------------------------------------------------------------------!
                     Mulliken Population Analysis

 #  Atom  Element  Kind  Atomic population                           Net charge
       1     O        1          6.104298                             -0.104298
       2     C        2          3.835540                              0.164460
       3     S        3          6.060161                             -0.060161
 # Total charge                             16.000000                 -0.000000

 !-----------------------------------------------------------------------------!

 !-----------------------------------------------------------------------------!
                           Hirshfeld Charges

  #Atom  Element  Kind  Ref Charge     Population                    Net charge
      1       O      1       6.000          6.268                        -0.268
      2       C      2       4.000          3.524                         0.476
      3       S      3       6.000          6.207                        -0.207

  Total Charge                                                            0.001
 !-----------------------------------------------------------------------------!
  
 -------------------------------------------------------------------------------
 -                                                                             -
 -                          BANDSTRUCTURE CALCULATION                          -
 -                                                                             -
 -------------------------------------------------------------------------------
  
 Number of occupied molecular orbitals (MOs) = Number of occupied bands        8
 Number of unoccupied (= virtual) MOs = Number of unoccupied bands            58
 Number of Gaussian basis functions for MOs                                   66
  
 -------------------------------------------------------------------------------
 -                                                                             -
 -                                GW CALCULATION                               -
 -                                                                             -
 -------------------------------------------------------------------------------
  
 Input: Number of time/freq. points                                           30
 Input: ω_max for fitting Σ(iω) (eV)                                        10.0
 Input: Filter threshold for sparse tensor operations                    1.0E-07
 Input: Apply Hedin shift                                                      F
 Detected: Available memory per MPI process                               7.0 GB
 
 Input: RI-RS Tikhonov regularization                                   1.00E-08
 Input: AO grid hard cutoff radius                                        8.00 Å
 Input: MPI ranks per atom in Z_lP solve                                      -1
 Input: Keep sparsity in χ/G/W panels                                          T
 Input: GW flavour                                                          G0W0
 
 Input: RI-RS grid optimization activated                                      T
 Input: RS points per AO function                                            7.0
 Input: Cutoff radius for atomic clusters                                  3.0 Å
 Input: Maximum grid optimization iterations                                 300
 
 Input: AUTO_RI basis optimization activated:                                  T
 Input: AUTO_RI number of RI functions per AO function:                      4.0
 Input: AUTO_RI frontier orbital window:                                  5.0 eV
 Input: AUTO_RI neighbor radius:                                           3.0 Å
 
 Cutoff radius for the truncated Coulomb operator in RI metric:            6.0 Å
 Regularization parameter of RI                                          0.0E+00
 Regularization parameter of minimax grids                               1.0E-06
 
 AUTO_RI| Number of automatic RI functions for χ, ε, W:                      264
 AUTO_RI| Total RI basis optimization time:                                0.7 s
 
 SCF direct band gap (eV)                                                   5.53
 Max. SCF eigval diff. (eV)                                               251.12
 E-Range for minimax grid                                                  45.37
 Number of Padé parameters for analytic continuation:                         16
 
 RI-RS basis radii (Å):
     Kind  Elem     r_AO (Å)     r_RI (Å)
        1    O         9.8246        6.6608
        2    C        12.2076        7.7208
        3    S         6.7183        4.9853
 
 Started RI-RS grid optimization
 RI-RS grid initial normalized error                          6.773576594407E-04
 RI-RS grid optimization completed, execution time:                       16.0 s
 Normalized 3C error:                                                    9.6E-09
 Maximum absolute 3C error:                                              6.6E-04
 Optimized points outside molecular Voronoi cells:                            25 / 462
 Total grid points used for RI-RS:                                           462
 
 RI-RS grid row-blocks of ϕ_μ(r_l)                                            15
 RI-RS grid points per block (max)                                            32
 
 Percentage of non-zero matrix elements in ϕ_μ(r_l)                     100.00 %
 
 RI-RS memory estimate per MPI process:
   Available memory per process (system)                                 7.60 GB
   Required for Z_lP (dense upper bound; actual is sparser)              0.00 GB
   Required for χ, W, Σ panels (peak per panel step)                     0.00 GB
   Required for Z_lP solve peak (D_local+ϕ, worst-case atom)             0.00 GB
   Worst-case local-grid number of grid points:                              462
   Worst-case memory D_local:                                            0.00 GB
 
 Started computing Z_lP
 Computed Z_lP (MPI rank 0) for atom          1 /  1,    Execution time    0.0 s
 Computed Z_lP (all MPI ranks) for all atoms,            Execution time    0.0 s

 Memory per MPI process after computing Z_lP:
 Available memory per MPI process                                7.6 GB
 Used memory per MPI process                                     1.0 GB
 Number of batches for χ, Σ matrices                                           1
 
 Percentage of non-zero matrix elements in Z_lP                         100.00 %
 Percentage of non-zero matrix elements in G_ll', χ_ll', W_ll'          100.00 %
 Percentage of non-zero matrix elements in χ_PQ for time point 1        100.00 %
 
 Computed χ(iτ,k=0) for time point            1 / 30,    Execution time    0.0 s
 Computed χ(iτ,k=0) for time point            2 / 30,    Execution time    0.0 s
 Computed χ(iτ,k=0) for time point            3 / 30,    Execution time    0.0 s
 Computed χ(iτ,k=0) for time point            4 / 30,    Execution time    0.0 s
 Computed χ(iτ,k=0) for time point            5 / 30,    Execution time    0.0 s
 Computed χ(iτ,k=0) for time point            6 / 30,    Execution time    0.0 s
 Computed χ(iτ,k=0) for time point            7 / 30,    Execution time    0.0 s
 Computed χ(iτ,k=0) for time point            8 / 30,    Execution time    0.0 s
 Computed χ(iτ,k=0) for time point            9 / 30,    Execution time    0.0 s
 Computed χ(iτ,k=0) for time point           10 / 30,    Execution time    0.0 s
 Computed χ(iτ,k=0) for time point           11 / 30,    Execution time    0.0 s
 Computed χ(iτ,k=0) for time point           12 / 30,    Execution time    0.0 s
 Computed χ(iτ,k=0) for time point           13 / 30,    Execution time    0.0 s
 Computed χ(iτ,k=0) for time point           14 / 30,    Execution time    0.0 s
 Computed χ(iτ,k=0) for time point           15 / 30,    Execution time    0.0 s
 Computed χ(iτ,k=0) for time point           16 / 30,    Execution time    0.0 s
 Computed χ(iτ,k=0) for time point           17 / 30,    Execution time    0.0 s
 Computed χ(iτ,k=0) for time point           18 / 30,    Execution time    0.0 s
 Computed χ(iτ,k=0) for time point           19 / 30,    Execution time    0.0 s
 Computed χ(iτ,k=0) for time point           20 / 30,    Execution time    0.0 s
 Computed χ(iτ,k=0) for time point           21 / 30,    Execution time    0.0 s
 Computed χ(iτ,k=0) for time point           22 / 30,    Execution time    0.0 s
 Computed χ(iτ,k=0) for time point           23 / 30,    Execution time    0.0 s
 Computed χ(iτ,k=0) for time point           24 / 30,    Execution time    0.0 s
 Computed χ(iτ,k=0) for time point           25 / 30,    Execution time    0.0 s
 Computed χ(iτ,k=0) for time point           26 / 30,    Execution time    0.0 s
 Computed χ(iτ,k=0) for time point           27 / 30,    Execution time    0.0 s
 Computed χ(iτ,k=0) for time point           28 / 30,    Execution time    0.0 s
 Computed χ(iτ,k=0) for time point           29 / 30,    Execution time    0.0 s
 Computed χ(iτ,k=0) for time point           30 / 30,    Execution time    0.0 s
 
 Computed W(iτ),                                         Execution time    0.1 s
 
 Computed Σ^x(k=0),                                      Execution time    0.0 s
 
 Computed Σ^c(iτ) for time point              1 / 30,    Execution time    0.0 s
 Computed Σ^c(iτ) for time point              2 / 30,    Execution time    0.0 s
 Computed Σ^c(iτ) for time point              3 / 30,    Execution time    0.0 s
 Computed Σ^c(iτ) for time point              4 / 30,    Execution time    0.0 s
 Computed Σ^c(iτ) for time point              5 / 30,    Execution time    0.0 s
 Computed Σ^c(iτ) for time point              6 / 30,    Execution time    0.0 s
 Computed Σ^c(iτ) for time point              7 / 30,    Execution time    0.0 s
 Computed Σ^c(iτ) for time point              8 / 30,    Execution time    0.0 s
 Computed Σ^c(iτ) for time point              9 / 30,    Execution time    0.0 s
 Computed Σ^c(iτ) for time point             10 / 30,    Execution time    0.0 s
 Computed Σ^c(iτ) for time point             11 / 30,    Execution time    0.0 s
 Computed Σ^c(iτ) for time point             12 / 30,    Execution time    0.0 s
 Computed Σ^c(iτ) for time point             13 / 30,    Execution time    0.0 s
 Computed Σ^c(iτ) for time point             14 / 30,    Execution time    0.0 s
 Computed Σ^c(iτ) for time point             15 / 30,    Execution time    0.0 s
 Computed Σ^c(iτ) for time point             16 / 30,    Execution time    0.0 s
 Computed Σ^c(iτ) for time point             17 / 30,    Execution time    0.0 s
 Computed Σ^c(iτ) for time point             18 / 30,    Execution time    0.0 s
 Computed Σ^c(iτ) for time point             19 / 30,    Execution time    0.0 s
 Computed Σ^c(iτ) for time point             20 / 30,    Execution time    0.0 s
 Computed Σ^c(iτ) for time point             21 / 30,    Execution time    0.0 s
 Computed Σ^c(iτ) for time point             22 / 30,    Execution time    0.0 s
 Computed Σ^c(iτ) for time point             23 / 30,    Execution time    0.0 s
 Computed Σ^c(iτ) for time point             24 / 30,    Execution time    0.0 s
 Computed Σ^c(iτ) for time point             25 / 30,    Execution time    0.0 s
 Computed Σ^c(iτ) for time point             26 / 30,    Execution time    0.0 s
 Computed Σ^c(iτ) for time point             27 / 30,    Execution time    0.0 s
 Computed Σ^c(iτ) for time point             28 / 30,    Execution time    0.0 s
 Computed Σ^c(iτ) for time point             29 / 30,    Execution time    0.0 s
 Computed Σ^c(iτ) for time point             30 / 30,    Execution time    0.0 s
 
 SCF valence band maximum (eV):                                           -7.451
 SCF conduction band minimum (eV):                                        -1.917
 SCF indirect band gap (eV):                                               5.535
 SCF direct band gap (eV):                                                 5.535
 
 G0W0 valence band maximum (eV):                                         -10.466
 G0W0 conduction band minimum (eV):                                        1.749
 G0W0 indirect band gap (eV):                                             12.215
 G0W0 direct band gap (eV):                                               12.215
 
 Hartree-Fock with SCF orbitals valence band maximum (eV):               -11.093
 Hartree-Fock with SCF orbitals conduction band minimum (eV)               2.428
 Hartree-Fock with SCF orbitals indirect band gap (eV):                   13.521
 Hartree-Fock with SCF orbitals direct band gap (eV):                     13.521

 ENERGY| Total FORCE_EVAL ( QS ) energy [hartree]            -31.925862305331329

 -------------------------------------------------------------------------------
 -                                                                             -
 -                                DBCSR STATISTICS                             -
 -                                                                             -
 -------------------------------------------------------------------------------
 COUNTER                                    TOTAL       BLAS       SMM       ACC
 flops    22 x    22 x     2               487872       0.0%    100.0%      0.0%     
 flops    26 x    72 x    72             15365376       0.0%    100.0%      0.0%     
 flops    72 x    72 x    26             15365376       0.0%    100.0%      0.0%     
 flops    26 x    72 x    26             17521920       0.0%    100.0%      0.0%     
 flops    26 x    26 x    72             17521920       0.0%    100.0%      0.0%     
 flops    22 x    22 x    26             21216624       0.0%    100.0%      0.0%     
 flops    26 x    22 x    26             26055744       0.0%    100.0%      0.0%     
 flops    72 x    96 x    26             40974336       0.0%    100.0%      0.0%     
 flops    96 x    72 x    26             40974336       0.0%    100.0%      0.0%     
 flops    26 x    72 x    96             43130880       0.0%    100.0%      0.0%     
 flops    26 x    96 x    72             43130880       0.0%    100.0%      0.0%     
 flops    26 x    96 x    26             46725120       0.0%    100.0%      0.0%     
 flops    26 x    26 x    96             47114496       0.0%    100.0%      0.0%     
 flops    26 x    22 x    22             59320976       0.0%    100.0%      0.0%     
 flops    26 x    26 x    22             68857360       0.0%    100.0%      0.0%     
 flops    32 x    72 x    72             75644928       0.0%    100.0%      0.0%     
 flops    72 x    72 x    32             75644928       0.0%    100.0%      0.0%     
 flops    32 x    26 x    72             84464640       0.0%    100.0%      0.0%     
 flops    26 x    72 x    32             85303296       0.0%    100.0%      0.0%     
 flops    32 x    72 x    26             86261760       0.0%    100.0%      0.0%     
 flops    26 x    32 x    72             86261760       0.0%    100.0%      0.0%     
 flops    96 x    96 x    26            109264896       0.0%    100.0%      0.0%     
 flops    26 x    96 x    96            116453376       0.0%    100.0%      0.0%     
 flops    22 x    22 x    32            121271040       0.0%    100.0%      0.0%     
 flops    32 x    22 x    26            128603904       0.0%    100.0%      0.0%     
 flops    26 x    22 x    32            129116416       0.0%    100.0%      0.0%     
 flops    72 x    96 x    32            201719808       0.0%    100.0%      0.0%     
 flops    96 x    72 x    32            201719808       0.0%    100.0%      0.0%     
 flops    32 x    72 x    96            212336640       0.0%    100.0%      0.0%     
 flops    32 x    96 x    72            212336640       0.0%    100.0%      0.0%     
 flops    32 x    26 x    96            224280576       0.0%    100.0%      0.0%     
 flops    26 x    96 x    32            227794944       0.0%    100.0%      0.0%     
 flops    32 x    96 x    26            230031360       0.0%    100.0%      0.0%     
 flops    26 x    32 x    96            231948288       0.0%    100.0%      0.0%     
 flops    32 x    22 x    22            292289536       0.0%    100.0%      0.0%     
 flops    32 x    26 x    22            338733824       0.0%    100.0%      0.0%     
 flops    26 x    32 x    22            339099904       0.0%    100.0%      0.0%     
 flops    32 x    32 x    72            415825920       0.0%    100.0%      0.0%     
 flops    32 x    72 x    32            419512320       0.0%    100.0%      0.0%     
 flops    96 x    96 x    32            537919488       0.0%    100.0%      0.0%     
 flops    32 x    96 x    96            573308928       0.0%    100.0%      0.0%     
 flops    32 x    22 x    32            640110592       0.0%    100.0%      0.0%     
 flops    32 x    32 x    96           1104150528       0.0%    100.0%      0.0%     
 flops    32 x    96 x    32           1121452032       0.0%    100.0%      0.0%     
 flops    32 x    32 x    22           1668288512       0.0%    100.0%      0.0%     
 flops inhomo. stacks                           0       0.0%      0.0%      0.0%
 flops total                        10.794914E+09       0.0%    100.0%      0.0%
 flops max/rank                    961.096624E+06       0.0%    100.0%      0.0%
 matmuls inhomo. stacks                         0       0.0%      0.0%      0.0%
 matmuls total                             128696       0.0%    100.0%      0.0%
 number of processed stacks                 92456       0.0%    100.0%      0.0%
 average stack size                                     0.0       1.4       0.0
 marketing flops                    16.666220E+09
 -------------------------------------------------------------------------------
 # multiplications                            528
 max memory usage/rank              21.005156E+09
 # max total images/rank                        2
 # max 3D layers                                1
 # MPI messages exchanged                  219648
 MPI messages size (bytes):
  total size                         2.225394E+09
  min size                           0.000000E+00
  max size                          98.304000E+03
  average size                      10.131640E+03
 MPI breakdown and total messages size (bytes):
             size <=      128              146142                        0
       128 < size <=     8192                7188                 31482016
      8192 < size <=    32768               40760                683512832
     32768 < size <=   131072               25558               1510399552
    131072 < size <=  4194304                   0                        0
   4194304 < size <= 16777216                   0                        0
  16777216 < size                               0                        0
 -------------------------------------------------------------------------------

 *** WARNING in dbcsr_mm.F:301 :: Using a non-square number of MPI ranks ***
 *** might lead to poor performance. Used ranks: 32 Suggested: 36 64     ***

 -------------------------------------------------------------------------------
 -                                                                             -
 -                      DBCSR MESSAGE PASSING PERFORMANCE                      -
 -                                                                             -
 -------------------------------------------------------------------------------
 ROUTINE             CALLS      AVE VOLUME [Bytes]
 MP_Bcast               46                     12.
 MP_Allreduce         2336                     10.
 MP_Alltoall          4376                   9033.
 MP_ISend            19472                   7431.
 MP_IRecv            16096                   6455.
 -------------------------------------------------------------------------------

 -------------------------------------------------------------------------------
 -                                                                             -
 -                                GRID STATISTICS                              -
 -                                                                             -
 -------------------------------------------------------------------------------
 LP    KERNEL             BACKEND                              COUNT     PERCENT
 4     collocate ortho    CPU                                   1118      49.80%
 4     integrate ortho    CPU                                   1118      49.80%
 0     collocate general  CPU                                      6       0.27%
 0     integrate general  CPU                                      3       0.13%
 -------------------------------------------------------------------------------

 -------------------------------------------------------------------------------
 -                                                                             -
 -                          OFFLOAD MEMPOOL STATISTICS                         -
 -                                                                             -
 -------------------------------------------------------------------------------
 Memory consumption                Number of allocations  Used [MiB]  Size [MiB]
 Host                                                  7          49    21570083
 -------------------------------------------------------------------------------

 MEMORY| Estimated peak process memory [MiB]                                1103

 -------------------------------------------------------------------------------
 -                                                                             -
 -                         MESSAGE PASSING PERFORMANCE                         -
 -                                                                             -
 -------------------------------------------------------------------------------

 ROUTINE             CALLS      AVE VOLUME [Bytes]
 MP_Group                6
 MP_Bcast              541                 284370.
 MP_Allreduce         2619                   2529.
 MP_Sync                52
 MP_Alltoall           954               29497718.
 MP_SendRecv          3999                 132779.
 MP_ISendRecv         3999                 132779.
 MP_Wait              8549
 MP_comm_split          51
 MP_ISend             3850                 932361.
 MP_IRecv             3850                 932291.
 -------------------------------------------------------------------------------


 -------------------------------------------------------------------------------
 -                                                                             -
 -                           R E F E R E N C E S                               -
 -                                                                             -
 -------------------------------------------------------------------------------
 
 CP2K version 2026.2 (Development Version), the CP2K developers group (2026).
 CP2K is freely available from https://www.cp2k.org/ .
 
 M. Iannuzzi, J. Wilhelm, F. Stein, A. Bussy, H. Elgabarty, D. Golze, A. Hehn, 
 M. Graml, S. Marek, B. Sertcan Gökmen, C. Schran, H. Forbert, R. Z. 
 Khaliullin, A. Kozhevnikov, M. Taillefumier, R. Meli, V. V. Rybkin, M. Brehm, 
 R. Schade, O. Schütt, J. V. Pototschnig, H. Mirhosseini, A. Knüpfer, D. Marx, 
 M. Krack, J. Hutter, T. D. Kühne.
 J. Phys. Chem. B 130, 1237-1310 (2026).
 The CP2K Program Package Made Simple.
 https://doi.org/10.1021/acs.jpcb.5c05851

 M. Graml, K. Zollner, D. Hernangómez-Pérez, P. E. Faria Junior, J. Wilhelm.
 J. Chem. Theory Comput. 20, 2202-2208 (2024).
 Low-scaling GW algorithm applied to twisted transition-metal dichalcogenide 
 heterobilayers.
 https://doi.org/10.1021/acs.jctc.3c01230

 T. D. Kühne, M. Iannuzzi, M. Del Ben, V. V. Rybkin, P. Seewald, F. Stein, T. 
 Laino, R. Z. Khaliullin, O. Schütt, F. Schiffmann, D. Golze, J. Wilhelm, S. 
 Chulkov, M. H. Bani-Hashemian, V. Weber, U. Borstnik, M. Taillefumier, A. S. 
 Jakobovits, A. Lazzaro, H. Pabst, T. Müller, R. Schade, M. Guidon, S. 
 Andermatt, N. Holmberg, G. K. Schenter, A. Hehn, A. Bussy, F. Belleflamme, G. 
 Tabacchi, A. Glöß, M. Lass, I. Bethune, C. J. Mundy, C. Plessl, M. Watkins, 
 J. VandeVondele, M. Krack, J. Hutter.
 J. Chem. Phys. 152, 194103 (2020).
 CP2K: An electronic structure and molecular dynamics software package - 
 Quickstep: Efficient and accurate electronic structure calculations.
 https://doi.org/10.1063/5.0007045

 O. Schuett, P. Messmer, J. Hutter, J. VandeVondele.
 Electronic Structure Calculations on Graphics Processing Units, 173-190 (2016).
 GPU-Accelerated Sparse Matrix-Matrix Multiplication for Linear Scaling Density 
 Functional Theory.
 https://doi.org/10.1002/9781118670712.ch8

 U. Borstnik, J. VandeVondele, V. Weber, J. Hutter.
 Parallel Comput. 40, 47-58 (2014).
 Sparse matrix multiplication: The distributed block-compressed sparse row 
 library.
 https://doi.org/10.1016/j.parco.2014.03.012

 J. VandeVondele, J. Hutter.
 J. Chem. Phys. 127, 114105 (2007).
 Gaussian basis sets for accurate calculations on molecular systems in gas and 
 condensed phases.
 https://doi.org/10.1063/1.2770708

 J. VandeVondele, M. Krack, F. Mohamed, M. Parrinello, T. Chassaing, J. Hutter.
 Comput. Phys. Commun. 167, 103-128 (2005).
 QUICKSTEP: Fast and accurate density functional calculations using a mixed 
 Gaussian and plane waves approach.
 https://doi.org/10.1016/j.cpc.2004.12.014

 M. Krack.
 Theor. Chem. Acc. 114, 145-152 (2005).
 Pseudopotentials for H to Kr optimized for gradient-corrected 
 exchange-correlation functionals.
 https://doi.org/10.1007/s00214-005-0655-y

 M. Frigo, S. G. Johnson.
 Proc. IEEE 93, 216-231 (2005).
 The design and implementation of FFTW3.
 https://doi.org/10.1109/JPROC.2004.840301

 C. Hartwigsen, S. Goedecker, J. Hutter.
 Phys. Rev. B 58, 3641-3662 (1998).
 Relativistic separable dual-space Gaussian pseudopotentials from H to Rn.
 https://doi.org/10.1103/PhysRevB.58.3641

 G. Lippert, J. Hutter, M. Parrinello.
 Mol. Phys. 92, 477-487 (1997).
 A hybrid Gaussian and plane wave density functional scheme.
 https://doi.org/10.1080/002689797170220

 S. Goedecker, M. Teter, J. Hutter.
 Phys. Rev. B 54, 1703-1710 (1996).
 Separable dual-space Gaussian pseudopotentials.
 https://doi.org/10.1103/PhysRevB.54.1703

 J. P. Perdew, K. Burke, M. Ernzerhof.
 Phys. Rev. Lett. 77, 3865-3868 (1996).
 Generalized gradient approximation made simple.
 https://doi.org/10.1103/PhysRevLett.77.3865

 P. E. Blöchl.
 J. Chem. Phys. 103, 7422-7428 (1995).
 Electrostatic decoupling of periodic images of plane‐wave‐expanded 
 densities and derived atomic point charges.
 https://doi.org/10.1063/1.470314

 R. H. Byrd, P. H. Lu, J. Nocedal, C. Y. Zhu.
 SIAM J. Sci. Comput. 16, 1190-1208 (1995).
 A Limited Memory Algorithm for Bound Constrained Optimization.
 https://doi.org/10.1137/0916069

 C. G. Broyden.
 Math. Comput. 19, 577-593 (1965).
 A class of methods for solving nonlinear simultaneous equations.
 https://doi.org/10.1090/S0025-5718-1965-0198670-6


 -------------------------------------------------------------------------------
 -                                                                             -
 -                                T I M I N G                                  -
 -                                                                             -
 -------------------------------------------------------------------------------
 SUBROUTINE                       CALLS  ASD         SELF TIME        TOTAL TIME
                                MAXIMUM       AVERAGE  MAXIMUM  AVERAGE  MAXIMUM
 CP2K                                 1  1.0    0.115    0.116   63.523   63.524
 qs_energies                          1  2.0    0.016    0.017   62.688   62.688
 scf_env_do_scf                       1  3.0    0.002    0.002   43.739   43.739
 scf_env_do_scf_inner_loop           42  4.0    0.012    0.016   43.736   43.737
 qs_ks_build_kohn_sham_matrix        43  7.0    0.037    0.045   26.895   26.928
 qs_ks_update_qs_env                 42  5.0    0.001    0.001   26.692   26.725
 rebuild_ks_matrix                   42  6.0    0.001    0.001   26.686   26.719
 fft_wrap_pw1pw2                    852 10.0    0.016    0.019   21.492   21.872
 fft_wrap_pw1pw2_300                508 11.4    1.387    1.646   20.720   21.245
 qs_energies_properties               1  3.0    0.001    0.001   18.165   18.165
 post_scf_bandstructure               1  4.0    0.001    0.001   18.164   18.164
 run_gw                               1  5.0    0.001    0.001   18.105   18.115
 qs_vxc_create                       43  8.0    0.003    0.004   17.704   17.826
 xc_vxc_pw_create                    42  9.0    0.232    0.303   17.700   17.822
 mp_sum_d                          1236  6.0   15.210   16.963   15.210   16.963
 gw_calc_ri_rs_non_periodic           1  6.0    0.003    0.011   16.869   16.892
 optimize_ri_rs_grid                  1  7.0    0.000    0.001   16.233   16.246
 rirs_grid_LBFGS                      1  8.0    0.107    0.948   16.179   16.201
 fft3d_ps                           852 12.0    8.612    9.055   15.328   15.797
 evaluate_rirs_grid_cluster         301  9.0    0.131    1.468    1.397   15.060
 xc_pw_derive                       252 11.0    0.003    0.003   12.489   12.763
 qs_rho_update_rho_low               43  5.0    0.000    0.001    9.836    9.838
 calculate_rho_elec                  43  6.0    0.136    0.145    9.836    9.837
 xc_rho_set_and_dset_create          42 10.0    0.317    0.422    9.059    9.359
 density_rs2pw                       43  7.0    0.003    0.004    6.972    9.183
 xc_pw_divergence                    42 10.0    0.001    0.002    8.162    8.431
 gspace_mixing                       41  5.0    0.132    0.141    7.087    7.087
 mp_alltoall_z22v                   852 14.0    4.493    5.293    4.493    5.293
 broyden_mixing                      41  6.0    5.077    5.134    5.225    5.238
 transfer_rs2pw                     217  8.0    0.005    0.006    3.030    5.193
 mp_waitany                        3850 11.5    2.775    4.884    2.775    4.884
 transfer_rs2pw_300                  45  8.9    0.499    0.543    2.395    4.563
 sum_up_and_integrate                43  8.0    0.008    0.009    4.486    4.525
 integrate_v_rspace                  43  9.0    0.001    0.002    4.400    4.438
 x_to_yz                            467 13.4    1.394    2.021    3.812    4.396
 potential_pw2rs                     43 10.0    0.009    0.010    4.367    4.379
 rirs_cluster_gradient_products     301 10.0    0.385    4.151    0.385    4.151
 grid_collocate_task_list            43  7.0    2.567    4.050    2.567    4.050
 rirs_cluster_gradient_coordina     301 10.0    0.357    3.821    0.357    3.821
 yz_to_x                            385 12.6    0.794    0.864    2.869    3.483
 qs_ks_ddapc                         43  8.0    0.001    0.001    2.228    2.405
 xc_functional_eval                  42 11.0    0.004    0.008    2.133    2.308
 pbe_lda_eval                        42 12.0    2.128    2.307    2.128    2.307
 pw_derive                          381 11.3    2.107    2.234    2.107    2.234
 transfer_pw2rs                     216 11.0    0.003    0.003    2.218    2.220
 pw_scatter_p                       467 12.4    1.987    2.095    1.987    2.095
 pw_poisson_solve                    43  8.0    0.001    0.002    2.074    2.091
 pw_copy                            727 10.6    1.853    1.919    1.853    1.919
 rirs_cluster_D_ll                  301 10.0    0.167    1.796    0.167    1.796
 pw_gather_p                        385 11.6    1.510    1.608    1.510    1.608
 rirs_cluster_residual              301 10.0    0.132    1.436    0.132    1.436
 transfer_pw2rs_300                  44 11.9    0.572    0.593    1.287    1.310
 create_and_init_bs_env_for_gw        1  6.0    0.006    0.017    1.236    1.303
 pw_poisson_set                      44  9.0    0.003    0.003    1.267    1.284
 -------------------------------------------------------------------------------

 The number of warnings for this run is : 1
 
 -------------------------------------------------------------------------------
  **** **** ******  **  PROGRAM ENDED AT                 2026-09-18 14:58:35.668
 ***** ** ***  *** **   PROGRAM RAN ON                                  n2cn0835
 **    ****   ******    PROGRAM RAN BY                                  eprop2d1
 ***** **    ** ** **   PROGRAM PROCESS ID                                429220
  **** **  *******  **  PROGRAM STOPPED IN /scratch/hpc-prf-metdyn/eprop2d1_Jan/
                                           53_benchmark_RI_opt/129_GW100_Si293_A
                                           O_frontier_optimization_coopfst/follo
                                           wups/figure1_missing/gw100/79_OCS/dzv
                                           p_t1/initial
