 DBCSR| CPU Multiplication driver                                           XSMM (U)
 DBCSR| Multrec recursion limit                                              512 (U)
 DBCSR| Multiplication stack size                                           1000 (D)
 DBCSR| Maximum elements for images                                    UNLIMITED (U)
 DBCSR| Multiplicative factor virtual images                                   1 (U)
 DBCSR| Use multiplication densification                                       T (D)
 DBCSR| Multiplication size stacks                                             3 (U)
 DBCSR| Use memory pool for CPU allocation                                     F (U)
 DBCSR| Number of 3D layers                                               SINGLE (U)
 DBCSR| Use MPI memory allocation                                              F (U)
 DBCSR| Use RMA algorithm                                                      F (U)
 DBCSR| Use Communication thread                                               T (U)
 DBCSR| Communication thread load                                             60 (D)
 DBCSR| MPI: My process id                                                     0
 DBCSR| MPI: Number of processes                                              15
 DBCSR| OMP: Current number of threads                                         8
 DBCSR| OMP: Max number of threads                                             8
 DBCSR| Split modifier for TAS multiplication algorithm                  1.0E+00 (U)


  **** **** ******  **  PROGRAM STARTED AT               2026-10-03 18:53:13.978
 ***** ** ***  *** **   PROGRAM STARTED ON                              n2cn0947
 **    ****   ******    PROGRAM STARTED BY                              eprop2d1
 ***** **    ** ** **   PROGRAM PROCESS ID                               1198311
  **** **  *******  **  PROGRAM STARTED IN /scratch/hpc-prf-metdyn/eprop2d1_Jan/
                                           53_benchmark_RI_opt/418_gw100_fig5_fu
                                           ll_epsfilter_1e12_20261002/calculatio
                                           ns/rc0p5/ri4_rs06/86_C7H8

 CP2K| version string:                 CP2K version 2026.2 (Development Version)
 CP2K| source code revision number:                                   0671c5aa6c
 CP2K| cp2kflags: omp libint fftw3 libxc parallel scalapack openblas            
 CP2K| is freely available from                            https://www.cp2k.org/
 CP2K| Program compiled at                                   2026-09-20 09:25:26
 CP2K| Program compiled on                                              n2login5
 CP2K| Program compiled for                                               x86_64
 CP2K| Data directory path    /scratch/hpc-prf-metdyn/eprop2d1_Jan/53_benchmark_
 CP2K| Input file name        /scratch/hpc-prf-metdyn/eprop2d1_Jan/53_benchmark_
 
 eprop2d1@n2cn0947 has created rank and process                      0   1198311
 eprop2d1@n2cn0947 has created rank and process                      1   1198312
 eprop2d1@n2cn0947 has created rank and process                      2   1198313
 eprop2d1@n2cn0947 has created rank and process                      3   1198314
 eprop2d1@n2cn0947 has created rank and process                      4   1198315
 eprop2d1@n2cn0947 has created rank and process                      5   1198316
 eprop2d1@n2cn0947 has created rank and process                      6   1198317
 eprop2d1@n2cn0947 has created rank and process                      7   1198318
 eprop2d1@n2cn0947 has created rank and process                      8   1198319
 eprop2d1@n2cn0947 has created rank and process                      9   1198320
 eprop2d1@n2cn0947 has created rank and process                     10   1198321
 eprop2d1@n2cn0947 has created rank and process                     11   1198322
 eprop2d1@n2cn0947 has created rank and process                     12   1198323
 eprop2d1@n2cn0947 has created rank and process                     13   1198324
 eprop2d1@n2cn0947 has created rank and process                     14   1198325
 
 eprop2d1@n2cn0947 is running                                       15 processes

 GLOBAL| Force Environment number                                              1
 GLOBAL| Basis set file name            /scratch/hpc-prf-metdyn/eprop2d1_Jan/53_
 GLOBAL| Potential file name            /scratch/hpc-prf-metdyn/eprop2d1_Jan/53_
 GLOBAL| MM Potential file name                                     MM_POTENTIAL
 GLOBAL| Coordinate file name                                      __STD_INPUT__
 GLOBAL| Method name                                                        CP2K
 GLOBAL| Project name                                             g418_a406_m086
 GLOBAL| Run type                                                         ENERGY
 GLOBAL| FFT library                                                       FFTW3
 GLOBAL| Diagonalization library                                       ScaLAPACK
 GLOBAL| Cholesky decomposition library                                ScaLAPACK
 GLOBAL| DGEMM library                                                      BLAS
 GLOBAL| Direct generalized diagonalization requested                          F
 GLOBAL| Orthonormality check for eigenvectors                          DISABLED
 GLOBAL| Matrix multiplication library                                 ScaLAPACK
 GLOBAL| All-to-all communication in single precision                          F
 GLOBAL| Grid backend                                                       AUTO
 GLOBAL| Global print level                                                  LOW
 GLOBAL| MPI I/O enabled                                                       T
 GLOBAL| Total number of message passing processes                            15
 GLOBAL| Number of distributed systems (nodes)                                 1
 GLOBAL| Number of threads for this process                                    8
 GLOBAL| This output is from process                                           0
 GLOBAL| OpenMP stack size per thread (OMP_STACKSIZE)                       512M
 GLOBAL| CPU model name                          AMD EPYC 7763 64-Core Processor

 MEMORY| system memory details [Kb]
 MEMORY|                        rank 0           min           max       average
 MEMORY| MemTotal            263897616     263897616     263897616     263897616
 MEMORY| MemFree             248780848     248780848     248780848     248780848
 MEMORY| Buffers                307100        307100        307100        307100
 MEMORY| Cached                7312188       7312188       7312188       7312188
 MEMORY| Slab                  1729916       1729916       1729916       1729916
 MEMORY| SReclaimable           333572        333572        333572        333572
 MEMORY| MemLikelyFree       256733708     256733708     256733708     256733708


 GENERATE|  Preliminary Number of Bonds generated:                             0
 GENERATE|  Achieved consistency in connectivity generation.

 *******************************************************************************
 *******************************************************************************
 **                                                                           **
 **     #####                         ##              ##                      **
 **    ##   ##            ##          ##              ##                      **
 **   ##     ##                       ##            ######                    **
 **   ##     ##  ##   ##  ##   #####  ##  ##   ####   ##    #####    #####    **
 **   ##     ##  ##   ##  ##  ##      ## ##   ##      ##   ##   ##  ##   ##   **
 **   ##  ## ##  ##   ##  ##  ##      ####     ###    ##   ######   ######    **
 **    ##  ###   ##   ##  ##  ##      ## ##      ##   ##   ##       ##        **
 **     #######   #####   ##   #####  ##  ##  ####    ##    #####   ##        **
 **           ##                                                    ##        **
 **                                                                           **
 **                                                ... make the atoms dance   **
 **                                                                           **
 **            Copyright (C) by CP2K developers group (2000-2026)             **
 **                      J. Chem. Phys. 152, 194103 (2020)                    **
 **                                                                           **
 *******************************************************************************


 TOTAL NUMBERS AND MAXIMUM NUMBERS

  Total number of            - Atomic kinds:                                   2
                             - Atoms:                                         15
                             - Shell sets:                                    15
                             - Shells:                                       103
                             - Primitive Cartesian functions:                 97
                             - Cartesian basis functions:                    310
                             - Spherical basis functions:                    275

  Maximum angular momentum of- Orbital basis functions:                        3
                             - Local part of the GTH pseudopotential:          2
                             - Non-local part of the GTH pseudopotential:      0


 SCF PARAMETERS         Density guess:                                   RESTART
                        --------------------------------------------------------
                        max_scf:                                             500
                        max_scf_history:                                       0
                        max_diis:                                              4
                        --------------------------------------------------------
                        eps_scf:                                        1.00E-08
                        eps_scf_history:                                0.00E+00
                        eps_diis:                                       0.00E+00
                        eps_eigval:                                     1.00E-05
                        --------------------------------------------------------
                        level_shift [a.u.]:                             0.000000
                        --------------------------------------------------------
                        Outer loop SCF in use 
                        No variables optimised in outer loop
                        eps_scf                                         1.00E-08
                        max_scf                                               20
                        No outer loop optimization
                        step_size                                       5.00E-01

 Extrapolation method: initial_guess

 Number of electrons:                                                         36
 Number of occupied orbitals:                                                 18
 Number of molecular orbitals:                                                18

 Number of orbital functions:                                                275
 Number of independent orbital functions:                                    275


 SCF WAVEFUNCTION OPTIMIZATION

  ----------------------------------- OT ---------------------------------------
  Minimizer      : DIIS                : direct inversion
                                         in the iterative subspace
                                         using   7 DIIS vectors
                                         safer DIIS on
  Preconditioner : FULL_KINETIC        : inversion of T + eS
  Lattice FFT   : OFF
  Precond_solver : DEFAULT
  stepsize       :    0.15000000                  energy_gap     :    0.20000000
  eps_taylor     :   0.10000E-15                  max_taylor     :             4
  ----------------------------------- OT ---------------------------------------

  Step     Update method      Time    Convergence         Total energy    Change
  ------------------------------------------------------------------------------
  Decoupling Energy:                                               0.0000002441
     1 OT DIIS     0.15E+00    1.6     4.5584E-09       -44.5775693077 -4.46E+01

  *** SCF run converged in     1 steps ***


  Electronic density on regular grids:        -36.0000000000        0.0000000000
  Core density on regular grids:               36.0000000000       -0.0000000000
  Total charge density on r-space grids:       -0.0000000000
  Total charge density g-space grids:          -0.0000000000

  Overlap energy of the core charge distribution:               0.00000267634191
  Self energy of the core charge distribution:               -104.62884715831160
  Core Hamiltonian energy:                                     32.99792971387720
  Hartree energy:                                              42.03649890139610
  Exchange-correlation energy:                                -14.98315344101774

  Total energy:                                               -44.57756930771413

  outer SCF iter =    1 RMS gradient =   0.46E-08 energy =        -44.5775693077
  outer SCF loop converged in   1 iterations or    1 steps

  
 -------------------------------------------------------------------------------
 -                                                                             -
 -                          BANDSTRUCTURE CALCULATION                          -
 -                                                                             -
 -------------------------------------------------------------------------------
  
 Number of occupied molecular orbitals (MOs) = Number of occupied bands       18
 Number of unoccupied (= virtual) MOs = Number of unoccupied bands           257
 Number of Gaussian basis functions for MOs                                  275
  
 -------------------------------------------------------------------------------
 -                                                                             -
 -                                GW CALCULATION                               -
 -                                                                             -
 -------------------------------------------------------------------------------
  
 Input: Number of time/freq. points                                           30
 Input: ω_max for fitting Σ(iω) (eV)                                        10.0
 Input: Filter threshold for sparse tensor operations                    1.0E-12
 Input: Apply Hedin shift                                                      F
 Detected: Available memory per MPI process                              14.7 GB
 
 Input: RI-RS Tikhonov regularization                                   1.00E-04
 Input: AO grid hard cutoff radius                                        8.00 Å
 Input: MPI ranks per atom in Z_lP solve                                      -1
 Input: Keep sparsity in χ/G/W panels                                          T
 Input: GW flavour                                                          G0W0
 
 Input: RI-RS grid optimization activated                                      T
 Input: RS points per AO function                                            6.0
 Input: Cutoff radius for atomic clusters                                  0.5 Å
 Input: Maximum grid optimization iterations                                 300
 
 Input: AUTO_RI basis optimization activated:                                  T
 Input: AUTO_RI number of RI functions per AO function:                      4.0
 Input: AUTO_RI frontier orbital window:                                  5.0 eV
 Input: AUTO_RI neighbor radius:                                           3.0 Å
 
 Cutoff radius for the truncated Coulomb operator in RI metric:            7.0 Å
 Regularization parameter of RI                                          0.0E+00
 Regularization parameter of minimax grids                               1.0E-06
 
 AUTO_RI| Number of automatic RI functions for χ, ε, W:                     1100
 AUTO_RI| Total RI basis optimization time:                                3.8 s
  Decoupling Energy:                                               0.0000002441
 
 SCF direct band gap (eV)                                                   4.78
 Max. SCF eigval diff. (eV)                                               267.61
 E-Range for minimax grid                                                  55.98
 Number of Padé parameters for analytic continuation:                         16
 
 RI-RS basis radii (Å):
     Kind  Elem     r_AO (Å)     r_RI (Å)
        1    C        15.9835       10.1279
        2    H        13.9082        8.7963
 
 Started RI-RS grid optimization
 RI-RS grid initial normalized error                          5.777128287719E-02
 RI-RS grid optimization completed, execution time:                        0.9 s
 Normalized 3C error:                                                    3.4E-06
 Maximum absolute 3C error:                                              1.2E-02
 Optimized points outside molecular Voronoi cells:                           891 / 1650
 Total grid points used for RI-RS:                                          1650
 
 RI-RS grid row-blocks of ϕ_μ(r_l)                                            58
 RI-RS grid points per block (max)                                            32
 
 Percentage of non-zero matrix elements in ϕ_μ(r_l)                     100.00 %
 
 RI-RS memory estimate per MPI process:
   Available memory per process (system)                                17.02 GB
   Required for Z_lP (dense upper bound; actual is sparser)              0.00 GB
   Required for χ, W, Σ panels (peak per panel step)                     0.01 GB
   Required for Z_lP solve peak (D_local+ϕ, worst-case atom)             0.04 GB
   Worst-case local-grid number of grid points:                             1650
   Worst-case memory D_local:                                            0.02 GB
 
 Started computing Z_lP
 Computed Z_lP (MPI rank 0) for atom          1 /  1,    Execution time    0.6 s
 Computed Z_lP (all MPI ranks) for all atoms,            Execution time    0.8 s

 Memory per MPI process after computing Z_lP:
 Available memory per MPI process                               16.9 GB
 Used memory per MPI process                                     1.0 GB
 Number of batches for χ, Σ matrices                                           1
 
 Percentage of non-zero matrix elements in Z_lP                         100.00 %
 Percentage of non-zero matrix elements in G_ll', χ_ll', W_ll'          100.00 %
 Percentage of non-zero matrix elements in χ_PQ for time point 1        100.00 %
 
 Computed χ(iτ,k=0) for time point            1 / 30,    Execution time    0.0 s
 Computed χ(iτ,k=0) for time point            2 / 30,    Execution time    0.0 s
 Computed χ(iτ,k=0) for time point            3 / 30,    Execution time    0.0 s
 Computed χ(iτ,k=0) for time point            4 / 30,    Execution time    0.0 s
 Computed χ(iτ,k=0) for time point            5 / 30,    Execution time    0.0 s
 Computed χ(iτ,k=0) for time point            6 / 30,    Execution time    0.0 s
 Computed χ(iτ,k=0) for time point            7 / 30,    Execution time    0.0 s
 Computed χ(iτ,k=0) for time point            8 / 30,    Execution time    0.0 s
 Computed χ(iτ,k=0) for time point            9 / 30,    Execution time    0.0 s
 Computed χ(iτ,k=0) for time point           10 / 30,    Execution time    0.0 s
 Computed χ(iτ,k=0) for time point           11 / 30,    Execution time    0.0 s
 Computed χ(iτ,k=0) for time point           12 / 30,    Execution time    0.0 s
 Computed χ(iτ,k=0) for time point           13 / 30,    Execution time    0.0 s
 Computed χ(iτ,k=0) for time point           14 / 30,    Execution time    0.0 s
 Computed χ(iτ,k=0) for time point           15 / 30,    Execution time    0.0 s
 Computed χ(iτ,k=0) for time point           16 / 30,    Execution time    0.0 s
 Computed χ(iτ,k=0) for time point           17 / 30,    Execution time    0.0 s
 Computed χ(iτ,k=0) for time point           18 / 30,    Execution time    0.0 s
 Computed χ(iτ,k=0) for time point           19 / 30,    Execution time    0.0 s
 Computed χ(iτ,k=0) for time point           20 / 30,    Execution time    0.0 s
 Computed χ(iτ,k=0) for time point           21 / 30,    Execution time    0.0 s
 Computed χ(iτ,k=0) for time point           22 / 30,    Execution time    0.0 s
 Computed χ(iτ,k=0) for time point           23 / 30,    Execution time    0.0 s
 Computed χ(iτ,k=0) for time point           24 / 30,    Execution time    0.0 s
 Computed χ(iτ,k=0) for time point           25 / 30,    Execution time    0.0 s
 Computed χ(iτ,k=0) for time point           26 / 30,    Execution time    0.0 s
 Computed χ(iτ,k=0) for time point           27 / 30,    Execution time    0.0 s
 Computed χ(iτ,k=0) for time point           28 / 30,    Execution time    0.0 s
 Computed χ(iτ,k=0) for time point           29 / 30,    Execution time    0.0 s
 Computed χ(iτ,k=0) for time point           30 / 30,    Execution time    0.0 s
 
 Computed W(iτ),                                         Execution time    1.4 s
 
 Computed Σ^x(k=0),                                      Execution time    0.0 s
 
 Computed Σ^c(iτ) for time point              1 / 30,    Execution time    0.0 s
 Computed Σ^c(iτ) for time point              2 / 30,    Execution time    0.0 s
 Computed Σ^c(iτ) for time point              3 / 30,    Execution time    0.0 s
 Computed Σ^c(iτ) for time point              4 / 30,    Execution time    0.0 s
 Computed Σ^c(iτ) for time point              5 / 30,    Execution time    0.0 s
 Computed Σ^c(iτ) for time point              6 / 30,    Execution time    0.0 s
 Computed Σ^c(iτ) for time point              7 / 30,    Execution time    0.0 s
 Computed Σ^c(iτ) for time point              8 / 30,    Execution time    0.0 s
 Computed Σ^c(iτ) for time point              9 / 30,    Execution time    0.0 s
 Computed Σ^c(iτ) for time point             10 / 30,    Execution time    0.0 s
 Computed Σ^c(iτ) for time point             11 / 30,    Execution time    0.0 s
 Computed Σ^c(iτ) for time point             12 / 30,    Execution time    0.0 s
 Computed Σ^c(iτ) for time point             13 / 30,    Execution time    0.0 s
 Computed Σ^c(iτ) for time point             14 / 30,    Execution time    0.0 s
 Computed Σ^c(iτ) for time point             15 / 30,    Execution time    0.0 s
 Computed Σ^c(iτ) for time point             16 / 30,    Execution time    0.0 s
 Computed Σ^c(iτ) for time point             17 / 30,    Execution time    0.0 s
 Computed Σ^c(iτ) for time point             18 / 30,    Execution time    0.0 s
 Computed Σ^c(iτ) for time point             19 / 30,    Execution time    0.0 s
 Computed Σ^c(iτ) for time point             20 / 30,    Execution time    0.0 s
 Computed Σ^c(iτ) for time point             21 / 30,    Execution time    0.0 s
 Computed Σ^c(iτ) for time point             22 / 30,    Execution time    0.0 s
 Computed Σ^c(iτ) for time point             23 / 30,    Execution time    0.0 s
 Computed Σ^c(iτ) for time point             24 / 30,    Execution time    0.0 s
 Computed Σ^c(iτ) for time point             25 / 30,    Execution time    0.0 s
 Computed Σ^c(iτ) for time point             26 / 30,    Execution time    0.0 s
 Computed Σ^c(iτ) for time point             27 / 30,    Execution time    0.0 s
 Computed Σ^c(iτ) for time point             28 / 30,    Execution time    0.0 s
 Computed Σ^c(iτ) for time point             29 / 30,    Execution time    0.0 s
 Computed Σ^c(iτ) for time point             30 / 30,    Execution time    0.0 s

 *** WARNING in post_scf_bandstructure_utils.F:3161 :: G0W0 reorders the   ***
 *** empty levels: the SCF conduction band minimum (SCF LUMO) is level 19, ***
 *** whereas the G0W0 conduction band minimum (G0W0 LUMO) is level 21. The ***
 *** SCF and G0W0 band edges printed below therefore belong to different   ***
 *** orbitals; see the eigenvalues in the file bandstructure_SCF_and_G0W0. ***

 
 SCF valence band maximum (eV):                                           -5.981
 SCF conduction band minimum (eV):                                        -1.201
 SCF indirect band gap (eV):                                               4.780
 SCF direct band gap (eV):                                                 4.780
 
 G0W0 valence band maximum (eV):                                          -8.276
 G0W0 conduction band minimum (eV):                                        1.110
 G0W0 indirect band gap (eV):                                              9.386
 G0W0 direct band gap (eV):                                                9.386
 
 Hartree-Fock with SCF orbitals valence band maximum (eV):                -8.529
 Hartree-Fock with SCF orbitals conduction band minimum (eV)               1.980
 Hartree-Fock with SCF orbitals indirect band gap (eV):                   10.509
 Hartree-Fock with SCF orbitals direct band gap (eV):                     10.509

 ENERGY| Total FORCE_EVAL ( QS ) energy [hartree]            -44.577569307714128

 -------------------------------------------------------------------------------
 -                                                                             -
 -                                DBCSR STATISTICS                             -
 -                                                                             -
 -------------------------------------------------------------------------------
 COUNTER                                    TOTAL       BLAS       SMM       ACC
 flops    18 x    18 x    18                58320       0.0%    100.0%      0.0%     
 flops     9 x    18 x    18                93312       0.0%    100.0%      0.0%     
 flops    38 x    18 x    18                98496       0.0%    100.0%      0.0%     
 flops    38 x    18 x     9               196992       0.0%    100.0%      0.0%     
 flops     9 x     9 x    18               209952       0.0%    100.0%      0.0%     
 flops    18 x    18 x     9               233280       0.0%    100.0%      0.0%     
 flops    29 x    18 x    18               375840       0.0%    100.0%      0.0%     
 flops    29 x     9 x    18               526176       0.0%    100.0%      0.0%     
 flops     9 x    29 x    18               526176       0.0%    100.0%      0.0%     
 flops    38 x    18 x    29               555408       0.0%    100.0%      0.0%     
 flops    18 x    18 x    29               657720       0.0%    100.0%      0.0%     
 flops     9 x    18 x     9              1306368       0.0%    100.0%      0.0%     
 flops    29 x    29 x    18              1695456       0.0%    100.0%      0.0%     
 flops     9 x    18 x    29              3683232       0.0%    100.0%      0.0%     
 flops    29 x    18 x     9              3908736       0.0%    100.0%      0.0%     
 flops    44 x    44 x    14              7968576       0.0%    100.0%      0.0%     
 flops    46 x    44 x    14              8330784       0.0%    100.0%      0.0%     
 flops    44 x    46 x    14              8330784       0.0%    100.0%      0.0%     
 flops    47 x    44 x    14              8511888       0.0%    100.0%      0.0%     
 flops    44 x    47 x    14              8511888       0.0%    100.0%      0.0%     
 flops    46 x    46 x    14              8709456       0.0%    100.0%      0.0%     
 flops    14 x    44 x    44              8727488       0.0%    100.0%      0.0%     
 flops    49 x    44 x    14              8874096       0.0%    100.0%      0.0%     
 flops    46 x    47 x    14              8898792       0.0%    100.0%      0.0%     
 flops    47 x    46 x    14              8898792       0.0%    100.0%      0.0%     
 flops    47 x    47 x    14              9092244       0.0%    100.0%      0.0%     
 flops    14 x    46 x    44              9124192       0.0%    100.0%      0.0%     
 flops    49 x    46 x    14              9277464       0.0%    100.0%      0.0%     
 flops    14 x    47 x    44              9322544       0.0%    100.0%      0.0%     
 flops    44 x    52 x    14              9417408       0.0%    100.0%      0.0%     
 flops    49 x    47 x    14              9479148       0.0%    100.0%      0.0%     
 flops    46 x    52 x    14              9845472       0.0%    100.0%      0.0%     
 flops    47 x    52 x    14             10059504       0.0%    100.0%      0.0%     
 flops    14 x    52 x    44             10314304       0.0%    100.0%      0.0%     
 flops    49 x    52 x    14             10487568       0.0%    100.0%      0.0%     
 flops    29 x    18 x    29             11020464       0.0%    100.0%      0.0%     
 flops    44 x    75 x    14             13582800       0.0%    100.0%      0.0%     
 flops    75 x    44 x    14             13582800       0.0%    100.0%      0.0%     
 flops    44 x    44 x    22             14055360       0.0%    100.0%      0.0%     
 flops    46 x    75 x    14             14200200       0.0%    100.0%      0.0%     
 flops    75 x    46 x    14             14200200       0.0%    100.0%      0.0%     
 flops    47 x    75 x    14             14508900       0.0%    100.0%      0.0%     
 flops    75 x    47 x    14             14508900       0.0%    100.0%      0.0%     
 flops    46 x    44 x    22             14694240       0.0%    100.0%      0.0%     
 flops    44 x    46 x    22             14694240       0.0%    100.0%      0.0%     
 flops    14 x    75 x    44             14876400       0.0%    100.0%      0.0%     
 flops    47 x    44 x    22             15013680       0.0%    100.0%      0.0%     
 flops    44 x    47 x    22             15104672       0.0%    100.0%      0.0%     
 flops    49 x    75 x    14             15126300       0.0%    100.0%      0.0%     
 flops    46 x    46 x    22             15362160       0.0%    100.0%      0.0%     
 flops    49 x    44 x    22             15652560       0.0%    100.0%      0.0%     
 flops    22 x    44 x    44             15673856       0.0%    100.0%      0.0%     
 flops    47 x    46 x    22             15696120       0.0%    100.0%      0.0%     
 flops    46 x    47 x    22             15791248       0.0%    100.0%      0.0%     
 flops    75 x    52 x    14             16052400       0.0%    100.0%      0.0%     
 flops    44 x    89 x    14             16118256       0.0%    100.0%      0.0%     
 flops    89 x    44 x    14             16118256       0.0%    100.0%      0.0%     
 flops    47 x    47 x    22             16134536       0.0%    100.0%      0.0%     
 flops    49 x    46 x    22             16364040       0.0%    100.0%      0.0%     
 flops    22 x    46 x    44             16386304       0.0%    100.0%      0.0%     
 flops    44 x    52 x    22             16510208       0.0%    100.0%      0.0%     
 flops    22 x    47 x    44             16742528       0.0%    100.0%      0.0%     
 flops    49 x    47 x    22             16821112       0.0%    100.0%      0.0%     
 flops    46 x    89 x    14             16850904       0.0%    100.0%      0.0%     
 flops    89 x    46 x    14             16850904       0.0%    100.0%      0.0%     
 flops    47 x    89 x    14             17217228       0.0%    100.0%      0.0%     
 flops    89 x    47 x    14             17217228       0.0%    100.0%      0.0%     
 flops    46 x    52 x    22             17260672       0.0%    100.0%      0.0%     
 flops    47 x    52 x    22             17635904       0.0%    100.0%      0.0%     
 flops    14 x    89 x    44             17653328       0.0%    100.0%      0.0%     
 flops    44 x    49 x    14             17748192       0.0%    100.0%      0.0%     
 flops    49 x    89 x    14             17949876       0.0%    100.0%      0.0%     
 flops    49 x    52 x    22             18386368       0.0%    100.0%      0.0%     
 flops    44 x   102 x    14             18472608       0.0%    100.0%      0.0%     
 flops    22 x    52 x    44             18523648       0.0%    100.0%      0.0%     
 flops    14 x    44 x    14             18524352       0.0%    100.0%      0.0%     
 flops    46 x    49 x    14             18554928       0.0%    100.0%      0.0%     
 flops    47 x    49 x    14             18958296       0.0%    100.0%      0.0%     
 flops    44 x   105 x    14             19015920       0.0%    100.0%      0.0%     
 flops   105 x    44 x    14             19015920       0.0%    100.0%      0.0%     
 flops    89 x    52 x    14             19048848       0.0%    100.0%      0.0%     
 flops    44 x    53 x    14             19197024       0.0%    100.0%      0.0%     
 flops    53 x    44 x    14             19197024       0.0%    100.0%      0.0%     
 flops    14 x    46 x    14             19312272       0.0%    100.0%      0.0%     
 flops    46 x   102 x    14             19312272       0.0%    100.0%      0.0%     
 flops    14 x    14 x    44             19317760       0.0%    100.0%      0.0%     
 flops    14 x    49 x    44             19438496       0.0%    100.0%      0.0%     
 flops    14 x    44 x    49             19438496       0.0%    100.0%      0.0%     
 flops    14 x    47 x    14             19695256       0.0%    100.0%      0.0%     
 flops    47 x   102 x    14             19732104       0.0%    100.0%      0.0%     
 flops    44 x   109 x    14             19740336       0.0%    100.0%      0.0%     
 flops    49 x    49 x    14             19765032       0.0%    100.0%      0.0%     
 flops    46 x   105 x    14             19880280       0.0%    100.0%      0.0%     
 flops   105 x    46 x    14             19880280       0.0%    100.0%      0.0%     
 flops    46 x    53 x    14             20069616       0.0%    100.0%      0.0%     
 flops    53 x    46 x    14             20069616       0.0%    100.0%      0.0%     
 flops    14 x   102 x    44             20231904       0.0%    100.0%      0.0%     
 flops    47 x   105 x    14             20312460       0.0%    100.0%      0.0%     
 flops   105 x    47 x    14             20312460       0.0%    100.0%      0.0%     
 flops    14 x    46 x    49             20322064       0.0%    100.0%      0.0%     
 flops    44 x   113 x    14             20464752       0.0%    100.0%      0.0%     
 flops    47 x    53 x    14             20505912       0.0%    100.0%      0.0%     
 flops    53 x    47 x    14             20505912       0.0%    100.0%      0.0%     
 flops    49 x   102 x    14             20571768       0.0%    100.0%      0.0%     
 flops    46 x   109 x    14             20637624       0.0%    100.0%      0.0%     
 flops    44 x   114 x    14             20645856       0.0%    100.0%      0.0%     
 flops    14 x    47 x    49             20763848       0.0%    100.0%      0.0%     
 flops    14 x   105 x    44             20826960       0.0%    100.0%      0.0%     
 flops    14 x    53 x    44             21025312       0.0%    100.0%      0.0%     
 flops    14 x    44 x    53             21025312       0.0%    100.0%      0.0%     
 flops    47 x   109 x    14             21086268       0.0%    100.0%      0.0%     
 flops    49 x   105 x    14             21176820       0.0%    100.0%      0.0%     
 flops    49 x    53 x    14             21378504       0.0%    100.0%      0.0%     
 flops    46 x   113 x    14             21394968       0.0%    100.0%      0.0%     
 flops    46 x   114 x    14             21584304       0.0%    100.0%      0.0%     
 flops    14 x   109 x    44             21620368       0.0%    100.0%      0.0%     
 flops    14 x    52 x    14             21810880       0.0%    100.0%      0.0%     
 flops    47 x   113 x    14             21860076       0.0%    100.0%      0.0%     
 flops    14 x    46 x    53             21981008       0.0%    100.0%      0.0%     
 flops    49 x   109 x    14             21983556       0.0%    100.0%      0.0%     
 flops    47 x   114 x    14             22053528       0.0%    100.0%      0.0%     
 flops    14 x   113 x    44             22413776       0.0%    100.0%      0.0%     
 flops    14 x    47 x    53             22458856       0.0%    100.0%      0.0%     
 flops   105 x    52 x    14             22473360       0.0%    100.0%      0.0%     
 flops    14 x   114 x    44             22612128       0.0%    100.0%      0.0%     
 flops    53 x    52 x    14             22687392       0.0%    100.0%      0.0%     
 flops    49 x   113 x    14             22790292       0.0%    100.0%      0.0%     
 flops    14 x    52 x    49             22972768       0.0%    100.0%      0.0%     
 flops    49 x   114 x    14             22991976       0.0%    100.0%      0.0%     
 flops    75 x    75 x    14             23152500       0.0%    100.0%      0.0%     
 flops    75 x    44 x    22             23958000       0.0%    100.0%      0.0%     
 flops    44 x    75 x    22             24248400       0.0%    100.0%      0.0%     
 flops    14 x    52 x    53             24848096       0.0%    100.0%      0.0%     
 flops    75 x    46 x    22             25047000       0.0%    100.0%      0.0%     
 flops    46 x    75 x    22             25350600       0.0%    100.0%      0.0%     
 flops    75 x    47 x    22             25746600       0.0%    100.0%      0.0%     
 flops    47 x    75 x    22             25901700       0.0%    100.0%      0.0%     
 flops    22 x    75 x    44             26716800       0.0%    100.0%      0.0%     
 flops    49 x    75 x    22             27003900       0.0%    100.0%      0.0%     
 flops    75 x    89 x    14             27474300       0.0%    100.0%      0.0%     
 flops    89 x    75 x    14             27474300       0.0%    100.0%      0.0%     
 flops    75 x    52 x    22             28142400       0.0%    100.0%      0.0%     
 flops    89 x    44 x    22             28430160       0.0%    100.0%      0.0%     
 flops    44 x    89 x    22             28602464       0.0%    100.0%      0.0%     
 flops    89 x    46 x    22             29722440       0.0%    100.0%      0.0%     
 flops    46 x    89 x    22             29902576       0.0%    100.0%      0.0%     
 flops    75 x    49 x    14             30252600       0.0%    100.0%      0.0%     
 flops    47 x    89 x    22             30552632       0.0%    100.0%      0.0%     
 flops    89 x    47 x    22             30552632       0.0%    100.0%      0.0%     
 flops    44 x    49 x    22             31399984       0.0%    100.0%      0.0%     
 flops    75 x   102 x    14             31487400       0.0%    100.0%      0.0%     
 flops    14 x    75 x    14             31634400       0.0%    100.0%      0.0%     
 flops    22 x    89 x    44             31703936       0.0%    100.0%      0.0%     
 flops    49 x    89 x    22             31852744       0.0%    100.0%      0.0%     
 flops    22 x    44 x    14             32226656       0.0%    100.0%      0.0%     
 flops    75 x   105 x    14             32413500       0.0%    100.0%      0.0%     
 flops   105 x    75 x    14             32413500       0.0%    100.0%      0.0%     
 flops    89 x    89 x    14             32602836       0.0%    100.0%      0.0%     
 flops    53 x    75 x    14             32722200       0.0%    100.0%      0.0%     
 flops    75 x    53 x    14             32722200       0.0%    100.0%      0.0%     
 flops    44 x   102 x    22             32780352       0.0%    100.0%      0.0%     
 flops    46 x    49 x    22             32827256       0.0%    100.0%      0.0%     
 flops    14 x    75 x    49             33133800       0.0%    100.0%      0.0%     
 flops    14 x    44 x    22             33175296       0.0%    100.0%      0.0%     
 flops    89 x    52 x    22             33395648       0.0%    100.0%      0.0%     
 flops    47 x    49 x    22             33540892       0.0%    100.0%      0.0%     
 flops    44 x   105 x    22             33541200       0.0%    100.0%      0.0%     
 flops   105 x    44 x    22             33541200       0.0%    100.0%      0.0%     
 flops    44 x    53 x    22             33552816       0.0%    100.0%      0.0%     
 flops    75 x   109 x    14             33648300       0.0%    100.0%      0.0%     
 flops    22 x    46 x    14             33691504       0.0%    100.0%      0.0%     
 flops    53 x    44 x    22             33860640       0.0%    100.0%      0.0%     
 flops    46 x   102 x    22             34270368       0.0%    100.0%      0.0%     
 flops    22 x    47 x    14             34423928       0.0%    100.0%      0.0%     
 flops    14 x    46 x    22             34626592       0.0%    100.0%      0.0%     
 flops    14 x    22 x    44             34693120       0.0%    100.0%      0.0%     
 flops    75 x   113 x    14             34883100       0.0%    100.0%      0.0%     
 flops    22 x    14 x    44             34909952       0.0%    100.0%      0.0%     
 flops    22 x    49 x    44             34909952       0.0%    100.0%      0.0%     
 flops    22 x    44 x    49             34909952       0.0%    100.0%      0.0%     
 flops    49 x    49 x    22             34968164       0.0%    100.0%      0.0%     
 flops    47 x   102 x    22             35015376       0.0%    100.0%      0.0%     
 flops    46 x   105 x    22             35065800       0.0%    100.0%      0.0%     
 flops   105 x    46 x    22             35065800       0.0%    100.0%      0.0%     
 flops    46 x    53 x    22             35077944       0.0%    100.0%      0.0%     
 flops    75 x   114 x    14             35191800       0.0%    100.0%      0.0%     
 flops    44 x   109 x    22             35241008       0.0%    100.0%      0.0%     
 flops    53 x    46 x    22             35399760       0.0%    100.0%      0.0%     
 flops    14 x    47 x    22             35437248       0.0%    100.0%      0.0%     
 flops    47 x   105 x    22             35828100       0.0%    100.0%      0.0%     
 flops    14 x    75 x    53             35838600       0.0%    100.0%      0.0%     
 flops    47 x    53 x    22             35840508       0.0%    100.0%      0.0%     
 flops    89 x    49 x    14             35899752       0.0%    100.0%      0.0%     
 flops   105 x    47 x    22             36045240       0.0%    100.0%      0.0%     
 flops    44 x   113 x    22             36315488       0.0%    100.0%      0.0%     
 flops    22 x   102 x    44             36334848       0.0%    100.0%      0.0%     
 flops    53 x    47 x    22             36388528       0.0%    100.0%      0.0%     
 flops    22 x    46 x    49             36496768       0.0%    100.0%      0.0%     
 flops    49 x   102 x    22             36505392       0.0%    100.0%      0.0%     
 flops    44 x   114 x    22             36636864       0.0%    100.0%      0.0%     
 flops    46 x   109 x    22             36842872       0.0%    100.0%      0.0%     
 flops    22 x    47 x    49             37290176       0.0%    100.0%      0.0%     
 flops    49 x   105 x    22             37352700       0.0%    100.0%      0.0%     
 flops    89 x   102 x    14             37365048       0.0%    100.0%      0.0%     
 flops    49 x    53 x    22             37365636       0.0%    100.0%      0.0%     
 flops    22 x   105 x    44             37403520       0.0%    100.0%      0.0%     
 flops    14 x    89 x    14             37574376       0.0%    100.0%      0.0%     
 flops    47 x   109 x    22             37643804       0.0%    100.0%      0.0%     
 flops    22 x    53 x    44             37759744       0.0%    100.0%      0.0%     
 flops    22 x    44 x    53             37759744       0.0%    100.0%      0.0%     
 flops    46 x   113 x    22             37966192       0.0%    100.0%      0.0%     
 flops     9 x     9 x    14             38120544       0.0%    100.0%      0.0%     
 flops    22 x    52 x    14             38150112       0.0%    100.0%      0.0%     
 flops    46 x   114 x    22             38302176       0.0%    100.0%      0.0%     
 flops    89 x   105 x    14             38464020       0.0%    100.0%      0.0%     
 flops   105 x    89 x    14             38464020       0.0%    100.0%      0.0%     
 flops    47 x   113 x    22             38791544       0.0%    100.0%      0.0%     
 flops    22 x   109 x    44             38828416       0.0%    100.0%      0.0%     
 flops    89 x    53 x    14             38830344       0.0%    100.0%      0.0%     
 flops    53 x    89 x    14             38830344       0.0%    100.0%      0.0%     
 flops    14 x    52 x    22             38886848       0.0%    100.0%      0.0%     
 flops    47 x   114 x    22             39134832       0.0%    100.0%      0.0%     
 flops    49 x   109 x    22             39245668       0.0%    100.0%      0.0%     
 flops    14 x    89 x    49             39318776       0.0%    100.0%      0.0%     
 flops   105 x    52 x    22             39399360       0.0%    100.0%      0.0%     
 flops    22 x    46 x    53             39476096       0.0%    100.0%      0.0%     
 flops    53 x    52 x    22             39774592       0.0%    100.0%      0.0%     
 flops    89 x   109 x    14             39929316       0.0%    100.0%      0.0%     
 flops    22 x   113 x    44             40253312       0.0%    100.0%      0.0%     
 flops    22 x    47 x    53             40334272       0.0%    100.0%      0.0%     
 flops    49 x   113 x    22             40442248       0.0%    100.0%      0.0%     
 flops    22 x   114 x    44             40609536       0.0%    100.0%      0.0%     
 flops    49 x   114 x    22             40800144       0.0%    100.0%      0.0%     
 flops    14 x    49 x    14             41181952       0.0%    100.0%      0.0%     
 flops    22 x    52 x    49             41257216       0.0%    100.0%      0.0%     
 flops    75 x    75 x    22             41332500       0.0%    100.0%      0.0%     
 flops    89 x   113 x    14             41394612       0.0%    100.0%      0.0%     
 flops    89 x   114 x    14             41760936       0.0%    100.0%      0.0%     
 flops   105 x    49 x    14             42353640       0.0%    100.0%      0.0%     
 flops    14 x    89 x    53             42528472       0.0%    100.0%      0.0%     
 flops    53 x    49 x    14             42757008       0.0%    100.0%      0.0%     
 flops    14 x    14 x    49             43025920       0.0%    100.0%      0.0%     
 flops    14 x   102 x    14             43062768       0.0%    100.0%      0.0%     
 flops    14 x    49 x    49             43294832       0.0%    100.0%      0.0%     
 flops   105 x   102 x    14             44082360       0.0%    100.0%      0.0%     
 flops    14 x   105 x    14             44370480       0.0%    100.0%      0.0%     
 flops    14 x    53 x    14             44419088       0.0%    100.0%      0.0%     
 flops    53 x   102 x    14             44502192       0.0%    100.0%      0.0%     
 flops    22 x    52 x    53             44625152       0.0%    100.0%      0.0%     
 flops    14 x   102 x    49             45061968       0.0%    100.0%      0.0%     
 flops   105 x   105 x    14             45378900       0.0%    100.0%      0.0%     
 flops   105 x    53 x    14             45811080       0.0%    100.0%      0.0%     
 flops    53 x   105 x    14             45811080       0.0%    100.0%      0.0%     
 flops    14 x   109 x    14             45975328       0.0%    100.0%      0.0%     
 flops    14 x    14 x    53             46247376       0.0%    100.0%      0.0%     
 flops    53 x    53 x    14             46247376       0.0%    100.0%      0.0%     
 flops    14 x   105 x    49             46387320       0.0%    100.0%      0.0%     
 flops    14 x    49 x    53             46829104       0.0%    100.0%      0.0%     
 flops    14 x    53 x    49             46829104       0.0%    100.0%      0.0%     
 flops   105 x   109 x    14             47107620       0.0%    100.0%      0.0%     
 flops    53 x   109 x    14             47556264       0.0%    100.0%      0.0%     
 flops    14 x   113 x    14             47618200       0.0%    100.0%      0.0%     
 flops    14 x   114 x    14             47994912       0.0%    100.0%      0.0%     
 flops    14 x   109 x    49             48154456       0.0%    100.0%      0.0%     
 flops    14 x   102 x    53             48740496       0.0%    100.0%      0.0%     
 flops    75 x    89 x    22             48754200       0.0%    100.0%      0.0%     
 flops   105 x   113 x    14             48836340       0.0%    100.0%      0.0%     
 flops    89 x    75 x    22             49047900       0.0%    100.0%      0.0%     
 flops   105 x   114 x    14             49268520       0.0%    100.0%      0.0%     
 flops    53 x   113 x    14             49301448       0.0%    100.0%      0.0%     
 flops    53 x   114 x    14             49737744       0.0%    100.0%      0.0%     
 flops    14 x   113 x    49             49921592       0.0%    100.0%      0.0%     
 flops    14 x   105 x    53             50174040       0.0%    100.0%      0.0%     
 flops    14 x   114 x    49             50363376       0.0%    100.0%      0.0%     
 flops    14 x    53 x    53             50651888       0.0%    100.0%      0.0%     
 flops    14 x   109 x    53             52085432       0.0%    100.0%      0.0%     
 flops    14 x     9 x    14             53435088       0.0%    100.0%      0.0%     
 flops    75 x    49 x    22             53522700       0.0%    100.0%      0.0%     
 flops    14 x   113 x    53             53996824       0.0%    100.0%      0.0%     
 flops    14 x   114 x    53             54474672       0.0%    100.0%      0.0%     
 flops    22 x    75 x    14             55255200       0.0%    100.0%      0.0%     
 flops    75 x   102 x    22             55875600       0.0%    100.0%      0.0%     
 flops    14 x    75 x    22             56779800       0.0%    100.0%      0.0%     
 flops    75 x   105 x    22             57172500       0.0%    100.0%      0.0%     
 flops    75 x    53 x    22             57192300       0.0%    100.0%      0.0%     
 flops    89 x    89 x    22             57854984       0.0%    100.0%      0.0%     
 flops   105 x    75 x    22             57865500       0.0%    100.0%      0.0%     
 flops    22 x    44 x    22             58010304       0.0%    100.0%      0.0%     
 flops    53 x    75 x    22             58416600       0.0%    100.0%      0.0%     
 flops    22 x    75 x    49             59505600       0.0%    100.0%      0.0%     
 flops    75 x   109 x    22             60069900       0.0%    100.0%      0.0%     
 flops    22 x    46 x    22             60558080       0.0%    100.0%      0.0%     
 flops    75 x   113 x    22             61901400       0.0%    100.0%      0.0%     
 flops    22 x    47 x    22             62011048       0.0%    100.0%      0.0%     
 flops    75 x   114 x    22             62449200       0.0%    100.0%      0.0%     
 flops    22 x    22 x    44             62695424       0.0%    100.0%      0.0%     
 flops    89 x    49 x    22             63513604       0.0%    100.0%      0.0%     
 flops    22 x    75 x    53             64363200       0.0%    100.0%      0.0%     
 flops    22 x    89 x    14             65679152       0.0%    100.0%      0.0%     
 flops    89 x   102 x    22             66305712       0.0%    100.0%      0.0%     
 flops    14 x    89 x    22             67323872       0.0%    100.0%      0.0%     
 flops    89 x   105 x    22             67844700       0.0%    100.0%      0.0%     
 flops    89 x    53 x    22             67868196       0.0%    100.0%      0.0%     
 flops     9 x     9 x    22             67972608       0.0%    100.0%      0.0%     
 flops   105 x    89 x    22             68255880       0.0%    100.0%      0.0%     
 flops    22 x    52 x    22             68708640       0.0%    100.0%      0.0%     
 flops    53 x    89 x    22             68905936       0.0%    100.0%      0.0%     
 flops    22 x    89 x    49             70613312       0.0%    100.0%      0.0%     
 flops    89 x   109 x    22             71282948       0.0%    100.0%      0.0%     
 flops    22 x    49 x    14             71807736       0.0%    100.0%      0.0%     
 flops    89 x   113 x    22             73456328       0.0%    100.0%      0.0%     
 flops    14 x    49 x    22             73799880       0.0%    100.0%      0.0%     
 flops    89 x   114 x    22             74106384       0.0%    100.0%      0.0%     
 flops   105 x    49 x    22             74931780       0.0%    100.0%      0.0%     
 flops    22 x   102 x    14             75272736       0.0%    100.0%      0.0%     
 flops    53 x    49 x    22             75645416       0.0%    100.0%      0.0%     
 flops    22 x    89 x    53             76377664       0.0%    100.0%      0.0%     
 flops    14 x   102 x    22             77157696       0.0%    100.0%      0.0%     
 flops    14 x    22 x    49             77271040       0.0%    100.0%      0.0%     
 flops    22 x   105 x    14             77292600       0.0%    100.0%      0.0%     
 flops    22 x    53 x    14             77702240       0.0%    100.0%      0.0%     
 flops    22 x    14 x    49             77753984       0.0%    100.0%      0.0%     
 flops    22 x    49 x    49             77753984       0.0%    100.0%      0.0%     
 flops   105 x   102 x    22             78225840       0.0%    100.0%      0.0%     
 flops    53 x   102 x    22             78970848       0.0%    100.0%      0.0%     
 flops    14 x   105 x    22             79362360       0.0%    100.0%      0.0%     
 flops    14 x    53 x    22             79563176       0.0%    100.0%      0.0%     
 flops   105 x   105 x    22             80041500       0.0%    100.0%      0.0%     
 flops   105 x    53 x    22             80069220       0.0%    100.0%      0.0%     
 flops    22 x   109 x    14             80371368       0.0%    100.0%      0.0%     
 flops    53 x   105 x    22             80803800       0.0%    100.0%      0.0%     
 flops    53 x    53 x    22             80831784       0.0%    100.0%      0.0%     
 flops    22 x   102 x    49             80927616       0.0%    100.0%      0.0%     
 flops    14 x   109 x    22             82318544       0.0%    100.0%      0.0%     
 flops    14 x    22 x    53             83056512       0.0%    100.0%      0.0%     
 flops    22 x   113 x    14             83251168       0.0%    100.0%      0.0%     
 flops    22 x   105 x    49             83307840       0.0%    100.0%      0.0%     
 flops    22 x   114 x    14             83917680       0.0%    100.0%      0.0%     
 flops   105 x   109 x    22             84097860       0.0%    100.0%      0.0%     
 flops    22 x    14 x    53             84101248       0.0%    100.0%      0.0%     
 flops    22 x    49 x    53             84101248       0.0%    100.0%      0.0%     
 flops    22 x    53 x    49             84101248       0.0%    100.0%      0.0%     
 flops    53 x   109 x    22             84898792       0.0%    100.0%      0.0%     
 flops    14 x   113 x    22             85617840       0.0%    100.0%      0.0%     
 flops    14 x   114 x    22             86164848       0.0%    100.0%      0.0%     
 flops    22 x   109 x    49             86481472       0.0%    100.0%      0.0%     
 flops   105 x   113 x    22             86661960       0.0%    100.0%      0.0%     
 flops   105 x   114 x    22             87428880       0.0%    100.0%      0.0%     
 flops    53 x   113 x    22             87487312       0.0%    100.0%      0.0%     
 flops    22 x   102 x    53             87533952       0.0%    100.0%      0.0%     
 flops    53 x   114 x    22             88261536       0.0%    100.0%      0.0%     
 flops    22 x   113 x    49             89655104       0.0%    100.0%      0.0%     
 flops    22 x   105 x    53             90108480       0.0%    100.0%      0.0%     
 flops    22 x   114 x    49             90448512       0.0%    100.0%      0.0%     
 flops    22 x    53 x    53             90966656       0.0%    100.0%      0.0%     
 flops    22 x   109 x    53             93541184       0.0%    100.0%      0.0%     
 flops    14 x     9 x    22             93970800       0.0%    100.0%      0.0%     
 flops    14 x     9 x     9             94852296       0.0%    100.0%      0.0%     
 flops    22 x     9 x    14             95096232       0.0%    100.0%      0.0%     
 flops    22 x   113 x    53             96973888       0.0%    100.0%      0.0%     
 flops    22 x   114 x    53             97832064       0.0%    100.0%      0.0%     
 flops    22 x    75 x    22             99607200       0.0%    100.0%      0.0%     
 flops    29 x     9 x    14            107478756       0.0%    100.0%      0.0%     
 flops     9 x    29 x    14            111490848       0.0%    100.0%      0.0%     
 flops    44 x    44 x    32            111885312       0.0%    100.0%      0.0%     
 flops    46 x    44 x    32            116971008       0.0%    100.0%      0.0%     
 flops    44 x    46 x    32            117100544       0.0%    100.0%      0.0%     
 flops    22 x    89 x    22            118286696       0.0%    100.0%      0.0%     
 flops    47 x    44 x    32            119513856       0.0%    100.0%      0.0%     
 flops    44 x    47 x    32            119513856       0.0%    100.0%      0.0%     
 flops    46 x    46 x    32            122423296       0.0%    100.0%      0.0%     
 flops    32 x    44 x    44            122541056       0.0%    100.0%      0.0%     
 flops    49 x    44 x    32            124599552       0.0%    100.0%      0.0%     
 flops    46 x    47 x    32            124946304       0.0%    100.0%      0.0%     
 flops    47 x    46 x    32            125084672       0.0%    100.0%      0.0%     
 flops    47 x    47 x    32            127662528       0.0%    100.0%      0.0%     
 flops    32 x    46 x    44            128111104       0.0%    100.0%      0.0%     
 flops    22 x    49 x    22            129441928       0.0%    100.0%      0.0%     
 flops    14 x    14 x     9            130190256       0.0%    100.0%      0.0%     
 flops    49 x    46 x    32            130407424       0.0%    100.0%      0.0%     
 flops    32 x    47 x    44            130896128       0.0%    100.0%      0.0%     
 flops    44 x    52 x    32            132228096       0.0%    100.0%      0.0%     
 flops    49 x    47 x    32            133094976       0.0%    100.0%      0.0%     
 flops    22 x   102 x    22            135564528       0.0%    100.0%      0.0%     
 flops    46 x    52 x    32            138238464       0.0%    100.0%      0.0%     
 flops    22 x   105 x    22            139450080       0.0%    100.0%      0.0%     
 flops    22 x    22 x    49            139639808       0.0%    100.0%      0.0%     
 flops    22 x    53 x    22            140059920       0.0%    100.0%      0.0%     
 flops    47 x    52 x    32            141243648       0.0%    100.0%      0.0%     
 flops    32 x    52 x    44            144821248       0.0%    100.0%      0.0%     
 flops    22 x   109 x    22            144973488       0.0%    100.0%      0.0%     
 flops    49 x    52 x    32            147254016       0.0%    100.0%      0.0%     
 flops    22 x   113 x    22            149965464       0.0%    100.0%      0.0%     
 flops    22 x    22 x    53            151038976       0.0%    100.0%      0.0%     
 flops    22 x   114 x    22            151292592       0.0%    100.0%      0.0%     
 flops    14 x    29 x    14            152058368       0.0%    100.0%      0.0%     
 flops    22 x     9 x    22            168289704       0.0%    100.0%      0.0%     
 flops    22 x     9 x     9            170052696       0.0%    100.0%      0.0%     
 flops    75 x    44 x    32            190713600       0.0%    100.0%      0.0%     
 flops    29 x     9 x    22            191966544       0.0%    100.0%      0.0%     
 flops    44 x    75 x    32            192403200       0.0%    100.0%      0.0%     
 flops     9 x    29 x    22            195905556       0.0%    100.0%      0.0%     
 flops    75 x    46 x    32            199603200       0.0%    100.0%      0.0%     
 flops    46 x    75 x    32            201148800       0.0%    100.0%      0.0%     
 flops    75 x    47 x    32            203716800       0.0%    100.0%      0.0%     
 flops    47 x    75 x    32            205521600       0.0%    100.0%      0.0%     
 flops    32 x    75 x    44            208876800       0.0%    100.0%      0.0%     
 flops    49 x    75 x    32            214267200       0.0%    100.0%      0.0%     
 flops    75 x    52 x    32            225388800       0.0%    100.0%      0.0%     
 flops    89 x    44 x    32            226313472       0.0%    100.0%      0.0%     
 flops    44 x    89 x    32            228318464       0.0%    100.0%      0.0%     
 flops    22 x    14 x     9            231539616       0.0%    100.0%      0.0%     
 flops    14 x    22 x     9            232609608       0.0%    100.0%      0.0%     
 flops    89 x    46 x    32            236862464       0.0%    100.0%      0.0%     
 flops    46 x    89 x    32            238696576       0.0%    100.0%      0.0%     
 flops    89 x    47 x    32            241743936       0.0%    100.0%      0.0%     
 flops    47 x    89 x    32            243885632       0.0%    100.0%      0.0%     
 flops    32 x    89 x    44            247867136       0.0%    100.0%      0.0%     
 flops    44 x    49 x    32            249337088       0.0%    100.0%      0.0%     
 flops    49 x    89 x    32            254263744       0.0%    100.0%      0.0%     
 flops    44 x   102 x    32            260519424       0.0%    100.0%      0.0%     
 flops    46 x    49 x    32            260670592       0.0%    100.0%      0.0%     
 flops    32 x    44 x    14            260829184       0.0%    100.0%      0.0%     
 flops    14 x    44 x    32            261538816       0.0%    100.0%      0.0%     
 flops    47 x    49 x    32            266337344       0.0%    100.0%      0.0%     
 flops   105 x    44 x    32            266999040       0.0%    100.0%      0.0%     
 flops    89 x    52 x    32            267461376       0.0%    100.0%      0.0%     
 flops    44 x   105 x    32            267590400       0.0%    100.0%      0.0%     
 flops    14 x    29 x    22            268692424       0.0%    100.0%      0.0%     
 flops    44 x    53 x    32            269541888       0.0%    100.0%      0.0%     
 flops    53 x    44 x    32            269541888       0.0%    100.0%      0.0%     
 flops    32 x    14 x    44            269620736       0.0%    100.0%      0.0%     
 flops    14 x    32 x    44            271237120       0.0%    100.0%      0.0%     
 flops    22 x    29 x    14            271604256       0.0%    100.0%      0.0%     
 flops    46 x   102 x    32            272361216       0.0%    100.0%      0.0%     
 flops    32 x    46 x    14            272561408       0.0%    100.0%      0.0%     
 flops    32 x    49 x    44            272932352       0.0%    100.0%      0.0%     
 flops    32 x    44 x    49            272932352       0.0%    100.0%      0.0%     
 flops    14 x    46 x    32            273509376       0.0%    100.0%      0.0%     
 flops    14 x    29 x     9            276096240       0.0%    100.0%      0.0%     
 flops    14 x     9 x    29            276447024       0.0%    100.0%      0.0%     
 flops    49 x    49 x    32            277670848       0.0%    100.0%      0.0%     
 flops    47 x   102 x    32            278282112       0.0%    100.0%      0.0%     
 flops    32 x    47 x    14            278402432       0.0%    100.0%      0.0%     
 flops    14 x    47 x    32            279244672       0.0%    100.0%      0.0%     
 flops   105 x    46 x    32            279444480       0.0%    100.0%      0.0%     
 flops    44 x   109 x    32            279625984       0.0%    100.0%      0.0%     
 flops    46 x   105 x    32            279753600       0.0%    100.0%      0.0%     
 flops    46 x    53 x    32            281793792       0.0%    100.0%      0.0%     
 flops    53 x    46 x    32            282105856       0.0%    100.0%      0.0%     
 flops    32 x   102 x    44            284072448       0.0%    100.0%      0.0%     
 flops   105 x    47 x    32            285203520       0.0%    100.0%      0.0%     
 flops    32 x    46 x    49            285338368       0.0%    100.0%      0.0%     
 flops    47 x   105 x    32            285835200       0.0%    100.0%      0.0%     
 flops    47 x    53 x    32            287919744       0.0%    100.0%      0.0%     
 flops    53 x    47 x    32            287919744       0.0%    100.0%      0.0%     
 flops    44 x   113 x    32            288614656       0.0%    100.0%      0.0%     
 flops    49 x   102 x    32            290123904       0.0%    100.0%      0.0%     
 flops    32 x    47 x    49            291541376       0.0%    100.0%      0.0%     
 flops    44 x   114 x    32            291810816       0.0%    100.0%      0.0%     
 flops    46 x   109 x    32            292336256       0.0%    100.0%      0.0%     
 flops    32 x   105 x    44            292427520       0.0%    100.0%      0.0%     
 flops    32 x    53 x    44            295212544       0.0%    100.0%      0.0%     
 flops    32 x    44 x    53            295212544       0.0%    100.0%      0.0%     
 flops    49 x   105 x    32            297998400       0.0%    100.0%      0.0%     
 flops    47 x   109 x    32            298691392       0.0%    100.0%      0.0%     
 flops    49 x    53 x    32            300171648       0.0%    100.0%      0.0%     
 flops    46 x   113 x    32            301733504       0.0%    100.0%      0.0%     
 flops    32 x   109 x    44            303567616       0.0%    100.0%      0.0%     
 flops    46 x   114 x    32            305074944       0.0%    100.0%      0.0%     
 flops    32 x    52 x    14            308252672       0.0%    100.0%      0.0%     
 flops    47 x   113 x    32            308292928       0.0%    100.0%      0.0%     
 flops    32 x    46 x    53            308631296       0.0%    100.0%      0.0%     
 flops    14 x    52 x    32            308998144       0.0%    100.0%      0.0%     
 flops    49 x   109 x    32            311401664       0.0%    100.0%      0.0%     
 flops    47 x   114 x    32            311707008       0.0%    100.0%      0.0%     
 flops    29 x    29 x    14            314342252       0.0%    100.0%      0.0%     
 flops    32 x   113 x    44            314707712       0.0%    100.0%      0.0%     
 flops    32 x    47 x    53            315340672       0.0%    100.0%      0.0%     
 flops   105 x    52 x    32            315544320       0.0%    100.0%      0.0%     
 flops    32 x   114 x    44            317492736       0.0%    100.0%      0.0%     
 flops    53 x    52 x    32            318549504       0.0%    100.0%      0.0%     
 flops    49 x   113 x    32            321411776       0.0%    100.0%      0.0%     
 flops    32 x    52 x    49            322556416       0.0%    100.0%      0.0%     
 flops    49 x   114 x    32            324971136       0.0%    100.0%      0.0%     
 flops    75 x    75 x    32            327960000       0.0%    100.0%      0.0%     
 flops    32 x    52 x    53            348887552       0.0%    100.0%      0.0%     
 flops    14 x    14 x    29            377588120       0.0%    100.0%      0.0%     
 flops    75 x    89 x    32            389179200       0.0%    100.0%      0.0%     
 flops    89 x    75 x    32            389179200       0.0%    100.0%      0.0%     
 flops    22 x    22 x     9            415196496       0.0%    100.0%      0.0%     
 flops    75 x    49 x    32            425006400       0.0%    100.0%      0.0%     
 flops    75 x   102 x    32            444067200       0.0%    100.0%      0.0%     
 flops    32 x    75 x    14            444998400       0.0%    100.0%      0.0%     
 flops    14 x    75 x    32            447350400       0.0%    100.0%      0.0%     
 flops    75 x   105 x    32            456120000       0.0%    100.0%      0.0%     
 flops   105 x    75 x    32            459144000       0.0%    100.0%      0.0%     
 flops    22 x    44 x    32            459436032       0.0%    100.0%      0.0%     
 flops    75 x    53 x    32            459446400       0.0%    100.0%      0.0%     
 flops    89 x    89 x    32            461825984       0.0%    100.0%      0.0%     
 flops    53 x    75 x    32            463516800       0.0%    100.0%      0.0%     
 flops    32 x    75 x    49            465225600       0.0%    100.0%      0.0%     
 flops    32 x    44 x    22            468109312       0.0%    100.0%      0.0%     
 flops    75 x   109 x    32            476635200       0.0%    100.0%      0.0%     
 flops    22 x    29 x    22            479441688       0.0%    100.0%      0.0%     
 flops    22 x    46 x    32            480189952       0.0%    100.0%      0.0%     
 flops    32 x    22 x    44            484216832       0.0%    100.0%      0.0%     
 flops    32 x    46 x    22            489516544       0.0%    100.0%      0.0%     
 flops    22 x    32 x    44            490164224       0.0%    100.0%      0.0%     
 flops    22 x    29 x     9            490343832       0.0%    100.0%      0.0%     
 flops    22 x    47 x    32            491025920       0.0%    100.0%      0.0%     
 flops    75 x   113 x    32            491956800       0.0%    100.0%      0.0%     
 flops    22 x     9 x    29            496177704       0.0%    100.0%      0.0%     
 flops    75 x   114 x    32            497404800       0.0%    100.0%      0.0%     
 flops    32 x    47 x    22            500025856       0.0%    100.0%      0.0%     
 flops    32 x    75 x    53            503203200       0.0%    100.0%      0.0%     
 flops    89 x    49 x    32            504340928       0.0%    100.0%      0.0%     
 flops    89 x   102 x    32            526959744       0.0%    100.0%      0.0%     
 flops    32 x    89 x    14            528064768       0.0%    100.0%      0.0%     
 flops    14 x    89 x    32            531254528       0.0%    100.0%      0.0%     
 flops    89 x   105 x    32            541262400       0.0%    100.0%      0.0%     
 flops     9 x     9 x    32            542904768       0.0%    100.0%      0.0%     
 flops    22 x    52 x    32            543116288       0.0%    100.0%      0.0%     
 flops   105 x    89 x    32            544850880       0.0%    100.0%      0.0%     
 flops    89 x    53 x    32            545209728       0.0%    100.0%      0.0%     
 flops    53 x    89 x    32            550039936       0.0%    100.0%      0.0%     
 flops    32 x    52 x    22            551609344       0.0%    100.0%      0.0%     
 flops    32 x    89 x    49            552067712       0.0%    100.0%      0.0%     
 flops    29 x    29 x    22            554578948       0.0%    100.0%      0.0%     
 flops    89 x   109 x    32            565607104       0.0%    100.0%      0.0%     
 flops    32 x    49 x    14            580893824       0.0%    100.0%      0.0%     
 flops    14 x    49 x    32            582342656       0.0%    100.0%      0.0%     
 flops    89 x   113 x    32            583788736       0.0%    100.0%      0.0%     
 flops    89 x   114 x    32            590253696       0.0%    100.0%      0.0%     
 flops   105 x    49 x    32            595008960       0.0%    100.0%      0.0%     
 flops    32 x    89 x    53            597134464       0.0%    100.0%      0.0%     
 flops    53 x    49 x    32            600675712       0.0%    100.0%      0.0%     
 flops    32 x    14 x    49            601748224       0.0%    100.0%      0.0%     
 flops    14 x    32 x    49            604119040       0.0%    100.0%      0.0%     
 flops    32 x   102 x    14            605106432       0.0%    100.0%      0.0%     
 flops    32 x    49 x    49            607894784       0.0%    100.0%      0.0%     
 flops    14 x   102 x    32            608487936       0.0%    100.0%      0.0%     
 flops   105 x   102 x    32            621694080       0.0%    100.0%      0.0%     
 flops    32 x   105 x    14            622809600       0.0%    100.0%      0.0%     
 flops    14 x   105 x    32            626102400       0.0%    100.0%      0.0%     
 flops    53 x   102 x    32            627614976       0.0%    100.0%      0.0%     
 flops    32 x    53 x    14            628171264       0.0%    100.0%      0.0%     
 flops    14 x    53 x    32            629548416       0.0%    100.0%      0.0%     
 flops    32 x   102 x    49            632706816       0.0%    100.0%      0.0%     
 flops   105 x   105 x    32            638568000       0.0%    100.0%      0.0%     
 flops   105 x    53 x    32            643224960       0.0%    100.0%      0.0%     
 flops    53 x   105 x    32            644649600       0.0%    100.0%      0.0%     
 flops    32 x    14 x    53            645551872       0.0%    100.0%      0.0%     
 flops    32 x   109 x    14            646633344       0.0%    100.0%      0.0%     
 flops    14 x    32 x    53            649350912       0.0%    100.0%      0.0%     
 flops    53 x    53 x    32            649350912       0.0%    100.0%      0.0%     
 flops    14 x   109 x    32            650344576       0.0%    100.0%      0.0%     
 flops    32 x   105 x    49            651315840       0.0%    100.0%      0.0%     
 flops    32 x    49 x    53            657518848       0.0%    100.0%      0.0%     
 flops    32 x    53 x    49            657518848       0.0%    100.0%      0.0%     
 flops    22 x    14 x    29            664683712       0.0%    100.0%      0.0%     
 flops   105 x   109 x    32            667289280       0.0%    100.0%      0.0%     
 flops    32 x   113 x    14            670261760       0.0%    100.0%      0.0%     
 flops    53 x   109 x    32            673644416       0.0%    100.0%      0.0%     
 flops    14 x   113 x    32            673906688       0.0%    100.0%      0.0%     
 flops    14 x    22 x    29            673972992       0.0%    100.0%      0.0%     
 flops    32 x   114 x    14            675886848       0.0%    100.0%      0.0%     
 flops    32 x   109 x    49            676127872       0.0%    100.0%      0.0%     
 flops    14 x   114 x    32            679768320       0.0%    100.0%      0.0%     
 flops    32 x   102 x    53            684356352       0.0%    100.0%      0.0%     
 flops   105 x   113 x    32            688739520       0.0%    100.0%      0.0%     
 flops    53 x   113 x    32            695298944       0.0%    100.0%      0.0%     
 flops   105 x   114 x    32            696366720       0.0%    100.0%      0.0%     
 flops    32 x   113 x    49            700939904       0.0%    100.0%      0.0%     
 flops    53 x   114 x    32            702998784       0.0%    100.0%      0.0%     
 flops    32 x   105 x    53            704484480       0.0%    100.0%      0.0%     
 flops    32 x   114 x    49            707142912       0.0%    100.0%      0.0%     
 flops    32 x    53 x    53            711193856       0.0%    100.0%      0.0%     
 flops    32 x   109 x    53            731321984       0.0%    100.0%      0.0%     
 flops    32 x     9 x    14            753782400       0.0%    100.0%      0.0%     
 flops    14 x     9 x    32            754588800       0.0%    100.0%      0.0%     
 flops    32 x   113 x    53            758159488       0.0%    100.0%      0.0%     
 flops    32 x   114 x    53            764868864       0.0%    100.0%      0.0%     
 flops    14 x    29 x    29            783465508       0.0%    100.0%      0.0%     
 flops    22 x    75 x    32            786614400       0.0%    100.0%      0.0%     
 flops    32 x    75 x    22            798547200       0.0%    100.0%      0.0%     
 flops    22 x    89 x    32            934200960       0.0%    100.0%      0.0%     
 flops    32 x    89 x    22            947358720       0.0%    100.0%      0.0%     
 flops    22 x    49 x    32           1024531200       0.0%    100.0%      0.0%     
 flops    32 x    49 x    22           1041227264       0.0%    100.0%      0.0%     
 flops    22 x   102 x    32           1070657280       0.0%    100.0%      0.0%     
 flops    32 x    22 x    49           1080690688       0.0%    100.0%      0.0%     
 flops    32 x   102 x    22           1085736960       0.0%    100.0%      0.0%     
 flops    22 x    32 x    49           1091729408       0.0%    100.0%      0.0%     
 flops    22 x   105 x    32           1100520960       0.0%    100.0%      0.0%     
 flops    22 x    53 x    32           1107494784       0.0%    100.0%      0.0%     
 flops    32 x   105 x    22           1117226880       0.0%    100.0%      0.0%     
 flops    32 x    53 x    22           1125628416       0.0%    100.0%      0.0%     
 flops    22 x   109 x    32           1143519872       0.0%    100.0%      0.0%     
 flops    32 x    22 x    53           1159358464       0.0%    100.0%      0.0%     
 flops    32 x   109 x    22           1160401792       0.0%    100.0%      0.0%     
 flops    22 x    32 x    53           1180850176       0.0%    100.0%      0.0%     
 flops    22 x   113 x    32           1185324800       0.0%    100.0%      0.0%     
 flops    22 x    22 x    29           1189129920       0.0%    100.0%      0.0%     
 flops    22 x   114 x    32           1196135424       0.0%    100.0%      0.0%     
 flops    32 x   113 x    22           1203939968       0.0%    100.0%      0.0%     
 flops    32 x   114 x    22           1214433792       0.0%    100.0%      0.0%     
 flops    32 x     9 x    22           1325237760       0.0%    100.0%      0.0%     
 flops    32 x     9 x     9           1331873280       0.0%    100.0%      0.0%     
 flops    22 x     9 x    32           1350150912       0.0%    100.0%      0.0%     
 flops    22 x    29 x    29           1407040096       0.0%    100.0%      0.0%     
 flops    29 x     9 x    32           1530704448       0.0%    100.0%      0.0%     
 flops     9 x    29 x    32           1565632512       0.0%    100.0%      0.0%     
 flops    14 x    32 x     9           1829447424       0.0%    100.0%      0.0%     
 flops    32 x    14 x     9           1853671680       0.0%    100.0%      0.0%     
 flops    32 x    29 x    14           2134897408       0.0%    100.0%      0.0%     
 flops    14 x    29 x    32           2135079296       0.0%    100.0%      0.0%     
 flops    22 x    32 x     9           3251888640       0.0%    100.0%      0.0%     
 flops    32 x    22 x     9           3289853952       0.0%    100.0%      0.0%     
 flops    32 x    44 x    32           3687292928       0.0%    100.0%      0.0%     
 flops    32 x    32 x    44           3785695232       0.0%    100.0%      0.0%     
 flops    32 x    29 x    22           3798029312       0.0%    100.0%      0.0%     
 flops    22 x    29 x    32           3828040832       0.0%    100.0%      0.0%     
 flops    32 x    46 x    32           3853295616       0.0%    100.0%      0.0%     
 flops    32 x    29 x     9           3878034048       0.0%    100.0%      0.0%     
 flops    32 x     9 x    29           3881541888       0.0%    100.0%      0.0%     
 flops    32 x    47 x    32           3936870400       0.0%    100.0%      0.0%     
 flops    32 x    52 x    32           4359307264       0.0%    100.0%      0.0%     
 flops    29 x    29 x    32           4414590656       0.0%    100.0%      0.0%     
 flops    14 x    32 x    29           5309622528       0.0%    100.0%      0.0%     
 flops    32 x    14 x    29           5310038272       0.0%    100.0%      0.0%     
 flops    32 x    75 x    32           6292838400       0.0%    100.0%      0.0%     
 flops    32 x    89 x    32           7469324288       0.0%    100.0%      0.0%     
 flops    32 x    49 x    32           8212606976       0.0%    100.0%      0.0%     
 flops    32 x    32 x    49           8449036288       0.0%    100.0%      0.0%     
 flops    32 x   102 x    32           8560349184       0.0%    100.0%      0.0%     
 flops    32 x   105 x    32           8812339200       0.0%    100.0%      0.0%     
 flops    32 x    53 x    32           8881938432       0.0%    100.0%      0.0%     
 flops    32 x    32 x    53           9064075264       0.0%    100.0%      0.0%     
 flops    32 x   109 x    32           9147824128       0.0%    100.0%      0.0%     
 flops    22 x    32 x    29           9340442496       0.0%    100.0%      0.0%     
 flops    32 x    22 x    29           9476045568       0.0%    100.0%      0.0%     
 flops    32 x   113 x    32           9479589888       0.0%    100.0%      0.0%     
 flops    32 x   114 x    32           9563947008       0.0%    100.0%      0.0%     
 flops    32 x     9 x    32          10610933760       0.0%    100.0%      0.0%     
 flops    32 x    29 x    29          11000495296       0.0%    100.0%      0.0%     
 flops    32 x    32 x     9          26032527360       0.0%    100.0%      0.0%     
 flops    32 x    29 x    32          30009767936       0.0%    100.0%      0.0%     
 flops    32 x    32 x    29          74564933632       0.0%    100.0%      0.0%     
 flops inhomo. stacks                397107720912     100.0%      0.0%      0.0%
 flops total                       859.662789E+09      46.2%     53.8%      0.0%
 flops max/rank                     68.269280E+09      44.2%     55.8%      0.0%
 matmuls inhomo. stacks                   1078040     100.0%      0.0%      0.0%
 matmuls total                           11374670       9.5%     90.5%      0.0%
 number of processed stacks               2446075       2.6%     97.4%      0.0%
 average stack size                                    17.2       4.3       0.0
 marketing flops                   926.902256E+09
 -------------------------------------------------------------------------------
 # multiplications                            505
 max memory usage/rank              25.420390E+09
 # max total images/rank                        5
 # max 3D layers                                1
 # MPI messages exchanged                  166650
 MPI messages size (bytes):
  total size                        19.803021E+09
  min size                           0.000000E+00
  max size                         606.208000E+03
  average size                     118.830008E+03
 MPI breakdown and total messages size (bytes):
             size <=      128               22656                        0
       128 < size <=     8192                8892                 35061984
      8192 < size <=    32768               19608                388799472
     32768 < size <=   131072               69320               4935897504
    131072 < size <=  4194304               46174              14443315584
   4194304 < size <= 16777216                   0                        0
  16777216 < size                               0                        0
 -------------------------------------------------------------------------------

 *** WARNING in dbcsr_mm.F:301 :: Using a non-square number of MPI ranks ***
 *** might lead to poor performance. Used ranks: 15 Suggested: 16 25     ***

 -------------------------------------------------------------------------------
 -                                                                             -
 -                      DBCSR MESSAGE PASSING PERFORMANCE                      -
 -                                                                             -
 -------------------------------------------------------------------------------
 ROUTINE             CALLS      AVE VOLUME [Bytes]
 MP_Bcast              650                     12.
 MP_Allreduce         3421                     24.
 MP_Alltoall          3385                  79144.
 MP_ISend            27976                  65594.
 MP_IRecv            27600                  62073.
 -------------------------------------------------------------------------------

 -------------------------------------------------------------------------------
 -                                                                             -
 -                                GRID STATISTICS                              -
 -                                                                             -
 -------------------------------------------------------------------------------
 LP    KERNEL             BACKEND                              COUNT     PERCENT
 4     collocate ortho    CPU                                   1214      23.86%
 4     integrate ortho    CPU                                   1214      23.86%
 6     collocate ortho    CPU                                    840      16.51%
 6     integrate ortho    CPU                                    840      16.51%
 2     collocate ortho    CPU                                    482       9.48%
 2     integrate ortho    CPU                                    482       9.48%
 0     collocate general  CPU                                     15       0.29%
 -------------------------------------------------------------------------------

 -------------------------------------------------------------------------------
 -                                                                             -
 -                          OFFLOAD MEMPOOL STATISTICS                         -
 -                                                                             -
 -------------------------------------------------------------------------------
 Memory consumption                Number of allocations  Used [MiB]  Size [MiB]
 Host                                                  6          97    22097761
 -------------------------------------------------------------------------------

 MEMORY| Estimated peak process memory [MiB]                                2158

 -------------------------------------------------------------------------------
 -                                                                             -
 -                         MESSAGE PASSING PERFORMANCE                         -
 -                                                                             -
 -------------------------------------------------------------------------------

 ROUTINE             CALLS      AVE VOLUME [Bytes]
 MP_Group                5
 MP_Bcast              273                 214111.
 MP_Allreduce         1949                  18353.
 MP_Sync                10
 MP_Alltoall            46               72666427.
 MP_SendRecv            56                 542720.
 MP_ISendRecv           56                 542720.
 MP_Wait               254
 MP_comm_split          10
 MP_ISend              171                2386401.
 MP_IRecv              171                2386401.
 -------------------------------------------------------------------------------


 -------------------------------------------------------------------------------
 -                                                                             -
 -                           R E F E R E N C E S                               -
 -                                                                             -
 -------------------------------------------------------------------------------
 
 CP2K version 2026.2 (Development Version), the CP2K developers group (2026).
 CP2K is freely available from https://www.cp2k.org/ .
 
 M. Iannuzzi, J. Wilhelm, F. Stein, A. Bussy, H. Elgabarty, D. Golze, A. Hehn, 
 M. Graml, S. Marek, B. Sertcan Gökmen, C. Schran, H. Forbert, R. Z. 
 Khaliullin, A. Kozhevnikov, M. Taillefumier, R. Meli, V. V. Rybkin, M. Brehm, 
 R. Schade, O. Schütt, J. V. Pototschnig, H. Mirhosseini, A. Knüpfer, D. Marx, 
 M. Krack, J. Hutter, T. D. Kühne.
 J. Phys. Chem. B 130, 1237-1310 (2026).
 The CP2K Program Package Made Simple.
 https://doi.org/10.1021/acs.jpcb.5c05851

 M. Graml, K. Zollner, D. Hernangómez-Pérez, P. E. Faria Junior, J. Wilhelm.
 J. Chem. Theory Comput. 20, 2202-2208 (2024).
 Low-scaling GW algorithm applied to twisted transition-metal dichalcogenide 
 heterobilayers.
 https://doi.org/10.1021/acs.jctc.3c01230

 T. D. Kühne, M. Iannuzzi, M. Del Ben, V. V. Rybkin, P. Seewald, F. Stein, T. 
 Laino, R. Z. Khaliullin, O. Schütt, F. Schiffmann, D. Golze, J. Wilhelm, S. 
 Chulkov, M. H. Bani-Hashemian, V. Weber, U. Borstnik, M. Taillefumier, A. S. 
 Jakobovits, A. Lazzaro, H. Pabst, T. Müller, R. Schade, M. Guidon, S. 
 Andermatt, N. Holmberg, G. K. Schenter, A. Hehn, A. Bussy, F. Belleflamme, G. 
 Tabacchi, A. Glöß, M. Lass, I. Bethune, C. J. Mundy, C. Plessl, M. Watkins, 
 J. VandeVondele, M. Krack, J. Hutter.
 J. Chem. Phys. 152, 194103 (2020).
 CP2K: An electronic structure and molecular dynamics software package - 
 Quickstep: Efficient and accurate electronic structure calculations.
 https://doi.org/10.1063/5.0007045

 O. Schuett, P. Messmer, J. Hutter, J. VandeVondele.
 Electronic Structure Calculations on Graphics Processing Units, 173-190 (2016).
 GPU-Accelerated Sparse Matrix-Matrix Multiplication for Linear Scaling Density 
 Functional Theory.
 https://doi.org/10.1002/9781118670712.ch8

 U. Borstnik, J. VandeVondele, V. Weber, J. Hutter.
 Parallel Comput. 40, 47-58 (2014).
 Sparse matrix multiplication: The distributed block-compressed sparse row 
 library.
 https://doi.org/10.1016/j.parco.2014.03.012

 J. VandeVondele, J. Hutter.
 J. Chem. Phys. 127, 114105 (2007).
 Gaussian basis sets for accurate calculations on molecular systems in gas and 
 condensed phases.
 https://doi.org/10.1063/1.2770708

 J. VandeVondele, M. Krack, F. Mohamed, M. Parrinello, T. Chassaing, J. Hutter.
 Comput. Phys. Commun. 167, 103-128 (2005).
 QUICKSTEP: Fast and accurate density functional calculations using a mixed 
 Gaussian and plane waves approach.
 https://doi.org/10.1016/j.cpc.2004.12.014

 M. Krack.
 Theor. Chem. Acc. 114, 145-152 (2005).
 Pseudopotentials for H to Kr optimized for gradient-corrected 
 exchange-correlation functionals.
 https://doi.org/10.1007/s00214-005-0655-y

 M. Frigo, S. G. Johnson.
 Proc. IEEE 93, 216-231 (2005).
 The design and implementation of FFTW3.
 https://doi.org/10.1109/JPROC.2004.840301

 J. VandeVondele, J. Hutter.
 J. Chem. Phys. 118, 4365-4369 (2003).
 An efficient orbital transformation method for electronic structure 
 calculations.
 https://doi.org/10.1063/1.1543154

 C. Hartwigsen, S. Goedecker, J. Hutter.
 Phys. Rev. B 58, 3641-3662 (1998).
 Relativistic separable dual-space Gaussian pseudopotentials from H to Rn.
 https://doi.org/10.1103/PhysRevB.58.3641

 G. Lippert, J. Hutter, M. Parrinello.
 Mol. Phys. 92, 477-487 (1997).
 A hybrid Gaussian and plane wave density functional scheme.
 https://doi.org/10.1080/002689797170220

 S. Goedecker, M. Teter, J. Hutter.
 Phys. Rev. B 54, 1703-1710 (1996).
 Separable dual-space Gaussian pseudopotentials.
 https://doi.org/10.1103/PhysRevB.54.1703

 J. P. Perdew, K. Burke, M. Ernzerhof.
 Phys. Rev. Lett. 77, 3865-3868 (1996).
 Generalized gradient approximation made simple.
 https://doi.org/10.1103/PhysRevLett.77.3865

 P. E. Blöchl.
 J. Chem. Phys. 103, 7422-7428 (1995).
 Electrostatic decoupling of periodic images of plane‐wave‐expanded 
 densities and derived atomic point charges.
 https://doi.org/10.1063/1.470314

 R. H. Byrd, P. H. Lu, J. Nocedal, C. Y. Zhu.
 SIAM J. Sci. Comput. 16, 1190-1208 (1995).
 A Limited Memory Algorithm for Bound Constrained Optimization.
 https://doi.org/10.1137/0916069


 -------------------------------------------------------------------------------
 -                                                                             -
 -                                T I M I N G                                  -
 -                                                                             -
 -------------------------------------------------------------------------------
 SUBROUTINE                       CALLS  ASD         SELF TIME        TOTAL TIME MAXRANK
                                MAXIMUM       AVERAGE  MAXIMUM  AVERAGE  MAXIMUM
 CP2K                                 1  1.0    0.055    0.059   13.419   13.419       0
 qs_energies                          1  2.0    0.016    0.016   12.507   12.507       7
 qs_energies_properties               1  3.0    0.001    0.001    9.490    9.491      13
 post_scf_bandstructure               1  4.0    0.006    0.006    9.490    9.490      10
 run_gw                               1  5.0    0.000    0.000    9.364    9.375      11
 gw_calc_ri_rs_non_periodic           1  6.0    0.003    0.004    4.896    4.908       2
 create_and_init_bs_env_for_gw        1  6.0    0.012    0.014    4.468    4.471      13
 generate_auto_ri_basis               1  7.0    0.000    0.000    3.767    3.767       6
 scf_env_do_scf                       1  3.0    0.001    0.001    2.076    2.076       8
 mp_sum_dm                          108 10.9    1.200    2.017    1.200    2.017      12
 compute_AB_optimized_RI_basis        1  8.0    0.001    0.001    1.922    1.922       9
 compute_AB_optimized_RI_basis_       1  9.0    0.000    0.000    1.801    1.918       1
 qs_ks_build_kohn_sham_matrix         2  7.5    0.030    0.069    1.899    1.899      14
 compute_B_PQ_AB                      4 10.0    0.242    0.485    0.925    1.830       1
 fft_wrap_pw1pw2                     28 10.0    0.001    0.001    1.604    1.660       9
 fft_wrap_pw1pw2_300                 16 11.2    0.078    0.081    1.543    1.603      12
 init_scf_loop                        1  4.0    0.009    0.009    1.544    1.544      12
 dbcsr_multiply_generic             505  9.6    0.031    0.032    1.464    1.493       0
 qs_ks_update_qs_env                  2  5.0    0.000    0.000    1.466    1.466       6
 rebuild_ks_matrix                    1  6.0    0.000    0.001    1.465    1.465       2
 cp_fm_get_submatrix                104 10.0    0.001    0.001    0.832    1.438       2
 compute_W                            1  7.0    0.000    0.000    1.365    1.366       5
 fft3d_ps                            28 12.0    0.662    0.689    1.172    1.333       9
 compute_M_pq_inv_and_V_pq            1  8.0    0.000    0.000    1.289    1.289       8
 compute_contracted_RI_matrix         2  9.0    0.001    0.001    1.147    1.147       0
 compute_optimized_RI_matrix_bl      16 10.0    0.138    0.173    0.968    1.141       3
 compute_Sigma_c_and_QP_energie       1  7.0    0.000    0.000    1.077    1.089       9
 contract_B_PQ                       18 11.9    0.486    0.973    0.525    1.047       1
 compute_Sigma_c                      1  8.0    0.000    0.001    1.012    1.012       0
 mp_sum_d                           758  4.5    0.476    1.007    0.476    1.007      14
 compute_M_PQ_AB                    580 11.0    0.001    0.001    0.852    0.998       3
 compute_M_PQ                       580 12.0    0.001    0.001    0.851    0.997       3
 int_operators_r12_ab_os            580 13.0    0.000    0.000    0.850    0.995       3
 int_operator_ab_os_low             580 14.0    0.327    0.379    0.850    0.995       3
 optimize_ri_rs_grid                  1  7.0    0.000    0.000    0.991    0.995       0
 compute_fm_W_freq                   30  8.0    0.000    0.000    0.980    0.986       0
 qs_rho_update_rho_low                2  5.0    0.000    0.000    0.976    0.981       9
 calculate_rho_elec                   2  6.0    0.023    0.023    0.976    0.981      13
 rirs_grid_LBFGS                      1  8.0    0.119    0.172    0.965    0.980       2
 qs_vxc_create                        2  8.5    0.001    0.001    0.953    0.954       2
 xc_vxc_pw_create                     1  9.0    0.020    0.021    0.952    0.952      10
 multiply_cannon                    505 10.6    0.032    0.033    0.894    0.949       3
 parallel_gemm_fm_gemm              431  9.6    0.007    0.007    0.905    0.938       0
 cp_fm_gemm                         434 10.5    0.900    0.933    0.900    0.933      13
 contract_grid_panels_sigma_c        30  9.0    0.001    0.001    0.905    0.909       5
 multiply_cannon_loop               505 11.6    0.031    0.031    0.770    0.839      14
 mp_alltoall_z22v                    28 14.0    0.272    0.760    0.272    0.760      14
 compute_Z_lP                         1  7.0    0.000    0.000    0.752    0.755      14
 compute_Z_lP_auto_ri                 1  8.0    0.001    0.001    0.752    0.755       9
 evaluate_rirs_grid_cluster         301  9.0    0.070    0.131    0.373    0.752       1
 xc_pw_derive                         6 11.0    0.000    0.000    0.686    0.744       4
 density_rs2pw                        2  7.0    0.000    0.001    0.556    0.693       6
 get_mat_chi_Gamma_tau                1  7.0    0.000    0.001    0.659    0.660       0
 init_scf_run                         1  3.0    0.012    0.012    0.638    0.638      12
 compute_d_lp_auto_ri_batch           1  9.0    0.003    0.004    0.393    0.636       1
 compute_d_lp_auto_ri_atom            1 10.0    0.148    0.237    0.389    0.633       2
 contract_grid_panels                31  8.0    0.001    0.001    0.607    0.632       0
 scf_env_initial_rho_setup            1  4.0    0.001    0.001    0.625    0.625       9
 multiply_cannon_multrec           7575 12.6    0.491    0.582    0.494    0.586       5
 compute_AA_optimized_RI_basis        1  8.0    0.001    0.001    0.555    0.555       7
 qs_init_subsys                       1  2.0    0.010    0.010    0.547    0.547      10
 qs_env_setup                         1  3.0    0.003    0.003    0.533    0.533       3
 scf_env_do_scf_inner_loop            1  4.0    0.002    0.002    0.525    0.531      11
 copy_dbcsr_to_fm                   104  9.5    0.001    0.001    0.274    0.530       0
 qs_env_rebuild_pw_env                2  3.5    0.001    0.001    0.527    0.527      12
 pw_env_rebuild                       1  5.0    0.004    0.004    0.527    0.527       3
 compute_B_PQ_transition              9 10.9    0.000    0.000    0.263    0.525       1
 compute_B_PQ_exchange                9 10.9    0.000    0.000    0.263    0.524       1
 xc_pw_divergence                     1 10.0    0.000    0.000    0.461    0.520       7
 pw_grid_setup                        5  5.2    0.001    0.001    0.516    0.516       5
 pw_grid_setup_internal               5  6.2    0.010    0.010    0.515    0.516      10
 mp_alltoall_i22                    369 11.4    0.225    0.495    0.225    0.495      14
 yz_to_x                             14 12.2    0.105    0.113    0.244    0.495       4
 xc_rho_set_and_dset_create           1 10.0    0.022    0.026    0.460    0.488      10
 abc_contract_xsmm                  891 11.0    0.264    0.488    0.264    0.488       1
 dbcsr_desymmetrize_deep            104 10.5    0.003    0.004    0.219    0.476       1
 pw_grid_sort                         5  7.2    0.305    0.310    0.437    0.445       9
 compute_V_xc                         1  7.0    0.001    0.001    0.436    0.436      11
 sum_up_and_integrate                 2  8.5    0.004    0.007    0.398    0.417      14
 x_to_yz                             14 13.8    0.123    0.129    0.255    0.408      13
 integrate_v_rspace                   2  9.5    0.001    0.001    0.388    0.407       6
 grid_collocate_task_list             2  7.0    0.385    0.407    0.385    0.407      13
 make_m2s                          1010 10.6    0.008    0.008    0.376    0.393      10
 operator2                       327604 15.0    0.318    0.377    0.318    0.377       3
 potential_pw2rs                      2 10.5    0.001    0.001    0.355    0.374       9
 make_images                       1010 11.6    0.041    0.057    0.342    0.357       5
 mp_waitall_1                     24323 13.8    0.304    0.354    0.304    0.354      14
 transfer_rs2pw                       9  7.8    0.000    0.000    0.174    0.348      12
 mp_bcast_dm                         70  9.1    0.313    0.339    0.313    0.339       8
 initialize_auto_ri_integrals         2  9.0    0.022    0.325    0.328    0.328       0
 mp_waitany                         171 11.3    0.126    0.328    0.126    0.328      14
 transfer_rs2pw_300                   3  8.3    0.065    0.069    0.136    0.303       9
 rirs_cluster_gradient_coordina     301 10.0    0.139    0.294    0.139    0.294       2
 qs_energies_init_hamiltonians        1  3.0    0.008    0.008    0.281    0.281       5
 qs_ks_ddapc                          2  8.5    0.002    0.011    0.266    0.268      14
 cp_fm_cholesky_invert               31  9.0    0.258    0.264    0.258    0.264       0
 ab_contract                     328590 15.0    0.205    0.240    0.205    0.240       3
 pw_poisson_solve                     2  8.5    0.000    0.000    0.217    0.222      14
 qs_env_update_s_mstruct              1  4.0    0.001    0.001    0.220    0.220      13
 build_3c_integral_block_auto_r      90 11.0    0.000    0.000    0.125    0.219       3
 make_images_data                  1010 12.6    0.008    0.008    0.190    0.214       1
 create_qs_kind_set                   1  2.0    0.000    0.001    0.188    0.189      14
 read_qs_kind                         2  3.0    0.041    0.047    0.187    0.188       0
 hybrid_alltoall_any               1114 13.4    0.017    0.039    0.156    0.184       0
 calculate_rho_core                   1  5.0    0.014    0.017    0.180    0.182      14
 build_3c_integral_block_auto_r      90 11.0    0.116    0.182    0.116    0.182       5
 setup_time_and_frequency_minim       1  7.0    0.000    0.000    0.173    0.179      10
 build_minimax_time_frequency_g       1  8.0    0.000    0.001    0.173    0.178      10
 fit_l_sq_weights                     3  9.0    0.173    0.177    0.173    0.177      10
 mp_sum_l                          1707 10.5    0.108    0.171    0.108    0.171      14
 build_G_ao                         121  8.5    0.001    0.001    0.127    0.164       2
 pw_copy                             28 10.5    0.150    0.158    0.150    0.158       7
 multiply_cannon_metrocomm3        7575 12.6    0.005    0.005    0.122    0.155      10
 pw_derive                           12 11.2    0.144    0.151    0.144    0.151       0
 parser_read_line                 22513  4.0    0.004    0.004    0.146    0.147       1
 cp_fm_geeig                          2  9.5    0.012    0.012    0.145    0.146       7
 rirs_cluster_gradient_products     301 10.0    0.073    0.145    0.073    0.145       2
 parser_read_line_low                27  5.0    0.004    0.040    0.142    0.143       0
 compute_M_pq_inv                     1  9.0    0.001    0.001    0.142    0.142       5
 broadcast_input_information         27  6.0    0.006    0.016    0.138    0.142       0
 compute_B_PQ_AA                     15  9.0    0.000    0.000    0.133    0.140       0
 mp_sum_root_rm                      15 10.0    0.127    0.139    0.127    0.139      14
 cp_fm_cholesky_decompose            35  9.0    0.134    0.139    0.134    0.139       2
 pw_gather_p                         14 11.2    0.131    0.138    0.131    0.138       5
 cp_fm_uplo_to_full                  63  9.0    0.120    0.137    0.120    0.137      14
 cp_fm_syevd                          5  9.0    0.001    0.001    0.136    0.137       5
 sort_shells                          5  8.2    0.132    0.135    0.132    0.135      10
 cp_fm_redistribute_end               5 10.0    0.072    0.133    0.072    0.134      14
 transfer_pw2rs                       8 11.5    0.000    0.000    0.133    0.133      13
 dbcsr_complete_redistribute        265 10.4    0.036    0.047    0.116    0.132       0
 cp_fm_syevd_base                     5 10.0    0.061    0.130    0.061    0.130       2
 G_occ_vir                          121  9.5    0.006    0.009    0.094    0.128       0
 pw_poisson_set                       3  8.3    0.000    0.000    0.123    0.128      11
 pw_scatter_p                        14 12.8    0.120    0.125    0.120    0.125      11
 compute_fm_chi_Gamma_freq           30  8.0    0.001    0.001    0.106    0.122       6
 calculate_first_density_matrix       1  5.0    0.002    0.002    0.109    0.110       0
 xc_functional_eval                   1 11.0    0.000    0.003    0.078    0.103      14
 pbe_lda_eval                         1 12.0    0.078    0.103    0.078    0.103       8
 copy_fm_to_dbcsr                   161  9.3    0.007    0.007    0.087    0.103      10
 pw_integral_ab_c1d_c1d_gs            4 10.0    0.078    0.079    0.081    0.102       9
 cp_ddapc_apply_CD                    2  9.5    0.003    0.003    0.071    0.097       0
 transfer_pw2rs_300                   2 12.5    0.041    0.045    0.089    0.093       1
 mp_bcast_am_src                     27  7.0    0.077    0.088    0.077    0.088      10
 calculate_norms                  12750 12.6    0.066    0.087    0.066    0.087       5
 compute_int_3c                       2  9.0    0.076    0.077    0.084    0.086       1
 make_basis_sm                        1  6.0    0.001    0.001    0.084    0.084       4
 fft_wrap_pw1pw2_100                  4 10.8    0.003    0.003    0.044    0.082       6
 mp_bcast_i_src                     113  7.0    0.055    0.082    0.055    0.082       1
 eval_pw_TabLR                        1  2.0    0.046    0.046    0.080    0.080       5
 dbcsr_finalize                    2097 10.8    0.011    0.011    0.071    0.076       6
 local_gemm                        7016 12.9    0.039    0.076    0.039    0.076       1
 solve_AB_eigenproblem                4 10.0    0.031    0.054    0.044    0.075       1
 cp_dbcsr_sm_fm_multiply              2  7.5    0.000    0.000    0.074    0.074       5
 pw_axpy                             25  6.6    0.068    0.071    0.068    0.071       3
 eval_bandstructure_properties        1  5.0    0.000    0.001    0.069    0.069      14
 pw_copy_to_array                    14 11.2    0.064    0.069    0.064    0.069       6
 mp_alltoall_d11v                  1111 11.7    0.056    0.067    0.056    0.067       9
 compute_QP_energies                  1  8.0    0.000    0.000    0.065    0.067       3
 cp_cfm_geeig                         1  6.0    0.014    0.014    0.065    0.066      12
 check_for_restart_files              1  7.0    0.057    0.061    0.057    0.061      14
 dbcsr_special_finalize            4040 12.6    0.007    0.007    0.052    0.061       9
 rirs_cluster_residual              301 10.0    0.028    0.057    0.028    0.057       3
 cp_dbcsr_sm_fm_multiply_core         2  8.5    0.000    0.000    0.055    0.057       1
 rirs_cluster_D_ll                  301 10.0    0.027    0.054    0.027    0.054       5
 compute_Z_lP_auto_ri_dpotrs          1  9.0    0.039    0.053    0.039    0.053       6
 extract_grid_panel                 122  9.5    0.032    0.043    0.041    0.053       0
 mp_allgather_i34                   505 11.6    0.035    0.053    0.035    0.053      11
 dbcsr_merge_all                   1831 11.9    0.018    0.019    0.048    0.053       9
 create_and_init_bs_env               1  5.0    0.001    0.001    0.052    0.052      12
 get_ddapc                            2 10.5    0.002    0.003    0.026    0.052      14
 build_core_hamiltonian_matrix        1  4.0    0.011    0.012    0.051    0.051      14
 to_Gamma_and_mo_real                62  9.0    0.000    0.001    0.051    0.051       8
 dbcsr_merge_single_wm             3960 13.6    0.018    0.023    0.041    0.050       0
 dbcsr_add_d                        935  9.0    0.001    0.001    0.038    0.049       6
 dbcsr_add_anytype                  935 10.0    0.008    0.019    0.037    0.048       7
 pw_grid_assign                       5  7.2    0.044    0.045    0.045    0.046       2
 extract_masked_blocks              244  9.6    0.025    0.033    0.036    0.046       0
 dbcsr_create_new                 11702 12.1    0.033    0.034    0.043    0.044      10
 ot_scf_init                          1  5.0    0.004    0.004    0.042    0.042       2
 make_images_sizes                 1010 12.6    0.001    0.001    0.032    0.042       7
 mp_alltoall_i44                   1010 13.6    0.031    0.041    0.031    0.041      10
 build_phi_on_complete_grid           1  9.0    0.000    0.000    0.019    0.040       3
 build_phi_on_sphere                  1 10.0    0.001    0.001    0.019    0.040       8
 evaluate_ao_on_points               15 11.0    0.018    0.039    0.018    0.039       6
 compute_Sigma_x                      1  7.0    0.000    0.000    0.038    0.038       0
 qs_ot_get_p                          2  7.0    0.006    0.007    0.038    0.038      12
 rirs_cluster_AO_products           301 10.0    0.018    0.038    0.018    0.038       3
 mp_sum_iv                          567 11.2    0.029    0.038    0.029    0.038      14
 Fourier_transform_w_to_t            30  8.0    0.000    0.000    0.020    0.037       0
 cp_fm_scale_and_add                901  9.0    0.020    0.037    0.020    0.037       1
 pw_copy_from_array                  14 12.8    0.035    0.037    0.035    0.037       4
 rirs_cluster_d_lP                  301 10.0    0.018    0.035    0.018    0.035       5
 dbcsr_sort_data                   4421 14.4    0.030    0.035    0.030    0.035       0
 qs_scf_new_mos                       1  5.0    0.000    0.000    0.033    0.033      12
 qs_scf_loop_do_ot                    1  6.0    0.000    0.000    0.033    0.033       7
 transfer_pw2rs_100                   2 12.5    0.006    0.007    0.026    0.033       1
 buffer_matrices_ensure_size       1010 11.6    0.026    0.033    0.026    0.033       8
 diamat_all                          20 11.5    0.021    0.032    0.021    0.032       1
 write_mo_set_to_restart              1  5.0    0.001    0.008    0.026    0.032       0
 ot_scf_mini                          1  7.0    0.009    0.009    0.032    0.032       3
 grid_integrate_task_list             2 10.5    0.013    0.032    0.013    0.032       0
 rirs_grid_build_clusters             1  8.0    0.009    0.020    0.015    0.031      11
 cp_cfm_cholesky_decompose            2  7.0    0.030    0.031    0.030    0.031      14
 dbcsr_iterator_stop               5783 12.1    0.015    0.029    0.017    0.030       1
 multiply_cannon_metrocomm1        7575 12.6    0.003    0.003    0.016    0.030      10
 write_mo_set_low                     1  6.0    0.000    0.001    0.025    0.029       0
 mp_sync                             10  9.2    0.022    0.029    0.022    0.029      11
 collect_used_col_blocks             92  9.7    0.000    0.000    0.015    0.028       0
 build_overlap_matrix_low             1  5.0    0.012    0.012    0.027    0.027       1
 hadamard_product                    91  9.7    0.019    0.022    0.023    0.027       0
 dbcsr_make_images_dense            114 11.5    0.001    0.001    0.019    0.026      12
 pw_grid_remap                        4  8.0    0.007    0.007    0.017    0.026      14
 transfer_rs2pw_100                   2  9.0    0.007    0.008    0.019    0.026       9
 rs_gather_matrices                   2 10.5    0.000    0.001    0.019    0.026       9
 cp_ddapc_init                        1  5.0    0.000    0.000    0.025    0.025       5
 cp_ddapc_create                      1  6.0    0.000    0.000    0.025    0.025       2
 prepare_preconditioner               1  5.0    0.000    0.000    0.025    0.025       0
 make_preconditioner                  1  6.0    0.000    0.000    0.024    0.025       9
 rs_grid_zero                         5 12.0    0.023    0.025    0.023    0.025       4
 arnoldi_extremal                     2  8.0    0.001    0.001    0.024    0.024       2
 check_positive_definite_overla       1  6.0    0.000    0.000    0.024    0.024       7
 pw_zero                             25  4.7    0.021    0.024    0.021    0.024       4
 multiply_cannon_metrocomm4        6060 12.6    0.010    0.010    0.022    0.024      10
 dbcsr_make_dense_low               466 12.5    0.001    0.002    0.016    0.024      11
 diagonalize_ks_matrix                1  6.0    0.000    0.000    0.023    0.023       9
 cp_fm_geeig_canon                    1  7.0    0.003    0.003    0.023    0.023      11
 arnoldi_normal_ev                    2  9.0    0.001    0.001    0.023    0.023       5
 make_full_inverse_cholesky           1  7.0    0.000    0.000    0.023    0.023      10
 compute_reference_M_PQ_inv_fac      14 10.8    0.000    0.001    0.015    0.023       1
 cp_cfm_heevd                         1  7.0    0.000    0.000    0.023    0.023      11
 cp_cfm_heevd_base                    1  8.0    0.023    0.023    0.023    0.023      13
 mp_sum_dv                          375  9.2    0.020    0.023    0.020    0.023      11
 subspace_eigenvalues_ks_fm           1  7.0    0.007    0.007    0.022    0.022      11
 calculate_dm_sparse                  2  6.5    0.000    0.000    0.021    0.022       5
 make_dense_data                    466 13.5    0.009    0.017    0.014    0.021       0
 qs_create_task_list                  1  5.0    0.007    0.016    0.012    0.021      14
 cp_dbcsr_plus_fm_fm_t                1  7.0    0.000    0.000    0.020    0.020       8
 multiply_cannon_metrocomm2        5050 12.6    0.008    0.009    0.019    0.020      10
 mp_sum_im3                           5  9.0    0.010    0.020    0.010    0.020      14
 grid_free_task_list                  1  7.0    0.015    0.019    0.015    0.019       1
 ot_mini                              1  8.0    0.000    0.000    0.019    0.019      12
 dbcsr_work_create                 5975 12.1    0.012    0.012    0.017    0.018       0
 compute_Z_lP_auto_ri_dpotrf          1  9.0    0.013    0.018    0.013    0.018       7
 fft_wrap_pw1pw2_40                   4 10.8    0.001    0.001    0.013    0.017       4
 fill_fm_Sigma_c_Gamma_time           1  9.0    0.000    0.000    0.017    0.017       0
 transfer_pw2rs_40                    2 12.5    0.005    0.006    0.015    0.017       6
 dbcsr_copy                        1156 10.5    0.011    0.012    0.015    0.017      10
 qs_ot_get_derivative                 1  9.0    0.006    0.006    0.017    0.017      12
 transfer_rs2pw_40                    2  9.0    0.009    0.009    0.015    0.016       4
 pw_integral_ab_r3d_r3d_rs           20  3.0    0.015    0.016    0.015    0.016       6
 copy_fm_to_dbcsr_bc                161 10.3    0.008    0.008    0.013    0.015       1
 dbcsr_data_new                   38192 12.5    0.015    0.015    0.015    0.015       4
 dbcsr_work_destroy_all            5975 13.0    0.010    0.010    0.014    0.015      10
 mp_isend_iv                      15142 13.6    0.014    0.015    0.014    0.015      12
 dbcsr_data_release               55653 12.7    0.014    0.015    0.014    0.015       8
 get_fft_scratch                     29 12.7    0.013    0.015    0.013    0.015       1
 initialize_ri_rs_grid                1  8.0    0.004    0.010    0.010    0.014       2
 pw_multiply_with                     2  9.5    0.013    0.014    0.013    0.014       5
 dbcsr_data_copy_aa2                626 12.9    0.012    0.014    0.012    0.014       1
 make_images_pack                  1010 12.6    0.007    0.012    0.009    0.014      11
 build_gram_jacobi_blas               1  9.0    0.005    0.006    0.011    0.014       0
 ddapc_eval_AmI                       1  7.0    0.010    0.011    0.012    0.014      14
 -------------------------------------------------------------------------------

 The number of warnings for this run is : 2
 
 -------------------------------------------------------------------------------
  **** **** ******  **  PROGRAM ENDED AT                 2026-10-03 18:53:29.393
 ***** ** ***  *** **   PROGRAM RAN ON                                  n2cn0947
 **    ****   ******    PROGRAM RAN BY                                  eprop2d1
 ***** **    ** ** **   PROGRAM PROCESS ID                               1198311
  **** **  *******  **  PROGRAM STOPPED IN /scratch/hpc-prf-metdyn/eprop2d1_Jan/
                                           53_benchmark_RI_opt/418_gw100_fig5_fu
                                           ll_epsfilter_1e12_20261002/calculatio
                                           ns/rc0p5/ri4_rs06/86_C7H8
