 DBCSR| CPU Multiplication driver                                           XSMM (U)
 DBCSR| Multrec recursion limit                                              512 (U)
 DBCSR| Multiplication stack size                                           1000 (D)
 DBCSR| Maximum elements for images                                    UNLIMITED (U)
 DBCSR| Multiplicative factor virtual images                                   1 (U)
 DBCSR| Use multiplication densification                                       T (D)
 DBCSR| Multiplication size stacks                                             3 (U)
 DBCSR| Use memory pool for CPU allocation                                     F (U)
 DBCSR| Number of 3D layers                                               SINGLE (U)
 DBCSR| Use MPI memory allocation                                              F (U)
 DBCSR| Use RMA algorithm                                                      F (U)
 DBCSR| Use Communication thread                                               T (U)
 DBCSR| Communication thread load                                             64 (D)
 DBCSR| MPI: My process id                                                     8
 DBCSR| MPI: Number of processes                                              17
 DBCSR| OMP: Current number of threads                                         7
 DBCSR| OMP: Max number of threads                                             7
 DBCSR| Split modifier for TAS multiplication algorithm                  1.0E+00 (U)


  **** **** ******  **  PROGRAM STARTED AT               2026-10-03 11:50:35.197
 ***** ** ***  *** **   PROGRAM STARTED ON                              n2cn0539
 **    ****   ******    PROGRAM STARTED BY                              eprop2d1
 ***** **    ** ** **   PROGRAM PROCESS ID                               1355988
  **** **  *******  **  PROGRAM STARTED IN /scratch/hpc-prf-metdyn/eprop2d1_Jan/
                                           53_benchmark_RI_opt/418_gw100_fig5_fu
                                           ll_epsfilter_1e12_20261002/calculatio
                                           ns/rc3p0/ri2_rs10/46_B2H6

 CP2K| version string:                 CP2K version 2026.2 (Development Version)
 CP2K| source code revision number:                                   0671c5aa6c
 CP2K| cp2kflags: omp libint fftw3 libxc parallel scalapack openblas            
 CP2K| is freely available from                            https://www.cp2k.org/
 CP2K| Program compiled at                                   2026-09-20 09:25:26
 CP2K| Program compiled on                                              n2login5
 CP2K| Program compiled for                                               x86_64
 CP2K| Data directory path    /scratch/hpc-prf-metdyn/eprop2d1_Jan/53_benchmark_
 CP2K| Input file name                                                 input.inp
 
 eprop2d1@n2cn0539 has created rank and process                      0   1355988
 eprop2d1@n2cn0539 has created rank and process                      1   1355989
 eprop2d1@n2cn0539 has created rank and process                      2   1355990
 eprop2d1@n2cn0539 has created rank and process                      3   1355991
 eprop2d1@n2cn0539 has created rank and process                      4   1355992
 eprop2d1@n2cn0539 has created rank and process                      5   1355993
 eprop2d1@n2cn0539 has created rank and process                      6   1355994
 eprop2d1@n2cn0539 has created rank and process                      7   1355995
 eprop2d1@n2cn0539 has created rank and process                      8   1355996
 
 eprop2d1@n2cn0539 is running                                        9 processes

 GLOBAL| Force Environment number                                              1
 GLOBAL| Basis set file name            /scratch/hpc-prf-metdyn/eprop2d1_Jan/53_
 GLOBAL| Potential file name            /scratch/hpc-prf-metdyn/eprop2d1_Jan/53_
 GLOBAL| MM Potential file name                                     MM_POTENTIAL
 GLOBAL| Coordinate file name                                      __STD_INPUT__
 GLOBAL| Method name                                                        CP2K
 GLOBAL| Project name                                             g418_c210_m046
 GLOBAL| Run type                                                         ENERGY
 GLOBAL| FFT library                                                       FFTW3
 GLOBAL| Diagonalization library                                       ScaLAPACK
 GLOBAL| Cholesky decomposition library                                ScaLAPACK
 GLOBAL| DGEMM library                                                      BLAS
 GLOBAL| Direct generalized diagonalization requested                          F
 GLOBAL| Orthonormality check for eigenvectors                          DISABLED
 GLOBAL| Matrix multiplication library                                 ScaLAPACK
 GLOBAL| All-to-all communication in single precision                          F
 GLOBAL| Grid backend                                                       AUTO
 GLOBAL| Global print level                                                  LOW
 GLOBAL| MPI I/O enabled                                                       T
 GLOBAL| Total number of message passing processes                             9
 GLOBAL| Number of distributed systems (nodes)                                 1
 GLOBAL| Number of threads for this process                                    7
 GLOBAL| This output is from process                                           0
 GLOBAL| OpenMP stack size per thread (OMP_STACKSIZE)                       512M
 GLOBAL| CPU model name                          AMD EPYC 7763 64-Core Processor

 MEMORY| system memory details [Kb]
 MEMORY|                        rank 0           min           max       average
 MEMORY| MemTotal            263897580     263897580     263897580     263897580
 MEMORY| MemFree             228210864     228205256     228211652     228208777
 MEMORY| Buffers                220024        220024        220024        220024
 MEMORY| Cached                6872552       6872552       6872552       6872552
 MEMORY| Slab                  1707896       1707896       1707896       1707896
 MEMORY| SReclaimable           309568        309568        309568        309568
 MEMORY| MemLikelyFree       235613008     235607400     235613796     235610921


 GENERATE|  Preliminary Number of Bonds generated:                             0
 GENERATE|  Achieved consistency in connectivity generation.

 *******************************************************************************
 *******************************************************************************
 **                                                                           **
 **     #####                         ##              ##                      **
 **    ##   ##            ##          ##              ##                      **
 **   ##     ##                       ##            ######                    **
 **   ##     ##  ##   ##  ##   #####  ##  ##   ####   ##    #####    #####    **
 **   ##     ##  ##   ##  ##  ##      ## ##   ##      ##   ##   ##  ##   ##   **
 **   ##  ## ##  ##   ##  ##  ##      ####     ###    ##   ######   ######    **
 **    ##  ###   ##   ##  ##  ##      ## ##      ##   ##   ##       ##        **
 **     #######   #####   ##   #####  ##  ##  ####    ##    #####   ##        **
 **           ##                                                    ##        **
 **                                                                           **
 **                                                ... make the atoms dance   **
 **                                                                           **
 **            Copyright (C) by CP2K developers group (2000-2026)             **
 **                      J. Chem. Phys. 152, 194103 (2020)                    **
 **                                                                           **
 *******************************************************************************


 TOTAL NUMBERS AND MAXIMUM NUMBERS

  Total number of            - Atomic kinds:                                   2
                             - Atoms:                                          8
                             - Shell sets:                                     8
                             - Shells:                                        48
                             - Primitive Cartesian functions:                 48
                             - Cartesian basis functions:                    122
                             - Spherical basis functions:                    112

  Maximum angular momentum of- Orbital basis functions:                        3
                             - Local part of the GTH pseudopotential:          2
                             - Non-local part of the GTH pseudopotential:      0


 SCF PARAMETERS         Density guess:                                   RESTART
                        --------------------------------------------------------
                        max_scf:                                             500
                        max_scf_history:                                       0
                        max_diis:                                              4
                        --------------------------------------------------------
                        eps_scf:                                        1.00E-08
                        eps_scf_history:                                0.00E+00
                        eps_diis:                                       0.00E+00
                        eps_eigval:                                     1.00E-05
                        --------------------------------------------------------
                        level_shift [a.u.]:                             0.000000
                        --------------------------------------------------------
                        Outer loop SCF in use 
                        No variables optimised in outer loop
                        eps_scf                                         1.00E-08
                        max_scf                                               20
                        No outer loop optimization
                        step_size                                       5.00E-01

 Extrapolation method: initial_guess

 Number of electrons:                                                         12
 Number of occupied orbitals:                                                  6
 Number of molecular orbitals:                                                 6

 Number of orbital functions:                                                112
 Number of independent orbital functions:                                    112


 SCF WAVEFUNCTION OPTIMIZATION

  ----------------------------------- OT ---------------------------------------
  Minimizer      : DIIS                : direct inversion
                                         in the iterative subspace
                                         using   7 DIIS vectors
                                         safer DIIS on
  Preconditioner : FULL_KINETIC        : inversion of T + eS
  Lattice FFT   : OFF
  Precond_solver : DEFAULT
  stepsize       :    0.15000000                  energy_gap     :    0.20000000
  eps_taylor     :   0.10000E-15                  max_taylor     :             4
  ----------------------------------- OT ---------------------------------------

  Step     Update method      Time    Convergence         Total energy    Change
  ------------------------------------------------------------------------------
  Decoupling Energy:                                              -0.0000007276
     1 OT DIIS     0.15E+00    1.7     0.00000002        -9.1735997711 -9.17E+00
  Decoupling Energy:                                              -0.0000007276
     2 OT DIIS     0.15E+00    2.1     0.00000001        -9.1735997711 -5.33E-15
  Decoupling Energy:                                              -0.0000007276
     3 OT DIIS     0.15E+00    2.1     6.1265E-09        -9.1735997711 -3.55E-14

  *** SCF run converged in     3 steps ***


  Electronic density on regular grids:        -12.0000000000        0.0000000000
  Core density on regular grids:               12.0000000000       -0.0000000000
  Total charge density on r-space grids:       -0.0000000000
  Total charge density g-space grids:          -0.0000000000

  Overlap energy of the core charge distribution:               0.00000711729122
  Self energy of the core charge distribution:                -20.58172172060639
  Core Hamiltonian energy:                                      6.98843452230278
  Hartree energy:                                               8.65552421453165
  Exchange-correlation energy:                                 -4.23584390462311

  Total energy:                                                -9.17359977110385

  outer SCF iter =    1 RMS gradient =   0.61E-08 energy =         -9.1735997711
  outer SCF loop converged in   1 iterations or    3 steps

  
 -------------------------------------------------------------------------------
 -                                                                             -
 -                          BANDSTRUCTURE CALCULATION                          -
 -                                                                             -
 -------------------------------------------------------------------------------
  
 Number of occupied molecular orbitals (MOs) = Number of occupied bands        6
 Number of unoccupied (= virtual) MOs = Number of unoccupied bands           106
 Number of Gaussian basis functions for MOs                                  112
  
 -------------------------------------------------------------------------------
 -                                                                             -
 -                                GW CALCULATION                               -
 -                                                                             -
 -------------------------------------------------------------------------------
  
 Input: Number of time/freq. points                                           30
 Input: ω_max for fitting Σ(iω) (eV)                                        10.0
 Input: Filter threshold for sparse tensor operations                    1.0E-12
 Input: Apply Hedin shift                                                      F
 Detected: Available memory per MPI process                              23.4 GB
 
 Input: RI-RS Tikhonov regularization                                   1.00E-04
 Input: AO grid hard cutoff radius                                        8.00 Å
 Input: MPI ranks per atom in Z_lP solve                                      -1
 Input: Keep sparsity in χ/G/W panels                                          T
 Input: GW flavour                                                          G0W0
 
 Input: RI-RS grid optimization activated                                      T
 Input: RS points per AO function                                           10.0
 Input: Cutoff radius for atomic clusters                                  3.0 Å
 Input: Maximum grid optimization iterations                                 300
 
 Input: AUTO_RI basis optimization activated:                                  T
 Input: AUTO_RI number of RI functions per AO function:                      2.0
 Input: AUTO_RI frontier orbital window:                                  5.0 eV
 Input: AUTO_RI neighbor radius:                                           3.0 Å
 
 Cutoff radius for the truncated Coulomb operator in RI metric:            7.0 Å
 Regularization parameter of RI                                          0.0E+00
 Regularization parameter of minimax grids                               1.0E-06
 
 AUTO_RI| Number of automatic RI functions for χ, ε, W:                      224
 AUTO_RI| Total RI basis optimization time:                                0.8 s
  Decoupling Energy:                                              -0.0000007276
 
 SCF direct band gap (eV)                                                   5.86
 Max. SCF eigval diff. (eV)                                               193.58
 E-Range for minimax grid                                                  33.02
 Number of Padé parameters for analytic continuation:                         16
 
 RI-RS basis radii (Å):
     Kind  Elem     r_AO (Å)     r_RI (Å)
        1    B         9.5332        6.9899
        2    H        13.9082        8.7963
 
 Started RI-RS grid optimization
 RI-RS grid initial normalized error                          1.913882992100E-03
 RI-RS grid optimization completed, execution time:                       71.0 s
 Normalized 3C error:                                                    1.1E-08
 Maximum absolute 3C error:                                              1.3E-03
 Optimized points outside molecular Voronoi cells:                           243 / 1120
 Total grid points used for RI-RS:                                          1120
 
 RI-RS grid row-blocks of ϕ_μ(r_l)                                            38
 RI-RS grid points per block (max)                                            32
 
 Percentage of non-zero matrix elements in ϕ_μ(r_l)                     100.00 %
 
 RI-RS memory estimate per MPI process:
   Available memory per process (system)                                27.59 GB
   Required for Z_lP (dense upper bound; actual is sparser)              0.00 GB
   Required for χ, W, Σ panels (peak per panel step)                     0.00 GB
   Required for Z_lP solve peak (D_local+ϕ, worst-case atom)             0.01 GB
   Worst-case local-grid number of grid points:                             1120
   Worst-case memory D_local:                                            0.01 GB
 
 Started computing Z_lP
 Computed Z_lP (MPI rank 0) for atom          1 /  1,    Execution time    0.1 s
 Computed Z_lP (all MPI ranks) for all atoms,            Execution time    0.1 s

 Memory per MPI process after computing Z_lP:
 Available memory per MPI process                               27.6 GB
 Used memory per MPI process                                     1.1 GB
 Number of batches for χ, Σ matrices                                           1
 
 Percentage of non-zero matrix elements in Z_lP                         100.00 %
 Percentage of non-zero matrix elements in G_ll', χ_ll', W_ll'          100.00 %
 Percentage of non-zero matrix elements in χ_PQ for time point 1        100.00 %
 
 Computed χ(iτ,k=0) for time point            1 / 30,    Execution time    0.0 s
 Computed χ(iτ,k=0) for time point            2 / 30,    Execution time    0.0 s
 Computed χ(iτ,k=0) for time point            3 / 30,    Execution time    0.0 s
 Computed χ(iτ,k=0) for time point            4 / 30,    Execution time    0.0 s
 Computed χ(iτ,k=0) for time point            5 / 30,    Execution time    0.0 s
 Computed χ(iτ,k=0) for time point            6 / 30,    Execution time    0.0 s
 Computed χ(iτ,k=0) for time point            7 / 30,    Execution time    0.0 s
 Computed χ(iτ,k=0) for time point            8 / 30,    Execution time    0.0 s
 Computed χ(iτ,k=0) for time point            9 / 30,    Execution time    0.0 s
 Computed χ(iτ,k=0) for time point           10 / 30,    Execution time    0.0 s
 Computed χ(iτ,k=0) for time point           11 / 30,    Execution time    0.0 s
 Computed χ(iτ,k=0) for time point           12 / 30,    Execution time    0.0 s
 Computed χ(iτ,k=0) for time point           13 / 30,    Execution time    0.0 s
 Computed χ(iτ,k=0) for time point           14 / 30,    Execution time    0.0 s
 Computed χ(iτ,k=0) for time point           15 / 30,    Execution time    0.0 s
 Computed χ(iτ,k=0) for time point           16 / 30,    Execution time    0.0 s
 Computed χ(iτ,k=0) for time point           17 / 30,    Execution time    0.0 s
 Computed χ(iτ,k=0) for time point           18 / 30,    Execution time    0.0 s
 Computed χ(iτ,k=0) for time point           19 / 30,    Execution time    0.0 s
 Computed χ(iτ,k=0) for time point           20 / 30,    Execution time    0.0 s
 Computed χ(iτ,k=0) for time point           21 / 30,    Execution time    0.0 s
 Computed χ(iτ,k=0) for time point           22 / 30,    Execution time    0.0 s
 Computed χ(iτ,k=0) for time point           23 / 30,    Execution time    0.0 s
 Computed χ(iτ,k=0) for time point           24 / 30,    Execution time    0.0 s
 Computed χ(iτ,k=0) for time point           25 / 30,    Execution time    0.0 s
 Computed χ(iτ,k=0) for time point           26 / 30,    Execution time    0.0 s
 Computed χ(iτ,k=0) for time point           27 / 30,    Execution time    0.0 s
 Computed χ(iτ,k=0) for time point           28 / 30,    Execution time    0.0 s
 Computed χ(iτ,k=0) for time point           29 / 30,    Execution time    0.0 s
 Computed χ(iτ,k=0) for time point           30 / 30,    Execution time    0.0 s
 
 Computed W(iτ),                                         Execution time    0.1 s
 
 Computed Σ^x(k=0),                                      Execution time    0.0 s
 
 Computed Σ^c(iτ) for time point              1 / 30,    Execution time    0.0 s
 Computed Σ^c(iτ) for time point              2 / 30,    Execution time    0.0 s
 Computed Σ^c(iτ) for time point              3 / 30,    Execution time    0.0 s
 Computed Σ^c(iτ) for time point              4 / 30,    Execution time    0.0 s
 Computed Σ^c(iτ) for time point              5 / 30,    Execution time    0.0 s
 Computed Σ^c(iτ) for time point              6 / 30,    Execution time    0.0 s
 Computed Σ^c(iτ) for time point              7 / 30,    Execution time    0.0 s
 Computed Σ^c(iτ) for time point              8 / 30,    Execution time    0.0 s
 Computed Σ^c(iτ) for time point              9 / 30,    Execution time    0.0 s
 Computed Σ^c(iτ) for time point             10 / 30,    Execution time    0.0 s
 Computed Σ^c(iτ) for time point             11 / 30,    Execution time    0.0 s
 Computed Σ^c(iτ) for time point             12 / 30,    Execution time    0.0 s
 Computed Σ^c(iτ) for time point             13 / 30,    Execution time    0.0 s
 Computed Σ^c(iτ) for time point             14 / 30,    Execution time    0.0 s
 Computed Σ^c(iτ) for time point             15 / 30,    Execution time    0.0 s
 Computed Σ^c(iτ) for time point             16 / 30,    Execution time    0.0 s
 Computed Σ^c(iτ) for time point             17 / 30,    Execution time    0.0 s
 Computed Σ^c(iτ) for time point             18 / 30,    Execution time    0.0 s
 Computed Σ^c(iτ) for time point             19 / 30,    Execution time    0.0 s
 Computed Σ^c(iτ) for time point             20 / 30,    Execution time    0.0 s
 Computed Σ^c(iτ) for time point             21 / 30,    Execution time    0.0 s
 Computed Σ^c(iτ) for time point             22 / 30,    Execution time    0.0 s
 Computed Σ^c(iτ) for time point             23 / 30,    Execution time    0.0 s
 Computed Σ^c(iτ) for time point             24 / 30,    Execution time    0.0 s
 Computed Σ^c(iτ) for time point             25 / 30,    Execution time    0.0 s
 Computed Σ^c(iτ) for time point             26 / 30,    Execution time    0.0 s
 Computed Σ^c(iτ) for time point             27 / 30,    Execution time    0.0 s
 Computed Σ^c(iτ) for time point             28 / 30,    Execution time    0.0 s
 Computed Σ^c(iτ) for time point             29 / 30,    Execution time    0.0 s
 Computed Σ^c(iτ) for time point             30 / 30,    Execution time    0.0 s
 
 SCF valence band maximum (eV):                                           -7.865
 SCF conduction band minimum (eV):                                        -2.002
 SCF indirect band gap (eV):                                               5.863
 SCF direct band gap (eV):                                                 5.863
 
 G0W0 valence band maximum (eV):                                         -11.560
 G0W0 conduction band minimum (eV):                                        1.156
 G0W0 indirect band gap (eV):                                             12.716
 G0W0 direct band gap (eV):                                               12.716
 
 Hartree-Fock with SCF orbitals valence band maximum (eV):               -12.587
 Hartree-Fock with SCF orbitals conduction band minimum (eV)               2.232
 Hartree-Fock with SCF orbitals indirect band gap (eV):                   14.819
 Hartree-Fock with SCF orbitals direct band gap (eV):                     14.819

 ENERGY| Total FORCE_EVAL ( QS ) energy [hartree]             -9.173599771103852

 -------------------------------------------------------------------------------
 -                                                                             -
 -                                DBCSR STATISTICS                             -
 -                                                                             -
 -------------------------------------------------------------------------------
 COUNTER                                    TOTAL       BLAS       SMM       ACC
 flops     6 x     6 x     6                 1296     100.0%      0.0%      0.0%     
 flops     2 x    20 x     2                12160     100.0%      0.0%      0.0%     
 flops     2 x     2 x    18                12672     100.0%      0.0%      0.0%     
 flops     2 x    25 x     2                15200     100.0%      0.0%      0.0%     
 flops     2 x    30 x     2                18240     100.0%      0.0%      0.0%     
 flops     2 x    31 x     2                18848     100.0%      0.0%      0.0%     
 flops     6 x     6 x    36                28512     100.0%      0.0%      0.0%     
 flops     2 x    27 x     2                31968     100.0%      0.0%      0.0%     
 flops     2 x    32 x     2                38400     100.0%      0.0%      0.0%     
 flops    26 x     2 x    20                41600     100.0%      0.0%      0.0%     
 flops     2 x     9 x     2                52560     100.0%      0.0%      0.0%     
 flops     2 x     2 x    88                53504     100.0%      0.0%      0.0%     
 flops     2 x     2 x    89                54112     100.0%      0.0%      0.0%     
 flops     9 x     6 x     6                54432     100.0%      0.0%      0.0%     
 flops     2 x    29 x     2                57768     100.0%      0.0%      0.0%     
 flops    29 x     6 x     6                58464     100.0%      0.0%      0.0%     
 flops     6 x     6 x    38                60192     100.0%      0.0%      0.0%     
 flops    20 x    20 x     2                60800     100.0%      0.0%      0.0%     
 flops     2 x    20 x    20                64000     100.0%      0.0%      0.0%     
 flops    29 x     9 x     6                75168     100.0%      0.0%      0.0%     
 flops     9 x    29 x     6                75168     100.0%      0.0%      0.0%     
 flops    20 x    25 x     2                76000     100.0%      0.0%      0.0%     
 flops    25 x    20 x     2                76000     100.0%      0.0%      0.0%     
 flops     2 x    25 x    20                80000     100.0%      0.0%      0.0%     
 flops     9 x     9 x     6                81648     100.0%      0.0%      0.0%     
 flops    30 x    20 x     2                91200     100.0%      0.0%      0.0%     
 flops    20 x    30 x     2                91200     100.0%      0.0%      0.0%     
 flops     9 x     6 x    36                93312     100.0%      0.0%      0.0%     
 flops    31 x    20 x     2                94240     100.0%      0.0%      0.0%     
 flops    20 x    31 x     2                94240     100.0%      0.0%      0.0%     
 flops     2 x     2 x    47                94752     100.0%      0.0%      0.0%     
 flops    25 x    25 x     2                95000     100.0%      0.0%      0.0%     
 flops     2 x    30 x    20                96000     100.0%      0.0%      0.0%     
 flops     2 x    31 x    20                99200     100.0%      0.0%      0.0%     
 flops    29 x     6 x    36               100224     100.0%      0.0%      0.0%     
 flops    30 x    25 x     2               114000     100.0%      0.0%      0.0%     
 flops    25 x    30 x     2               114000     100.0%      0.0%      0.0%     
 flops     2 x     2 x     9               114624     100.0%      0.0%      0.0%     
 flops    31 x    25 x     2               117800     100.0%      0.0%      0.0%     
 flops    25 x    31 x     2               117800     100.0%      0.0%      0.0%     
 flops    29 x    29 x     6               121104     100.0%      0.0%      0.0%     
 flops     2 x     2 x    29               124352     100.0%      0.0%      0.0%     
 flops    26 x     2 x    27               134784     100.0%      0.0%      0.0%     
 flops    30 x    30 x     2               136800     100.0%      0.0%      0.0%     
 flops    31 x    30 x     2               141360     100.0%      0.0%      0.0%     
 flops    30 x    31 x     2               141360     100.0%      0.0%      0.0%     
 flops    31 x    31 x     2               146072     100.0%      0.0%      0.0%     
 flops    32 x     2 x    20               158720     100.0%      0.0%      0.0%     
 flops    26 x     2 x    32               159744     100.0%      0.0%      0.0%     
 flops    27 x    20 x     2               164160     100.0%      0.0%      0.0%     
 flops    20 x    27 x     2               164160     100.0%      0.0%      0.0%     
 flops     2 x    20 x    27               172800     100.0%      0.0%      0.0%     
 flops     2 x    27 x    20               172800     100.0%      0.0%      0.0%     
 flops    20 x    32 x     2               194560     100.0%      0.0%      0.0%     
 flops     9 x     6 x    38               196992     100.0%      0.0%      0.0%     
 flops     2 x    32 x    20               204800     100.0%      0.0%      0.0%     
 flops    27 x    25 x     2               205200     100.0%      0.0%      0.0%     
 flops    25 x    27 x     2               205200     100.0%      0.0%      0.0%     
 flops    29 x     6 x    38               211584     100.0%      0.0%      0.0%     
 flops     2 x    25 x    27               216000     100.0%      0.0%      0.0%     
 flops    25 x    32 x     2               243200     100.0%      0.0%      0.0%     
 flops    27 x    30 x     2               246240     100.0%      0.0%      0.0%     
 flops    30 x    27 x     2               246240     100.0%      0.0%      0.0%     
 flops    27 x    31 x     2               254448     100.0%      0.0%      0.0%     
 flops    31 x    27 x     2               254448     100.0%      0.0%      0.0%     
 flops     2 x    30 x    27               259200     100.0%      0.0%      0.0%     
 flops     2 x    31 x    27               267840     100.0%      0.0%      0.0%     
 flops    30 x    32 x     2               291840     100.0%      0.0%      0.0%     
 flops    31 x    32 x     2               301568     100.0%      0.0%      0.0%     
 flops     9 x     6 x     9               349920     100.0%      0.0%      0.0%     
 flops    29 x     6 x     9               375840     100.0%      0.0%      0.0%     
 flops     9 x     6 x    29               375840     100.0%      0.0%      0.0%     
 flops    29 x     6 x    29               403680     100.0%      0.0%      0.0%     
 flops    27 x    27 x     2               443232     100.0%      0.0%      0.0%     
 flops    26 x    20 x     2               468000     100.0%      0.0%      0.0%     
 flops     2 x    27 x    27               478224     100.0%      0.0%      0.0%     
 flops    26 x     2 x    18               494208     100.0%      0.0%      0.0%     
 flops     2 x    26 x    18               494208     100.0%      0.0%      0.0%     
 flops     2 x    20 x    26               499200     100.0%      0.0%      0.0%     
 flops    32 x     2 x    27               525312     100.0%      0.0%      0.0%     
 flops    27 x    32 x     2               525312     100.0%      0.0%      0.0%     
 flops     2 x    32 x    27               563328     100.0%      0.0%      0.0%     
 flops    26 x    25 x     2               585000     100.0%      0.0%      0.0%     
 flops     2 x    25 x    26               624000     100.0%      0.0%      0.0%     
 flops    32 x     2 x    32               630784     100.0%      0.0%      0.0%     
 flops    26 x    30 x     2               698880     100.0%      0.0%      0.0%     
 flops    26 x    31 x     2               722176     100.0%      0.0%      0.0%     
 flops     2 x    30 x    26               748800     100.0%      0.0%      0.0%     
 flops     9 x     9 x     2               769824     100.0%      0.0%      0.0%     
 flops     2 x    31 x    26               773760     100.0%      0.0%      0.0%     
 flops    29 x     9 x     2               826848     100.0%      0.0%      0.0%     
 flops     9 x    29 x     2               826848     100.0%      0.0%      0.0%     
 flops    29 x    29 x     2               888096     100.0%      0.0%      0.0%     
 flops    26 x    27 x     2              1241136     100.0%      0.0%      0.0%     
 flops     2 x    27 x    26              1347840     100.0%      0.0%      0.0%     
 flops    26 x    32 x     2              1487616     100.0%      0.0%      0.0%     
 flops     2 x    32 x    26              1597440     100.0%      0.0%      0.0%     
 flops    26 x    26 x    20              1622400     100.0%      0.0%      0.0%     
 flops     2 x     9 x     9              2050272     100.0%      0.0%      0.0%     
 flops    26 x     2 x    88              2086656     100.0%      0.0%      0.0%     
 flops     2 x    26 x    88              2086656     100.0%      0.0%      0.0%     
 flops    26 x     2 x    89              2110368     100.0%      0.0%      0.0%     
 flops     2 x    26 x    89              2110368     100.0%      0.0%      0.0%     
 flops     2 x     9 x    29              2213280     100.0%      0.0%      0.0%     
 flops     2 x    29 x     9              2213280     100.0%      0.0%      0.0%     
 flops    26 x     9 x     2              2214576     100.0%      0.0%      0.0%     
 flops     2 x     9 x    26              2236104     100.0%      0.0%      0.0%     
 flops    20 x    20 x    26              2371200     100.0%      0.0%      0.0%     
 flops    26 x    29 x     2              2394704     100.0%      0.0%      0.0%     
 flops     2 x    29 x    26              2394704     100.0%      0.0%      0.0%     
 flops     2 x    29 x    29              2395168     100.0%      0.0%      0.0%     
 flops    26 x    20 x    20              2620800     100.0%      0.0%      0.0%     
 flops    20 x    25 x    26              2964000     100.0%      0.0%      0.0%     
 flops    25 x    20 x    26              2964000     100.0%      0.0%      0.0%     
 flops    32 x     2 x    18              3041280     100.0%      0.0%      0.0%     
 flops     2 x    32 x    18              3041280     100.0%      0.0%      0.0%     
 flops    32 x    20 x     2              3100160     100.0%      0.0%      0.0%     
 flops     2 x    20 x    32              3274240     100.0%      0.0%      0.0%     
 flops    26 x    25 x    20              3276000     100.0%      0.0%      0.0%     
 flops    30 x    20 x    26              3556800     100.0%      0.0%      0.0%     
 flops    20 x    30 x    26              3556800     100.0%      0.0%      0.0%     
 flops    31 x    20 x    26              3675360     100.0%      0.0%      0.0%     
 flops    20 x    31 x    26              3675360     100.0%      0.0%      0.0%     
 flops    26 x     2 x    47              3695328     100.0%      0.0%      0.0%     
 flops     2 x    26 x    47              3695328     100.0%      0.0%      0.0%     
 flops    25 x    25 x    26              3705000     100.0%      0.0%      0.0%     
 flops    32 x    25 x     2              3875200     100.0%      0.0%      0.0%     
 flops    26 x    30 x    20              3931200     100.0%      0.0%      0.0%     
 flops    26 x    31 x    20              4062240     100.0%      0.0%      0.0%     
 flops     2 x    25 x    32              4089600     100.0%      0.0%      0.0%     
 flops    30 x    25 x    26              4446000     100.0%      0.0%      0.0%     
 flops    25 x    30 x    26              4446000     100.0%      0.0%      0.0%     
 flops    26 x     2 x     9              4470336     100.0%      0.0%      0.0%     
 flops     2 x    26 x     9              4470336     100.0%      0.0%      0.0%     
 flops    31 x    25 x    26              4594200     100.0%      0.0%      0.0%     
 flops    25 x    31 x    26              4594200     100.0%      0.0%      0.0%     
 flops    32 x    30 x     2              4638720     100.0%      0.0%      0.0%     
 flops    32 x    31 x     2              4793344     100.0%      0.0%      0.0%     
 flops    26 x     2 x    29              4849728     100.0%      0.0%      0.0%     
 flops     2 x    26 x    29              4849728     100.0%      0.0%      0.0%     
 flops     2 x    30 x    32              4899840     100.0%      0.0%      0.0%     
 flops     2 x    31 x    32              5067136     100.0%      0.0%      0.0%     
 flops    26 x    26 x    27              5256576     100.0%      0.0%      0.0%     
 flops    30 x    30 x    26              5335200     100.0%      0.0%      0.0%     
 flops    31 x    30 x    26              5513040     100.0%      0.0%      0.0%     
 flops    30 x    31 x    26              5513040     100.0%      0.0%      0.0%     
 flops    31 x    31 x    26              5696808     100.0%      0.0%      0.0%     
 flops    32 x    26 x    20              6190080     100.0%      0.0%      0.0%     
 flops    26 x    26 x    32              6230016     100.0%      0.0%      0.0%     
 flops    27 x    20 x    26              6402240     100.0%      0.0%      0.0%     
 flops    20 x    27 x    26              6402240     100.0%      0.0%      0.0%     
 flops    26 x    20 x    27              7076160     100.0%      0.0%      0.0%     
 flops    26 x    27 x    20              7076160     100.0%      0.0%      0.0%     
 flops    20 x    32 x    26              7587840     100.0%      0.0%      0.0%     
 flops    27 x    25 x    26              8002800     100.0%      0.0%      0.0%     
 flops    25 x    27 x    26              8002800     100.0%      0.0%      0.0%     
 flops    32 x    27 x     2              8342784     100.0%      0.0%      0.0%     
 flops     2 x    27 x    32              8826624     100.0%      0.0%      0.0%     
 flops    26 x    25 x    27              8845200     100.0%      0.0%      0.0%     
 flops    25 x    32 x    26              9484800     100.0%      0.0%      0.0%     
 flops    27 x    30 x    26              9603360     100.0%      0.0%      0.0%     
 flops    30 x    27 x    26              9603360     100.0%      0.0%      0.0%     
 flops    32 x    32 x     2              9920512     100.0%      0.0%      0.0%     
 flops    27 x    31 x    26              9923472     100.0%      0.0%      0.0%     
 flops    31 x    27 x    26              9923472     100.0%      0.0%      0.0%     
 flops     2 x    32 x    32             10481664     100.0%      0.0%      0.0%     
 flops    26 x    30 x    27             10614240     100.0%      0.0%      0.0%     
 flops    26 x    31 x    27             10968048     100.0%      0.0%      0.0%     
 flops    30 x    32 x    26             11381760     100.0%      0.0%      0.0%     
 flops    31 x    32 x    26             11761152     100.0%      0.0%      0.0%     
 flops    32 x     2 x    88             12840960     100.0%      0.0%      0.0%     
 flops     2 x    32 x    88             12840960     100.0%      0.0%      0.0%     
 flops    32 x     2 x    89             12986880     100.0%      0.0%      0.0%     
 flops     2 x    32 x    89             12986880     100.0%      0.0%      0.0%     
 flops    32 x     9 x     2             13621248     100.0%      0.0%      0.0%     
 flops     2 x     9 x    32             13887360     100.0%      0.0%      0.0%     
 flops    20 x    20 x    32             14720000     100.0%      0.0%      0.0%     
 flops    32 x    29 x     2             14899968     100.0%      0.0%      0.0%     
 flops     2 x    29 x    32             15193216     100.0%      0.0%      0.0%     
 flops    32 x    20 x    20             16128000     100.0%      0.0%      0.0%     
 flops    27 x    27 x    26             17286048     100.0%      0.0%      0.0%     
 flops    26 x    32 x    20             18370560     100.0%      0.0%      0.0%     
 flops    20 x    25 x    32             18400000     100.0%      0.0%      0.0%     
 flops    25 x    20 x    32             18400000     100.0%      0.0%      0.0%     
 flops    26 x    27 x    27             19105632     100.0%      0.0%      0.0%     
 flops    26 x    26 x    18             19274112     100.0%      0.0%      0.0%     
 flops    26 x    20 x    26             19468800     100.0%      0.0%      0.0%     
 flops    32 x    25 x    20             20160000     100.0%      0.0%      0.0%     
 flops    32 x    26 x    27             20487168     100.0%      0.0%      0.0%     
 flops    27 x    32 x    26             20487168     100.0%      0.0%      0.0%     
 flops    30 x    20 x    32             22080000     100.0%      0.0%      0.0%     
 flops    20 x    30 x    32             22425600     100.0%      0.0%      0.0%     
 flops    32 x     2 x    47             22740480     100.0%      0.0%      0.0%     
 flops     2 x    32 x    47             22740480     100.0%      0.0%      0.0%     
 flops    31 x    20 x    32             22816000     100.0%      0.0%      0.0%     
 flops    25 x    25 x    32             23000000     100.0%      0.0%      0.0%     
 flops    20 x    31 x    32             23173120     100.0%      0.0%      0.0%     
 flops    32 x    30 x    20             24192000     100.0%      0.0%      0.0%     
 flops    26 x    25 x    26             24336000     100.0%      0.0%      0.0%     
 flops    32 x    26 x    32             24600576     100.0%      0.0%      0.0%     
 flops    32 x    31 x    20             24998400     100.0%      0.0%      0.0%     
 flops    32 x     2 x     9             27509760     100.0%      0.0%      0.0%     
 flops     2 x    32 x     9             27509760     100.0%      0.0%      0.0%     
 flops    30 x    25 x    32             27600000     100.0%      0.0%      0.0%     
 flops    25 x    30 x    32             28032000     100.0%      0.0%      0.0%     
 flops    31 x    25 x    32             28520000     100.0%      0.0%      0.0%     
 flops    25 x    31 x    32             28966400     100.0%      0.0%      0.0%     
 flops    26 x    30 x    26             29203200     100.0%      0.0%      0.0%     
 flops    32 x     2 x    29             29844480     100.0%      0.0%      0.0%     
 flops     2 x    32 x    29             29844480     100.0%      0.0%      0.0%     
 flops    26 x    31 x    26             30176640     100.0%      0.0%      0.0%     
 flops     9 x     9 x    26             31741632     100.0%      0.0%      0.0%     
 flops    30 x    30 x    32             33638400     100.0%      0.0%      0.0%     
 flops    29 x     9 x    26             34092864     100.0%      0.0%      0.0%     
 flops     9 x    29 x    26             34201440     100.0%      0.0%      0.0%     
 flops    31 x    30 x    32             34759680     100.0%      0.0%      0.0%     
 flops    30 x    31 x    32             34759680     100.0%      0.0%      0.0%     
 flops    31 x    31 x    32             35918336     100.0%      0.0%      0.0%     
 flops    29 x    29 x    26             36734880     100.0%      0.0%      0.0%     
 flops    27 x    20 x    32             39744000     100.0%      0.0%      0.0%     
 flops    20 x    27 x    32             40366080     100.0%      0.0%      0.0%     
 flops    32 x    20 x    27             43545600     100.0%      0.0%      0.0%     
 flops    32 x    27 x    20             43545600     100.0%      0.0%      0.0%     
 flops    20 x    32 x    32             48168960     100.0%      0.0%      0.0%     
 flops    27 x    25 x    32             49680000     100.0%      0.0%      0.0%     
 flops    25 x    27 x    32             50457600     100.0%      0.0%      0.0%     
 flops    26 x    27 x    26             52565760     100.0%      0.0%      0.0%     
 flops    32 x    25 x    27             54432000     100.0%      0.0%      0.0%     
 flops    26 x    32 x    27             54991872     100.0%      0.0%      0.0%     
 flops    25 x    32 x    32             60211200     100.0%      0.0%      0.0%     
 flops    27 x    30 x    32             60549120     100.0%      0.0%      0.0%     
 flops    30 x    27 x    32             60549120     100.0%      0.0%      0.0%     
 flops    26 x    32 x    26             62300160     100.0%      0.0%      0.0%     
 flops    27 x    31 x    32             62567424     100.0%      0.0%      0.0%     
 flops    31 x    27 x    32             62567424     100.0%      0.0%      0.0%     
 flops    32 x    30 x    27             65318400     100.0%      0.0%      0.0%     
 flops    32 x    31 x    27             67495680     100.0%      0.0%      0.0%     
 flops    30 x    32 x    32             72253440     100.0%      0.0%      0.0%     
 flops    31 x    32 x    32             74661888     100.0%      0.0%      0.0%     
 flops    26 x     9 x     9             79960608     100.0%      0.0%      0.0%     
 flops    26 x    26 x    88             81379584     100.0%      0.0%      0.0%     
 flops    26 x    26 x    89             82304352     100.0%      0.0%      0.0%     
 flops    26 x     9 x    29             86317920     100.0%      0.0%      0.0%     
 flops    26 x    29 x     9             86317920     100.0%      0.0%      0.0%     
 flops    32 x    32 x    20             89702400     100.0%      0.0%      0.0%     
 flops    26 x     9 x    26             91990080     100.0%      0.0%      0.0%     
 flops    26 x    29 x    29             93411552     100.0%      0.0%      0.0%     
 flops    26 x    29 x    26             98804160     100.0%      0.0%      0.0%     
 flops    27 x    27 x    32            108988416     100.0%      0.0%      0.0%     
 flops    32 x    27 x    27            117573120     100.0%      0.0%      0.0%     
 flops    32 x    26 x    18            118609920     100.0%      0.0%      0.0%     
 flops    26 x    32 x    18            118609920     100.0%      0.0%      0.0%     
 flops    32 x    20 x    26            127395840     100.0%      0.0%      0.0%     
 flops    26 x    20 x    32            127928320     100.0%      0.0%      0.0%     
 flops    27 x    32 x    32            130056192     100.0%      0.0%      0.0%     
 flops    26 x    26 x    47            144117792     100.0%      0.0%      0.0%     
 flops    32 x    25 x    26            159244800     100.0%      0.0%      0.0%     
 flops    26 x    25 x    32            159868800     100.0%      0.0%      0.0%     
 flops    26 x    26 x     9            174343104     100.0%      0.0%      0.0%     
 flops    26 x    26 x    29            189139392     100.0%      0.0%      0.0%     
 flops    32 x    30 x    26            191093760     100.0%      0.0%      0.0%     
 flops    26 x    30 x    32            191642880     100.0%      0.0%      0.0%     
 flops     9 x     9 x    32            195146496     100.0%      0.0%      0.0%     
 flops    32 x    31 x    26            197463552     100.0%      0.0%      0.0%     
 flops    26 x    31 x    32            197979392     100.0%      0.0%      0.0%     
 flops    29 x     9 x    32            209601792     100.0%      0.0%      0.0%     
 flops     9 x    29 x    32            210370176     100.0%      0.0%      0.0%     
 flops    29 x    29 x    32            225953152     100.0%      0.0%      0.0%     
 flops    32 x    32 x    27            265420800     100.0%      0.0%      0.0%     
 flops    32 x    27 x    26            343968768     100.0%      0.0%      0.0%     
 flops    26 x    27 x    32            344597760     100.0%      0.0%      0.0%     
 flops    32 x    32 x    26            407666688     100.0%      0.0%      0.0%     
 flops    26 x    32 x    32            447336448     100.0%      0.0%      0.0%     
 flops    32 x     9 x     9            492065280     100.0%      0.0%      0.0%     
 flops    32 x    26 x    88            500797440     100.0%      0.0%      0.0%     
 flops    26 x    32 x    88            500797440     100.0%      0.0%      0.0%     
 flops    32 x    26 x    89            506488320     100.0%      0.0%      0.0%     
 flops    26 x    32 x    89            506488320     100.0%      0.0%      0.0%     
 flops    32 x     9 x    29            531187200     100.0%      0.0%      0.0%     
 flops    32 x    29 x     9            531187200     100.0%      0.0%      0.0%     
 flops    26 x     9 x    32            566362368     100.0%      0.0%      0.0%     
 flops    32 x     9 x    26            566497152     100.0%      0.0%      0.0%     
 flops    32 x    29 x    29            574840320     100.0%      0.0%      0.0%     
 flops    32 x    29 x    26            608073856     100.0%      0.0%      0.0%     
 flops    26 x    29 x    32            615022720     100.0%      0.0%      0.0%     
 flops    32 x    32 x    18            729907200     100.0%      0.0%      0.0%     
 flops    32 x    20 x    32            835338240     100.0%      0.0%      0.0%     
 flops    32 x    26 x    47            886878720     100.0%      0.0%      0.0%     
 flops    26 x    32 x    47            886878720     100.0%      0.0%      0.0%     
 flops    32 x    25 x    32           1044172800     100.0%      0.0%      0.0%     
 flops    32 x    26 x     9           1072880640     100.0%      0.0%      0.0%     
 flops    26 x    32 x     9           1072880640     100.0%      0.0%      0.0%     
 flops    32 x    26 x    29           1163934720     100.0%      0.0%      0.0%     
 flops    26 x    32 x    29           1163934720     100.0%      0.0%      0.0%     
 flops    32 x    30 x    32           1253990400     100.0%      0.0%      0.0%     
 flops    32 x    31 x    32           1295790080     100.0%      0.0%      0.0%     
 flops    32 x    27 x    32           2255800320     100.0%      0.0%      0.0%     
 flops    32 x    32 x    32           2827747328     100.0%      0.0%      0.0%     
 flops    32 x    32 x    88           3081830400     100.0%      0.0%      0.0%     
 flops    32 x    32 x    89           3116851200     100.0%      0.0%      0.0%     
 flops    32 x     9 x    32           3504015360     100.0%      0.0%      0.0%     
 flops    32 x    29 x    32           3808215040     100.0%      0.0%      0.0%     
 flops    32 x    32 x    47           5457715200     100.0%      0.0%      0.0%     
 flops    32 x    32 x     9           6602342400     100.0%      0.0%      0.0%     
 flops    32 x    32 x    29           7162675200     100.0%      0.0%      0.0%     
 flops inhomo. stacks                  1561706496     100.0%      0.0%      0.0%
 flops total                        65.867886E+09     100.0%      0.0%      0.0%
 flops max/rank                      8.148676E+09     100.0%      0.0%      0.0%
 matmuls inhomo. stacks                     24576     100.0%      0.0%      0.0%
 matmuls total                            1993085     100.0%      0.0%      0.0%
 number of processed stacks                259143     100.0%      0.0%      0.0%
 average stack size                                     7.7       0.0       0.0
 marketing flops                    97.392902E+09
 -------------------------------------------------------------------------------
 # multiplications                           2132
 max memory usage/rank              23.926190E+09
 # max total images/rank                        1
 # max 3D layers                                1
 # MPI messages exchanged                   19188
 MPI messages size (bytes):
  total size                         3.010498E+09
  min size                           0.000000E+00
  max size                           1.155200E+06
  average size                     156.894828E+03
 MPI breakdown and total messages size (bytes):
             size <=      128                3644                        0
       128 < size <=     8192                1278                  5848224
      8192 < size <=    32768                1020                 16438928
     32768 < size <=   131072                4444                337697328
    131072 < size <=  4194304                8802               2650513568
   4194304 < size <= 16777216                   0                        0
  16777216 < size                               0                        0
 -------------------------------------------------------------------------------
 -                                                                             -
 -                      DBCSR MESSAGE PASSING PERFORMANCE                      -
 -                                                                             -
 -------------------------------------------------------------------------------
 ROUTINE             CALLS      AVE VOLUME [Bytes]
 MP_Bcast              306                     12.
 MP_Allreduce         2861                     18.
 MP_Alltoall          3469                   5982.
 MP_ISend             7900                  55430.
 MP_IRecv             7608                  46168.
 -------------------------------------------------------------------------------

 -------------------------------------------------------------------------------
 -                                                                             -
 -                                GRID STATISTICS                              -
 -                                                                             -
 -------------------------------------------------------------------------------
 LP    KERNEL             BACKEND                              COUNT     PERCENT
 2     collocate ortho    CPU                                  11248      28.26%
 2     integrate ortho    CPU                                  11248      28.26%
 4     collocate ortho    CPU                                   6784      17.04%
 4     integrate ortho    CPU                                   6784      17.04%
 6     collocate ortho    CPU                                   1728       4.34%
 6     integrate ortho    CPU                                   1728       4.34%
 0     collocate general  CPU                                    288       0.72%
 -------------------------------------------------------------------------------

 -------------------------------------------------------------------------------
 -                                                                             -
 -                          OFFLOAD MEMPOOL STATISTICS                         -
 -                                                                             -
 -------------------------------------------------------------------------------
 Memory consumption                Number of allocations  Used [MiB]  Size [MiB]
 Host                                                  6          84    22344272
 -------------------------------------------------------------------------------

 MEMORY| Estimated peak process memory [MiB]                                2112

 -------------------------------------------------------------------------------
 -                                                                             -
 -                         MESSAGE PASSING PERFORMANCE                         -
 -                                                                             -
 -------------------------------------------------------------------------------

 ROUTINE             CALLS      AVE VOLUME [Bytes]
 MP_Group                5
 MP_Bcast              217                 227769.
 MP_Allreduce         1168                   7692.
 MP_Sync                10
 MP_Alltoall            84               91206073.
 MP_SendRecv            64                 580800.
 MP_ISendRecv           64                 580800.
 MP_Wait               336
 MP_comm_split          10
 MP_ISend              221                3100009.
 MP_IRecv              221                3098923.
 -------------------------------------------------------------------------------


 -------------------------------------------------------------------------------
 -                                                                             -
 -                           R E F E R E N C E S                               -
 -                                                                             -
 -------------------------------------------------------------------------------
 
 CP2K version 2026.2 (Development Version), the CP2K developers group (2026).
 CP2K is freely available from https://www.cp2k.org/ .
 
 M. Iannuzzi, J. Wilhelm, F. Stein, A. Bussy, H. Elgabarty, D. Golze, A. Hehn, 
 M. Graml, S. Marek, B. Sertcan Gökmen, C. Schran, H. Forbert, R. Z. 
 Khaliullin, A. Kozhevnikov, M. Taillefumier, R. Meli, V. V. Rybkin, M. Brehm, 
 R. Schade, O. Schütt, J. V. Pototschnig, H. Mirhosseini, A. Knüpfer, D. Marx, 
 M. Krack, J. Hutter, T. D. Kühne.
 J. Phys. Chem. B 130, 1237-1310 (2026).
 The CP2K Program Package Made Simple.
 https://doi.org/10.1021/acs.jpcb.5c05851

 M. Graml, K. Zollner, D. Hernangómez-Pérez, P. E. Faria Junior, J. Wilhelm.
 J. Chem. Theory Comput. 20, 2202-2208 (2024).
 Low-scaling GW algorithm applied to twisted transition-metal dichalcogenide 
 heterobilayers.
 https://doi.org/10.1021/acs.jctc.3c01230

 T. D. Kühne, M. Iannuzzi, M. Del Ben, V. V. Rybkin, P. Seewald, F. Stein, T. 
 Laino, R. Z. Khaliullin, O. Schütt, F. Schiffmann, D. Golze, J. Wilhelm, S. 
 Chulkov, M. H. Bani-Hashemian, V. Weber, U. Borstnik, M. Taillefumier, A. S. 
 Jakobovits, A. Lazzaro, H. Pabst, T. Müller, R. Schade, M. Guidon, S. 
 Andermatt, N. Holmberg, G. K. Schenter, A. Hehn, A. Bussy, F. Belleflamme, G. 
 Tabacchi, A. Glöß, M. Lass, I. Bethune, C. J. Mundy, C. Plessl, M. Watkins, 
 J. VandeVondele, M. Krack, J. Hutter.
 J. Chem. Phys. 152, 194103 (2020).
 CP2K: An electronic structure and molecular dynamics software package - 
 Quickstep: Efficient and accurate electronic structure calculations.
 https://doi.org/10.1063/5.0007045

 O. Schuett, P. Messmer, J. Hutter, J. VandeVondele.
 Electronic Structure Calculations on Graphics Processing Units, 173-190 (2016).
 GPU-Accelerated Sparse Matrix-Matrix Multiplication for Linear Scaling Density 
 Functional Theory.
 https://doi.org/10.1002/9781118670712.ch8

 U. Borstnik, J. VandeVondele, V. Weber, J. Hutter.
 Parallel Comput. 40, 47-58 (2014).
 Sparse matrix multiplication: The distributed block-compressed sparse row 
 library.
 https://doi.org/10.1016/j.parco.2014.03.012

 J. VandeVondele, J. Hutter.
 J. Chem. Phys. 127, 114105 (2007).
 Gaussian basis sets for accurate calculations on molecular systems in gas and 
 condensed phases.
 https://doi.org/10.1063/1.2770708

 J. VandeVondele, M. Krack, F. Mohamed, M. Parrinello, T. Chassaing, J. Hutter.
 Comput. Phys. Commun. 167, 103-128 (2005).
 QUICKSTEP: Fast and accurate density functional calculations using a mixed 
 Gaussian and plane waves approach.
 https://doi.org/10.1016/j.cpc.2004.12.014

 M. Krack.
 Theor. Chem. Acc. 114, 145-152 (2005).
 Pseudopotentials for H to Kr optimized for gradient-corrected 
 exchange-correlation functionals.
 https://doi.org/10.1007/s00214-005-0655-y

 M. Frigo, S. G. Johnson.
 Proc. IEEE 93, 216-231 (2005).
 The design and implementation of FFTW3.
 https://doi.org/10.1109/JPROC.2004.840301

 J. VandeVondele, J. Hutter.
 J. Chem. Phys. 118, 4365-4369 (2003).
 An efficient orbital transformation method for electronic structure 
 calculations.
 https://doi.org/10.1063/1.1543154

 C. Hartwigsen, S. Goedecker, J. Hutter.
 Phys. Rev. B 58, 3641-3662 (1998).
 Relativistic separable dual-space Gaussian pseudopotentials from H to Rn.
 https://doi.org/10.1103/PhysRevB.58.3641

 G. Lippert, J. Hutter, M. Parrinello.
 Mol. Phys. 92, 477-487 (1997).
 A hybrid Gaussian and plane wave density functional scheme.
 https://doi.org/10.1080/002689797170220

 S. Goedecker, M. Teter, J. Hutter.
 Phys. Rev. B 54, 1703-1710 (1996).
 Separable dual-space Gaussian pseudopotentials.
 https://doi.org/10.1103/PhysRevB.54.1703

 J. P. Perdew, K. Burke, M. Ernzerhof.
 Phys. Rev. Lett. 77, 3865-3868 (1996).
 Generalized gradient approximation made simple.
 https://doi.org/10.1103/PhysRevLett.77.3865

 P. E. Blöchl.
 J. Chem. Phys. 103, 7422-7428 (1995).
 Electrostatic decoupling of periodic images of plane‐wave‐expanded 
 densities and derived atomic point charges.
 https://doi.org/10.1063/1.470314

 R. H. Byrd, P. H. Lu, J. Nocedal, C. Y. Zhu.
 SIAM J. Sci. Comput. 16, 1190-1208 (1995).
 A Limited Memory Algorithm for Bound Constrained Optimization.
 https://doi.org/10.1137/0916069


 -------------------------------------------------------------------------------
 -                                                                             -
 -                                T I M I N G                                  -
 -                                                                             -
 -------------------------------------------------------------------------------
 SUBROUTINE                       CALLS  ASD         SELF TIME        TOTAL TIME MAXRANK
                                MAXIMUM       AVERAGE  MAXIMUM  AVERAGE  MAXIMUM
 CP2K                                 1  1.0    0.014    0.021   84.389   84.390       0
 qs_energies                          1  2.0    0.000    0.000   83.619   83.619       0
 qs_energies_properties               1  3.0    0.000    0.000   76.408   76.408       0
 post_scf_bandstructure               1  4.0    0.000    0.000   76.408   76.408       0
 run_gw                               1  5.0    0.000    0.000   76.339   76.396       2
 gw_calc_ri_rs_non_periodic           1  6.0    0.000    0.000   74.624   74.817       0
 optimize_ri_rs_grid                  1  7.0    0.000    0.000   73.732   73.920       0
 mp_sum_d                           608  3.9   21.084   72.475   21.084   72.475       8
 rirs_grid_LBFGS                      1  8.0    1.026    1.502   71.302   71.931       0
 evaluate_rirs_grid_cluster         148  9.0    4.053    5.818   49.380   61.904       2
 rirs_cluster_gradient_products     148 10.0   14.923   19.378   14.923   19.378       7
 rirs_cluster_gradient_coordina     148 10.0   11.596   16.629   11.596   16.629       0
 rirs_cluster_D_ll                  148 10.0    7.895   10.081    7.895   10.081       7
 scf_env_do_scf                       1  3.0    0.000    0.000    6.471    6.471       0
 rirs_cluster_residual              148 10.0    4.483    6.163    4.483    6.163       2
 qs_ks_build_kohn_sham_matrix         4  7.2    0.003    0.003    5.413    5.413       3
 fft_wrap_pw1pw2                     62 10.2    0.002    0.003    4.844    5.090       3
 qs_ks_update_qs_env                  4  5.0    0.000    0.000    4.921    4.922       4
 rebuild_ks_matrix                    3  6.0    0.000    0.000    4.921    4.921       5
 scf_env_do_scf_inner_loop            3  4.0    0.000    0.000    4.800    4.800       0
 fft_wrap_pw1pw2_300                 38 11.6    0.219    0.317    4.606    4.774       2
 rirs_cluster_d_lP                  148 10.0    3.694    4.666    3.694    4.666       3
 fft3d_ps                            62 12.2    1.567    2.174    3.756    4.374       1
 rirs_cluster_AO_products           148 10.0    2.736    3.782    2.736    3.782       0
 qs_vxc_create                        4  8.2    0.000    0.000    3.435    3.508       2
 xc_vxc_pw_create                     3  9.0    0.052    0.063    3.435    3.508       4
 mp_alltoall_z22v                    62 14.2    1.522    3.151    1.522    3.151       8
 xc_pw_derive                        18 11.0    0.000    0.000    2.602    2.832       3
 qs_rho_update_rho_low                4  5.0    0.000    0.000    2.030    2.030       0
 calculate_rho_elec                   4  6.0    0.045    0.046    2.030    2.030       4
 initialize_ri_rs_grid                1  8.0    0.493    1.935    1.800    1.989       0
 mp_bcast_dm                         38  9.3    1.308    1.988    1.308    1.988       8
 create_and_init_bs_env_for_gw        1  6.0    0.004    0.006    1.715    1.911       2
 xc_pw_divergence                     3 10.0    0.000    0.000    1.703    1.902       3
 yz_to_x                             30 12.6    0.267    0.369    1.036    1.792       3
 xc_rho_set_and_dset_create           3 10.0    0.041    0.063    1.603    1.761       4
 x_to_yz                             32 13.8    0.398    0.530    1.151    1.693       3
 init_scf_loop                        1  4.0    0.000    0.000    1.670    1.670       5
 density_rs2pw                        4  7.0    0.000    0.000    1.333    1.519       3
 rirs_grid_build_clusters             1  8.0    0.401    0.623    0.629    0.977       0
 sum_up_and_integrate                 4  8.2    0.000    0.000    0.863    0.886       3
 integrate_v_rspace                   4  9.2    0.000    0.000    0.847    0.878       5
 potential_pw2rs                      4 10.2    0.002    0.004    0.834    0.865       3
 generate_auto_ri_basis               1  7.0    0.000    0.000    0.814    0.814       0
 grid_collocate_task_list             4  7.0    0.586    0.678    0.586    0.678       2
 qs_ks_ddapc                          4  8.2    0.000    0.000    0.606    0.631       2
 transfer_rs2pw                      17  7.9    0.000    0.000    0.319    0.589       3
 qs_init_subsys                       1  2.0    0.001    0.001    0.560    0.563       0
 qs_env_setup                         1  3.0    0.000    0.000    0.559    0.562       0
 qs_env_rebuild_pw_env                2  3.5    0.000    0.000    0.559    0.562       0
 pw_env_rebuild                       1  5.0    0.000    0.000    0.559    0.561       0
 pw_grid_setup                        5  5.2    0.000    0.000    0.554    0.557       0
 pw_grid_setup_internal               5  6.2    0.009    0.009    0.554    0.557       4
 mp_waitany                         221 11.4    0.259    0.555    0.259    0.555       8
 setup_time_and_frequency_minim       1  7.0    0.000    0.000    0.341    0.547       0
 build_minimax_time_frequency_g       1  8.0    0.000    0.000    0.341    0.547       8
 fit_l_sq_weights                     3  9.0    0.341    0.547    0.341    0.547       3
 init_scf_run                         1  3.0    0.000    0.000    0.535    0.536       0
 scf_env_initial_rho_setup            1  4.0    0.000    0.000    0.535    0.535       0
 transfer_rs2pw_300                   5  8.6    0.080    0.102    0.261    0.533       1
 compute_V_xc                         1  7.0    0.000    0.000    0.492    0.492       6
 pw_grid_sort                         5  7.2    0.324    0.338    0.475    0.486       2
 pw_poisson_solve                     4  8.2    0.000    0.000    0.438    0.474       3
 compute_Sigma_c_and_QP_energie       1  7.0    0.000    0.000    0.412    0.469       2
 compute_AB_optimized_RI_basis        1  8.0    0.000    0.000    0.458    0.458       0
 compute_AB_optimized_RI_basis_       1  9.0    0.000    0.000    0.450    0.457       0
 abc_contract_xsmm                10504  9.1    0.259    0.452    0.259    0.452       0
 compute_B_PQ_AB                      3 10.0    0.038    0.098    0.173    0.438       0
 pw_derive                           30 11.3    0.352    0.426    0.352    0.426       1
 mp_sum_dm                           56 10.8    0.302    0.420    0.302    0.420       8
 pw_scatter_p                        32 12.8    0.314    0.416    0.314    0.416       1
 compute_Sigma_c                      1  8.0    0.002    0.002    0.389    0.389       3
 pw_copy                             60 10.5    0.324    0.371    0.324    0.371       1
 pw_gather_p                         30 11.6    0.318    0.362    0.318    0.362       7
 contract_grid_panels_sigma_c        30  9.0    0.318    0.322    0.351    0.351       8
 cp_fm_get_submatrix                 52 10.0    0.000    0.000    0.264    0.324       0
 xc_functional_eval                   3 11.0    0.000    0.000    0.179    0.308       2
 pbe_lda_eval                         3 12.0    0.179    0.308    0.179    0.308       4
 compute_M_pq_inv_and_V_pq            1  8.0    0.000    0.000    0.308    0.308       0
 compute_contracted_RI_matrix         2  9.0    0.000    0.000    0.296    0.296       8
 compute_optimized_RI_matrix_bl       8 10.0    0.009    0.011    0.218    0.295       8
 compute_M_PQ_AB                    372 11.0    0.000    0.000    0.219    0.291       8
 compute_M_PQ                       372 12.0    0.000    0.000    0.219    0.290       8
 int_operators_r12_ab_os            372 13.0    0.000    0.000    0.219    0.290       8
 int_operator_ab_os_low             372 14.0    0.103    0.138    0.218    0.290       8
 pw_poisson_set                       5  8.6    0.000    0.000    0.247    0.283       2
 fft_wrap_pw1pw2_100                  8 10.6    0.010    0.024    0.198    0.282       3
 cp_ddapc_apply_CD                    4  9.2    0.000    0.000    0.151    0.260       0
 contract_B_PQ                       14 11.9    0.089    0.227    0.099    0.255       0
 get_mat_chi_Gamma_tau                1  7.0    0.000    0.001    0.248    0.248       0
 transfer_pw2rs                      16 11.2    0.000    0.000    0.245    0.246       3
 contract_grid_panels                31  8.0    0.209    0.221    0.230    0.240       8
 pw_integral_ab_c1d_c1d_gs            8  9.8    0.149    0.161    0.175    0.215       2
 copy_dbcsr_to_fm                   104  9.5    0.105    0.213    0.105    0.215       2
 qs_energies_init_hamiltonians        1  3.0    0.000    0.000    0.204    0.204       6
 qs_env_update_s_mstruct              1  4.0    0.000    0.000    0.203    0.203       0
 calculate_rho_core                   1  5.0    0.011    0.012    0.180    0.186       4
 get_ddapc                            4 10.2    0.000    0.000    0.068    0.177       4
 transfer_pw2rs_300                   4 12.2    0.072    0.092    0.165    0.177       2
 pw_axpy                             45  7.8    0.144    0.169    0.144    0.169       2
 sort_shells                          5  8.2    0.150    0.167    0.150    0.167       0
 create_qs_kind_set                   1  2.0    0.000    0.000    0.162    0.163       0
 read_qs_kind                         2  3.0    0.038    0.055    0.162    0.163       0
 pw_copy_to_array                    30 11.6    0.134    0.160    0.134    0.160       1
 compute_B_PQ_transition              7 10.9    0.000    0.000    0.051    0.139       8
 parser_read_line                 19988  4.0    0.004    0.004    0.124    0.127       8
 parser_read_line_low                24  5.0    0.005    0.033    0.120    0.124       0
 broadcast_input_information         24  6.0    0.004    0.015    0.115    0.122       0
 mp_waitall_1                       115 12.4    0.065    0.119    0.065    0.119       8
 compute_B_PQ_exchange                7 10.9    0.000    0.000    0.048    0.117       0
 compute_W                            1  7.0    0.000    0.000    0.116    0.116       0
 pw_copy_from_array                  32 12.8    0.089    0.111    0.089    0.111       5
 compute_Z_lP                         1  7.0    0.000    0.000    0.103    0.103       8
 compute_Z_lP_auto_ri                 1  8.0    0.000    0.000    0.103    0.103       3
 cp_fm_gemm                         434 10.5    0.092    0.097    0.092    0.097       1
 parallel_gemm_fm_gemm              431  9.6    0.000    0.000    0.092    0.097       7
 -------------------------------------------------------------------------------

 The number of warnings for this run is : 0
 
 -------------------------------------------------------------------------------
  **** **** ******  **  PROGRAM ENDED AT                 2026-10-03 11:51:59.640
 ***** ** ***  *** **   PROGRAM RAN ON                                  n2cn0539
 **    ****   ******    PROGRAM RAN BY                                  eprop2d1
 ***** **    ** ** **   PROGRAM PROCESS ID                               1355988
  **** **  *******  **  PROGRAM STOPPED IN /scratch/hpc-prf-metdyn/eprop2d1_Jan/
                                           53_benchmark_RI_opt/418_gw100_fig5_fu
                                           ll_epsfilter_1e12_20261002/calculatio
                                           ns/rc3p0/ri2_rs10/46_B2H6
