 DBCSR| CPU Multiplication driver                                           XSMM (U)
 DBCSR| Multrec recursion limit                                              512 (U)
 DBCSR| Multiplication stack size                                           1000 (D)
 DBCSR| Maximum elements for images                                    UNLIMITED (U)
 DBCSR| Multiplicative factor virtual images                                   1 (U)
 DBCSR| Use multiplication densification                                       T (D)
 DBCSR| Multiplication size stacks                                             3 (U)
 DBCSR| Use memory pool for CPU allocation                                     F (U)
 DBCSR| Number of 3D layers                                               SINGLE (U)
 DBCSR| Use MPI memory allocation                                              F (U)
 DBCSR| Use RMA algorithm                                                      F (U)
 DBCSR| Use Communication thread                                               T (U)
 DBCSR| Communication thread load                                             75 (D)
 DBCSR| MPI: My process id                                                     0
 DBCSR| MPI: Number of processes                                              32
 DBCSR| OMP: Current number of threads                                         4
 DBCSR| OMP: Max number of threads                                             4
 DBCSR| Split modifier for TAS multiplication algorithm                  1.0E+00 (U)


  **** **** ******  **  PROGRAM STARTED AT               2026-10-01 14:18:13.657
 ***** ** ***  *** **   PROGRAM STARTED ON                              n2cn0292
 **    ****   ******    PROGRAM STARTED BY                              eprop2d1
 ***** **    ** ** **   PROGRAM PROCESS ID                               2518619
  **** **  *******  **  PROGRAM STARTED IN /scratch/hpc-prf-metdyn/eprop2d1_Jan/
                                           53_benchmark_RI_opt/403_figure4_epsfi
                                           lter_20261001/h24_rc0p5_ri5_rs07_e12

 CP2K| version string:                 CP2K version 2026.2 (Development Version)
 CP2K| source code revision number:                                   d1dff42668
 CP2K| cp2kflags: omp libint fftw3 libxc parallel scalapack mpi_f08 cosma libxs 
 CP2K|            libxsmm spglib openblas libdftd4 s_dftd3 mctc-lib tblite libvo
 CP2K|            ori libbqb
 CP2K| is freely available from                            https://www.cp2k.org/
 CP2K| Program compiled at                                   2026-09-18 06:02:26
 CP2K| Program compiled on                                              n2login6
 CP2K| Program compiled for                                               x86_64
 CP2K| Data directory path    /scratch/hpc-prf-metdyn/eprop2d1_Jan/53_benchmark_
 CP2K| Input file name        /scratch/hpc-prf-metdyn/eprop2d1_Jan/53_benchmark_
 
 eprop2d1@n2cn0292 has created rank and process                      0   2518619
 eprop2d1@n2cn0292 has created rank and process                      1   2518620
 eprop2d1@n2cn0292 has created rank and process                      2   2518621
 eprop2d1@n2cn0292 has created rank and process                      3   2518622
 eprop2d1@n2cn0292 has created rank and process                      4   2518623
 eprop2d1@n2cn0292 has created rank and process                      5   2518624
 eprop2d1@n2cn0292 has created rank and process                      6   2518625
 eprop2d1@n2cn0292 has created rank and process                      7   2518626
 eprop2d1@n2cn0292 has created rank and process                      8   2518627
 eprop2d1@n2cn0292 has created rank and process                      9   2518628
 eprop2d1@n2cn0292 has created rank and process                     10   2518629
 eprop2d1@n2cn0292 has created rank and process                     11   2518630
 eprop2d1@n2cn0292 has created rank and process                     12   2518631
 eprop2d1@n2cn0292 has created rank and process                     13   2518632
 eprop2d1@n2cn0292 has created rank and process                     14   2518633
 eprop2d1@n2cn0292 has created rank and process                     15   2518634
 eprop2d1@n2cn0292 has created rank and process                     16   2518635
 eprop2d1@n2cn0292 has created rank and process                     17   2518636
 eprop2d1@n2cn0292 has created rank and process                     18   2518637
 eprop2d1@n2cn0292 has created rank and process                     19   2518638
 eprop2d1@n2cn0292 has created rank and process                     20   2518639
 eprop2d1@n2cn0292 has created rank and process                     21   2518640
 eprop2d1@n2cn0292 has created rank and process                     22   2518641
 eprop2d1@n2cn0292 has created rank and process                     23   2518642
 eprop2d1@n2cn0292 has created rank and process                     24   2518643
 eprop2d1@n2cn0292 has created rank and process                     25   2518644
 eprop2d1@n2cn0292 has created rank and process                     26   2518645
 eprop2d1@n2cn0292 has created rank and process                     27   2518646
 eprop2d1@n2cn0292 has created rank and process                     28   2518647
 eprop2d1@n2cn0292 has created rank and process                     29   2518648
 eprop2d1@n2cn0292 has created rank and process                     30   2518649
 eprop2d1@n2cn0292 has created rank and process                     31   2518650
 
 eprop2d1@n2cn0292 is running                                       32 processes

 GLOBAL| Force Environment number                                              1
 GLOBAL| Basis set file name            /scratch/hpc-prf-metdyn/eprop2d1_Jan/53_
 GLOBAL| Potential file name            /scratch/hpc-prf-metdyn/eprop2d1_Jan/53_
 GLOBAL| MM Potential file name                                     MM_POTENTIAL
 GLOBAL| Coordinate file name           /scratch/hpc-prf-metdyn/eprop2d1_Jan/53_
 GLOBAL| Method name                                                        CP2K
 GLOBAL| Project name                                       h24_rc0p5ri5rs07_e12
 GLOBAL| Run type                                                         ENERGY
 GLOBAL| FFT library                                                       FFTW3
 GLOBAL| Diagonalization library                                       ScaLAPACK
 GLOBAL| Cholesky decomposition library                                ScaLAPACK
 GLOBAL| DGEMM library                                                      BLAS
 GLOBAL| Direct generalized diagonalization requested                          F
 GLOBAL| Orthonormality check for eigenvectors                          DISABLED
 GLOBAL| Matrix multiplication library                                     COSMA
 GLOBAL| All-to-all communication in single precision                          F
 GLOBAL| Grid backend                                                       AUTO
 GLOBAL| Global print level                                                  LOW
 GLOBAL| MPI I/O enabled                                                       T
 GLOBAL| Total number of message passing processes                            32
 GLOBAL| Number of distributed systems (nodes)                                 1
 GLOBAL| Number of threads for this process                                    4
 GLOBAL| This output is from process                                           0
 GLOBAL| OpenMP stack size per thread (OMP_STACKSIZE)                       512M
 GLOBAL| CPU model name                          AMD EPYC 7763 64-Core Processor
 GLOBAL| CPUID                                                              1002
 GLOBAL| Compiled for CPUID                                                    0

 *** HINT in environment.F:968 :: The compiler target (generic) used to ***
 *** build this binary does not enable all instruction-set extensions   ***
 *** available on this CPU (x86_avx2). Consider reconfiguring and       ***
 *** rebuilding CP2K for this target system to enable them.             ***


 MEMORY| system memory details [Kb]
 MEMORY|                        rank 0           min           max       average
 MEMORY| MemTotal            263897624     263897624     263897624     263897624
 MEMORY| MemFree             239678840     239678840     239679092     239678855
 MEMORY| Buffers                243212        243212        243212        243212
 MEMORY| Cached               12092480      12092480      12092480      12092480
 MEMORY| Slab                  2692672       2692672       2692672       2692672
 MEMORY| SReclaimable           893376        893376        893376        893376
 MEMORY| MemLikelyFree       252907908     252907908     252908160     252907923


 GENERATE|  Preliminary Number of Bonds generated:                             0
 GENERATE|  Achieved consistency in connectivity generation.

 *******************************************************************************
 *******************************************************************************
 **                                                                           **
 **     #####                         ##              ##                      **
 **    ##   ##            ##          ##              ##                      **
 **   ##     ##                       ##            ######                    **
 **   ##     ##  ##   ##  ##   #####  ##  ##   ####   ##    #####    #####    **
 **   ##     ##  ##   ##  ##  ##      ## ##   ##      ##   ##   ##  ##   ##   **
 **   ##  ## ##  ##   ##  ##  ##      ####     ###    ##   ######   ######    **
 **    ##  ###   ##   ##  ##  ##      ## ##      ##   ##   ##       ##        **
 **     #######   #####   ##   #####  ##  ##  ####    ##    #####   ##        **
 **           ##                                                    ##        **
 **                                                                           **
 **                                                ... make the atoms dance   **
 **                                                                           **
 **            Copyright (C) by CP2K developers group (2000-2026)             **
 **                      J. Chem. Phys. 152, 194103 (2020)                    **
 **                                                                           **
 *******************************************************************************


 TOTAL NUMBERS AND MAXIMUM NUMBERS

  Total number of            - Atomic kinds:                                   2
                             - Atoms:                                         88
                             - Shell sets:                                    88
                             - Shells:                                       416
                             - Primitive Cartesian functions:                488
                             - Cartesian basis functions:                   1040
                             - Spherical basis functions:                    976

  Maximum angular momentum of- Orbital basis functions:                        2
                             - Local part of the GTH pseudopotential:          2
                             - Non-local part of the GTH pseudopotential:      2


 SCF PARAMETERS         Density guess:                                   RESTART
                        --------------------------------------------------------
                        max_scf:                                             500
                        max_scf_history:                                       0
                        max_diis:                                              4
                        --------------------------------------------------------
                        eps_scf:                                        1.00E-08
                        eps_scf_history:                                0.00E+00
                        eps_diis:                                       0.00E+00
                        eps_eigval:                                     1.00E-05
                        --------------------------------------------------------
                        level_shift [a.u.]:                             0.000000
                        --------------------------------------------------------
                        Outer loop SCF in use 
                        No variables optimised in outer loop
                        eps_scf                                         1.00E-08
                        max_scf                                               20
                        No outer loop optimization
                        step_size                                       5.00E-01

 Extrapolation method: initial_guess

 Number of electrons:                                                        344
 Number of occupied orbitals:                                                172
 Number of molecular orbitals:                                               172

 Number of orbital functions:                                                976
 Number of independent orbital functions:                                    976


 SCF WAVEFUNCTION OPTIMIZATION

  ----------------------------------- OT ---------------------------------------
  Minimizer      : DIIS                : direct inversion
                                         in the iterative subspace
                                         using   7 DIIS vectors
                                         safer DIIS on
  Preconditioner : FULL_KINETIC        : inversion of T + eS
  Lattice FFT   : OFF
  Precond_solver : DEFAULT
  stepsize       :    0.15000000                  energy_gap     :    0.20000000
  eps_taylor     :   0.10000E-15                  max_taylor     :             4
  ----------------------------------- OT ---------------------------------------

  Step     Update method      Time    Convergence         Total energy    Change
  ------------------------------------------------------------------------------
     1 OT DIIS     0.15E+00    4.4     6.6754E-09      -434.9293034356 -4.35E+02

  *** SCF run converged in     1 steps ***


  Electronic density on regular grids:       -344.0000000000       -0.0000000000
  Core density on regular grids:              343.9999999995       -0.0000000005
  Total charge density on r-space grids:       -0.0000000005
  Total charge density g-space grids:          -0.0000000005

  Overlap energy of the core charge distribution:               0.00000056308076
  Self energy of the core charge distribution:              -1083.50641417148177
  Core Hamiltonian energy:                                    237.29295558748660
  Hartree energy:                                             526.30221691012684
  Exchange-correlation energy:                               -115.01806232485231

  Total energy:                                              -434.92930343563989

  outer SCF iter =    1 RMS gradient =   0.67E-08 energy =       -434.9293034356
  outer SCF loop converged in   1 iterations or    1 steps

  
 -------------------------------------------------------------------------------
 -                                                                             -
 -                          BANDSTRUCTURE CALCULATION                          -
 -                                                                             -
 -------------------------------------------------------------------------------
  
 Number of occupied molecular orbitals (MOs) = Number of occupied bands      172
 Number of unoccupied (= virtual) MOs = Number of unoccupied bands           804
 Number of Gaussian basis functions for MOs                                  976
  
 -------------------------------------------------------------------------------
 -                                                                             -
 -                                GW CALCULATION                               -
 -                                                                             -
 -------------------------------------------------------------------------------
  
 Input: Number of time/freq. points                                           30
 Input: ω_max for fitting Σ(iω) (eV)                                        10.0
 Input: Filter threshold for sparse tensor operations                    1.0E-12
 Input: Apply Hedin shift                                                      F
 Detected: Available memory per MPI process                               7.3 GB
 
 Input: RI-RS Tikhonov regularization                                   1.00E-08
 Input: AO grid hard cutoff radius                                        8.00 Å
 Input: MPI ranks per atom in Z_lP solve                                      -1
 Input: Keep sparsity in χ/G/W panels                                          T
 Input: GW flavour                                                          G0W0
 
 Input: RI-RS grid optimization activated                                      T
 Input: RS points per AO function                                            7.0
 Input: Cutoff radius for atomic clusters                                  0.5 Å
 Input: Maximum grid optimization iterations                                 100
 
 Input: AUTO_RI basis optimization activated:                                  T
 Input: AUTO_RI number of RI functions per AO function:                      5.0
 Input: AUTO_RI frontier orbital window:                                  5.0 eV
 Input: AUTO_RI neighbor radius:                                           3.0 Å
 
 Cutoff radius for the truncated Coulomb operator in RI metric:            6.0 Å
 Regularization parameter of RI                                          0.0E+00
 Regularization parameter of minimax grids                               1.0E-06
 
 AUTO_RI| Number of automatic RI functions for χ, ε, W:                     4880
 AUTO_RI| Total RI basis optimization time:                                8.1 s
 
 SCF direct band gap (eV)                                                   1.65
 Max. SCF eigval diff. (eV)                                               102.09
 E-Range for minimax grid                                                  61.83
 Number of Padé parameters for analytic continuation:                         16
 
 RI-RS basis radii (Å):
     Kind  Elem     r_AO (Å)     r_RI (Å)
        1    H        12.4398        7.8676
        2    P         8.8851        6.3526
 
 Started RI-RS grid optimization
 RI-RS grid initial normalized error                          8.389860091282E-06
 RI-RS grid optimization completed, execution time:                        0.0 s
 Normalized 3C error:                                                    3.8E-09
 Maximum absolute 3C error:                                              1.1E-03
 Optimized points outside molecular Voronoi cells:                             6 / 6832
 Total grid points used for RI-RS:                                          6832
 
 RI-RS grid row-blocks of ϕ_μ(r_l)                                           240
 RI-RS grid points per block (max)                                            32
 
 Percentage of non-zero matrix elements in ϕ_μ(r_l)                      55.18 %
 
 RI-RS memory estimate per MPI process:
   Available memory per process (system)                                 7.34 GB
   Required for Z_lP (dense upper bound; actual is sparser)              0.01 GB
   Required for χ, W, Σ panels (peak per panel step)                     0.06 GB
   Required for Z_lP solve peak (D_local+ϕ, worst-case atom)             0.43 GB
   Worst-case local-grid number of grid points:                             6674
   Worst-case memory D_local:                                            0.36 GB
 
 Started computing Z_lP
 Computed Z_lP (MPI rank 0) for atom          1 /  3,    Execution time    1.5 s
 Computed Z_lP (MPI rank 0) for atom          2 /  3,    Execution time    3.6 s
 Computed Z_lP (MPI rank 0) for atom          3 /  3,    Execution time    4.4 s
 Computed Z_lP (all MPI ranks) for all atoms,            Execution time   16.7 s

 Memory per MPI process after computing Z_lP:
 Available memory per MPI process                                7.3 GB
 Used memory per MPI process                                     1.1 GB
 Number of batches for χ, Σ matrices                                           1
 
 Percentage of non-zero matrix elements in Z_lP                          96.21 %
 Percentage of non-zero matrix elements in G_ll', χ_ll', W_ll'          100.00 %
 Percentage of non-zero matrix elements in χ_PQ for time point 1        100.00 %
 
 Computed χ(iτ,k=0) for time point            1 / 30,    Execution time    0.6 s
 Computed χ(iτ,k=0) for time point            2 / 30,    Execution time    0.5 s
 Computed χ(iτ,k=0) for time point            3 / 30,    Execution time    0.5 s
 Computed χ(iτ,k=0) for time point            4 / 30,    Execution time    0.5 s
 Computed χ(iτ,k=0) for time point            5 / 30,    Execution time    0.5 s
 Computed χ(iτ,k=0) for time point            6 / 30,    Execution time    0.5 s
 Computed χ(iτ,k=0) for time point            7 / 30,    Execution time    0.5 s
 Computed χ(iτ,k=0) for time point            8 / 30,    Execution time    0.5 s
 Computed χ(iτ,k=0) for time point            9 / 30,    Execution time    0.5 s
 Computed χ(iτ,k=0) for time point           10 / 30,    Execution time    0.5 s
 Computed χ(iτ,k=0) for time point           11 / 30,    Execution time    0.5 s
 Computed χ(iτ,k=0) for time point           12 / 30,    Execution time    0.5 s
 Computed χ(iτ,k=0) for time point           13 / 30,    Execution time    0.5 s
 Computed χ(iτ,k=0) for time point           14 / 30,    Execution time    0.5 s
 Computed χ(iτ,k=0) for time point           15 / 30,    Execution time    0.5 s
 Computed χ(iτ,k=0) for time point           16 / 30,    Execution time    0.5 s
 Computed χ(iτ,k=0) for time point           17 / 30,    Execution time    0.5 s
 Computed χ(iτ,k=0) for time point           18 / 30,    Execution time    0.5 s
 Computed χ(iτ,k=0) for time point           19 / 30,    Execution time    0.5 s
 Computed χ(iτ,k=0) for time point           20 / 30,    Execution time    0.5 s
 Computed χ(iτ,k=0) for time point           21 / 30,    Execution time    0.4 s
 Computed χ(iτ,k=0) for time point           22 / 30,    Execution time    0.3 s
 Computed χ(iτ,k=0) for time point           23 / 30,    Execution time    0.2 s
 Computed χ(iτ,k=0) for time point           24 / 30,    Execution time    0.2 s
 Computed χ(iτ,k=0) for time point           25 / 30,    Execution time    0.1 s
 Computed χ(iτ,k=0) for time point           26 / 30,    Execution time    0.1 s
 Computed χ(iτ,k=0) for time point           27 / 30,    Execution time    0.1 s
 Computed χ(iτ,k=0) for time point           28 / 30,    Execution time    0.1 s
 Computed χ(iτ,k=0) for time point           29 / 30,    Execution time    0.1 s
 Computed χ(iτ,k=0) for time point           30 / 30,    Execution time    0.1 s
 
 Computed W(iτ),                                         Execution time   32.5 s
 
 Computed Σ^x(k=0),                                      Execution time    0.8 s
 
 Computed Σ^c(iτ) for time point              1 / 30,    Execution time    0.6 s
 Computed Σ^c(iτ) for time point              2 / 30,    Execution time    0.6 s
 Computed Σ^c(iτ) for time point              3 / 30,    Execution time    0.6 s
 Computed Σ^c(iτ) for time point              4 / 30,    Execution time    0.6 s
 Computed Σ^c(iτ) for time point              5 / 30,    Execution time    0.6 s
 Computed Σ^c(iτ) for time point              6 / 30,    Execution time    0.6 s
 Computed Σ^c(iτ) for time point              7 / 30,    Execution time    0.6 s
 Computed Σ^c(iτ) for time point              8 / 30,    Execution time    0.6 s
 Computed Σ^c(iτ) for time point              9 / 30,    Execution time    0.6 s
 Computed Σ^c(iτ) for time point             10 / 30,    Execution time    0.7 s
 Computed Σ^c(iτ) for time point             11 / 30,    Execution time    0.6 s
 Computed Σ^c(iτ) for time point             12 / 30,    Execution time    0.6 s
 Computed Σ^c(iτ) for time point             13 / 30,    Execution time    0.6 s
 Computed Σ^c(iτ) for time point             14 / 30,    Execution time    0.6 s
 Computed Σ^c(iτ) for time point             15 / 30,    Execution time    0.6 s
 Computed Σ^c(iτ) for time point             16 / 30,    Execution time    0.6 s
 Computed Σ^c(iτ) for time point             17 / 30,    Execution time    0.6 s
 Computed Σ^c(iτ) for time point             18 / 30,    Execution time    0.6 s
 Computed Σ^c(iτ) for time point             19 / 30,    Execution time    0.6 s
 Computed Σ^c(iτ) for time point             20 / 30,    Execution time    0.6 s
 Computed Σ^c(iτ) for time point             21 / 30,    Execution time    0.6 s
 Computed Σ^c(iτ) for time point             22 / 30,    Execution time    0.6 s
 Computed Σ^c(iτ) for time point             23 / 30,    Execution time    0.5 s
 Computed Σ^c(iτ) for time point             24 / 30,    Execution time    0.2 s
 Computed Σ^c(iτ) for time point             25 / 30,    Execution time    0.1 s
 Computed Σ^c(iτ) for time point             26 / 30,    Execution time    0.2 s
 Computed Σ^c(iτ) for time point             27 / 30,    Execution time    0.1 s
 Computed Σ^c(iτ) for time point             28 / 30,    Execution time    0.1 s
 Computed Σ^c(iτ) for time point             29 / 30,    Execution time    0.1 s
 Computed Σ^c(iτ) for time point             30 / 30,    Execution time    0.1 s
 
 SCF valence band maximum (eV):                                           -5.044
 SCF conduction band minimum (eV):                                        -3.392
 SCF indirect band gap (eV):                                               1.651
 SCF direct band gap (eV):                                                 1.651
 
 G0W0 valence band maximum (eV):                                          -5.628
 G0W0 conduction band minimum (eV):                                       -1.948
 G0W0 indirect band gap (eV):                                              3.680
 G0W0 direct band gap (eV):                                                3.680
 
 Hartree-Fock with SCF orbitals valence band maximum (eV):                -6.839
 Hartree-Fock with SCF orbitals conduction band minimum (eV)               0.131
 Hartree-Fock with SCF orbitals indirect band gap (eV):                    6.970
 Hartree-Fock with SCF orbitals direct band gap (eV):                      6.970

 ENERGY| Total FORCE_EVAL ( QS ) energy [hartree]           -434.929303435639895

 -------------------------------------------------------------------------------
 -                                                                             -
 -                                DBCSR STATISTICS                             -
 -                                                                             -
 -------------------------------------------------------------------------------
 COUNTER                                    TOTAL       BLAS       SMM       ACC
 flops    12 x    12 x    12                 3456       0.0%    100.0%      0.0%     
 flops    26 x    12 x    12                22464       0.0%    100.0%      0.0%     
 flops     6 x    12 x    12                41472       0.0%    100.0%      0.0%     
 flops    51 x    12 x    12                44064       0.0%    100.0%      0.0%     
 flops    12 x    12 x    32                46080       0.0%    100.0%      0.0%     
 flops    12 x    32 x    12                46080       0.0%    100.0%      0.0%     
 flops    71 x    12 x    12                61344       0.0%    100.0%      0.0%     
 flops    32 x    12 x    12                73728       0.0%    100.0%      0.0%     
 flops    52 x    12 x    12                89856       0.0%    100.0%      0.0%     
 flops    58 x    12 x    12               100224       0.0%    100.0%      0.0%     
 flops    77 x    12 x    12               133056       0.0%    100.0%      0.0%     
 flops    64 x    12 x    12               165888       0.0%    100.0%      0.0%     
 flops    13 x    12 x    12               239616       0.0%    100.0%      0.0%     
 flops    26 x    12 x    32               299520       0.0%    100.0%      0.0%     
 flops    26 x    32 x    12               299520       0.0%    100.0%      0.0%     
 flops     6 x     6 x    12               518400       0.0%    100.0%      0.0%     
 flops    51 x    32 x    12               587520       0.0%    100.0%      0.0%     
 flops    51 x    12 x    32               587520       0.0%    100.0%      0.0%     
 flops    12 x    32 x    32               614400       0.0%    100.0%      0.0%     
 flops    71 x    12 x    32               817920       0.0%    100.0%      0.0%     
 flops    71 x    32 x    12               817920       0.0%    100.0%      0.0%     
 flops    12 x    12 x   122               843264       0.0%    100.0%      0.0%     
 flops    32 x    32 x    12               983040       0.0%    100.0%      0.0%     
 flops    32 x    12 x    32               983040       0.0%    100.0%      0.0%     
 flops    52 x    32 x    12              1198080       0.0%    100.0%      0.0%     
 flops    52 x    12 x    32              1198080       0.0%    100.0%      0.0%     
 flops    26 x    12 x   122              1218048       0.0%    100.0%      0.0%     
 flops    58 x    12 x    32              1336320       0.0%    100.0%      0.0%     
 flops    58 x    32 x    12              1336320       0.0%    100.0%      0.0%     
 flops    10 x    36 x    89              1473840       0.0%    100.0%      0.0%     
 flops     6 x    32 x    32              1474560       0.0%    100.0%      0.0%     
 flops    10 x    36 x    91              1506960       0.0%    100.0%      0.0%     
 flops    10 x    38 x    91              1590680       0.0%    100.0%      0.0%     
 flops    10 x    40 x    89              1637600       0.0%    100.0%      0.0%     
 flops    10 x    40 x    91              1674400       0.0%    100.0%      0.0%     
 flops    10 x    41 x    89              1678540       0.0%    100.0%      0.0%     
 flops    10 x    42 x    91              1758120       0.0%    100.0%      0.0%     
 flops    77 x    12 x    32              1774080       0.0%    100.0%      0.0%     
 flops    77 x    32 x    12              1774080       0.0%    100.0%      0.0%     
 flops    64 x    32 x    12              2211840       0.0%    100.0%      0.0%     
 flops    64 x    12 x    32              2211840       0.0%    100.0%      0.0%     
 flops    51 x    12 x   122              2389248       0.0%    100.0%      0.0%     
 flops    10 x    63 x    91              2751840       0.0%    100.0%      0.0%     
 flops     6 x    13 x    12              2875392       0.0%    100.0%      0.0%     
 flops    13 x     6 x    12              2875392       0.0%    100.0%      0.0%     
 flops     6 x    12 x     6              2985984       0.0%    100.0%      0.0%     
 flops    71 x    12 x   122              3326208       0.0%    100.0%      0.0%     
 flops    26 x    32 x    32              3993600       0.0%    100.0%      0.0%     
 flops    52 x    12 x   122              4872192       0.0%    100.0%      0.0%     
 flops    58 x    12 x   122              5434368       0.0%    100.0%      0.0%     
 flops    10 x    42 x    92              5564160       0.0%    100.0%      0.0%     
 flops    10 x    53 x    92              7021440       0.0%    100.0%      0.0%     
 flops    77 x    12 x   122              7214592       0.0%    100.0%      0.0%     
 flops    10 x    61 x    89              7600600       0.0%    100.0%      0.0%     
 flops    51 x    32 x    32              7833600       0.0%    100.0%      0.0%     
 flops    10 x    63 x    92              8346240       0.0%    100.0%      0.0%     
 flops    13 x    32 x    32              8519680       0.0%    100.0%      0.0%     
 flops    10 x    39 x    92              8539440       0.0%    100.0%      0.0%     
 flops    64 x    12 x   122              8994816       0.0%    100.0%      0.0%     
 flops    10 x    62 x    91             10606960       0.0%    100.0%      0.0%     
 flops    27 x    36 x    89             10900008       0.0%    100.0%      0.0%     
 flops    71 x    32 x    32             10905600       0.0%    100.0%      0.0%     
 flops    12 x    32 x   122             11243520       0.0%    100.0%      0.0%     
 flops    27 x    36 x    91             11321856       0.0%    100.0%      0.0%     
 flops    27 x    38 x    91             11950848       0.0%    100.0%      0.0%     
 flops    27 x    40 x    89             12111120       0.0%    100.0%      0.0%     
 flops    27 x    41 x    89             12413898       0.0%    100.0%      0.0%     
 flops    27 x    40 x    91             12579840       0.0%    100.0%      0.0%     
 flops    32 x    12 x   122             12742656       0.0%    100.0%      0.0%     
 flops    32 x    32 x    32             13107200       0.0%    100.0%      0.0%     
 flops    27 x    42 x    91             13208832       0.0%    100.0%      0.0%     
 flops    52 x    32 x    32             15974400       0.0%    100.0%      0.0%     
 flops    26 x    32 x   122             16240640       0.0%    100.0%      0.0%     
 flops    13 x    13 x    12             16791840       0.0%    100.0%      0.0%     
 flops     6 x    12 x    13             17252352       0.0%    100.0%      0.0%     
 flops    13 x    12 x     6             17252352       0.0%    100.0%      0.0%     
 flops    41 x    36 x    10             17593920       0.0%    100.0%      0.0%     
 flops    58 x    32 x    32             17817600       0.0%    100.0%      0.0%     
 flops    41 x    38 x    10             18633680       0.0%    100.0%      0.0%     
 flops    27 x    63 x    91             19813248       0.0%    100.0%      0.0%     
 flops    41 x    42 x    10             20732880       0.0%    100.0%      0.0%     
 flops    41 x    44 x    10             21756240       0.0%    100.0%      0.0%     
 flops    40 x    36 x    10             23529600       0.0%    100.0%      0.0%     
 flops    77 x    32 x    32             23654400       0.0%    100.0%      0.0%     
 flops    40 x    38 x    10             24897600       0.0%    100.0%      0.0%     
 flops    10 x    62 x    89             25934600       0.0%    100.0%      0.0%     
 flops    40 x    42 x    10             27652800       0.0%    100.0%      0.0%     
 flops    42 x    36 x    10             28969920       0.0%    100.0%      0.0%     
 flops    40 x    44 x    10             29040000       0.0%    100.0%      0.0%     
 flops    64 x    32 x    32             29491200       0.0%    100.0%      0.0%     
 flops    41 x    31 x    10             30427740       0.0%    100.0%      0.0%     
 flops    32 x    36 x    89             30553344       0.0%    100.0%      0.0%     
 flops    42 x    38 x    10             30643200       0.0%    100.0%      0.0%     
 flops    51 x    32 x   122             31856640       0.0%    100.0%      0.0%     
 flops    32 x    36 x    91             31868928       0.0%    100.0%      0.0%     
 flops    55 x    36 x    10             33145200       0.0%    100.0%      0.0%     
 flops    32 x    38 x    91             33639424       0.0%    100.0%      0.0%     
 flops    32 x    40 x    89             33948160       0.0%    100.0%      0.0%     
 flops    42 x    42 x    10             34009920       0.0%    100.0%      0.0%     
 flops    32 x    41 x    89             34796864       0.0%    100.0%      0.0%     
 flops    55 x    38 x    10             35070200       0.0%    100.0%      0.0%     
 flops    10 x    62 x    92             35250720       0.0%    100.0%      0.0%     
 flops    32 x    40 x    91             35409920       0.0%    100.0%      0.0%     
 flops    42 x    44 x    10             35703360       0.0%    100.0%      0.0%     
 flops    32 x    42 x    91             37180416       0.0%    100.0%      0.0%     
 flops    55 x    42 x    10             38946600       0.0%    100.0%      0.0%     
 flops     6 x    32 x     6             39813120       0.0%    100.0%      0.0%     
 flops    27 x    42 x    92             40061952       0.0%    100.0%      0.0%     
 flops    40 x    31 x    10             40597600       0.0%    100.0%      0.0%     
 flops    41 x    41 x    10             40646580       0.0%    100.0%      0.0%     
 flops    55 x    44 x    10             40801200       0.0%    100.0%      0.0%     
 flops    39 x    36 x    10             41333760       0.0%    100.0%      0.0%     
 flops    39 x    38 x    10             43748640       0.0%    100.0%      0.0%     
 flops    68 x    36 x    10             43966080       0.0%    100.0%      0.0%     
 flops    71 x    32 x   122             44349440       0.0%    100.0%      0.0%     
 flops    68 x    38 x    10             46512000       0.0%    100.0%      0.0%     
 flops    39 x    42 x    10             48615840       0.0%    100.0%      0.0%     
 flops    42 x    31 x    10             49944720       0.0%    100.0%      0.0%     
 flops    27 x    53 x    92             50554368       0.0%    100.0%      0.0%     
 flops    39 x    44 x    10             50999520       0.0%    100.0%      0.0%     
 flops    68 x    42 x    10             51636480       0.0%    100.0%      0.0%     
 flops    10 x    36 x    10             53337600       0.0%    100.0%      0.0%     
 flops    68 x    44 x    10             54215040       0.0%    100.0%      0.0%     
 flops    40 x    41 x    10             54251200       0.0%    100.0%      0.0%     
 flops    32 x    63 x    91             55770624       0.0%    100.0%      0.0%     
 flops    27 x    61 x    89             55994706       0.0%    100.0%      0.0%     
 flops    10 x    38 x    10             56293200       0.0%    100.0%      0.0%     
 flops    55 x    31 x    10             57117500       0.0%    100.0%      0.0%     
 flops    27 x    63 x    92             60092928       0.0%    100.0%      0.0%     
 flops    27 x    39 x    92             62000640       0.0%    100.0%      0.0%     
 flops    52 x    32 x   122             64962560       0.0%    100.0%      0.0%     
 flops    42 x    41 x    10             66744720       0.0%    100.0%      0.0%     
 flops    39 x    31 x    10             71355180       0.0%    100.0%      0.0%     
 flops    61 x    36 x    10             71545680       0.0%    100.0%      0.0%     
 flops    58 x    32 x   122             72458240       0.0%    100.0%      0.0%     
 flops    61 x    38 x    10             75705880       0.0%    100.0%      0.0%     
 flops    68 x    31 x    10             75803680       0.0%    100.0%      0.0%     
 flops    55 x    41 x    10             76354300       0.0%    100.0%      0.0%     
 flops    27 x    62 x    91             77995008       0.0%    100.0%      0.0%     
 flops    41 x    40 x    10             79015200       0.0%    100.0%      0.0%     
 flops    10 x    36 x    39             79887600       0.0%    100.0%      0.0%     
 flops    61 x    42 x    10             84136080       0.0%    100.0%      0.0%     
 flops    10 x    38 x    39             85956000       0.0%    100.0%      0.0%     
 flops    61 x    44 x    10             88410960       0.0%    100.0%      0.0%     
 flops    10 x    31 x    10             92404800       0.0%    100.0%      0.0%     
 flops    39 x    41 x    10             95364360       0.0%    100.0%      0.0%     
 flops    41 x    39 x    10             95812080       0.0%    100.0%      0.0%     
 flops    77 x    32 x   122             96194560       0.0%    100.0%      0.0%     
 flops    13 x    12 x    13             99193536       0.0%    100.0%      0.0%     
 flops    68 x    41 x    10            101260160       0.0%    100.0%      0.0%     
 flops    40 x    40 x    10            105376000       0.0%    100.0%      0.0%     
 flops    32 x    42 x    92            112766976       0.0%    100.0%      0.0%     
 flops     6 x     6 x    10            113222160       0.0%    100.0%      0.0%     
 flops    41 x    61 x    10            116396540       0.0%    100.0%      0.0%     
 flops    10 x    41 x    10            119925000       0.0%    100.0%      0.0%     
 flops    64 x    32 x   122            119930880       0.0%    100.0%      0.0%     
 flops    61 x    31 x    10            123595760       0.0%    100.0%      0.0%     
 flops    40 x    39 x    10            127920000       0.0%    100.0%      0.0%     
 flops    42 x    40 x    10            129628800       0.0%    100.0%      0.0%     
 flops    10 x    31 x    39            139228440       0.0%    100.0%      0.0%     
 flops    32 x    53 x    92            142301184       0.0%    100.0%      0.0%     
 flops    55 x    40 x    10            148324000       0.0%    100.0%      0.0%     
 flops    40 x    61 x    10            155867200       0.0%    100.0%      0.0%     
 flops    32 x    61 x    89            157050112       0.0%    100.0%      0.0%     
 flops    42 x    39 x    10            157379040       0.0%    100.0%      0.0%     
 flops    61 x    41 x    10            165166040       0.0%    100.0%      0.0%     
 flops    32 x    63 x    92            169150464       0.0%    100.0%      0.0%     
 flops    32 x    32 x   122            169902080       0.0%    100.0%      0.0%     
 flops    32 x    39 x    92            174290688       0.0%    100.0%      0.0%     
 flops    55 x    39 x    10            179879700       0.0%    100.0%      0.0%     
 flops    10 x    36 x    61            181609200       0.0%    100.0%      0.0%     
 flops    10 x    41 x    39            184396680       0.0%    100.0%      0.0%     
 flops    39 x    40 x    10            185265600       0.0%    100.0%      0.0%     
 flops    41 x    36 x    27            189775224       0.0%    100.0%      0.0%     
 flops    27 x    62 x    89            190404108       0.0%    100.0%      0.0%     
 flops    42 x    61 x    10            191740080       0.0%    100.0%      0.0%     
 flops    10 x    38 x    61            191744960       0.0%    100.0%      0.0%     
 flops    10 x     6 x    10            195763200       0.0%    100.0%      0.0%     
 flops    68 x    40 x    10            196819200       0.0%    100.0%      0.0%     
 flops    41 x    38 x    27            200318292       0.0%    100.0%      0.0%     
 flops    10 x    40 x    10            201016000       0.0%    100.0%      0.0%     
 flops    40 x    36 x    27            201398400       0.0%    100.0%      0.0%     
 flops    40 x    38 x    27            212587200       0.0%    100.0%      0.0%     
 flops    42 x    36 x    27            218163456       0.0%    100.0%      0.0%     
 flops    55 x    61 x    10            218880200       0.0%    100.0%      0.0%     
 flops    32 x    62 x    91            219541504       0.0%    100.0%      0.0%     
 flops    10 x    53 x    10            219769800       0.0%    100.0%      0.0%     
 flops    41 x    42 x    27            222427296       0.0%    100.0%      0.0%     
 flops    39 x    39 x    10            224742960       0.0%    100.0%      0.0%     
 flops     6 x    32 x    13            230031360       0.0%    100.0%      0.0%     
 flops    13 x    32 x     6            230031360       0.0%    100.0%      0.0%     
 flops    42 x    38 x    27            230283648       0.0%    100.0%      0.0%     
 flops    41 x    44 x    27            232824240       0.0%    100.0%      0.0%     
 flops    40 x    42 x    27            235962720       0.0%    100.0%      0.0%     
 flops    68 x    39 x    10            238680000       0.0%    100.0%      0.0%     
 flops    10 x    53 x    39            240020040       0.0%    100.0%      0.0%     
 flops    40 x    44 x    27            247104000       0.0%    100.0%      0.0%     
 flops    42 x    42 x    27            255667104       0.0%    100.0%      0.0%     
 flops    27 x    62 x    92            256269312       0.0%    100.0%      0.0%     
 flops    42 x    44 x    27            267642144       0.0%    100.0%      0.0%     
 flops    10 x    42 x    10            268951200       0.0%    100.0%      0.0%     
 flops    10 x    40 x    39            270348000       0.0%    100.0%      0.0%     
 flops    39 x    61 x    10            273537420       0.0%    100.0%      0.0%     
 flops    10 x    63 x    10            277741800       0.0%    100.0%      0.0%     
 flops    55 x    36 x    27            278740440       0.0%    100.0%      0.0%     
 flops    10 x    42 x    39            284455080       0.0%    100.0%      0.0%     
 flops    10 x    63 x    39            285257700       0.0%    100.0%      0.0%     
 flops    68 x    61 x    10            290111120       0.0%    100.0%      0.0%     
 flops    55 x    38 x    27            294226020       0.0%    100.0%      0.0%     
 flops    10 x     6 x     6            300631680       0.0%    100.0%      0.0%     
 flops    10 x    31 x    61            312809220       0.0%    100.0%      0.0%     
 flops    61 x    40 x    10            320811200       0.0%    100.0%      0.0%     
 flops    55 x    42 x    27            326444580       0.0%    100.0%      0.0%     
 flops    41 x    31 x    27            327727350       0.0%    100.0%      0.0%     
 flops    55 x    44 x    27            341858880       0.0%    100.0%      0.0%     
 flops    40 x    31 x    27            347589360       0.0%    100.0%      0.0%     
 flops    68 x    36 x    27            352952640       0.0%    100.0%      0.0%     
 flops    68 x    38 x    27            372561120       0.0%    100.0%      0.0%     
 flops    39 x    36 x    27            375213384       0.0%    100.0%      0.0%     
 flops    42 x    31 x    27            376429032       0.0%    100.0%      0.0%     
 flops    62 x    36 x    10            387341280       0.0%    100.0%      0.0%     
 flops    61 x    39 x    10            389251980       0.0%    100.0%      0.0%     
 flops    39 x    38 x    27            396058572       0.0%    100.0%      0.0%     
 flops    27 x    36 x    10            398850480       0.0%    100.0%      0.0%     
 flops    62 x    38 x    10            409708400       0.0%    100.0%      0.0%     
 flops    10 x    41 x    61            413665400       0.0%    100.0%      0.0%     
 flops    68 x    42 x    27            413782992       0.0%    100.0%      0.0%     
 flops    27 x    38 x    10            420618960       0.0%    100.0%      0.0%     
 flops    68 x    44 x    27            433002240       0.0%    100.0%      0.0%     
 flops    41 x    41 x    27            434535138       0.0%    100.0%      0.0%     
 flops    39 x    42 x    27            439517988       0.0%    100.0%      0.0%     
 flops    10 x    39 x    10            439927800       0.0%    100.0%      0.0%     
 flops    10 x    61 x    10            446678600       0.0%    100.0%      0.0%     
 flops    62 x    42 x    10            455439600       0.0%    100.0%      0.0%     
 flops    39 x    44 x    27            460447416       0.0%    100.0%      0.0%     
 flops    40 x    41 x    27            461131920       0.0%    100.0%      0.0%     
 flops    10 x    36 x    62            465059520       0.0%    100.0%      0.0%     
 flops    61 x    61 x    10            473385620       0.0%    100.0%      0.0%     
 flops    62 x    44 x    10            477563680       0.0%    100.0%      0.0%     
 flops    55 x    31 x    27            480605400       0.0%    100.0%      0.0%     
 flops    10 x    38 x    62            491273120       0.0%    100.0%      0.0%     
 flops    10 x    10 x     6            491731200       0.0%    100.0%      0.0%     
 flops    42 x    41 x    27            499717512       0.0%    100.0%      0.0%     
 flops    41 x    36 x    32            507932928       0.0%    100.0%      0.0%     
 flops    10 x    36 x    27            516540240       0.0%    100.0%      0.0%     
 flops    10 x    10 x    39            524518800       0.0%    100.0%      0.0%     
 flops    10 x    39 x    39            526053060       0.0%    100.0%      0.0%     
 flops    32 x    62 x    89            532906368       0.0%    100.0%      0.0%     
 flops    41 x    62 x    10            533108240       0.0%    100.0%      0.0%     
 flops    10 x    53 x    61            535255480       0.0%    100.0%      0.0%     
 flops    41 x    38 x    32            536151424       0.0%    100.0%      0.0%     
 flops    10 x    38 x    27            536331240       0.0%    100.0%      0.0%     
 flops    10 x    61 x    39            552118320       0.0%    100.0%      0.0%     
 flops    40 x    36 x    32            554895360       0.0%    100.0%      0.0%     
 flops    40 x    38 x    32            585722880       0.0%    100.0%      0.0%     
 flops    41 x    42 x    32            595343616       0.0%    100.0%      0.0%     
 flops    61 x    36 x    27            598612032       0.0%    100.0%      0.0%     
 flops    10 x    40 x    61            605412800       0.0%    100.0%      0.0%     
 flops    68 x    31 x    27            609456528       0.0%    100.0%      0.0%     
 flops    42 x    36 x    32            610219008       0.0%    100.0%      0.0%     
 flops    41 x    44 x    32            623693312       0.0%    100.0%      0.0%     
 flops    61 x    38 x    27            631868256       0.0%    100.0%      0.0%     
 flops    10 x    42 x    61            635683440       0.0%    100.0%      0.0%     
 flops    10 x    63 x    61            636400800       0.0%    100.0%      0.0%     
 flops    55 x    41 x    27            638318340       0.0%    100.0%      0.0%     
 flops    42 x    38 x    32            644120064       0.0%    100.0%      0.0%     
 flops    39 x    31 x    27            647702406       0.0%    100.0%      0.0%     
 flops    27 x    36 x    39            650349648       0.0%    100.0%      0.0%     
 flops    40 x    42 x    32            650496000       0.0%    100.0%      0.0%     
 flops     6 x    13 x    10            665904720       0.0%    100.0%      0.0%     
 flops    62 x    31 x    10            668279400       0.0%    100.0%      0.0%     
 flops    40 x    44 x    32            681134080       0.0%    100.0%      0.0%     
 flops    27 x    31 x    10            691043940       0.0%    100.0%      0.0%     
 flops    13 x     6 x    10            697349640       0.0%    100.0%      0.0%     
 flops    27 x    38 x    39            700164972       0.0%    100.0%      0.0%     
 flops    61 x    42 x    27            701977752       0.0%    100.0%      0.0%     
 flops    40 x    62 x    10            713744000       0.0%    100.0%      0.0%     
 flops    42 x    42 x    32            715534848       0.0%    100.0%      0.0%     
 flops    32 x    62 x    92            721350656       0.0%    100.0%      0.0%     
 flops    61 x    44 x    27            734825520       0.0%    100.0%      0.0%     
 flops    42 x    44 x    32            749134848       0.0%    100.0%      0.0%     
 flops    55 x    36 x    32            762094080       0.0%    100.0%      0.0%     
 flops    10 x    31 x    62            801512440       0.0%    100.0%      0.0%     
 flops    55 x    38 x    32            804432640       0.0%    100.0%      0.0%     
 flops    68 x    41 x    27            809066448       0.0%    100.0%      0.0%     
 flops    41 x    40 x    27            846899280       0.0%    100.0%      0.0%     
 flops    39 x    41 x    27            859142700       0.0%    100.0%      0.0%     
 flops    10 x    31 x    27            874497600       0.0%    100.0%      0.0%     
 flops    41 x    31 x    32            877132352       0.0%    100.0%      0.0%     
 flops    42 x    62 x    10            877964640       0.0%    100.0%      0.0%     
 flops    62 x    41 x    10            893360480       0.0%    100.0%      0.0%     
 flops    55 x    42 x    32            893397120       0.0%    100.0%      0.0%     
 flops    27 x    41 x    10            893415420       0.0%    100.0%      0.0%     
 flops    40 x    40 x    27            898560000       0.0%    100.0%      0.0%     
 flops    55 x    44 x    32            935320320       0.0%    100.0%      0.0%     
 flops    40 x    31 x    32            957875200       0.0%    100.0%      0.0%     
 flops    42 x    40 x    27            973425600       0.0%    100.0%      0.0%     
 flops    68 x    36 x    32            981393408       0.0%    100.0%      0.0%     
 flops    55 x    62 x    10           1002540000       0.0%    100.0%      0.0%     
 flops    39 x    36 x    32           1012587264       0.0%    100.0%      0.0%     
 flops    41 x    39 x    27           1029244320       0.0%    100.0%      0.0%     
 flops    61 x    31 x    27           1033291566       0.0%    100.0%      0.0%     
 flops    68 x    38 x    32           1035915264       0.0%    100.0%      0.0%     
 flops    42 x    31 x    32           1053432576       0.0%    100.0%      0.0%     
 flops    10 x    41 x    62           1059251400       0.0%    100.0%      0.0%     
 flops    39 x    38 x    32           1068842112       0.0%    100.0%      0.0%     
 flops     6 x     6 x    27           1073019960       0.0%    100.0%      0.0%     
 flops    40 x    39 x    27           1092003120       0.0%    100.0%      0.0%     
 flops    32 x    36 x    10           1119029760       0.0%    100.0%      0.0%     
 flops    27 x    31 x    39           1134605394       0.0%    100.0%      0.0%     
 flops    68 x    42 x    32           1150625280       0.0%    100.0%      0.0%     
 flops    41 x    41 x    32           1164058880       0.0%    100.0%      0.0%     
 flops    10 x    10 x    61           1167466800       0.0%    100.0%      0.0%     
 flops    10 x    39 x    61           1180507380       0.0%    100.0%      0.0%     
 flops    32 x    38 x    10           1181149440       0.0%    100.0%      0.0%     
 flops    42 x    39 x    27           1182780144       0.0%    100.0%      0.0%     
 flops    39 x    42 x    32           1187012736       0.0%    100.0%      0.0%     
 flops    68 x    44 x    32           1205033984       0.0%    100.0%      0.0%     
 flops    10 x    41 x    27           1210238820       0.0%    100.0%      0.0%     
 flops    10 x    13 x    10           1211446600       0.0%    100.0%      0.0%     
 flops    10 x    61 x    61           1231576580       0.0%    100.0%      0.0%     
 flops    55 x    40 x    27           1242885600       0.0%    100.0%      0.0%     
 flops    39 x    44 x    32           1243207680       0.0%    100.0%      0.0%     
 flops    39 x    62 x    10           1252814160       0.0%    100.0%      0.0%     
 flops    41 x    61 x    27           1266266304       0.0%    100.0%      0.0%     
 flops    40 x    41 x    32           1271590400       0.0%    100.0%      0.0%     
 flops    55 x    31 x    32           1315005120       0.0%    100.0%      0.0%     
 flops    13 x    32 x    13           1322580480       0.0%    100.0%      0.0%     
 flops    68 x    62 x    10           1328798880       0.0%    100.0%      0.0%     
 flops    40 x    61 x    27           1342634400       0.0%    100.0%      0.0%     
 flops    10 x    53 x    62           1371510680       0.0%    100.0%      0.0%     
 flops    61 x    41 x    27           1372013586       0.0%    100.0%      0.0%     
 flops    42 x    41 x    32           1398980352       0.0%    100.0%      0.0%     
 flops    27 x    36 x    61           1409133672       0.0%    100.0%      0.0%     
 flops    10 x    36 x    32           1416199680       0.0%    100.0%      0.0%     
 flops    27 x     6 x    10           1436246640       0.0%    100.0%      0.0%     
 flops    42 x    61 x    27           1454037480       0.0%    100.0%      0.0%     
 flops    27 x    38 x    61           1488044736       0.0%    100.0%      0.0%     
 flops    10 x    38 x    32           1492737280       0.0%    100.0%      0.0%     
 flops    27 x    41 x    39           1501643286       0.0%    100.0%      0.0%     
 flops    27 x    40 x    10           1504008000       0.0%    100.0%      0.0%     
 flops    55 x    39 x    27           1510654860       0.0%    100.0%      0.0%     
 flops    10 x    40 x    62           1550396800       0.0%    100.0%      0.0%     
 flops    68 x    40 x    27           1575141120       0.0%    100.0%      0.0%     
 flops    10 x    42 x    62           1628385360       0.0%    100.0%      0.0%     
 flops    10 x    63 x    62           1630286280       0.0%    100.0%      0.0%     
 flops    61 x    36 x    32           1646472960       0.0%    100.0%      0.0%     
 flops    27 x    53 x    10           1656124920       0.0%    100.0%      0.0%     
 flops    39 x    40 x    27           1674017280       0.0%    100.0%      0.0%     
 flops    68 x    31 x    32           1694224896       0.0%    100.0%      0.0%     
 flops    62 x    40 x    10           1735008000       0.0%    100.0%      0.0%     
 flops    61 x    38 x    32           1737943680       0.0%    100.0%      0.0%     
 flops    55 x    41 x    32           1746704960       0.0%    100.0%      0.0%     
 flops    39 x    31 x    32           1748155968       0.0%    100.0%      0.0%     
 flops    10 x    53 x    27           1750857120       0.0%    100.0%      0.0%     
 flops    10 x    13 x     6           1756404000       0.0%    100.0%      0.0%     
 flops    32 x    36 x    39           1786876416       0.0%    100.0%      0.0%     
 flops    10 x     6 x    27           1845646560       0.0%    100.0%      0.0%     
 flops    55 x    61 x    27           1858985370       0.0%    100.0%      0.0%     
 flops    10 x    40 x    27           1859954400       0.0%    100.0%      0.0%     
 flops    68 x    39 x    27           1914404544       0.0%    100.0%      0.0%     
 flops    32 x    38 x    39           1923422592       0.0%    100.0%      0.0%     
 flops    61 x    42 x    32           1930231296       0.0%    100.0%      0.0%     
 flops    32 x    31 x    10           1937455360       0.0%    100.0%      0.0%     
 flops    27 x    53 x    39           1953761472       0.0%    100.0%      0.0%     
 flops    27 x    42 x    10           2018361240       0.0%    100.0%      0.0%     
 flops    61 x    44 x    32           2021459968       0.0%    100.0%      0.0%     
 flops    10 x     6 x    13           2032286880       0.0%    100.0%      0.0%     
 flops    39 x    39 x    27           2034705582       0.0%    100.0%      0.0%     
 flops    27 x    63 x    10           2087705340       0.0%    100.0%      0.0%     
 flops    62 x    39 x    10           2104965720       0.0%    100.0%      0.0%     
 flops    10 x    63 x    27           2128155120       0.0%    100.0%      0.0%     
 flops    10 x    42 x    27           2128427280       0.0%    100.0%      0.0%     
 flops    61 x    62 x    10           2168371880       0.0%    100.0%      0.0%     
 flops    10 x    62 x    10           2180081200       0.0%    100.0%      0.0%     
 flops    27 x    40 x    39           2202117840       0.0%    100.0%      0.0%     
 flops    68 x    41 x    32           2250027520       0.0%    100.0%      0.0%     
 flops    41 x    40 x    32           2267450880       0.0%    100.0%      0.0%     
 flops    27 x    42 x    39           2317088592       0.0%    100.0%      0.0%     
 flops    39 x    41 x    32           2320775808       0.0%    100.0%      0.0%     
 flops    27 x    63 x    39           2322926424       0.0%    100.0%      0.0%     
 flops    68 x    61 x    27           2354155920       0.0%    100.0%      0.0%     
 flops    10 x    62 x    39           2385405360       0.0%    100.0%      0.0%     
 flops    27 x    31 x    61           2427351894       0.0%    100.0%      0.0%     
 flops    10 x    31 x    32           2442462720       0.0%    100.0%      0.0%     
 flops    40 x    40 x    32           2476953600       0.0%    100.0%      0.0%     
 flops    39 x    61 x    27           2502774612       0.0%    100.0%      0.0%     
 flops    32 x    41 x    10           2507756800       0.0%    100.0%      0.0%     
 flops    62 x    61 x    10           2563742160       0.0%    100.0%      0.0%     
 flops    61 x    40 x    27           2672224560       0.0%    100.0%      0.0%     
 flops    42 x    40 x    32           2724556800       0.0%    100.0%      0.0%     
 flops    41 x    39 x    32           2755806144       0.0%    100.0%      0.0%     
 flops    27 x     6 x     6           2812536432       0.0%    100.0%      0.0%     
 flops    61 x    31 x    32           2842611712       0.0%    100.0%      0.0%     
 flops     6 x     6 x    32           2928637440       0.0%    100.0%      0.0%     
 flops    10 x    10 x    62           2991227200       0.0%    100.0%      0.0%     
 flops    40 x    39 x    32           3010076160       0.0%    100.0%      0.0%     
 flops    10 x    39 x    62           3023080320       0.0%    100.0%      0.0%     
 flops    62 x    36 x    27           3047429952       0.0%    100.0%      0.0%     
 flops    32 x    31 x    39           3116705280       0.0%    100.0%      0.0%     
 flops    10 x    61 x    62           3155549520       0.0%    100.0%      0.0%     
 flops    27 x    41 x    61           3210503688       0.0%    100.0%      0.0%     
 flops    62 x    38 x    27           3216731616       0.0%    100.0%      0.0%     
 flops    61 x    39 x    27           3246978150       0.0%    100.0%      0.0%     
 flops    27 x    39 x    10           3295405620       0.0%    100.0%      0.0%     
 flops    42 x    39 x    32           3310594560       0.0%    100.0%      0.0%     
 flops    10 x    41 x    32           3331824000       0.0%    100.0%      0.0%     
 flops    27 x    61 x    10           3361428180       0.0%    100.0%      0.0%     
 flops    10 x    10 x    13           3365016200       0.0%    100.0%      0.0%     
 flops    41 x    61 x    32           3394477248       0.0%    100.0%      0.0%     
 flops    55 x    40 x    32           3401587200       0.0%    100.0%      0.0%     
 flops    27 x    36 x    62           3501338400       0.0%    100.0%      0.0%     
 flops    62 x    42 x    27           3572911944       0.0%    100.0%      0.0%     
 flops    27 x    10 x     6           3622242240       0.0%    100.0%      0.0%     
 flops    27 x    38 x    62           3696366096       0.0%    100.0%      0.0%     
 flops    40 x    61 x    32           3706301440       0.0%    100.0%      0.0%     
 flops    62 x    44 x    27           3739367808       0.0%    100.0%      0.0%     
 flops    10 x    39 x    27           3768497460       0.0%    100.0%      0.0%     
 flops    61 x    41 x    32           3774789312       0.0%    100.0%      0.0%     
 flops    27 x    10 x    39           3776142240       0.0%    100.0%      0.0%     
 flops    10 x    61 x    27           3810136860       0.0%    100.0%      0.0%     
 flops    27 x    36 x    27           3860334936       0.0%    100.0%      0.0%     
 flops    32 x    36 x    61           3901782528       0.0%    100.0%      0.0%     
 flops    61 x    61 x    27           3992558580       0.0%    100.0%      0.0%     
 flops    27 x    38 x    27           4010307732       0.0%    100.0%      0.0%     
 flops    42 x    61 x    32           4075916544       0.0%    100.0%      0.0%     
 flops    32 x     6 x    10           4098366720       0.0%    100.0%      0.0%     
 flops    32 x    38 x    61           4120328448       0.0%    100.0%      0.0%     
 flops    32 x    41 x    39           4125266496       0.0%    100.0%      0.0%     
 flops    55 x    39 x    32           4133500800       0.0%    100.0%      0.0%     
 flops    27 x    53 x    61           4152258288       0.0%    100.0%      0.0%     
 flops    13 x    13 x    10           4178825820       0.0%    100.0%      0.0%     
 flops    32 x    40 x    10           4219929600       0.0%    100.0%      0.0%     
 flops    10 x    27 x    39           4273326720       0.0%    100.0%      0.0%     
 flops    27 x    39 x    39           4284027306       0.0%    100.0%      0.0%     
 flops    68 x    40 x    32           4381593600       0.0%    100.0%      0.0%     
 flops    27 x    61 x    39           4496823864       0.0%    100.0%      0.0%     
 flops    39 x    40 x    32           4520056320       0.0%    100.0%      0.0%     
 flops    10 x    27 x     6           4614621840       0.0%    100.0%      0.0%     
 flops    32 x    53 x    10           4643240960       0.0%    100.0%      0.0%     
 flops    27 x    40 x    61           4698429840       0.0%    100.0%      0.0%     
 flops    27 x    42 x    61           4933628028       0.0%    100.0%      0.0%     
 flops    27 x    63 x    61           4935703248       0.0%    100.0%      0.0%     
 flops    10 x     6 x    32           5010969600       0.0%    100.0%      0.0%     
 flops    55 x    61 x    32           5090152320       0.0%    100.0%      0.0%     
 flops    10 x    53 x    32           5105808000       0.0%    100.0%      0.0%     
 flops    10 x    40 x    32           5215488000       0.0%    100.0%      0.0%     
 flops    62 x    31 x    27           5260079628       0.0%    100.0%      0.0%     
 flops    10 x    62 x    61           5320820160       0.0%    100.0%      0.0%     
 flops    68 x    39 x    32           5324197632       0.0%    100.0%      0.0%     
 flops    32 x    53 x    39           5367717888       0.0%    100.0%      0.0%     
 flops    39 x    39 x    32           5493608640       0.0%    100.0%      0.0%     
 flops    32 x    42 x    10           5657299200       0.0%    100.0%      0.0%     
 flops    41 x    62 x    27           5783100840       0.0%    100.0%      0.0%     
 flops    32 x    63 x    10           5852044800       0.0%    100.0%      0.0%     
 flops    27 x    31 x    62           6031328256       0.0%    100.0%      0.0%     
 flops    32 x    40 x    39           6050403840       0.0%    100.0%      0.0%     
 flops    40 x    62 x    27           6131928960       0.0%    100.0%      0.0%     
 flops    10 x    42 x    32           6155197440       0.0%    100.0%      0.0%     
 flops    10 x    63 x    32           6210892800       0.0%    100.0%      0.0%     
 flops     6 x    13 x    27           6328058256       0.0%    100.0%      0.0%     
 flops    32 x    42 x    39           6365713536       0.0%    100.0%      0.0%     
 flops    32 x    63 x    39           6380809344       0.0%    100.0%      0.0%     
 flops    27 x    31 x    27           6537709908       0.0%    100.0%      0.0%     
 flops    68 x    61 x    32           6554238208       0.0%    100.0%      0.0%     
 flops    42 x    62 x    27           6641012448       0.0%    100.0%      0.0%     
 flops    32 x    31 x    61           6721551936       0.0%    100.0%      0.0%     
 flops    39 x    61 x    32           6767474688       0.0%    100.0%      0.0%     
 flops    62 x    41 x    27           6981587748       0.0%    100.0%      0.0%     
 flops    61 x    40 x    32           7350763520       0.0%    100.0%      0.0%     
 flops    32 x     6 x     6           7496584704       0.0%    100.0%      0.0%     
 flops    27 x    41 x    62           7975682604       0.0%    100.0%      0.0%     
 flops    27 x    10 x    61           8447660640       0.0%    100.0%      0.0%     
 flops    62 x    36 x    32           8458458624       0.0%    100.0%      0.0%     
 flops    55 x    62 x    27           8489590560       0.0%    100.0%      0.0%     
 flops    13 x     6 x    27           8624529108       0.0%    100.0%      0.0%     
 flops    32 x    41 x    61           8888513984       0.0%    100.0%      0.0%     
 flops    62 x    38 x    32           8928372992       0.0%    100.0%      0.0%     
 flops    61 x    39 x    32           8932555008       0.0%    100.0%      0.0%     
 flops    10 x    27 x    61           9037187820       0.0%    100.0%      0.0%     
 flops    27 x    41 x    27           9039091158       0.0%    100.0%      0.0%     
 flops    27 x    13 x    10           9042300540       0.0%    100.0%      0.0%     
 flops    27 x    39 x    61           9161681256       0.0%    100.0%      0.0%     
 flops    32 x    39 x    10           9240691200       0.0%    100.0%      0.0%     
 flops    32 x    61 x    10           9424919680       0.0%    100.0%      0.0%     
 flops    27 x    61 x    61           9556822908       0.0%    100.0%      0.0%     
 flops    32 x    36 x    62           9776517120       0.0%    100.0%      0.0%     
 flops    62 x    42 x    32           9919365120       0.0%    100.0%      0.0%     
 flops    32 x    10 x     6          10166154240       0.0%    100.0%      0.0%     
 flops    27 x    53 x    62          10315174608       0.0%    100.0%      0.0%     
 flops    32 x    38 x    62          10322371072       0.0%    100.0%      0.0%     
 flops    62 x    44 x    32          10384557568       0.0%    100.0%      0.0%     
 flops    27 x    36 x    32          10495360512       0.0%    100.0%      0.0%     
 flops    10 x    39 x    32          10693488000       0.0%    100.0%      0.0%     
 flops    68 x    62 x    27          10752115392       0.0%    100.0%      0.0%     
 flops    32 x    36 x    27          10823632128       0.0%    100.0%      0.0%     
 flops    32 x    10 x    39          10830543360       0.0%    100.0%      0.0%     
 flops    10 x    61 x    32          10913788160       0.0%    100.0%      0.0%     
 flops    61 x    61 x    32          10998918784       0.0%    100.0%      0.0%     
 flops    27 x    38 x    32          11067141888       0.0%    100.0%      0.0%     
 flops    32 x    38 x    27          11239641216       0.0%    100.0%      0.0%     
 flops    39 x    62 x    27          11429620020       0.0%    100.0%      0.0%     
 flops    32 x    53 x    61          11498306752       0.0%    100.0%      0.0%     
 flops    27 x    40 x    62          11672333280       0.0%    100.0%      0.0%     
 flops    10 x    32 x    39          11738513280       0.0%    100.0%      0.0%     
 flops    62 x    62 x    10          11741113600       0.0%    100.0%      0.0%     
 flops    32 x    39 x    39          11770836480       0.0%    100.0%      0.0%     
 flops    10 x    13 x    13          11901615440       0.0%    100.0%      0.0%     
 flops    27 x    42 x    62          12256512408       0.0%    100.0%      0.0%     
 flops    27 x    63 x    62          12261012120       0.0%    100.0%      0.0%     
 flops    10 x    32 x     6          12298114560       0.0%    100.0%      0.0%     
 flops    32 x    61 x    39          12354356352       0.0%    100.0%      0.0%     
 flops    32 x    40 x    61          13009064960       0.0%    100.0%      0.0%     
 flops    27 x    53 x    27          13080479076       0.0%    100.0%      0.0%     
 flops    27 x     6 x    27          13551832980       0.0%    100.0%      0.0%     
 flops    62 x    40 x    27          13602388320       0.0%    100.0%      0.0%     
 flops    10 x    62 x    62          13632899760       0.0%    100.0%      0.0%     
 flops    32 x    42 x    61          13660010112       0.0%    100.0%      0.0%     
 flops    32 x    63 x    61          13669028352       0.0%    100.0%      0.0%     
 flops    27 x    40 x    27          13902088320       0.0%    100.0%      0.0%     
 flops    62 x    31 x    32          14602402688       0.0%    100.0%      0.0%     
 flops    10 x    13 x    27          14951020500       0.0%    100.0%      0.0%     
 flops    41 x    62 x    32          15503027584       0.0%    100.0%      0.0%     
 flops    27 x    63 x    27          15835354038       0.0%    100.0%      0.0%     
 flops    27 x    42 x    27          15865267824       0.0%    100.0%      0.0%     
 flops    27 x    62 x    10          16428100320       0.0%    100.0%      0.0%     
 flops    27 x    13 x     6          16456334544       0.0%    100.0%      0.0%     
 flops    62 x    39 x    27          16526498040       0.0%    100.0%      0.0%     
 flops    32 x    31 x    62          16840164224       0.0%    100.0%      0.0%     
 flops    40 x    62 x    32          16927805440       0.0%    100.0%      0.0%     
 flops     6 x    13 x    32          17228684928       0.0%    100.0%      0.0%     
 flops    10 x    62 x    27          17524168560       0.0%    100.0%      0.0%     
 flops    27 x    31 x    32          18103841280       0.0%    100.0%      0.0%     
 flops    61 x    62 x    27          18237356172       0.0%    100.0%      0.0%     
 flops    32 x    31 x    27          18324809280       0.0%    100.0%      0.0%     
 flops    42 x    62 x    32          18614641920       0.0%    100.0%      0.0%     
 flops    62 x    41 x    32          19392734976       0.0%    100.0%      0.0%     
 flops    27 x    62 x    39          19425196440       0.0%    100.0%      0.0%     
 flops    62 x    61 x    27          20319460632       0.0%    100.0%      0.0%     
 flops    27 x    10 x    62          21616428960       0.0%    100.0%      0.0%     
 flops    32 x    41 x    62          22269221504       0.0%    100.0%      0.0%     
 flops    10 x    27 x    62          22450214880       0.0%    100.0%      0.0%     
 flops    27 x    39 x    62          22760135892       0.0%    100.0%      0.0%     
 flops    13 x     6 x    32          22971836160       0.0%    100.0%      0.0%     
 flops    55 x    62 x    32          23246051840       0.0%    100.0%      0.0%     
 flops    27 x    61 x    62          23741505000       0.0%    100.0%      0.0%     
 flops    27 x     6 x    13          23960526408       0.0%    100.0%      0.0%     
 flops    32 x    10 x    61          24206049280       0.0%    100.0%      0.0%     
 flops    27 x    41 x    32          24661196928       0.0%    100.0%      0.0%     
 flops    27 x    10 x    13          24739722540       0.0%    100.0%      0.0%     
 flops    10 x    32 x    61          25027841280       0.0%    100.0%      0.0%     
 flops    32 x    41 x    27          25334607168       0.0%    100.0%      0.0%     
 flops    32 x    39 x    61          25366154112       0.0%    100.0%      0.0%     
 flops    32 x    13 x    10          26106828800       0.0%    100.0%      0.0%     
 flops    32 x    61 x    61          26462799424       0.0%    100.0%      0.0%     
 flops    27 x    39 x    27          28107910116       0.0%    100.0%      0.0%     
 flops    27 x    61 x    27          28515034746       0.0%    100.0%      0.0%     
 flops    32 x    53 x    62          28803025536       0.0%    100.0%      0.0%     
 flops    32 x    36 x    32          29460602880       0.0%    100.0%      0.0%     
 flops    68 x    62 x    32          29934274560       0.0%    100.0%      0.0%     
 flops    27 x    27 x    39          30764673342       0.0%    100.0%      0.0%     
 flops    39 x    62 x    32          30907224192       0.0%    100.0%      0.0%     
 flops    32 x    38 x    32          31061815296       0.0%    100.0%      0.0%     
 flops    32 x    40 x    62          32591882240       0.0%    100.0%      0.0%     
 flops    27 x    27 x     6          34166993616       0.0%    100.0%      0.0%     
 flops    32 x    42 x    62          34224642816       0.0%    100.0%      0.0%     
 flops    32 x    63 x    62          34236558720       0.0%    100.0%      0.0%     
 flops    32 x    53 x    27          36699448896       0.0%    100.0%      0.0%     
 flops    27 x     6 x    32          36787747968       0.0%    100.0%      0.0%     
 flops    62 x    40 x    32          37766947840       0.0%    100.0%      0.0%     
 flops    27 x    53 x    32          37817323200       0.0%    100.0%      0.0%     
 flops    27 x    40 x    32          38616860160       0.0%    100.0%      0.0%     
 flops    32 x     6 x    27          38700581760       0.0%    100.0%      0.0%     
 flops    32 x    40 x    27          38965086720       0.0%    100.0%      0.0%     
 flops    10 x    13 x    32          39498151680       0.0%    100.0%      0.0%     
 flops    10 x    27 x    13          39581076600       0.0%    100.0%      0.0%     
 flops    27 x    62 x    61          41283056376       0.0%    100.0%      0.0%     
 flops    32 x    13 x     6          43847701248       0.0%    100.0%      0.0%     
 flops    32 x    63 x    27          44445687552       0.0%    100.0%      0.0%     
 flops    32 x    42 x    27          44486983296       0.0%    100.0%      0.0%     
 flops    27 x    42 x    32          45515748096       0.0%    100.0%      0.0%     
 flops    27 x    63 x    32          45888679872       0.0%    100.0%      0.0%     
 flops    62 x    39 x    32          45890003328       0.0%    100.0%      0.0%     
 flops    32 x    62 x    10          46052409600       0.0%    100.0%      0.0%     
 flops    61 x    62 x    32          50232705536       0.0%    100.0%      0.0%     
 flops    10 x    62 x    32          50687946240       0.0%    100.0%      0.0%     
 flops    32 x    31 x    32          50802462720       0.0%    100.0%      0.0%     
 flops    13 x    13 x    27          51403354002       0.0%    100.0%      0.0%     
 flops    32 x    62 x    39          53367774720       0.0%    100.0%      0.0%     
 flops    62 x    61 x    32          56513367040       0.0%    100.0%      0.0%     
 flops    32 x     6 x    13          61717873152       0.0%    100.0%      0.0%     
 flops    32 x    10 x    62          62008729600       0.0%    100.0%      0.0%     
 flops    10 x    32 x    62          62699598080       0.0%    100.0%      0.0%     
 flops    32 x    39 x    62          63545968512       0.0%    100.0%      0.0%     
 flops    27 x    27 x    61          65392731756       0.0%    100.0%      0.0%     
 flops    32 x    61 x    62          66291864192       0.0%    100.0%      0.0%     
 flops    32 x    41 x    32          69216333824       0.0%    100.0%      0.0%     
 flops    32 x    10 x    13          69514074240       0.0%    100.0%      0.0%     
 flops    32 x    39 x    27          78801735168       0.0%    100.0%      0.0%     
 flops    27 x    39 x    32          79084107648       0.0%    100.0%      0.0%     
 flops    32 x    61 x    27          79959662784       0.0%    100.0%      0.0%     
 flops    27 x    61 x    32          80977798656       0.0%    100.0%      0.0%     
 flops    27 x    32 x    39          84506804928       0.0%    100.0%      0.0%     
 flops    32 x    27 x    39          88212219264       0.0%    100.0%      0.0%     
 flops    27 x    32 x     6          91010646144       0.0%    100.0%      0.0%     
 flops    62 x    62 x    27          92801209896       0.0%    100.0%      0.0%     
 flops    32 x    27 x     6          95804467200       0.0%    100.0%      0.0%     
 flops    10 x    32 x    13         102122833280       0.0%    100.0%      0.0%     
 flops    27 x    62 x    62         102557489472       0.0%    100.0%      0.0%     
 flops    32 x     6 x    32         104859758592       0.0%    100.0%      0.0%     
 flops    32 x    53 x    32         106159288320       0.0%    100.0%      0.0%     
 flops    32 x    40 x    32         108390400000       0.0%    100.0%      0.0%     
 flops    27 x    13 x    27         110758817286       0.0%    100.0%      0.0%     
 flops    32 x    62 x    61         114314429440       0.0%    100.0%      0.0%     
 flops    32 x    42 x    32         127761199104       0.0%    100.0%      0.0%     
 flops    32 x    63 x    32         128816787456       0.0%    100.0%      0.0%     
 flops    27 x    62 x    27         130870176228       0.0%    100.0%      0.0%     
 flops    13 x    13 x    32         136334446976       0.0%    100.0%      0.0%     
 flops    27 x    13 x    13         139906179504       0.0%    100.0%      0.0%     
 flops    27 x    27 x    62         162235599516       0.0%    100.0%      0.0%     
 flops    27 x    32 x    61         181100009088       0.0%    100.0%      0.0%     
 flops    32 x    27 x    61         187380006912       0.0%    100.0%      0.0%     
 flops    32 x    39 x    32         221996156928       0.0%    100.0%      0.0%     
 flops    32 x    61 x    32         227245780992       0.0%    100.0%      0.0%     
 flops    32 x    32 x    39         242321184768       0.0%    100.0%      0.0%     
 flops    32 x    32 x     6         255205933056       0.0%    100.0%      0.0%     
 flops    62 x    62 x    32         258096615680       0.0%    100.0%      0.0%     
 flops    32 x    62 x    62         286365084160       0.0%    100.0%      0.0%     
 flops    27 x    27 x    13         292013568990       0.0%    100.0%      0.0%     
 flops    27 x    13 x    32         292114712448       0.0%    100.0%      0.0%     
 flops    32 x    13 x    27         318358527552       0.0%    100.0%      0.0%     
 flops    32 x    13 x    13         360977769984       0.0%    100.0%      0.0%     
 flops    32 x    62 x    27         367119181440       0.0%    100.0%      0.0%     
 flops    27 x    62 x    32         375469789824       0.0%    100.0%      0.0%     
 flops    27 x    32 x    62         453097321344       0.0%    100.0%      0.0%     
 flops    32 x    27 x    62         465405640704       0.0%    100.0%      0.0%     
 flops    32 x    32 x    61         518932922368       0.0%    100.0%      0.0%     
 flops    27 x    32 x    13         753043576896       0.0%    100.0%      0.0%     
 flops    32 x    27 x    13         820139591232       0.0%    100.0%      0.0%     
 flops    32 x    13 x    32         837469208576       0.0%    100.0%      0.0%     
 flops    32 x    62 x    32        1053958574080       0.0%    100.0%      0.0%     
 flops    32 x    32 x    62        1299791347712       0.0%    100.0%      0.0%     
 flops    32 x    32 x    13        2114744985600       0.0%    100.0%      0.0%     
 flops inhomo. stacks              41785409081728     100.0%      0.0%      0.0%
 flops total                        60.052017E+12      69.6%     30.4%      0.0%
 flops max/rank                      2.078541E+12      68.2%     31.8%      0.0%
 matmuls inhomo. stacks                 185822182     100.0%      0.0%      0.0%
 matmuls total                          762144239      24.4%     75.6%      0.0%
 number of processed stacks               5861547       4.0%     96.0%      0.0%
 average stack size                                   786.2     102.5       0.0
 marketing flops                    67.081723E+12
 -------------------------------------------------------------------------------
 # multiplications                            506
 max memory usage/rank              23.305359E+09
 # max total images/rank                        2
 # max 3D layers                                1
 # MPI messages exchanged                  210496
 MPI messages size (bytes):
  total size                       521.102852E+09
  min size                           0.000000E+00
  max size                          13.724712E+06
  average size                       2.475595E+06
 MPI breakdown and total messages size (bytes):
             size <=      128               24453                        0
       128 < size <=     8192                 584                  3855104
      8192 < size <=    32768                2614                 71013096
     32768 < size <=   131072               20070               2305144224
    131072 < size <=  4194304              123497             157164000152
   4194304 < size <= 16777216               39278             361559659472
  16777216 < size                               0                        0
 -------------------------------------------------------------------------------

 *** WARNING in dbcsr_mm.F:301 :: Using a non-square number of MPI ranks ***
 *** might lead to poor performance. Used ranks: 32 Suggested: 36 64     ***

 -------------------------------------------------------------------------------
 -                                                                             -
 -                      DBCSR MESSAGE PASSING PERFORMANCE                      -
 -                                                                             -
 -------------------------------------------------------------------------------
 ROUTINE             CALLS      AVE VOLUME [Bytes]
 MP_Bcast              644                     12.
 MP_Allreduce         3414                     41.
 MP_Alltoall          3387                 496965.
 MP_ISend            22666                 788283.
 MP_IRecv            22182                 810461.
 -------------------------------------------------------------------------------

 -------------------------------------------------------------------------------
 -                                                                             -
 -                                GRID STATISTICS                              -
 -                                                                             -
 -------------------------------------------------------------------------------
 LP    KERNEL             BACKEND                              COUNT     PERCENT
 3     collocate ortho    CPU                                   1530      23.28%
 3     integrate ortho    CPU                                   1530      23.28%
 4     collocate ortho    CPU                                   1426      21.70%
 4     integrate ortho    CPU                                   1426      21.70%
 2     collocate ortho    CPU                                    286       4.35%
 2     integrate ortho    CPU                                    286       4.35%
 0     collocate general  CPU                                     88       1.34%
 -------------------------------------------------------------------------------

 -------------------------------------------------------------------------------
 -                                                                             -
 -                          OFFLOAD MEMPOOL STATISTICS                         -
 -                                                                             -
 -------------------------------------------------------------------------------
 Memory consumption                Number of allocations  Used [MiB]  Size [MiB]
 Host                                                  6         171    22059276
 -------------------------------------------------------------------------------

 MEMORY| Estimated peak process memory [MiB]                                2897

 -------------------------------------------------------------------------------
 -                                                                             -
 -                         MESSAGE PASSING PERFORMANCE                         -
 -                                                                             -
 -------------------------------------------------------------------------------

 ROUTINE             CALLS      AVE VOLUME [Bytes]
 MP_Group                5
 MP_Bcast              703                 134395.
 MP_Allreduce          797                 102231.
 MP_Sync                10
 MP_Alltoall            46              115821664.
 MP_SendRecv           124                 937600.
 MP_ISendRecv          124                 937600.
 MP_Wait               358
 MP_comm_split          12
 MP_ISend              198                3017083.
 MP_IRecv              198                3018556.
 -------------------------------------------------------------------------------


 -------------------------------------------------------------------------------
 -                                                                             -
 -                           R E F E R E N C E S                               -
 -                                                                             -
 -------------------------------------------------------------------------------
 
 CP2K version 2026.2 (Development Version), the CP2K developers group (2026).
 CP2K is freely available from https://www.cp2k.org/ .
 
 M. Iannuzzi, J. Wilhelm, F. Stein, A. Bussy, H. Elgabarty, D. Golze, A. Hehn, 
 M. Graml, S. Marek, B. Sertcan Gökmen, C. Schran, H. Forbert, R. Z. 
 Khaliullin, A. Kozhevnikov, M. Taillefumier, R. Meli, V. V. Rybkin, M. Brehm, 
 R. Schade, O. Schütt, J. V. Pototschnig, H. Mirhosseini, A. Knüpfer, D. Marx, 
 M. Krack, J. Hutter, T. D. Kühne.
 J. Phys. Chem. B 130, 1237-1310 (2026).
 The CP2K Program Package Made Simple.
 https://doi.org/10.1021/acs.jpcb.5c05851

 M. Graml, K. Zollner, D. Hernangómez-Pérez, P. E. Faria Junior, J. Wilhelm.
 J. Chem. Theory Comput. 20, 2202-2208 (2024).
 Low-scaling GW algorithm applied to twisted transition-metal dichalcogenide 
 heterobilayers.
 https://doi.org/10.1021/acs.jctc.3c01230

 T. D. Kühne, M. Iannuzzi, M. Del Ben, V. V. Rybkin, P. Seewald, F. Stein, T. 
 Laino, R. Z. Khaliullin, O. Schütt, F. Schiffmann, D. Golze, J. Wilhelm, S. 
 Chulkov, M. H. Bani-Hashemian, V. Weber, U. Borstnik, M. Taillefumier, A. S. 
 Jakobovits, A. Lazzaro, H. Pabst, T. Müller, R. Schade, M. Guidon, S. 
 Andermatt, N. Holmberg, G. K. Schenter, A. Hehn, A. Bussy, F. Belleflamme, G. 
 Tabacchi, A. Glöß, M. Lass, I. Bethune, C. J. Mundy, C. Plessl, M. Watkins, 
 J. VandeVondele, M. Krack, J. Hutter.
 J. Chem. Phys. 152, 194103 (2020).
 CP2K: An electronic structure and molecular dynamics software package - 
 Quickstep: Efficient and accurate electronic structure calculations.
 https://doi.org/10.1063/5.0007045

 O. Schuett, P. Messmer, J. Hutter, J. VandeVondele.
 Electronic Structure Calculations on Graphics Processing Units, 173-190 (2016).
 GPU-Accelerated Sparse Matrix-Matrix Multiplication for Linear Scaling Density 
 Functional Theory.
 https://doi.org/10.1002/9781118670712.ch8

 A. Heinecke, G. Henry, M. Hutchinson, H. Pabst.
 Proceedings of Intl. Supercomputing Conference, 981-991 (2016).
 LIBXSMM: Accelerating Small Matrix Multiplications by Runtime Code Generation.
 https://doi.org/10.1109/SC.2016.83

 U. Borstnik, J. VandeVondele, V. Weber, J. Hutter.
 Parallel Comput. 40, 47-58 (2014).
 Sparse matrix multiplication: The distributed block-compressed sparse row 
 library.
 https://doi.org/10.1016/j.parco.2014.03.012

 J. VandeVondele, J. Hutter.
 J. Chem. Phys. 127, 114105 (2007).
 Gaussian basis sets for accurate calculations on molecular systems in gas and 
 condensed phases.
 https://doi.org/10.1063/1.2770708

 J. VandeVondele, M. Krack, F. Mohamed, M. Parrinello, T. Chassaing, J. Hutter.
 Comput. Phys. Commun. 167, 103-128 (2005).
 QUICKSTEP: Fast and accurate density functional calculations using a mixed 
 Gaussian and plane waves approach.
 https://doi.org/10.1016/j.cpc.2004.12.014

 M. Krack.
 Theor. Chem. Acc. 114, 145-152 (2005).
 Pseudopotentials for H to Kr optimized for gradient-corrected 
 exchange-correlation functionals.
 https://doi.org/10.1007/s00214-005-0655-y

 M. Frigo, S. G. Johnson.
 Proc. IEEE 93, 216-231 (2005).
 The design and implementation of FFTW3.
 https://doi.org/10.1109/JPROC.2004.840301

 J. VandeVondele, J. Hutter.
 J. Chem. Phys. 118, 4365-4369 (2003).
 An efficient orbital transformation method for electronic structure 
 calculations.
 https://doi.org/10.1063/1.1543154

 C. Hartwigsen, S. Goedecker, J. Hutter.
 Phys. Rev. B 58, 3641-3662 (1998).
 Relativistic separable dual-space Gaussian pseudopotentials from H to Rn.
 https://doi.org/10.1103/PhysRevB.58.3641

 G. Lippert, J. Hutter, M. Parrinello.
 Mol. Phys. 92, 477-487 (1997).
 A hybrid Gaussian and plane wave density functional scheme.
 https://doi.org/10.1080/002689797170220

 S. Goedecker, M. Teter, J. Hutter.
 Phys. Rev. B 54, 1703-1710 (1996).
 Separable dual-space Gaussian pseudopotentials.
 https://doi.org/10.1103/PhysRevB.54.1703

 J. P. Perdew, K. Burke, M. Ernzerhof.
 Phys. Rev. Lett. 77, 3865-3868 (1996).
 Generalized gradient approximation made simple.
 https://doi.org/10.1103/PhysRevLett.77.3865

 P. E. Blöchl.
 J. Chem. Phys. 103, 7422-7428 (1995).
 Electrostatic decoupling of periodic images of plane‐wave‐expanded 
 densities and derived atomic point charges.
 https://doi.org/10.1063/1.470314

 R. H. Byrd, P. H. Lu, J. Nocedal, C. Y. Zhu.
 SIAM J. Sci. Comput. 16, 1190-1208 (1995).
 A Limited Memory Algorithm for Bound Constrained Optimization.
 https://doi.org/10.1137/0916069


 -------------------------------------------------------------------------------
 -                                                                             -
 -                                T I M I N G                                  -
 -                                                                             -
 -------------------------------------------------------------------------------
 SUBROUTINE                       CALLS  ASD         SELF TIME        TOTAL TIME MAXRANK
                                MAXIMUM       AVERAGE  MAXIMUM  AVERAGE  MAXIMUM
 CP2K                                 1  1.0    0.031    0.036   98.014   98.014       0
 qs_energies                          1  2.0    0.002    0.002   96.791   96.792      11
 qs_energies_properties               1  3.0    0.000    0.000   89.220   89.222       5
 post_scf_bandstructure               1  4.0    0.000    0.000   89.220   89.222       9
 run_gw                               1  5.0    0.000    0.000   88.876   88.903       7
 gw_calc_ri_rs_non_periodic           1  6.0    0.001    0.001   79.169   79.254      11
 compute_W                            1  7.0    0.001    0.001   32.548   32.551      30
 dbcsr_multiply_generic             506  9.6    0.028    0.030   26.112   27.959      21
 parallel_gemm_fm_cosma             431  9.6   26.054   26.577   26.054   26.577      13
 compute_fm_W_freq                   30  8.0    0.002    0.002   22.297   22.381      25
 multiply_cannon                    506 10.6    0.049    0.055   20.269   21.516       7
 multiply_cannon_loop               506 11.6    0.046    0.062   19.423   20.664      27
 multiply_cannon_multrec           4048 12.6   16.790   18.153   16.808   18.172      22
 compute_Z_lP                         1  7.0    0.000    0.000   16.705   16.706      10
 compute_Z_lP_auto_ri                 1  8.0    0.000    0.000   16.705   16.706      20
 compute_Sigma_c_and_QP_energie       1  7.0    0.000    0.000   16.366   16.394      22
 compute_Sigma_c                      1  8.0    0.001    0.002   15.792   15.792       0
 contract_grid_panels_sigma_c        30  9.0    0.003    0.003   15.022   15.034      11
 contract_grid_panels                31  8.0    0.002    0.003   11.998   12.728      29
 get_mat_chi_Gamma_tau                1  7.0    0.000    0.001   12.574   12.581       0
 compute_auto_ri_d_lp                 1  9.0    0.000    0.000   11.552   11.563      16
 compute_auto_ri_d_lp_AB_d_lp         1 10.0    0.003    0.004   10.463   11.492      10
 compute_d_lp_auto_ri_atom            3 11.0    6.272    7.084    9.822   10.783      20
 create_and_init_bs_env_for_gw        1  6.0    0.005    0.006    9.707    9.828       7
 generate_auto_ri_basis               1  7.0    0.000    0.001    8.053    8.053       1
 compute_M_pq_inv_and_V_pq            1  8.0    0.000    0.000    7.107    7.109       3
 mp_sum_l                          1711 10.5    2.645    6.064    2.645    6.064      27
 qs_ks_build_kohn_sham_matrix         2  7.5    0.001    0.002    5.632    5.633       9
 scf_env_do_scf                       1  3.0    0.000    0.000    5.613    5.613      27
 fft_wrap_pw1pw2                     28 10.0    0.001    0.001    5.022    5.267      26
 compute_contracted_RI_matrix         2  9.0    0.003    0.003    5.149    5.155       5
 fit_auto_ri_z_lp                     1  9.0    2.093    2.683    4.355    5.148       7
 compute_optimized_RI_matrix_bl     246 10.0    0.551    0.564    4.993    5.081      17
 fft_wrap_pw1pw2_300                 16 11.2    0.265    0.303    4.807    5.009      16
 compute_M_PQ_AB                   4198 11.0    0.005    0.006    4.466    4.549      12
 compute_M_PQ                      4198 12.0    0.006    0.006    4.461    4.544       2
 int_operators_r12_ab_os           4198 13.0    0.002    0.003    4.455    4.538       3
 int_operator_ab_os_low            4198 14.0    2.068    2.105    4.452    4.535      10
 init_scf_loop                        1  4.0    0.001    0.001    4.347    4.348      25
 qs_ks_update_qs_env                  2  5.0    0.000    0.000    4.323    4.324       8
 rebuild_ks_matrix                    1  6.0    0.000    0.001    4.323    4.324      15
 fft3d_ps                            28 12.0    2.069    2.177    3.627    3.928      12
 cp_fm_cholesky_invert               31  9.0    3.857    3.869    3.857    3.869      10
 mp_waitall_1                     32544 13.8    3.249    3.802    3.249    3.802      19
 compute_auto_ri_d_lp_transform       1 10.0    0.000    0.000    1.089    3.042      18
 qs_vxc_create                        2  8.5    0.000    0.001    2.917    2.971       6
 xc_vxc_pw_create                     1  9.0    0.043    0.059    2.917    2.971      19
 make_m2s                          1012 10.6    0.013    0.014    2.852    2.913       8
 make_images                       1012 11.6    0.343    0.467    2.829    2.889       9
 qs_rho_update_rho_low                2  5.0    0.000    0.000    2.467    2.468       5
 calculate_rho_elec                   2  6.0    0.037    0.037    2.467    2.468       9
 build_3c_integral_block_auto_r    9758 12.0    2.046    2.406    2.046    2.406       7
 xc_pw_derive                         6 11.0    0.000    0.000    2.166    2.382      18
 mp_sync                             10  9.2    0.799    2.194    0.799    2.194      28
 cp_fm_cholesky_decompose            35  9.0    2.004    2.143    2.004    2.143       4
 multiply_cannon_metrocomm3        4048 12.6    0.009    0.010    1.486    1.973       3
 compute_M_pq_inv                     1  9.0    0.001    0.001    1.957    1.962      10
 cp_fm_geeig                          2  9.5    0.000    0.001    1.920    1.920       6
 mp_sum_root_rm                      99 10.1    0.806    1.888    0.806    1.888       0
 build_G_ao                         121  8.5    0.001    0.001    1.357    1.793      23
 make_images_data                  1012 12.6    0.013    0.014    1.631    1.775      27
 density_rs2pw                        2  7.0    0.000    0.001    1.686    1.717      15
 cp_fm_syevd                          5  9.0    0.000    0.000    1.693    1.696      11
 cp_fm_redistribute_end               5 10.0    0.848    1.689    0.850    1.689      22
 G_occ_vir                          121  9.5    0.035    0.043    1.238    1.675      10
 build_3c_integral_block_auto_r    9758 12.0    0.014    0.017    1.495    1.667       7
 abc_contract_xsmm                10736 12.8    1.496    1.667    1.496    1.667      19
 cp_fm_syevd_base                     5 10.0    0.829    1.667    0.829    1.667      14
 xc_pw_divergence                     1 10.0    0.000    0.000    1.452    1.631      19
 hybrid_alltoall_any               1116 13.4    0.112    0.539    1.507    1.597       0
 fit_auto_ri_z_lp_gather_rhs          3 10.0    0.000    0.000    0.489    1.576      11
 xc_rho_set_and_dset_create           1 10.0    0.054    0.093    1.391    1.514      22
 build_gram_jacobi_blas               3 10.0    0.276    0.372    1.147    1.495      15
 build_phi_on_sphere                  6 10.5    0.062    0.080    1.226    1.417      17
 evaluate_ao_on_points              528 11.5    1.164    1.349    1.164    1.349       0
 init_scf_run                         1  3.0    0.000    0.001    1.321    1.322      31
 scf_env_initial_rho_setup            1  4.0    0.000    0.000    1.321    1.321      20
 compute_V_xc                         1  7.0    0.000    0.000    1.311    1.312       1
 operator2                      2095848 15.0    1.271    1.305    1.271    1.305       4
 scf_env_do_scf_inner_loop            1  4.0    0.000    0.001    1.255    1.265      20
 Fourier_transform_w_to_t            30  8.0    0.001    0.001    1.123    1.211      18
 cp_fm_scale_and_add                901  9.0    1.122    1.210    1.122    1.210      11
 sum_up_and_integrate                 2  8.5    0.000    0.000    1.135    1.150      10
 ab_contract                    2096748 15.0    1.114    1.149    1.114    1.149      13
 build_gram_jacobi_blas_dsyrk         3 11.0    0.871    1.135    0.871    1.135       7
 integrate_v_rspace                   2  9.5    0.000    0.000    1.117    1.132      21
 compute_fm_chi_Gamma_freq           30  8.0    0.002    0.002    0.948    1.085      20
 potential_pw2rs                      2 10.5    0.002    0.003    1.064    1.079      25
 mp_alltoall_z22v                    28 14.0    0.673    0.990    0.673    0.990       4
 yz_to_x                             14 12.2    0.362    0.397    0.741    0.970       1
 qs_init_subsys                       1  2.0    0.002    0.002    0.951    0.954       0
 qs_env_setup                         1  3.0    0.001    0.001    0.948    0.952       0
 qs_env_rebuild_pw_env                2  3.5    0.000    0.001    0.946    0.950       8
 pw_env_rebuild                       1  5.0    0.001    0.001    0.946    0.949       7
 pw_grid_setup                        5  5.2    0.000    0.000    0.940    0.943      27
 pw_grid_setup_internal               5  6.2    0.016    0.016    0.939    0.943       1
 dbcsr_complete_redistribute        265 10.4    0.308    0.393    0.867    0.917      27
 calculate_norms                   6816 12.6    0.779    0.906    0.779    0.906      20
 x_to_yz                             14 13.8    0.518    0.560    0.812    0.864      19
 copy_dbcsr_to_fm                   104  9.5    0.002    0.003    0.734    0.830       9
 qs_ks_ddapc                          2  8.5    0.000    0.001    0.796    0.813      25
 compute_Sigma_x                      1  7.0    0.000    0.000    0.807    0.807       3
 pw_grid_sort                         5  7.2    0.576    0.587    0.793    0.804      14
 extract_grid_panel                 122  9.5    0.524    0.685    0.591    0.771      12
 grid_collocate_task_list             2  7.0    0.732    0.759    0.732    0.759       3
 cp_fm_uplo_to_full                  63  9.0    0.523    0.746    0.523    0.746      29
 buffer_matrices_ensure_size       1012 11.6    0.599    0.711    0.599    0.711       8
 dbcsr_finalize                    2071 10.8    0.024    0.027    0.571    0.682      20
 pw_poisson_solve                     2  8.5    0.000    0.000    0.675    0.678       7
 make_images_pack                  1012 12.6    0.484    0.668    0.488    0.671       7
 extract_masked_blocks              244  9.6    0.437    0.565    0.509    0.650      15
 dbcsr_merge_all                   1806 11.9    0.054    0.070    0.533    0.644      21
 qs_energies_init_hamiltonians        1  3.0    0.001    0.001    0.632    0.633       3
 qs_env_update_s_mstruct              1  4.0    0.000    0.000    0.613    0.617      17
 compute_QP_energies                  1  8.0    0.001    0.001    0.574    0.591      25
 compute_AA_optimized_RI_basis        1  8.0    0.002    0.002    0.579    0.579      31
 copy_fm_to_dbcsr                   161  9.3    0.001    0.001    0.554    0.568      16
 pw_derive                           12 11.2    0.497    0.520    0.497    0.520      23
 pw_copy                             28 10.5    0.489    0.499    0.489    0.499      27
 pw_gather_p                         14 11.2    0.417    0.496    0.417    0.496       5
 to_Gamma_and_mo_real                62  9.0    0.002    0.002    0.492    0.492       9
 mp_sum_iv                          568 11.3    0.242    0.490    0.242    0.490      27
 transfer_rs2pw                       9  7.8    0.000    0.000    0.435    0.476      17
 dbcsr_add_d                        935  9.0    0.001    0.001    0.416    0.471       3
 dbcsr_add_anytype                  935 10.0    0.347    0.398    0.415    0.470      16
 calculate_rho_core                   1  5.0    0.022    0.031    0.464    0.468      25
 collect_used_col_blocks             92  9.7    0.002    0.003    0.215    0.458      15
 hadamard_product                    91  9.7    0.204    0.251    0.392    0.454      12
 mp_bcast_dm                        250  9.0    0.339    0.427    0.339    0.427       6
 pw_poisson_set                       3  8.3    0.000    0.000    0.421    0.424       4
 dbcsr_desymmetrize_deep            104 10.5    0.025    0.033    0.290    0.420      17
 mp_alltoall_i22                    369 11.4    0.262    0.407    0.262    0.407      29
 dbcsr_copy                        1160 10.5    0.334    0.396    0.342    0.405      21
 pw_scatter_p                        14 12.8    0.389    0.397    0.389    0.397      15
 transfer_pw2rs                       8 11.5    0.000    0.000    0.372    0.373      23
 transfer_rs2pw_300                   3  8.3    0.179    0.196    0.328    0.367       3
 compute_AB_optimized_RI_basis        1  8.0    0.001    0.001    0.365    0.365      24
 compute_AB_optimized_RI_basis_       1  9.0    0.001    0.001    0.353    0.357      22
 mp_alltoall_d11v                  1111 11.7    0.337    0.351    0.337    0.351      12
 compute_B_PQ_AA                     88  9.0    0.001    0.001    0.328    0.340       4
 dbcsr_data_copy_aa2                652 12.8    0.260    0.329    0.260    0.329      18
 multiply_cannon_metrocomm1        4048 12.6    0.006    0.006    0.254    0.312      23
 dbcsr_sort_data                   1456 14.0    0.241    0.300    0.241    0.300       4
 mp_waitany                         198 11.3    0.266    0.296    0.266    0.296      17
 xc_functional_eval                   1 11.0    0.000    0.000    0.186    0.281      26
 pbe_lda_eval                         1 12.0    0.186    0.281    0.186    0.281      21
 check_for_restart_files              1  7.0    0.158    0.277    0.158    0.277      30
 compute_B_PQ_AB                      5 10.0    0.058    0.063    0.248    0.271      27
 transfer_pw2rs_300                   2 12.5    0.125    0.134    0.250    0.259      26
 make_images_sizes                 1012 12.6    0.001    0.001    0.180    0.247      21
 mp_alltoall_i44                   1012 13.6    0.179    0.246    0.179    0.246      24
 fft_wrap_pw1pw2_100                  4 10.8    0.013    0.022    0.179    0.239      11
 optimize_ri_rs_grid                  1  7.0    0.000    0.000    0.155    0.236       1
 cp_fm_triangular_multiply            7 10.0    0.222    0.225    0.222    0.225      17
 compute_V_MinvVsqrt                  1  8.0    0.001    0.001    0.217    0.223       8
 initialize_auto_ri_integrals         2  9.0    0.007    0.219    0.220    0.221       0
 sort_shells                          5  8.2    0.217    0.220    0.217    0.220      31
 pw_axpy                             25  6.6    0.195    0.212    0.195    0.212       2
 initialize_ri_rs_grid                1  8.0    0.002    0.002    0.123    0.204       6
 pw_copy_to_array                    14 11.2    0.182    0.200    0.182    0.200      14
 dbcsr_special_finalize            1518 12.6    0.005    0.013    0.172    0.194       5
 create_qs_kind_set                   1  2.0    0.000    0.000    0.189    0.191       2
 read_qs_kind                         2  3.0    0.071    0.076    0.189    0.191       0
 eval_bandstructure_properties        1  5.0    0.000    0.001    0.187    0.189      27
 setup_time_and_frequency_minim       1  7.0    0.000    0.000    0.174    0.181       0
 build_minimax_time_frequency_g       1  8.0    0.000    0.000    0.174    0.181      31
 fit_l_sq_weights                     3  9.0    0.174    0.181    0.174    0.181       1
 mp_allgather_i34                   506 11.6    0.147    0.181    0.147    0.181      27
 dbcsr_merge_single_wm              994 13.6    0.040    0.048    0.156    0.178      23
 pw_integral_ab_c1d_c1d_gs            4 10.0    0.167    0.169    0.170    0.172       5
 cp_ddapc_apply_CD                    2  9.5    0.000    0.000    0.168    0.172      24
 contract_B_PQ                       26 11.8    0.135    0.149    0.146    0.161      27
 create_and_init_bs_env               1  5.0    0.000    0.001    0.157    0.158      25
 cp_cfm_geeig                         1  6.0    0.000    0.000    0.154    0.156       7
 dbcsr_add_wm_from_matrix           161 10.6    0.043    0.090    0.114    0.149       9
 diagonalize_ks_matrix                1  6.0    0.000    0.000    0.143    0.143      31
 cp_fm_geeig_canon                    1  7.0    0.000    0.000    0.143    0.143      20
 cp_ddapc_init                        1  5.0    0.000    0.000    0.139    0.140      29
 dbcsr_set                          466 10.5    0.001    0.001    0.106    0.140       5
 cp_ddapc_create                      1  6.0    0.000    0.000    0.139    0.140      17
 dbcsr_zero                         466 11.5    0.105    0.139    0.105    0.139       3
 pw_copy_from_array                  14 12.8    0.126    0.138    0.126    0.138       0
 cp_fm_get_submatrix                318 10.0    0.009    0.010    0.059    0.127       8
 parser_read_line                 39091  4.0    0.007    0.008    0.123    0.126      25
 mp_sum_dm                          321 11.0    0.057    0.124    0.057    0.124       2
 parser_read_line_low                43  5.0    0.004    0.031    0.116    0.119       0
 broadcast_input_information         43  6.0    0.013    0.023    0.112    0.116       0
 ddapc_eval_AmI                       1  7.0    0.007    0.008    0.106    0.111      20
 cp_cfm_heevd                         1  7.0    0.000    0.000    0.101    0.101      21
 cp_cfm_heevd_base                    1  8.0    0.101    0.101    0.101    0.101      22
 -------------------------------------------------------------------------------

 The number of warnings for this run is : 1
 
 -------------------------------------------------------------------------------
  **** **** ******  **  PROGRAM ENDED AT                 2026-10-01 14:20:17.259
 ***** ** ***  *** **   PROGRAM RAN ON                                  n2cn0292
 **    ****   ******    PROGRAM RAN BY                                  eprop2d1
 ***** **    ** ** **   PROGRAM PROCESS ID                               2518619
  **** **  *******  **  PROGRAM STOPPED IN /scratch/hpc-prf-metdyn/eprop2d1_Jan/
                                           53_benchmark_RI_opt/403_figure4_epsfi
                                           lter_20261001/h24_rc0p5_ri5_rs07_e12
