 DBCSR| CPU Multiplication driver                                           XSMM (U)
 DBCSR| Multrec recursion limit                                              512 (U)
 DBCSR| Multiplication stack size                                           1000 (D)
 DBCSR| Maximum elements for images                                    UNLIMITED (U)
 DBCSR| Multiplicative factor virtual images                                   1 (U)
 DBCSR| Use multiplication densification                                       T (D)
 DBCSR| Multiplication size stacks                                             3 (U)
 DBCSR| Use memory pool for CPU allocation                                     F (U)
 DBCSR| Number of 3D layers                                               SINGLE (U)
 DBCSR| Use MPI memory allocation                                              F (U)
 DBCSR| Use RMA algorithm                                                      F (U)
 DBCSR| Use Communication thread                                               T (U)
 DBCSR| Communication thread load                                             75 (D)
 DBCSR| MPI: My process id                                                     0
 DBCSR| MPI: Number of processes                                              32
 DBCSR| OMP: Current number of threads                                         4
 DBCSR| OMP: Max number of threads                                             4
 DBCSR| Split modifier for TAS multiplication algorithm                  1.0E+00 (U)


  **** **** ******  **  PROGRAM STARTED AT               2026-09-18 04:43:04.633
 ***** ** ***  *** **   PROGRAM STARTED ON                              n2cn0768
 **    ****   ******    PROGRAM STARTED BY                              eprop2d1
 ***** **    ** ** **   PROGRAM PROCESS ID                                335986
  **** **  *******  **  PROGRAM STARTED IN /scratch/hpc-prf-metdyn/eprop2d1_Jan/
                                           53_benchmark_RI_opt/129_GW100_Si293_A
                                           O_frontier_optimization_coopfst/recov
                                           ery/followup_stage4/97_urea/dzvp_t1

 CP2K| version string:                 CP2K version 2026.2 (Development Version)
 CP2K| source code revision number:                                      d1dff42
 CP2K| cp2kflags: omp libint fftw3 libxc parallel scalapack openblas            
 CP2K| is freely available from                            https://www.cp2k.org/
 CP2K| Program compiled at                                   2026-09-18 04:26:36
 CP2K| Program compiled on                                              n2login5
 CP2K| Program compiled for                                               x86_64
 CP2K| Data directory path    /scratch/hpc-prf-metdyn/eprop2d1_Jan/53_benchmark_
 CP2K| Input file name        /scratch/hpc-prf-metdyn/eprop2d1_Jan/53_benchmark_

 GLOBAL| Force Environment number                                              1
 GLOBAL| Basis set file name            /scratch/hpc-prf-metdyn/eprop2d1_Jan/53_
 GLOBAL| Potential file name            /scratch/hpc-prf-metdyn/eprop2d1_Jan/53_
 GLOBAL| MM Potential file name                                     MM_POTENTIAL
 GLOBAL| Coordinate file name                                      __STD_INPUT__
 GLOBAL| Method name                                                        CP2K
 GLOBAL| Project name                                              gw129g_097_d1
 GLOBAL| Run type                                                         ENERGY
 GLOBAL| FFT library                                                       FFTW3
 GLOBAL| Diagonalization library                                       ScaLAPACK
 GLOBAL| Cholesky decomposition library                                ScaLAPACK
 GLOBAL| DGEMM library                                                      BLAS
 GLOBAL| Direct generalized diagonalization requested                          F
 GLOBAL| Orthonormality check for eigenvectors                          DISABLED
 GLOBAL| Matrix multiplication library                                 ScaLAPACK
 GLOBAL| All-to-all communication in single precision                          F
 GLOBAL| Grid backend                                                       AUTO
 GLOBAL| Global print level                                               MEDIUM
 GLOBAL| MPI I/O enabled                                                       T
 GLOBAL| Total number of message passing processes                            32
 GLOBAL| Number of distributed systems (nodes)                                 1
 GLOBAL| Number of threads for this process                                    4
 GLOBAL| This output is from process                                           0
 GLOBAL| OpenMP stack size per thread (OMP_STACKSIZE)                       512M
 GLOBAL| CPU model name                          AMD EPYC 7763 64-Core Processor

 MEMORY| system memory details [Kb]
 MEMORY|                        rank 0           min           max       average
 MEMORY| MemTotal            263897536     263897536     263897536     263897536
 MEMORY| MemFree             245253992     245253992     245253992     245253992
 MEMORY| Buffers                320604        320604        320604        320604
 MEMORY| Cached                7600016       7600016       7600016       7600016
 MEMORY| Slab                  1592052       1592052       1592052       1592052
 MEMORY| SReclaimable           394644        394644        394644        394644
 MEMORY| MemLikelyFree       253569256     253569256     253569256     253569256


 *** Fundamental physical constants (SI units) ***

 *** Literature: B. J. Mohr and B. N. Taylor,
 ***             CODATA recommended values of the fundamental physical
 ***             constants: 2006, Web Version 5.1
 ***             http://physics.nist.gov/constants

 Speed of light in vacuum [m/s]                             2.99792458000000E+08
 Magnetic constant or permeability of vacuum [N/A**2]       1.25663706143592E-06
 Electric constant or permittivity of vacuum [F/m]          8.85418781762039E-12
 Planck constant (h) [J*s]                                  6.62606896000000E-34
 Planck constant (h-bar) [J*s]                              1.05457162825177E-34
 Elementary charge [C]                                      1.60217648700000E-19
 Electron mass [kg]                                         9.10938215000000E-31
 Electron g factor [ ]                                     -2.00231930436220E+00
 Proton mass [kg]                                           1.67262163700000E-27
 Fine-structure constant                                    7.29735253760000E-03
 Rydberg constant [1/m]                                     1.09737315685270E+07
 Avogadro constant [1/mol]                                  6.02214179000000E+23
 Boltzmann constant [J/K]                                   1.38065040000000E-23
 Atomic mass unit [kg]                                      1.66053878200000E-27
 Bohr radius [m]                                            5.29177208590000E-11

 *** Conversion factors ***

 [u] -> [a.u.]                                              1.82288848426455E+03
 [Angstrom] -> [Bohr] = [a.u.]                              1.88972613288564E+00
 [a.u.] = [Bohr] -> [Angstrom]                              5.29177208590000E-01
 [a.u.] -> [s]                                              2.41888432650478E-17
 [a.u.] -> [fs]                                             2.41888432650478E-02
 [a.u.] -> [J]                                              4.35974393937059E-18
 [a.u.] -> [N]                                              8.23872205491840E-08
 [a.u.] -> [K]                                              3.15774647902944E+05
 [a.u.] -> [kJ/mol]                                         2.62549961709828E+03
 [a.u.] -> [kcal/mol]                                       6.27509468713739E+02
 [a.u.] -> [Pa]                                             2.94210107994716E+13
 [a.u.] -> [bar]                                            2.94210107994716E+08
 [a.u.] -> [atm]                                            2.90362800883016E+08
 [a.u.] -> [eV]                                             2.72113838565563E+01
 [a.u.] -> [Hz]                                             6.57968392072181E+15
 [a.u.] -> [1/cm] (wave numbers)                            2.19474631370540E+05
 [a.u./Bohr**2] -> [1/cm]                                   5.14048714338585E+03
 

 CELL| Volume [angstrom^3]:                                          8000.000000
 CELL| Vector a [angstrom]:      20.000     0.000     0.000   |a| =    20.000000
 CELL| Vector b [angstrom]:       0.000    20.000     0.000   |b| =    20.000000
 CELL| Vector c [angstrom]:       0.000     0.000    20.000   |c| =    20.000000
 CELL| Angle (b,c), alpha [degree]:                                    90.000000
 CELL| Angle (a,c), beta  [degree]:                                    90.000000
 CELL| Angle (a,b), gamma [degree]:                                    90.000000
 CELL| Numerically orthorhombic:                                             YES
 CELL| Periodicity                                                          NONE

 CELL_REF| Volume [angstrom^3]:                                      8000.000000
 CELL_REF| Vector a [angstrom    20.000     0.000     0.000   |a| =    20.000000
 CELL_REF| Vector b [angstrom     0.000    20.000     0.000   |b| =    20.000000
 CELL_REF| Vector c [angstrom     0.000     0.000    20.000   |c| =    20.000000
 CELL_REF| Angle (b,c), alpha [degree]:                                90.000000
 CELL_REF| Angle (a,c), beta  [degree]:                                90.000000
 CELL_REF| Angle (a,b), gamma [degree]:                                90.000000
 CELL_REF| Numerically orthorhombic:                                         YES
 CELL_REF| Periodicity                                                      NONE

 GENERATE|  Preliminary Number of Bonds generated:                             0
 GENERATE|  Achieved consistency in connectivity generation.

 PW_GRID| Information for grid number                                          1
 PW_GRID| Cutoff [a.u.]                                                      8.0
 PW_GRID| spherical cutoff:                                                   NO
 PW_GRID|   Bounds   1              0      49                Points:          50
 PW_GRID|   Bounds   2              0      49                Points:          50
 PW_GRID|   Bounds   3              0      49                Points:          50
 PW_GRID| Volume element (a.u.^3)  0.4319         Volume (a.u.^3)     53986.6767
 PW_GRID| Grid span                                                    HALFSPACE

 *******************************************************************************
 *******************************************************************************
 **                                                                           **
 **     #####                         ##              ##                      **
 **    ##   ##            ##          ##              ##                      **
 **   ##     ##                       ##            ######                    **
 **   ##     ##  ##   ##  ##   #####  ##  ##   ####   ##    #####    #####    **
 **   ##     ##  ##   ##  ##  ##      ## ##   ##      ##   ##   ##  ##   ##   **
 **   ##  ## ##  ##   ##  ##  ##      ####     ###    ##   ######   ######    **
 **    ##  ###   ##   ##  ##  ##      ## ##      ##   ##   ##       ##        **
 **     #######   #####   ##   #####  ##  ##  ####    ##    #####   ##        **
 **           ##                                                    ##        **
 **                                                                           **
 **                                                ... make the atoms dance   **
 **                                                                           **
 **            Copyright (C) by CP2K developers group (2000-2026)             **
 **                      J. Chem. Phys. 152, 194103 (2020)                    **
 **                                                                           **
 *******************************************************************************

 DFT| Spin restricted Kohn-Sham (RKS) calculation                            RKS
 DFT| Multiplicity                                                             1
 DFT| Number of spin states                                                    1
 DFT| Charge                                                                   0
 DFT| Self-interaction correction (SIC)                                       NO
 DFT| Cutoffs: density                                              1.000000E-10
 DFT|          gradient                                             1.000000E-10
 DFT|          tau                                                  1.000000E-10
 DFT|          cutoff_smoothing_range                               0.000000E+00
 DFT| XC density smoothing                                                  NONE
 DFT| XC derivatives                                                          PW

 FUNCTIONAL| PBE:
 FUNCTIONAL| J.P.Perdew, K.Burke, M.Ernzerhof, Phys. Rev. Letter, vol. 77, n 18,
 FUNCTIONAL|  pp. 3865-3868, (1996) {spin unpolarized}                          


 QS| Method:                                                                 GPW
 QS| Density plane wave grid type                        NON-SPHERICAL FULLSPACE
 QS| Number of grid levels:                                                    5
 QS| Density cutoff [a.u.]:                                                300.0
 QS| Multi grid cutoff [a.u.]: 1) grid level                               300.0
 QS|                           2) grid level                               100.0
 QS|                           3) grid level                                33.3
 QS|                           4) grid level                                11.1
 QS|                           5) grid level                                 3.7
 QS| Grid level progression factor:                                          3.0
 QS| Relative density cutoff [a.u.]:                                        30.0
 QS| Interaction thresholds: eps_pgf_orb:                                1.0E-12
 QS|                         eps_filter_matrix:                          0.0E+00
 QS|                         eps_core_charge:                            1.0E-14
 QS|                         eps_rho_gspace:                             1.0E-12
 QS|                         eps_rho_rspace:                             1.0E-12
 QS|                         eps_gvg_rspace:                             1.0E-06
 QS|                         eps_ppl:                                    1.0E-02
 QS|                         eps_ppnl:                                   1.0E-08


 ATOMIC KIND INFORMATION

  1. Atomic kind: O                                     Number of atoms:       1

     Orbital Basis Set                              AUG-DZVP-MOLOPT-GTH-TIER-1_3

       Number of orbital shell sets:                                           1
       Number of orbital shells:                                               8
       Number of primitive Cartesian functions:                                7
       Number of Cartesian basis functions:                                   24
       Number of spherical basis functions:                                   22
       Norm type:                                                              2

       Normalised Cartesian orbitals:

                        Set   Shell   Orbital            Exponent    Coefficient

                          1       1    2s                0.046761      -0.000019
                                                         0.142977       0.015788
                                                         0.352316       0.150829
                                                         0.832382       0.295475
                                                         2.048398       0.148191
                                                         5.108150      -0.322498
                                                        12.015955      -0.284499

                          1       2    3s                0.046761       0.000509
                                                         0.142977       0.132878
                                                         0.352316       0.218878
                                                         0.832382      -0.474871
                                                         2.048398      -0.023507
                                                         5.108150       0.290576
                                                        12.015955       0.380954

                          1       3    4s                0.046761      -0.023055
                                                         0.142977      -0.155603
                                                         0.352316       0.232287
                                                         0.832382      -0.200319
                                                         2.048398      -0.592755
                                                         5.108150       0.702330
                                                        12.015955      -0.788001

                          1       4    3px               0.046761       0.000308
                                                         0.142977       0.022184
                                                         0.352316       0.116648
                                                         0.832382       0.408839
                                                         2.048398       0.897267
                                                         5.108150       1.354170
                                                        12.015955       1.192141
                          1       4    3py               0.046761       0.000308
                                                         0.142977       0.022184
                                                         0.352316       0.116648
                                                         0.832382       0.408839
                                                         2.048398       0.897267
                                                         5.108150       1.354170
                                                        12.015955       1.192141
                          1       4    3pz               0.046761       0.000308
                                                         0.142977       0.022184
                                                         0.352316       0.116648
                                                         0.832382       0.408839
                                                         2.048398       0.897267
                                                         5.108150       1.354170
                                                        12.015955       1.192141

                          1       5    4px               0.046761       0.000964
                                                         0.142977       0.086571
                                                         0.352316       0.174093
                                                         0.832382      -0.567049
                                                         2.048398      -0.819064
                                                         5.108150      -1.427036
                                                        12.015955      -1.185877
                          1       5    4py               0.046761       0.000964
                                                         0.142977       0.086571
                                                         0.352316       0.174093
                                                         0.832382      -0.567049
                                                         2.048398      -0.819064
                                                         5.108150      -1.427036
                                                        12.015955      -1.185877
                          1       5    4pz               0.046761       0.000964
                                                         0.142977       0.086571
                                                         0.352316       0.174093
                                                         0.832382      -0.567049
                                                         2.048398      -0.819064
                                                         5.108150      -1.427036
                                                        12.015955      -1.185877

                          1       6    5px               0.046761      -0.012203
                                                         0.142977      -0.117946
                                                         0.352316       0.359700
                                                         0.832382      -0.968264
                                                         2.048398       2.471889
                                                         5.108150       1.348397
                                                        12.015955       1.226282
                          1       6    5py               0.046761      -0.012203
                                                         0.142977      -0.117946
                                                         0.352316       0.359700
                                                         0.832382      -0.968264
                                                         2.048398       2.471889
                                                         5.108150       1.348397
                                                        12.015955       1.226282
                          1       6    5pz               0.046761      -0.012203
                                                         0.142977      -0.117946
                                                         0.352316       0.359700
                                                         0.832382      -0.968264
                                                         2.048398       2.471889
                                                         5.108150       1.348397
                                                        12.015955       1.226282

                          1       7    4dx2              0.046761      -0.000027
                                                         0.142977       0.010378
                                                         0.352316       0.048604
                                                         0.832382       0.756334
                                                         2.048398       0.999335
                                                         5.108150       1.160468
                                                        12.015955       1.125955
                          1       7    4dxy              0.046761      -0.000046
                                                         0.142977       0.017974
                                                         0.352316       0.084185
                                                         0.832382       1.310009
                                                         2.048398       1.730899
                                                         5.108150       2.009990
                                                        12.015955       1.950212
                          1       7    4dxz              0.046761      -0.000046
                                                         0.142977       0.017974
                                                         0.352316       0.084185
                                                         0.832382       1.310009
                                                         2.048398       1.730899
                                                         5.108150       2.009990
                                                        12.015955       1.950212
                          1       7    4dy2              0.046761      -0.000027
                                                         0.142977       0.010378
                                                         0.352316       0.048604
                                                         0.832382       0.756334
                                                         2.048398       0.999335
                                                         5.108150       1.160468
                                                        12.015955       1.125955
                          1       7    4dyz              0.046761      -0.000046
                                                         0.142977       0.017974
                                                         0.352316       0.084185
                                                         0.832382       1.310009
                                                         2.048398       1.730899
                                                         5.108150       2.009990
                                                        12.015955       1.950212
                          1       7    4dz2              0.046761      -0.000027
                                                         0.142977       0.010378
                                                         0.352316       0.048604
                                                         0.832382       0.756334
                                                         2.048398       0.999335
                                                         5.108150       1.160468
                                                        12.015955       1.125955

                          1       8    5dx2              0.046761       0.001445
                                                         0.142977      -0.034082
                                                         0.352316       0.134067
                                                         0.832382       0.415008
                                                         2.048398      -6.252437
                                                         5.108150      -5.371083
                                                        12.015955      15.064140
                          1       8    5dxy              0.046761       0.002503
                                                         0.142977      -0.059033
                                                         0.352316       0.232211
                                                         0.832382       0.718815
                                                         2.048398     -10.829538
                                                         5.108150      -9.302989
                                                        12.015955      26.091856
                          1       8    5dxz              0.046761       0.002503
                                                         0.142977      -0.059033
                                                         0.352316       0.232211
                                                         0.832382       0.718815
                                                         2.048398     -10.829538
                                                         5.108150      -9.302989
                                                        12.015955      26.091856
                          1       8    5dy2              0.046761       0.001445
                                                         0.142977      -0.034082
                                                         0.352316       0.134067
                                                         0.832382       0.415008
                                                         2.048398      -6.252437
                                                         5.108150      -5.371083
                                                        12.015955      15.064140
                          1       8    5dyz              0.046761       0.002503
                                                         0.142977      -0.059033
                                                         0.352316       0.232211
                                                         0.832382       0.718815
                                                         2.048398     -10.829538
                                                         5.108150      -9.302989
                                                        12.015955      26.091856
                          1       8    5dz2              0.046761       0.001445
                                                         0.142977      -0.034082
                                                         0.352316       0.134067
                                                         0.832382       0.415008
                                                         2.048398      -6.252437
                                                         5.108150      -5.371083
                                                        12.015955      15.064140

     RI Auxiliary Basis Set             RI_aug-DZVP-MOLOPT-GTH-tier-1_N_RI_115_s

       Number of orbital shell sets:                                          27
       Number of orbital shells:                                              27
       Number of primitive Cartesian functions:                               27
       Number of Cartesian basis functions:                                  151
       Number of spherical basis functions:                                  115
       Norm type:                                                              2

       Normalised Cartesian orbitals:

                        Set   Shell   Orbital            Exponent    Coefficient

                          1       1    1s                0.120368       0.145644

                          2       1    2s                0.296311       0.286234

                          3       1    3s                0.730589       0.563203

                          4       1    4s                1.594562       1.011326

                          5       1    5s                3.319889       1.752882

                          6       1    6s                8.154762       3.439288

                          7       1    7s               19.895255       6.713859

                          8       1    8px               0.154396       0.137954
                          8       1    8py               0.154396       0.137954
                          8       1    8pz               0.154396       0.137954

                          9       1    9px               0.442882       0.514991
                          9       1    9py               0.442882       0.514991
                          9       1    9pz               0.442882       0.514991

                         10       1   10px               1.119706       1.641800
                         10       1   10py               1.119706       1.641800
                         10       1   10pz               1.119706       1.641800

                         11       1   11px               1.896740       3.172852
                         11       1   11py               1.896740       3.172852
                         11       1   11pz               1.896740       3.172852

                         12       1   12px               5.292999      11.443723
                         12       1   12py               5.292999      11.443723
                         12       1   12pz               5.292999      11.443723

                         13       1   13px              15.649534      44.367693
                         13       1   13py              15.649534      44.367693
                         13       1   13pz              15.649534      44.367693

                         14       1   14dx2              0.209636       0.106899
                         14       1   14dxy              0.209636       0.185155
                         14       1   14dxz              0.209636       0.185155
                         14       1   14dy2              0.209636       0.106899
                         14       1   14dyz              0.209636       0.185155
                         14       1   14dz2              0.209636       0.106899

                         15       1   15dx2              0.534518       0.549977
                         15       1   15dxy              0.534518       0.952587
                         15       1   15dxz              0.534518       0.952587
                         15       1   15dy2              0.534518       0.549977
                         15       1   15dyz              0.534518       0.952587
                         15       1   15dz2              0.534518       0.549977

                         16       1   16dx2              1.314306       2.655388
                         16       1   16dxy              1.314306       4.599268
                         16       1   16dxz              1.314306       4.599268
                         16       1   16dy2              1.314306       2.655388
                         16       1   16dyz              1.314306       4.599268
                         16       1   16dz2              1.314306       2.655388

                         17       1   17dx2              2.979612      11.122153
                         17       1   17dxy              2.979612      19.264133
                         17       1   17dxz              2.979612      19.264133
                         17       1   17dy2              2.979612      11.122153
                         17       1   17dyz              2.979612      19.264133
                         17       1   17dz2              2.979612      11.122153

                         18       1   18dx2              7.252807      52.758831
                         18       1   18dxy              7.252807      91.380976
                         18       1   18dxz              7.252807      91.380976
                         18       1   18dy2              7.252807      52.758831
                         18       1   18dyz              7.252807      91.380976
                         18       1   18dz2              7.252807      52.758831

                         19       1   19dx2             18.375586     268.430304
                         19       1   19dxy             18.375586     464.934924
                         19       1   19dxz             18.375586     464.934924
                         19       1   19dy2             18.375586     268.430304
                         19       1   19dyz             18.375586     464.934924
                         19       1   19dz2             18.375586     268.430304

                         20       1   20fx3              0.116599       0.011695
                         20       1   20fx2y             0.116599       0.026152
                         20       1   20fx2z             0.116599       0.026152
                         20       1   20fxy2             0.116599       0.026152
                         20       1   20fxyz             0.116599       0.045296
                         20       1   20fxz2             0.116599       0.026152
                         20       1   20fy3              0.116599       0.011695
                         20       1   20fy2z             0.116599       0.026152
                         20       1   20fyz2             0.116599       0.026152
                         20       1   20fz3              0.116599       0.011695

                         21       1   21fx3              0.319276       0.112805
                         21       1   21fx2y             0.319276       0.252240
                         21       1   21fx2z             0.319276       0.252240
                         21       1   21fxy2             0.319276       0.252240
                         21       1   21fxyz             0.319276       0.436893
                         21       1   21fxz2             0.319276       0.252240
                         21       1   21fy3              0.319276       0.112805
                         21       1   21fy2z             0.319276       0.252240
                         21       1   21fyz2             0.319276       0.252240
                         21       1   21fz3              0.319276       0.112805

                         22       1   22fx3              1.122948       1.911012
                         22       1   22fx2y             1.122948       4.273152
                         22       1   22fx2z             1.122948       4.273152
                         22       1   22fxy2             1.122948       4.273152
                         22       1   22fxyz             1.122948       7.401316
                         22       1   22fxz2             1.122948       4.273152
                         22       1   22fy3              1.122948       1.911012
                         22       1   22fy2z             1.122948       4.273152
                         22       1   22fyz2             1.122948       4.273152
                         22       1   22fz3              1.122948       1.911012

                         23       1   23fx3              2.136777       8.126666
                         23       1   23fx2y             2.136777      18.171778
                         23       1   23fx2z             2.136777      18.171778
                         23       1   23fxy2             2.136777      18.171778
                         23       1   23fxyz             2.136777      31.474444
                         23       1   23fxz2             2.136777      18.171778
                         23       1   23fy3              2.136777       8.126666
                         23       1   23fy2z             2.136777      18.171778
                         23       1   23fyz2             2.136777      18.171778
                         23       1   23fz3              2.136777       8.126666

                         24       1   24fx3              4.836619      51.070915
                         24       1   24fx2y             4.836619     114.198037
                         24       1   24fx2z             4.836619     114.198037
                         24       1   24fxy2             4.836619     114.198037
                         24       1   24fxyz             4.836619     197.796803
                         24       1   24fxz2             4.836619     114.198037
                         24       1   24fy3              4.836619      51.070915
                         24       1   24fy2z             4.836619     114.198037
                         24       1   24fyz2             4.836619     114.198037
                         24       1   24fz3              4.836619      51.070915

                         25       1   25fx3             14.235428     579.479542
                         25       1   25fx2y            14.235428    1295.755648
                         25       1   25fx2z            14.235428    1295.755648
                         25       1   25fxy2            14.235428    1295.755648
                         25       1   25fxyz            14.235428    2244.314617
                         25       1   25fxz2            14.235428    1295.755648
                         25       1   25fy3             14.235428     579.479542
                         25       1   25fy2z            14.235428    1295.755648
                         25       1   25fyz2            14.235428    1295.755648
                         25       1   25fz3             14.235428     579.479542

                         26       1   26gx4              0.101733       0.002075
                         26       1   26gx3y             0.101733       0.005489
                         26       1   26gx3z             0.101733       0.005489
                         26       1   26gx2y2            0.101733       0.007086
                         26       1   26gx2yz            0.101733       0.012274
                         26       1   26gx2z2            0.101733       0.007086
                         26       1   26gxy3             0.101733       0.005489
                         26       1   26gxy2z            0.101733       0.012274
                         26       1   26gxyz2            0.101733       0.012274
                         26       1   26gxz3             0.101733       0.005489
                         26       1   26gy4              0.101733       0.002075
                         26       1   26gy3z             0.101733       0.005489
                         26       1   26gy2z2            0.101733       0.007086
                         26       1   26gyz3             0.101733       0.005489
                         26       1   26gz4              0.101733       0.002075

                         27       1   27gx4             15.532443    2100.606751
                         27       1   27gx3y            15.532443    5557.683065
                         27       1   27gx3z            15.532443    5557.683065
                         27       1   27gx2y2           15.532443    7174.937985
                         27       1   27gx2yz           15.532443   12427.357131
                         27       1   27gx2z2           15.532443    7174.937985
                         27       1   27gxy3            15.532443    5557.683065
                         27       1   27gxy2z           15.532443   12427.357131
                         27       1   27gxyz2           15.532443   12427.357131
                         27       1   27gxz3            15.532443    5557.683065
                         27       1   27gy4             15.532443    2100.606751
                         27       1   27gy3z            15.532443    5557.683065
                         27       1   27gy2z2           15.532443    7174.937985
                         27       1   27gyz3            15.532443    5557.683065
                         27       1   27gz4             15.532443    2100.606751

       Atomic covalent radius [Angstrom]:                                  0.730

       Atomic van der Waals radius [Angstrom]:                             1.520

     GTH Potential information for                                       GTH-PBE

       Description:                       Goedecker-Teter-Hutter pseudopotential
                                           Goedecker et al., PRB 54, 1703 (1996)
                                          Hartwigsen et al., PRB 58, 3641 (1998)
                                                      Krack, TCA 114, 145 (2005)

       Gaussian exponent of the core charge distribution:               8.360253
       Electronic configuration (s p d ...):                               2   4

       Parameters of the local part of the GTH pseudopotential:

                          rloc        C1          C2          C3          C4
                        0.244554  -16.667215    2.487311

       Parameters of the non-local part of the GTH pseudopotential:

                   l      r(l)      h(i,j,l)

                   0    0.220956   18.337458
                   1    0.211332

  2. Atomic kind: C                                     Number of atoms:       1

     Orbital Basis Set                              AUG-DZVP-MOLOPT-GTH-TIER-1_3

       Number of orbital shell sets:                                           1
       Number of orbital shells:                                               8
       Number of primitive Cartesian functions:                                7
       Number of Cartesian basis functions:                                   24
       Number of spherical basis functions:                                   22
       Norm type:                                                              2

       Normalised Cartesian orbitals:

                        Set   Shell   Orbital            Exponent    Coefficient

                          1       1    2s                0.030287       0.000417
                                                         0.075145       0.000568
                                                         0.178617       0.065483
                                                         0.478316       0.306085
                                                         1.045457       0.042712
                                                         2.625196      -0.231112
                                                         6.132625      -0.263661

                          1       2    3s                0.030287       0.004833
                                                         0.075145      -0.093566
                                                         0.178617      -0.026367
                                                         0.478316       0.082670
                                                         1.045457      -0.426371
                                                         2.625196       0.514907
                                                         6.132625       0.369185

                          1       3    4s                0.030287      -0.018011
                                                         0.075145       0.021969
                                                         0.178617      -0.239239
                                                         0.478316       0.208132
                                                         1.045457       0.033414
                                                         2.625196       0.317142
                                                         6.132625      -1.823838

                          1       4    3px               0.030287       0.000105
                                                         0.075145       0.003677
                                                         0.178617       0.052379
                                                         0.478316       0.235193
                                                         1.045457       0.379157
                                                         2.625196       0.633910
                                                         6.132625       0.562677
                          1       4    3py               0.030287       0.000105
                                                         0.075145       0.003677
                                                         0.178617       0.052379
                                                         0.478316       0.235193
                                                         1.045457       0.379157
                                                         2.625196       0.633910
                                                         6.132625       0.562677
                          1       4    3pz               0.030287       0.000105
                                                         0.075145       0.003677
                                                         0.178617       0.052379
                                                         0.478316       0.235193
                                                         1.045457       0.379157
                                                         2.625196       0.633910
                                                         6.132625       0.562677

                          1       5    4px               0.030287       0.003163
                                                         0.075145       0.027515
                                                         0.178617       0.054996
                                                         0.478316       0.021571
                                                         1.045457      -0.799738
                                                         2.625196      -0.640831
                                                         6.132625      -0.897668
                          1       5    4py               0.030287       0.003163
                                                         0.075145       0.027515
                                                         0.178617       0.054996
                                                         0.478316       0.021571
                                                         1.045457      -0.799738
                                                         2.625196      -0.640831
                                                         6.132625      -0.897668
                          1       5    4pz               0.030287       0.003163
                                                         0.075145       0.027515
                                                         0.178617       0.054996
                                                         0.478316       0.021571
                                                         1.045457      -0.799738
                                                         2.625196      -0.640831
                                                         6.132625      -0.897668

                          1       6    5px               0.030287       0.021636
                                                         0.075145      -0.017531
                                                         0.178617       0.013776
                                                         0.478316      -0.070979
                                                         1.045457       0.221010
                                                         2.625196       0.049451
                                                         6.132625       0.268676
                          1       6    5py               0.030287       0.021636
                                                         0.075145      -0.017531
                                                         0.178617       0.013776
                                                         0.478316      -0.070979
                                                         1.045457       0.221010
                                                         2.625196       0.049451
                                                         6.132625       0.268676
                          1       6    5pz               0.030287       0.021636
                                                         0.075145      -0.017531
                                                         0.178617       0.013776
                                                         0.478316      -0.070979
                                                         1.045457       0.221010
                                                         2.625196       0.049451
                                                         6.132625       0.268676

                          1       7    4dx2              0.030287      -0.000011
                                                         0.075145       0.003649
                                                         0.178617       0.018656
                                                         0.478316       0.191007
                                                         1.045457       0.653959
                                                         2.625196       0.375772
                                                         6.132625       0.874783
                          1       7    4dxy              0.030287      -0.000019
                                                         0.075145       0.006321
                                                         0.178617       0.032314
                                                         0.478316       0.330834
                                                         1.045457       1.132690
                                                         2.625196       0.650856
                                                         6.132625       1.515169
                          1       7    4dxz              0.030287      -0.000019
                                                         0.075145       0.006321
                                                         0.178617       0.032314
                                                         0.478316       0.330834
                                                         1.045457       1.132690
                                                         2.625196       0.650856
                                                         6.132625       1.515169
                          1       7    4dy2              0.030287      -0.000011
                                                         0.075145       0.003649
                                                         0.178617       0.018656
                                                         0.478316       0.191007
                                                         1.045457       0.653959
                                                         2.625196       0.375772
                                                         6.132625       0.874783
                          1       7    4dyz              0.030287      -0.000019
                                                         0.075145       0.006321
                                                         0.178617       0.032314
                                                         0.478316       0.330834
                                                         1.045457       1.132690
                                                         2.625196       0.650856
                                                         6.132625       1.515169
                          1       7    4dz2              0.030287      -0.000011
                                                         0.075145       0.003649
                                                         0.178617       0.018656
                                                         0.478316       0.191007
                                                         1.045457       0.653959
                                                         2.625196       0.375772
                                                         6.132625       0.874783

                          1       8    5dx2              0.030287      -0.004164
                                                         0.075145       0.003750
                                                         0.178617       0.016391
                                                         0.478316      -0.076375
                                                         1.045457      -0.106191
                                                         2.625196      -0.016473
                                                         6.132625      -1.132234
                          1       8    5dxy              0.030287      -0.007212
                                                         0.075145       0.006495
                                                         0.178617       0.028390
                                                         0.478316      -0.132285
                                                         1.045457      -0.183928
                                                         2.625196      -0.028531
                                                         6.132625      -1.961087
                          1       8    5dxz              0.030287      -0.007212
                                                         0.075145       0.006495
                                                         0.178617       0.028390
                                                         0.478316      -0.132285
                                                         1.045457      -0.183928
                                                         2.625196      -0.028531
                                                         6.132625      -1.961087
                          1       8    5dy2              0.030287      -0.004164
                                                         0.075145       0.003750
                                                         0.178617       0.016391
                                                         0.478316      -0.076375
                                                         1.045457      -0.106191
                                                         2.625196      -0.016473
                                                         6.132625      -1.132234
                          1       8    5dyz              0.030287      -0.007212
                                                         0.075145       0.006495
                                                         0.178617       0.028390
                                                         0.478316      -0.132285
                                                         1.045457      -0.183928
                                                         2.625196      -0.028531
                                                         6.132625      -1.961087
                          1       8    5dz2              0.030287      -0.004164
                                                         0.075145       0.003750
                                                         0.178617       0.016391
                                                         0.478316      -0.076375
                                                         1.045457      -0.106191
                                                         2.625196      -0.016473
                                                         6.132625      -1.132234

     RI Auxiliary Basis Set             RI_aug-DZVP-MOLOPT-GTH-tier-1_N_RI_106_s

       Number of orbital shell sets:                                          26
       Number of orbital shells:                                              26
       Number of primitive Cartesian functions:                               26
       Number of Cartesian basis functions:                                  136
       Number of spherical basis functions:                                  106
       Norm type:                                                              2

       Normalised Cartesian orbitals:

                        Set   Shell   Orbital            Exponent    Coefficient

                          1       1    1s                0.075717       0.102874

                          2       1    2s                0.171492       0.189930

                          3       1    3s                0.388413       0.350655

                          4       1    4s                0.879719       0.647393

                          5       1    5s                1.992482       1.195242

                          6       1    6s                4.512786       2.206702

                          7       1    7s               10.221041       4.074098

                          8       1    8px               0.075717       0.056615
                          8       1    8py               0.075717       0.056615
                          8       1    8pz               0.075717       0.056615

                          9       1    9px               0.201954       0.192977
                          9       1    9py               0.201954       0.192977
                          9       1    9pz               0.201954       0.192977

                         10       1   10px               0.538659       0.657782
                         10       1   10py               0.538659       0.657782
                         10       1   10pz               0.538659       0.657782

                         11       1   11px               1.436727       2.242115
                         11       1   11py               1.436727       2.242115
                         11       1   11pz               1.436727       2.242115

                         12       1   12px               3.832081       7.642464
                         12       1   12py               3.832081       7.642464
                         12       1   12pz               3.832081       7.642464

                         13       1   13px              10.221041      26.050077
                         13       1   13py              10.221041      26.050077
                         13       1   13pz              10.221041      26.050077

                         14       1   14dx2              0.075717       0.017989
                         14       1   14dxy              0.075717       0.031157
                         14       1   14dxz              0.075717       0.031157
                         14       1   14dy2              0.075717       0.017989
                         14       1   14dyz              0.075717       0.031157
                         14       1   14dz2              0.075717       0.017989

                         15       1   15dx2              0.201954       0.100139
                         15       1   15dxy              0.201954       0.173446
                         15       1   15dxz              0.201954       0.173446
                         15       1   15dy2              0.201954       0.100139
                         15       1   15dyz              0.201954       0.173446
                         15       1   15dz2              0.201954       0.100139

                         16       1   16dx2              0.538659       0.557453
                         16       1   16dxy              0.538659       0.965537
                         16       1   16dxz              0.538659       0.965537
                         16       1   16dy2              0.538659       0.557453
                         16       1   16dyz              0.538659       0.965537
                         16       1   16dz2              0.538659       0.557453

                         17       1   17dx2              1.436727       3.103232
                         17       1   17dxy              1.436727       5.374956
                         17       1   17dxz              1.436727       5.374956
                         17       1   17dy2              1.436727       3.103232
                         17       1   17dyz              1.436727       5.374956
                         17       1   17dz2              1.436727       3.103232

                         18       1   18dx2              3.832081      17.275082
                         18       1   18dxy              3.832081      29.921319
                         18       1   18dxz              3.832081      29.921319
                         18       1   18dy2              3.832081      17.275082
                         18       1   18dyz              3.832081      29.921319
                         18       1   18dz2              3.832081      17.275082

                         19       1   19dx2             10.221041      96.166975
                         19       1   19dxy             10.221041     166.566087
                         19       1   19dxz             10.221041     166.566087
                         19       1   19dy2             10.221041      96.166975
                         19       1   19dyz             10.221041     166.566087
                         19       1   19dz2             10.221041      96.166975

                         20       1   20fx3              0.075717       0.004427
                         20       1   20fx2y             0.075717       0.009900
                         20       1   20fx2z             0.075717       0.009900
                         20       1   20fxy2             0.075717       0.009900
                         20       1   20fxyz             0.075717       0.017147
                         20       1   20fxz2             0.075717       0.009900
                         20       1   20fy3              0.075717       0.004427
                         20       1   20fy2z             0.075717       0.009900
                         20       1   20fyz2             0.075717       0.009900
                         20       1   20fz3              0.075717       0.004427

                         21       1   21fx3              0.201954       0.040251
                         21       1   21fx2y             0.201954       0.090003
                         21       1   21fx2z             0.201954       0.090003
                         21       1   21fxy2             0.201954       0.090003
                         21       1   21fxyz             0.201954       0.155891
                         21       1   21fxz2             0.201954       0.090003
                         21       1   21fy3              0.201954       0.040251
                         21       1   21fy2z             0.201954       0.090003
                         21       1   21fyz2             0.201954       0.090003
                         21       1   21fz3              0.201954       0.040251

                         22       1   22fx3              0.538659       0.365940
                         22       1   22fx2y             0.538659       0.818267
                         22       1   22fx2z             0.538659       0.818267
                         22       1   22fxy2             0.538659       0.818267
                         22       1   22fxyz             0.538659       1.417281
                         22       1   22fxz2             0.538659       0.818267
                         22       1   22fy3              0.538659       0.365940
                         22       1   22fy2z             0.538659       0.818267
                         22       1   22fyz2             0.538659       0.818267
                         22       1   22fz3              0.538659       0.365940

                         23       1   23fx3              1.436727       3.326951
                         23       1   23fx2y             1.436727       7.439288
                         23       1   23fx2z             1.436727       7.439288
                         23       1   23fxy2             1.436727       7.439288
                         23       1   23fxyz             1.436727      12.885224
                         23       1   23fxz2             1.436727       7.439288
                         23       1   23fy3              1.436727       3.326951
                         23       1   23fy2z             1.436727       7.439288
                         23       1   23fyz2             1.436727       7.439288
                         23       1   23fz3              1.436727       3.326951

                         24       1   24fx3              3.832081      30.247009
                         24       1   24fx2y             3.832081      67.634368
                         24       1   24fx2z             3.832081      67.634368
                         24       1   24fxy2             3.832081      67.634368
                         24       1   24fxyz             3.832081     117.146161
                         24       1   24fxz2             3.832081      67.634368
                         24       1   24fy3              3.832081      30.247009
                         24       1   24fy2z             3.832081      67.634368
                         24       1   24fyz2             3.832081      67.634368
                         24       1   24fz3              3.832081      30.247009

                         25       1   25fx3             10.221041     274.991025
                         25       1   25fx2y            10.221041     614.898625
                         25       1   25fx2z            10.221041     614.898625
                         25       1   25fxy2            10.221041     614.898625
                         25       1   25fxyz            10.221041    1065.035660
                         25       1   25fxz2            10.221041     614.898625
                         25       1   25fy3             10.221041     274.991025
                         25       1   25fy2z            10.221041     614.898625
                         25       1   25fyz2            10.221041     614.898625
                         25       1   25fz3             10.221041     274.991025

                         26       1   26gx4              5.148379     100.815973
                         26       1   26gx3y             5.148379     266.733994
                         26       1   26gx3z             5.148379     266.733994
                         26       1   26gx2y2            5.148379     344.352105
                         26       1   26gx2yz            5.148379     596.435341
                         26       1   26gx2z2            5.148379     344.352105
                         26       1   26gxy3             5.148379     266.733994
                         26       1   26gxy2z            5.148379     596.435341
                         26       1   26gxyz2            5.148379     596.435341
                         26       1   26gxz3             5.148379     266.733994
                         26       1   26gy4              5.148379     100.815973
                         26       1   26gy3z             5.148379     266.733994
                         26       1   26gy2z2            5.148379     344.352105
                         26       1   26gyz3             5.148379     266.733994
                         26       1   26gz4              5.148379     100.815973

       Atomic covalent radius [Angstrom]:                                  0.770

       Atomic van der Waals radius [Angstrom]:                             1.700

     GTH Potential information for                                       GTH-PBE

       Description:                       Goedecker-Teter-Hutter pseudopotential
                                           Goedecker et al., PRB 54, 1703 (1996)
                                          Hartwigsen et al., PRB 58, 3641 (1998)
                                                      Krack, TCA 114, 145 (2005)

       Gaussian exponent of the core charge distribution:               4.364419
       Electronic configuration (s p d ...):                               2   2

       Parameters of the local part of the GTH pseudopotential:

                          rloc        C1          C2          C3          C4
                        0.338471   -8.803674    1.339211

       Parameters of the non-local part of the GTH pseudopotential:

                   l      r(l)      h(i,j,l)

                   0    0.302576    9.622487
                   1    0.291507

  3. Atomic kind: N                                     Number of atoms:       2

     Orbital Basis Set                              AUG-DZVP-MOLOPT-GTH-TIER-1_3

       Number of orbital shell sets:                                           1
       Number of orbital shells:                                               8
       Number of primitive Cartesian functions:                                7
       Number of Cartesian basis functions:                                   24
       Number of spherical basis functions:                                   22
       Norm type:                                                              2

       Normalised Cartesian orbitals:

                        Set   Shell   Orbital            Exponent    Coefficient

                          1       1    2s                0.039194       0.000722
                                                         0.084583       0.003860
                                                         0.222851       0.088647
                                                         0.586631       0.295369
                                                         1.512880       0.102064
                                                         3.882225      -0.265910
                                                         9.042730      -0.237404

                          1       2    3s                0.039194       0.003799
                                                         0.084583       0.060770
                                                         0.222851       0.171120
                                                         0.586631      -0.222126
                                                         1.512880      -0.016538
                                                         3.882225       0.161897
                                                         9.042730       0.174598

                          1       3    4s                0.039194       0.023951
                                                         0.084583       0.060119
                                                         0.222851      -0.082463
                                                         0.586631       0.046219
                                                         1.512880       0.576037
                                                         3.882225       0.271929
                                                         9.042730      -0.606901

                          1       4    3px               0.039194      -0.000005
                                                         0.084583       0.004155
                                                         0.222851       0.063706
                                                         0.586631       0.321705
                                                         1.512880       0.665657
                                                         3.882225       0.990771
                                                         9.042730       0.822162
                          1       4    3py               0.039194      -0.000005
                                                         0.084583       0.004155
                                                         0.222851       0.063706
                                                         0.586631       0.321705
                                                         1.512880       0.665657
                                                         3.882225       0.990771
                                                         9.042730       0.822162
                          1       4    3pz               0.039194      -0.000005
                                                         0.084583       0.004155
                                                         0.222851       0.063706
                                                         0.586631       0.321705
                                                         1.512880       0.665657
                                                         3.882225       0.990771
                                                         9.042730       0.822162

                          1       5    4px               0.039194       0.000993
                                                         0.084583       0.037373
                                                         0.222851       0.132148
                                                         0.586631      -0.250427
                                                         1.512880      -0.451910
                                                         3.882225      -0.578980
                                                         9.042730      -0.562432
                          1       5    4py               0.039194       0.000993
                                                         0.084583       0.037373
                                                         0.222851       0.132148
                                                         0.586631      -0.250427
                                                         1.512880      -0.451910
                                                         3.882225      -0.578980
                                                         9.042730      -0.562432
                          1       5    4pz               0.039194       0.000993
                                                         0.084583       0.037373
                                                         0.222851       0.132148
                                                         0.586631      -0.250427
                                                         1.512880      -0.451910
                                                         3.882225      -0.578980
                                                         9.042730      -0.562432

                          1       6    5px               0.039194       0.014254
                                                         0.084583       0.003826
                                                         0.222851      -0.009021
                                                         0.586631       0.345516
                                                         1.512880      -1.197555
                                                         3.882225      -3.441647
                                                         9.042730      -1.974592
                          1       6    5py               0.039194       0.014254
                                                         0.084583       0.003826
                                                         0.222851      -0.009021
                                                         0.586631       0.345516
                                                         1.512880      -1.197555
                                                         3.882225      -3.441647
                                                         9.042730      -1.974592
                          1       6    5pz               0.039194       0.014254
                                                         0.084583       0.003826
                                                         0.222851      -0.009021
                                                         0.586631       0.345516
                                                         1.512880      -1.197555
                                                         3.882225      -3.441647
                                                         9.042730      -1.974592

                          1       7    4dx2              0.039194      -0.000086
                                                         0.084583      -0.000857
                                                         0.222851       0.017840
                                                         0.586631       0.456348
                                                         1.512880       0.873643
                                                         3.882225       0.532064
                                                         9.042730       1.099742
                          1       7    4dxy              0.039194      -0.000150
                                                         0.084583      -0.001484
                                                         0.222851       0.030900
                                                         0.586631       0.790419
                                                         1.512880       1.513195
                                                         3.882225       0.921562
                                                         9.042730       1.904809
                          1       7    4dxz              0.039194      -0.000150
                                                         0.084583      -0.001484
                                                         0.222851       0.030900
                                                         0.586631       0.790419
                                                         1.512880       1.513195
                                                         3.882225       0.921562
                                                         9.042730       1.904809
                          1       7    4dy2              0.039194      -0.000086
                                                         0.084583      -0.000857
                                                         0.222851       0.017840
                                                         0.586631       0.456348
                                                         1.512880       0.873643
                                                         3.882225       0.532064
                                                         9.042730       1.099742
                          1       7    4dyz              0.039194      -0.000150
                                                         0.084583      -0.001484
                                                         0.222851       0.030900
                                                         0.586631       0.790419
                                                         1.512880       1.513195
                                                         3.882225       0.921562
                                                         9.042730       1.904809
                          1       7    4dz2              0.039194      -0.000086
                                                         0.084583      -0.000857
                                                         0.222851       0.017840
                                                         0.586631       0.456348
                                                         1.512880       0.873643
                                                         3.882225       0.532064
                                                         9.042730       1.099742

                          1       8    5dx2              0.039194       0.005222
                                                         0.084583       0.002517
                                                         0.222851      -0.006312
                                                         0.586631       0.044502
                                                         1.512880      -0.289247
                                                         3.882225       0.330997
                                                         9.042730      -3.810929
                          1       8    5dxy              0.039194       0.009045
                                                         0.084583       0.004359
                                                         0.222851      -0.010932
                                                         0.586631       0.077079
                                                         1.512880      -0.500991
                                                         3.882225       0.573303
                                                         9.042730      -6.600722
                          1       8    5dxz              0.039194       0.009045
                                                         0.084583       0.004359
                                                         0.222851      -0.010932
                                                         0.586631       0.077079
                                                         1.512880      -0.500991
                                                         3.882225       0.573303
                                                         9.042730      -6.600722
                          1       8    5dy2              0.039194       0.005222
                                                         0.084583       0.002517
                                                         0.222851      -0.006312
                                                         0.586631       0.044502
                                                         1.512880      -0.289247
                                                         3.882225       0.330997
                                                         9.042730      -3.810929
                          1       8    5dyz              0.039194       0.009045
                                                         0.084583       0.004359
                                                         0.222851      -0.010932
                                                         0.586631       0.077079
                                                         1.512880      -0.500991
                                                         3.882225       0.573303
                                                         9.042730      -6.600722
                          1       8    5dz2              0.039194       0.005222
                                                         0.084583       0.002517
                                                         0.222851      -0.006312
                                                         0.586631       0.044502
                                                         1.512880      -0.289247
                                                         3.882225       0.330997
                                                         9.042730      -3.810929

     RI Auxiliary Basis Set             RI_aug-DZVP-MOLOPT-GTH-tier-1_N_RI_068_s

       Number of orbital shell sets:                                          20
       Number of orbital shells:                                              20
       Number of primitive Cartesian functions:                               20
       Number of Cartesian basis functions:                                   82
       Number of spherical basis functions:                                   68
       Norm type:                                                              2

       Normalised Cartesian orbitals:

                        Set   Shell   Orbital            Exponent    Coefficient

                          1       1    1s                0.098364       0.125180

                          2       1    2s                0.229829       0.236572

                          3       1    3s                0.530029       0.442726

                          4       1    4s                1.207197       0.820812

                          5       1    5s                2.793365       1.539947

                          6       1    6s                6.490310       2.898072

                          7       1    7s               15.048460       5.445392

                          8       1    8px               0.101932       0.082098
                          8       1    8py               0.101932       0.082098
                          8       1    8pz               0.101932       0.082098

                          9       1    9px               0.461178       0.541721
                          9       1    9py               0.461178       0.541721
                          9       1    9pz               0.461178       0.541721

                         10       1   10px               0.929445       1.300827
                         10       1   10py               0.929445       1.300827
                         10       1   10pz               0.929445       1.300827

                         11       1   11px               2.506832       4.496211
                         11       1   11py               2.506832       4.496211
                         11       1   11pz               2.506832       4.496211

                         12       1   12px              11.871006      31.408665
                         12       1   12py              11.871006      31.408665
                         12       1   12pz              11.871006      31.408665

                         13       1   13dx2              0.098094       0.028300
                         13       1   13dxy              0.098094       0.049016
                         13       1   13dxz              0.098094       0.049016
                         13       1   13dy2              0.098094       0.028300
                         13       1   13dyz              0.098094       0.049016
                         13       1   13dz2              0.098094       0.028300

                         14       1   14dx2              0.386884       0.312374
                         14       1   14dxy              0.386884       0.541048
                         14       1   14dxz              0.386884       0.541048
                         14       1   14dy2              0.386884       0.312374
                         14       1   14dyz              0.386884       0.541048
                         14       1   14dz2              0.386884       0.312374

                         15       1   15dx2              1.159493       2.132449
                         15       1   15dxy              1.159493       3.693510
                         15       1   15dxz              1.159493       3.693510
                         15       1   15dy2              1.159493       2.132449
                         15       1   15dyz              1.159493       3.693510
                         15       1   15dz2              1.159493       2.132449

                         16       1   16dx2              3.390790      13.945559
                         16       1   16dxy              3.390790      24.154417
                         16       1   16dxz              3.390790      24.154417
                         16       1   16dy2              3.390790      13.945559
                         16       1   16dyz              3.390790      24.154417
                         16       1   16dz2              3.390790      13.945559

                         17       1   17dx2             15.189704     192.362659
                         17       1   17dxy             15.189704     333.181899
                         17       1   17dxz             15.189704     333.181899
                         17       1   17dy2             15.189704     192.362659
                         17       1   17dyz             15.189704     333.181899
                         17       1   17dz2             15.189704     192.362659

                         18       1   18fx3              0.205714       0.041957
                         18       1   18fx2y             0.205714       0.093818
                         18       1   18fx2z             0.205714       0.093818
                         18       1   18fxy2             0.205714       0.093818
                         18       1   18fxyz             0.205714       0.162497
                         18       1   18fxz2             0.205714       0.093818
                         18       1   18fy3              0.205714       0.041957
                         18       1   18fy2z             0.205714       0.093818
                         18       1   18fyz2             0.205714       0.093818
                         18       1   18fz3              0.205714       0.041957

                         19       1   19fx3              1.018172       1.533036
                         19       1   19fx2y             1.018172       3.427973
                         19       1   19fx2z             1.018172       3.427973
                         19       1   19fxy2             1.018172       3.427973
                         19       1   19fxyz             1.018172       5.937423
                         19       1   19fxz2             1.018172       3.427973
                         19       1   19fy3              1.018172       1.533036
                         19       1   19fy2z             1.018172       3.427973
                         19       1   19fyz2             1.018172       3.427973
                         19       1   19fz3              1.018172       1.533036

                         20       1   20fx3              2.885116      15.970616
                         20       1   20fx2y             2.885116      35.711383
                         20       1   20fx2z             2.885116      35.711383
                         20       1   20fxy2             2.885116      35.711383
                         20       1   20fxyz             2.885116      61.853929
                         20       1   20fxz2             2.885116      35.711383
                         20       1   20fy3              2.885116      15.970616
                         20       1   20fy2z             2.885116      35.711383
                         20       1   20fyz2             2.885116      35.711383
                         20       1   20fz3              2.885116      15.970616

       Atomic covalent radius [Angstrom]:                                  0.750

       Atomic van der Waals radius [Angstrom]:                             1.550

     GTH Potential information for                                       GTH-PBE

       Description:                       Goedecker-Teter-Hutter pseudopotential
                                           Goedecker et al., PRB 54, 1703 (1996)
                                          Hartwigsen et al., PRB 58, 3641 (1998)
                                                      Krack, TCA 114, 145 (2005)

       Gaussian exponent of the core charge distribution:               6.208322
       Electronic configuration (s p d ...):                               2   3

       Parameters of the local part of the GTH pseudopotential:

                          rloc        C1          C2          C3          C4
                        0.283791  -12.415226    1.868096

       Parameters of the non-local part of the GTH pseudopotential:

                   l      r(l)      h(i,j,l)

                   0    0.255405   13.630263
                   1    0.245495

  4. Atomic kind: H                                     Number of atoms:       4

     Orbital Basis Set                              AUG-DZVP-MOLOPT-GTH-TIER-2_3

       Number of orbital shell sets:                                           1
       Number of orbital shells:                                               5
       Number of primitive Cartesian functions:                                6
       Number of Cartesian basis functions:                                    9
       Number of spherical basis functions:                                    9
       Norm type:                                                              2

       Normalised Cartesian orbitals:

                        Set   Shell   Orbital            Exponent    Coefficient

                          1       1    2s                0.040000       0.000000
                                                         0.082193      -0.014019
                                                         0.239116      -0.107525
                                                         0.791502      -0.258419
                                                         2.680223      -0.177618
                                                        10.068468      -0.133023

                          1       2    3s                0.040000       0.000000
                                                         0.082193       0.070122
                                                         0.239116       0.095686
                                                         0.791502      -0.516519
                                                         2.680223       1.442428
                                                        10.068468       0.350082

                          1       3    4s                0.040000      -0.062274
                                                         0.082193      -0.003586
                                                         0.239116       0.002875
                                                         0.791502      -0.003375
                                                         2.680223       0.017670
                                                        10.068468       0.002978

                          1       4    3px               0.040000       0.000000
                                                         0.082193       0.033440
                                                         0.239116       0.080105
                                                         0.791502       0.311480
                                                         2.680223       0.367157
                                                        10.068468       0.155326
                          1       4    3py               0.040000       0.000000
                                                         0.082193       0.033440
                                                         0.239116       0.080105
                                                         0.791502       0.311480
                                                         2.680223       0.367157
                                                        10.068468       0.155326
                          1       4    3pz               0.040000       0.000000
                                                         0.082193       0.033440
                                                         0.239116       0.080105
                                                         0.791502       0.311480
                                                         2.680223       0.367157
                                                        10.068468       0.155326

                          1       5    4px               0.040000       0.025706
                                                         0.082193      -0.015581
                                                         0.239116       0.094128
                                                         0.791502      -0.026951
                                                         2.680223       0.487533
                                                        10.068468      -1.735003
                          1       5    4py               0.040000       0.025706
                                                         0.082193      -0.015581
                                                         0.239116       0.094128
                                                         0.791502      -0.026951
                                                         2.680223       0.487533
                                                        10.068468      -1.735003
                          1       5    4pz               0.040000       0.025706
                                                         0.082193      -0.015581
                                                         0.239116       0.094128
                                                         0.791502      -0.026951
                                                         2.680223       0.487533
                                                        10.068468      -1.735003

     RI Auxiliary Basis Set             RI_aug-DZVP-MOLOPT-GTH-tier-2_N_RI_055_s

       Number of orbital shell sets:                                          19
       Number of orbital shells:                                              19
       Number of primitive Cartesian functions:                               19
       Number of Cartesian basis functions:                                   61
       Number of spherical basis functions:                                   55
       Norm type:                                                              2

       Normalised Cartesian orbitals:

                        Set   Shell   Orbital            Exponent    Coefficient

                          1       1    1s                0.100000       0.126739

                          2       1    2s                0.234856       0.240443

                          3       1    3s                0.551574       0.456156

                          4       1    4s                1.295407       0.865396

                          5       1    5s                3.042342       1.641785

                          6       1    6s                7.145130       3.114711

                          7       1    7s               16.780780       5.909071

                          8       1    8px               0.100000       0.080157
                          8       1    8py               0.100000       0.080157
                          8       1    8pz               0.100000       0.080157

                          9       1    9px               0.278588       0.288498
                          9       1    9py               0.278588       0.288498
                          9       1    9pz               0.278588       0.288498

                         10       1   10px               0.776113       1.038356
                         10       1   10py               0.776113       1.038356
                         10       1   10pz               0.776113       1.038356

                         11       1   11px               2.162157       3.737225
                         11       1   11py               2.162157       3.737225
                         11       1   11pz               2.162157       3.737225

                         12       1   12px               6.023511      13.450928
                         12       1   12py               6.023511      13.450928
                         12       1   12pz               6.023511      13.450928

                         13       1   13px              16.780780      48.412251
                         13       1   13py              16.780780      48.412251
                         13       1   13pz              16.780780      48.412251

                         14       1   14dx2              0.100000       0.029269
                         14       1   14dxy              0.100000       0.050696
                         14       1   14dxz              0.100000       0.050696
                         14       1   14dy2              0.100000       0.029269
                         14       1   14dyz              0.100000       0.050696
                         14       1   14dz2              0.100000       0.029269

                         15       1   15dx2              0.278588       0.175830
                         15       1   15dxy              0.278588       0.304547
                         15       1   15dxz              0.278588       0.304547
                         15       1   15dy2              0.278588       0.175830
                         15       1   15dyz              0.278588       0.304547
                         15       1   15dz2              0.278588       0.175830

                         16       1   16dx2              0.776113       1.056277
                         16       1   16dxy              0.776113       1.829526
                         16       1   16dxz              0.776113       1.829526
                         16       1   16dy2              0.776113       1.056277
                         16       1   16dyz              0.776113       1.829526
                         16       1   16dz2              0.776113       1.056277

                         17       1   17dx2              2.162157       6.345447
                         17       1   17dxy              2.162157      10.990637
                         17       1   17dxz              2.162157      10.990637
                         17       1   17dy2              2.162157       6.345447
                         17       1   17dyz              2.162157      10.990637
                         17       1   17dz2              2.162157       6.345447

                         18       1   18dx2              6.023511      38.119436
                         18       1   18dxy              6.023511      66.024801
                         18       1   18dxz              6.023511      66.024801
                         18       1   18dy2              6.023511      38.119436
                         18       1   18dyz              6.023511      66.024801
                         18       1   18dz2              6.023511      38.119436

                         19       1   19dx2             16.780780     228.997491
                         19       1   19dxy             16.780780     396.635290
                         19       1   19dxz             16.780780     396.635290
                         19       1   19dy2             16.780780     228.997491
                         19       1   19dyz             16.780780     396.635290
                         19       1   19dz2             16.780780     228.997491

       Atomic covalent radius [Angstrom]:                                  0.320

       Atomic van der Waals radius [Angstrom]:                             1.090

     GTH Potential information for                                       GTH-PBE

       Description:                       Goedecker-Teter-Hutter pseudopotential
                                           Goedecker et al., PRB 54, 1703 (1996)
                                          Hartwigsen et al., PRB 58, 3641 (1998)
                                                      Krack, TCA 114, 145 (2005)

       Gaussian exponent of the core charge distribution:              12.500000
       Electronic configuration (s p d ...):                                   1

       Parameters of the local part of the GTH pseudopotential:

                          rloc        C1          C2          C3          C4
                        0.200000   -4.178900    0.724463


 MOLECULE KIND INFORMATION


 All atoms are their own molecule, skipping detailed information


 TOTAL NUMBERS AND MAXIMUM NUMBERS

  Total number of            - Atomic kinds:                                   4
                             - Atoms:                                          8
                             - Shell sets:                                     8
                             - Shells:                                        52
                             - Primitive Cartesian functions:                 52
                             - Cartesian basis functions:                    132
                             - Spherical basis functions:                    124

  Maximum angular momentum of- Orbital basis functions:                        2
                             - Local part of the GTH pseudopotential:          2
                             - Non-local part of the GTH pseudopotential:      0


 MODULE QUICKSTEP: ATOMIC COORDINATES IN ANGSTROM

   Atom Kind Element         X             Y             Z       Z(eff)     Mass
      1    1 O     8     10.000000     11.450650     10.000000   6.0000  15.9994
      2    2 C     6     10.000000     10.229550     10.000000   4.0000  12.0107
      3    3 N     7     11.160300      9.486250     10.000000   5.0000  14.0067
      4    3 N     7      8.839700      9.486250     10.000000   5.0000  14.0067
      5    4 H     1     11.138300      8.549350     10.342400   1.0000   1.0079
      6    4 H     1     11.992200     10.051750     10.176000   1.0000   1.0079
      7    4 H     1      8.861700      8.549350      9.657600   1.0000   1.0079
      8    4 H     1      8.007800     10.051750      9.824000   1.0000   1.0079



 SCF PARAMETERS         Density guess:                                    ATOMIC
                        --------------------------------------------------------
                        max_scf:                                             200
                        max_scf_history:                                       0
                        max_diis:                                              4
                        --------------------------------------------------------
                        eps_scf:                                        1.00E-07
                        eps_scf_history:                                0.00E+00
                        eps_diis:                                       1.00E-01
                        eps_eigval:                                     1.00E-05
                        --------------------------------------------------------
                        level_shift [a.u.]:                             0.000000
                        SCF update method:                                MIXING
                        added MOs                                       112    0
                        --------------------------------------------------------
                        Mixing method:                            BROYDEN_MIXING
                                                charge density mixing in g-space
                        --------------------------------------------------------
                        Outer loop SCF in use 
                        No variables optimised in outer loop
                        eps_scf                                         1.00E-07
                        max_scf                                               20
                        No outer loop optimization
                        step_size                                       5.00E-01

 PW_GRID| Information for grid number                                          2
 PW_GRID| Grid distributed over                                    32 processors
 PW_GRID| Real space group dimensions                                    32    1
 PW_GRID| the grid is blocked:                                                NO
 PW_GRID| Cutoff [a.u.]                                                    300.0
 PW_GRID| spherical cutoff:                                                   NO
 PW_GRID|   Bounds   1           -150     149                Points:         300
 PW_GRID|   Bounds   2           -150     149                Points:         300
 PW_GRID|   Bounds   3           -150     149                Points:         300
 PW_GRID| Volume element (a.u.^3)  0.2000E-02     Volume (a.u.^3)     53986.6767
 PW_GRID| Grid span                                                    FULLSPACE
 PW_GRID|   Distribution                         Average         Max         Min
 PW_GRID|   G-Vectors                           843750.0      843900      843600
 PW_GRID|   G-Rays                                2812.5        2813        2812
 PW_GRID|   Real Space Points                   843750.0      900000      810000

 PW_GRID| Information for grid number                                          3
 PW_GRID| Number of the reference grid                                         2
 PW_GRID| Grid distributed over                                    32 processors
 PW_GRID| Real space group dimensions                                    32    1
 PW_GRID| the grid is blocked:                                                NO
 PW_GRID| Cutoff [a.u.]                                                    100.0
 PW_GRID| spherical cutoff:                                                   NO
 PW_GRID|   Bounds   1            -90      89                Points:         180
 PW_GRID|   Bounds   2            -90      89                Points:         180
 PW_GRID|   Bounds   3            -90      89                Points:         180
 PW_GRID| Volume element (a.u.^3)  0.9257E-02     Volume (a.u.^3)     53986.6767
 PW_GRID| Grid span                                                    FULLSPACE
 PW_GRID|   Distribution                         Average         Max         Min
 PW_GRID|   G-Vectors                           182250.0      182520      181980
 PW_GRID|   G-Rays                                1012.5        1014        1011
 PW_GRID|   Real Space Points                   182250.0      194400      162000

 PW_GRID| Information for grid number                                          4
 PW_GRID| Number of the reference grid                                         2
 PW_GRID| Grid distributed over                                    32 processors
 PW_GRID| Real space group dimensions                                    32    1
 PW_GRID| the grid is blocked:                                                NO
 PW_GRID| Cutoff [a.u.]                                                     33.3
 PW_GRID| spherical cutoff:                                                   NO
 PW_GRID|   Bounds   1            -50      49                Points:         100
 PW_GRID|   Bounds   2            -50      49                Points:         100
 PW_GRID|   Bounds   3            -50      49                Points:         100
 PW_GRID| Volume element (a.u.^3)  0.5399E-01     Volume (a.u.^3)     53986.6767
 PW_GRID| Grid span                                                    FULLSPACE
 PW_GRID|   Distribution                         Average         Max         Min
 PW_GRID|   G-Vectors                            31250.0       31500       31000
 PW_GRID|   G-Rays                                 312.5         315         310
 PW_GRID|   Real Space Points                    31250.0       40000       30000

 PW_GRID| Information for grid number                                          5
 PW_GRID| Number of the reference grid                                         2
 PW_GRID| Grid distributed over                                    32 processors
 PW_GRID| Real space group dimensions                                    32    1
 PW_GRID| the grid is blocked:                                                NO
 PW_GRID| Cutoff [a.u.]                                                     11.1
 PW_GRID| spherical cutoff:                                                   NO
 PW_GRID|   Bounds   1            -30      29                Points:          60
 PW_GRID|   Bounds   2            -30      29                Points:          60
 PW_GRID|   Bounds   3            -30      29                Points:          60
 PW_GRID| Volume element (a.u.^3)  0.2499         Volume (a.u.^3)     53986.6767
 PW_GRID| Grid span                                                    FULLSPACE
 PW_GRID|   Distribution                         Average         Max         Min
 PW_GRID|   G-Vectors                             6750.0        6780        6720
 PW_GRID|   G-Rays                                 112.5         113         112
 PW_GRID|   Real Space Points                     6750.0        7200        3600

 PW_GRID| Information for grid number                                          6
 PW_GRID| Number of the reference grid                                         2
 PW_GRID| Grid distributed over                                    32 processors
 PW_GRID| Real space group dimensions                                    32    1
 PW_GRID| the grid is blocked:                                                NO
 PW_GRID| Cutoff [a.u.]                                                      3.7
 PW_GRID| spherical cutoff:                                                   NO
 PW_GRID|   Bounds   1            -18      17                Points:          36
 PW_GRID|   Bounds   2            -18      17                Points:          36
 PW_GRID|   Bounds   3            -18      17                Points:          36
 PW_GRID| Volume element (a.u.^3)   1.157         Volume (a.u.^3)     53986.6767
 PW_GRID| Grid span                                                    FULLSPACE
 PW_GRID|   Distribution                         Average         Max         Min
 PW_GRID|   G-Vectors                             1458.0        1548        1368
 PW_GRID|   G-Rays                                  40.5          43          38
 PW_GRID|   Real Space Points                     1458.0        2592        1296

 POISSON| Solver                                             MULTIPOLE (Bloechl)
 POISSON| Periodicity                                                       NONE

 RS_GRID| Information for grid number                                          2
 RS_GRID|   Bounds   1           -150     149                Points:         300
 RS_GRID|   Bounds   2           -150     149                Points:         300
 RS_GRID|   Bounds   3           -150     149                Points:         300
 RS_GRID| Real space distribution over                                  2 groups
 RS_GRID| Real space distribution along direction                              1
 RS_GRID| Border size                                                         27
 RS_GRID| Real space distribution over                                  4 groups
 RS_GRID| Real space distribution along direction                              2
 RS_GRID| Border size                                                         27
 RS_GRID| Real space distribution over                                  4 groups
 RS_GRID| Real space distribution along direction                              3
 RS_GRID| Border size                                                         27
 RS_GRID|   Distribution                         Average         Max         Min
 RS_GRID|   Planes                                 204.0         204         204
 RS_GRID|   Distribution                         Average         Max         Min
 RS_GRID|   Planes                                 129.0         129         129
 RS_GRID|   Distribution                         Average         Max         Min
 RS_GRID|   Planes                                 129.0         129         129

 RS_GRID| Information for grid number                                          3
 RS_GRID|   Bounds   1            -90      89                Points:         180
 RS_GRID|   Bounds   2            -90      89                Points:         180
 RS_GRID|   Bounds   3            -90      89                Points:         180
 RS_GRID| Real space distribution over                                  2 groups
 RS_GRID| Real space distribution along direction                              1
 RS_GRID| Border size                                                         29
 RS_GRID| Real space distribution over                                  4 groups
 RS_GRID| Real space distribution along direction                              2
 RS_GRID| Border size                                                         29
 RS_GRID| Real space distribution over                                  4 groups
 RS_GRID| Real space distribution along direction                              3
 RS_GRID| Border size                                                         29
 RS_GRID|   Distribution                         Average         Max         Min
 RS_GRID|   Planes                                 148.0         148         148
 RS_GRID|   Distribution                         Average         Max         Min
 RS_GRID|   Planes                                 103.0         103         103
 RS_GRID|   Distribution                         Average         Max         Min
 RS_GRID|   Planes                                 103.0         103         103

 RS_GRID| Information for grid number                                          4
 RS_GRID|   Bounds   1            -50      49                Points:         100
 RS_GRID|   Bounds   2            -50      49                Points:         100
 RS_GRID|   Bounds   3            -50      49                Points:         100
 RS_GRID| Real space fully replicated
 RS_GRID| Group size                                                           1

 RS_GRID| Information for grid number                                          5
 RS_GRID|   Bounds   1            -30      29                Points:          60
 RS_GRID|   Bounds   2            -30      29                Points:          60
 RS_GRID|   Bounds   3            -30      29                Points:          60
 RS_GRID| Real space fully replicated
 RS_GRID| Group size                                                           1

 RS_GRID| Information for grid number                                          6
 RS_GRID|   Bounds   1            -18      17                Points:          36
 RS_GRID|   Bounds   2            -18      17                Points:          36
 RS_GRID|   Bounds   3            -18      17                Points:          36
 RS_GRID| Real space fully replicated
 RS_GRID| Group size                                                           1

 Extrapolation method: initial_guess

 Atomic guess: The first density matrix is obtained in terms of atomic orbitals
               and electronic configurations assigned to each atomic kind

 Guess for atomic kind: O

 Electronic structure
    Total number of core electrons                                          2.00
    Total number of valence electrons                                       6.00
    Total number of electrons                                               8.00
    Multiplicity                                                   not specified
    S   [  2.00] 2.00
    P      4.00


 *******************************************************************************
                  Iteration          Convergence                     Energy [au]
 *******************************************************************************
                          1        0.713856                     -15.572973282043
                          2        0.645748                     -15.576329024741
                          3        0.124206E-01                 -15.657080073869
                          4        0.173402E-02                 -15.657108003803
                          5        0.887117E-05                 -15.657108555518
                          6        0.349720E-07                 -15.657108555532

 Energy components [Hartree]           Total Energy ::          -15.657108555532
                                        Band Energy ::           -2.995782697709
                                     Kinetic Energy ::           11.765679808679
                                   Potential Energy ::          -27.422788364211
                                      Virial (-V/T) ::            2.330744063253
                                        Core Energy ::          -26.144873845549
                                          XC Energy ::           -3.155155897410
                                     Coulomb Energy ::           13.642921187426
                       Total Pseudopotential Energy ::          -37.945627636790
                       Local Pseudopotential Energy ::          -39.254771666615
                    Nonlocal Pseudopotential Energy ::            1.309144029825
                                        Confinement ::            0.350739825622

 Orbital energies  State     L     Occupation   Energy[a.u.]          Energy[eV]

                       1     0          2.000      -0.863812          -23.505531

                       1     1          4.000      -0.317039           -8.627083


 Total Electron Density at R=0:                                         0.000299

 Guess for atomic kind: C

 Electronic structure
    Total number of core electrons                                          2.00
    Total number of valence electrons                                       4.00
    Total number of electrons                                               6.00
    Multiplicity                                                   not specified
    S   [  2.00] 2.00
    P      2.00


 *******************************************************************************
                  Iteration          Convergence                     Energy [au]
 *******************************************************************************
                          1        0.862877E-01                  -5.267960686046
                          2        0.550745E-01                  -5.271927919303
                          3        0.659002E-03                  -5.274556158479
                          4        0.154818E-04                  -5.274556547447
                          5        0.204149E-07                  -5.274556547665

 Energy components [Hartree]           Total Energy ::           -5.274556547665
                                        Band Energy ::           -1.275845856383
                                     Kinetic Energy ::            3.408813291000
                                   Potential Energy ::           -8.683369838665
                                      Virial (-V/T) ::            2.547329260183
                                        Core Energy ::           -8.309949198012
                                          XC Energy ::           -1.389283321054
                                     Coulomb Energy ::            4.424675971401
                       Total Pseudopotential Energy ::          -11.752828315185
                       Local Pseudopotential Energy ::          -12.378958089844
                    Nonlocal Pseudopotential Energy ::            0.626129774658
                                        Confinement ::            0.340658261733

 Orbital energies  State     L     Occupation   Energy[a.u.]          Energy[eV]

                       1     0          2.000      -0.472682          -12.862321

                       1     1          2.000      -0.165241           -4.496444


 Total Electron Density at R=0:                                         0.001122

 Guess for atomic kind: N

 Electronic structure
    Total number of core electrons                                          2.00
    Total number of valence electrons                                       5.00
    Total number of electrons                                               7.00
    Multiplicity                                                   not specified
    S   [  2.00] 2.00
    P      3.00


 *******************************************************************************
                  Iteration          Convergence                     Energy [au]
 *******************************************************************************
                          1        0.336530                      -9.510795128496
                          2        0.286043                      -9.519743003757
                          3        0.395014E-02                  -9.546125362557
                          4        0.408888E-03                  -9.546132969538
                          5        0.175016E-05                  -9.546133017356
                          6        0.803245E-06                  -9.546133017357

 Energy components [Hartree]           Total Energy ::           -9.546133017357
                                        Band Energy ::           -2.056886698492
                                     Kinetic Energy ::            6.757566260917
                                   Potential Energy ::          -16.303699278273
                                      Virial (-V/T) ::            2.412658440742
                                        Core Energy ::          -15.541057966018
                                          XC Energy ::           -2.162545704073
                                     Coulomb Energy ::            8.157470652735
                       Total Pseudopotential Energy ::          -22.335923881279
                       Local Pseudopotential Energy ::          -23.269966874487
                    Nonlocal Pseudopotential Energy ::            0.934042993209
                                        Confinement ::            0.372996543437

 Orbital energies  State     L     Occupation   Energy[a.u.]          Energy[eV]

                       1     0          2.000      -0.663865          -18.064681

                       1     1          3.000      -0.243052           -6.613790


 Total Electron Density at R=0:                                         0.000015

 Guess for atomic kind: H

 Electronic structure
    Total number of core electrons                                          0.00
    Total number of valence electrons                                       1.00
    Total number of electrons                                               1.00
    Multiplicity                                                   not specified
    S      1.00


 *******************************************************************************
                  Iteration          Convergence                     Energy [au]
 *******************************************************************************
                          1        0.854045E-02                  -0.403569794572
                          2        0.209196E-02                  -0.403714508600
                          3        0.237062E-04                  -0.403723953757
                          4        0.147883E-06                  -0.403723954566

 Energy components [Hartree]           Total Energy ::           -0.403723954566
                                        Band Energy ::           -0.170722872632
                                     Kinetic Energy ::            0.549376902782
                                   Potential Energy ::           -0.953100857348
                                      Virial (-V/T) ::            1.734876097853
                                        Core Energy ::           -0.459349409524
                                          XC Energy ::           -0.255020506297
                                     Coulomb Energy ::            0.310645961255
                       Total Pseudopotential Energy ::           -1.032822523144
                       Local Pseudopotential Energy ::           -1.032822523144
                    Nonlocal Pseudopotential Energy ::            0.000000000000
                                        Confinement ::            0.240962108383

 Orbital energies  State     L     Occupation   Energy[a.u.]          Energy[eV]

                       1     0          1.000      -0.170723           -4.645606


 Total Electron Density at R=0:                                         0.298757
 Re-scaling the density matrix to get the right number of electrons
                  # Electrons              Trace(P)               Scaling factor
                           24                24.000                        1.000

 Number of electrons:                                                         24
 Number of occupied orbitals:                                                 12
 Number of molecular orbitals:                                               124

 Number of orbital functions:                                                124
 Number of independent orbital functions:                                    124


 SCF WAVEFUNCTION OPTIMIZATION

  Step     Update method      Time    Convergence         Total energy    Change
  ------------------------------------------------------------------------------
     1 NoMix/Diag. 0.20E+00    0.8     0.75590423       -43.6846463801 -4.37E+01
     2 Broy./Diag. 0.20E+00    1.0     0.09356769       -39.1099097189  4.57E+00
     3 Broy./Diag. 0.20E+00    1.0     0.09358446       -41.8530506256 -2.74E+00
     4 Broy./Diag. 0.20E+00    1.0     0.03948198       -43.7359286581 -1.88E+00
     5 Broy./Diag. 0.20E+00    1.0     0.01346033       -43.9702599792 -2.34E-01
     6 Broy./Diag. 0.20E+00    1.0     0.01698011       -44.0462415873 -7.60E-02
     7 Broy./Diag. 0.20E+00    1.0     0.00403251       -44.0146754054  3.16E-02
     8 Broy./Diag. 0.20E+00    1.0     0.00140120       -43.9977511079  1.69E-02
     9 Broy./Diag. 0.20E+00    1.0     0.00412516       -43.9946550185  3.10E-03
    10 Broy./Diag. 0.20E+00    1.1     0.00235350       -44.0166428925 -2.20E-02
    11 Broy./Diag. 0.20E+00    1.1     0.00353591       -44.0251085219 -8.47E-03
    12 Broy./Diag. 0.20E+00    1.1     0.00124706       -44.0264313424 -1.32E-03
    13 Broy./Diag. 0.20E+00    1.1     0.00362973       -44.0170815834  9.35E-03
    14 Broy./Diag. 0.20E+00    1.1     0.00162822       -44.0168539333  2.28E-04
    15 Broy./Diag. 0.20E+00    1.1     0.00228978       -44.0206772070 -3.82E-03
    16 Broy./Diag. 0.20E+00    1.1     0.00125990       -44.0202005183  4.77E-04
    17 Broy./Diag. 0.20E+00    1.0     0.00044455       -44.0195388493  6.62E-04
    18 Broy./Diag. 0.20E+00    1.0     0.00084946       -44.0196934819 -1.55E-04
    19 Broy./Diag. 0.20E+00    1.0     0.00094310       -44.0197170119 -2.35E-05
    20 Broy./Diag. 0.20E+00    1.0     0.00110000       -44.0194899661  2.27E-04
    21 Broy./Diag. 0.20E+00    1.0     0.00018465       -44.0196230656 -1.33E-04
    22 Broy./Diag. 0.20E+00    1.0     0.00043790       -44.0199400272 -3.17E-04
    23 Broy./Diag. 0.20E+00    1.1     0.00054874       -44.0197932602  1.47E-04
    24 Broy./Diag. 0.20E+00    1.1     0.00031854       -44.0197161532  7.71E-05
    25 Broy./Diag. 0.20E+00    1.0     0.00036315       -44.0197191517 -3.00E-06
    26 Broy./Diag. 0.20E+00    1.0     0.00010399       -44.0195581234  1.61E-04
    27 Broy./Diag. 0.20E+00    1.0     0.00010165       -44.0195332662  2.49E-05
    28 Broy./Diag. 0.20E+00    1.0     0.00005407       -44.0196212411 -8.80E-05
    29 Broy./Diag. 0.20E+00    1.0     0.00013236       -44.0195973766  2.39E-05
    30 Broy./Diag. 0.20E+00    1.0     0.00006736       -44.0195694561  2.79E-05
    31 Broy./Diag. 0.20E+00    1.0     0.00005220       -44.0195929485 -2.35E-05
    32 Broy./Diag. 0.20E+00    1.1     0.00001634       -44.0196070263 -1.41E-05
    33 Broy./Diag. 0.20E+00    1.1     0.00000419       -44.0196015887  5.44E-06
    34 Broy./Diag. 0.20E+00    1.0     0.00000279       -44.0195986014  2.99E-06
    35 Broy./Diag. 0.20E+00    1.0     0.00000564       -44.0196002652 -1.66E-06
    36 Broy./Diag. 0.20E+00    1.0     0.00000473       -44.0195998998  3.65E-07
    37 Broy./Diag. 0.20E+00    1.0     0.00000379       -44.0195978342  2.07E-06
    38 Broy./Diag. 0.20E+00    1.1     0.00000175       -44.0195993249 -1.49E-06
    39 Broy./Diag. 0.20E+00    1.1     0.00000086       -44.0196002693 -9.44E-07
    40 Broy./Diag. 0.20E+00    1.1     0.00000028       -44.0195996697  6.00E-07
    41 Broy./Diag. 0.20E+00    1.0     0.00000052       -44.0195999641 -2.94E-07
    42 Broy./Diag. 0.20E+00    1.0     0.00000055       -44.0196001146 -1.50E-07
    43 Broy./Diag. 0.20E+00    1.0     0.00000028       -44.0195996279  4.87E-07
    44 Broy./Diag. 0.20E+00    1.0     0.00000019       -44.0195995483  7.95E-08
    45 Broy./Diag. 0.20E+00    1.0     0.00000013       -44.0195998884 -3.40E-07
    46 Broy./Diag. 0.20E+00    1.0     0.00000012       -44.0196000275 -1.39E-07
    47 Broy./Diag. 0.20E+00    1.0     0.00000029       -44.0195999291  9.85E-08
    48 Broy./Diag. 0.20E+00    1.0     0.00000017       -44.0195999442 -1.51E-08
    49 Broy./Diag. 0.20E+00    1.0     0.00000008       -44.0196000325 -8.83E-08

  *** SCF run converged in    49 steps ***


  Electronic density on regular grids:        -24.0000000000        0.0000000000
  Core density on regular grids:               24.0000000000       -0.0000000000
  Total charge density on r-space grids:       -0.0000000000
  Total charge density g-space grids:          -0.0000000000

  Overlap energy of the core charge distribution:               0.00000083685395
  Self energy of the core charge distribution:               -110.20434852073244
  Core Hamiltonian energy:                                     32.89447628344518
  Hartree energy:                                              45.09618765990268
  Exchange-correlation energy:                                -11.80591629195057

  Total energy:                                               -44.01960003248120

  outer SCF iter =    1 RMS gradient =   0.75E-07 energy =        -44.0196000325
  outer SCF loop converged in   1 iterations or   49 steps


 !-----------------------------------------------------------------------------!
                     Mulliken Population Analysis

 #  Atom  Element  Kind  Atomic population                           Net charge
       1     O        1          6.339864                             -0.339864
       2     C        2          3.771636                              0.228364
       3     N        3          5.090784                             -0.090784
       4     N        3          5.090784                             -0.090784
       5     H        4          0.933633                              0.066367
       6     H        4          0.919833                              0.080167
       7     H        4          0.933633                              0.066367
       8     H        4          0.919833                              0.080167
 # Total charge                             24.000000                 -0.000000

 !-----------------------------------------------------------------------------!

 !-----------------------------------------------------------------------------!
                           Hirshfeld Charges

  #Atom  Element  Kind  Ref Charge     Population                    Net charge
      1       O      1       6.000          6.550                        -0.550
      2       C      2       4.000          3.529                         0.471
      3       N      3       5.000          5.998                        -0.998
      4       N      3       5.000          5.998                        -0.998
      5       H      4       1.000          0.484                         0.516
      6       H      4       1.000          0.472                         0.528
      7       H      4       1.000          0.484                         0.516
      8       H      4       1.000          0.472                         0.528

  Total Charge                                                            0.013
 !-----------------------------------------------------------------------------!
  
 -------------------------------------------------------------------------------
 -                                                                             -
 -                          BANDSTRUCTURE CALCULATION                          -
 -                                                                             -
 -------------------------------------------------------------------------------
  
 Number of occupied molecular orbitals (MOs) = Number of occupied bands       12
 Number of unoccupied (= virtual) MOs = Number of unoccupied bands           112
 Number of Gaussian basis functions for MOs                                  124
  
 -------------------------------------------------------------------------------
 -                                                                             -
 -                                GW CALCULATION                               -
 -                                                                             -
 -------------------------------------------------------------------------------
  
 Input: Number of time/freq. points                                           30
 Input: ω_max for fitting Σ(iω) (eV)                                        10.0
 Input: Filter threshold for sparse tensor operations                    1.0E-07
 Input: Apply Hedin shift                                                      F
 Detected: Available memory per MPI process                               7.0 GB
 
 Input: RI-RS Tikhonov regularization                                   1.00E-08
 Input: AO grid hard cutoff radius                                        8.00 Å
 Input: MPI ranks per atom in Z_lP solve                                      -1
 Input: Keep sparsity in χ/G/W panels                                          T
 Input: GW flavour                                                          G0W0
 
 Input: RI-RS grid optimization activated                                      T
 Input: RS points per AO function                                            7.0
 Input: Cutoff radius for atomic clusters                                  3.0 Å
 Input: Maximum grid optimization iterations                                 300
 
 Input: AUTO_RI basis optimization activated:                                  T
 Input: AUTO_RI number of RI functions per AO function:                      4.0
 Input: AUTO_RI frontier orbital window:                                  5.0 eV
 Input: AUTO_RI neighbor radius:                                           3.0 Å
 
 Cutoff radius for the truncated Coulomb operator in RI metric:            6.0 Å
 Regularization parameter of RI                                          0.0E+00
 Regularization parameter of minimax grids                               1.0E-06
 
 AUTO_RI| Number of automatic RI functions for χ, ε, W:                      496
 AUTO_RI| Total RI basis optimization time:                                0.8 s
 
 SCF direct band gap (eV)                                                   4.96
 Max. SCF eigval diff. (eV)                                               368.15
 E-Range for minimax grid                                                  74.26
 Number of Padé parameters for analytic continuation:                         16
 
 RI-RS basis radii (Å):
     Kind  Elem     r_AO (Å)     r_RI (Å)
        1    O         9.8246        6.6608
        2    C        12.2076        7.7208
        3    N        10.7312        6.7832
        4    H        10.6225        6.7183
 
 Started RI-RS grid optimization
 RI-RS grid initial normalized error                          8.952415628148E-03
 RI-RS grid optimization completed, execution time:                      152.7 s
 Normalized 3C error:                                                    2.2E-07
 Maximum absolute 3C error:                                              3.5E-03
 Optimized points outside molecular Voronoi cells:                           343 / 868
 Total grid points used for RI-RS:                                           868
 
 RI-RS grid row-blocks of ϕ_μ(r_l)                                            28
 RI-RS grid points per block (max)                                            32
 
 Percentage of non-zero matrix elements in ϕ_μ(r_l)                     100.00 %
 
 RI-RS memory estimate per MPI process:
   Available memory per process (system)                                 7.43 GB
   Required for Z_lP (dense upper bound; actual is sparser)              0.00 GB
   Required for χ, W, Σ panels (peak per panel step)                     0.00 GB
   Required for Z_lP solve peak (D_local+ϕ, worst-case atom)             0.01 GB
   Worst-case local-grid number of grid points:                              867
   Worst-case memory D_local:                                            0.01 GB
 
 Started computing Z_lP
 Computed Z_lP (MPI rank 0) for atom          1 /  1,    Execution time    0.1 s
 Computed Z_lP (all MPI ranks) for all atoms,            Execution time    0.1 s

 Memory per MPI process after computing Z_lP:
 Available memory per MPI process                                7.4 GB
 Used memory per MPI process                                     1.0 GB
 Number of batches for χ, Σ matrices                                           1
 
 Percentage of non-zero matrix elements in Z_lP                         100.00 %
 Percentage of non-zero matrix elements in G_ll', χ_ll', W_ll'          100.00 %
 Percentage of non-zero matrix elements in χ_PQ for time point 1        100.00 %
 
 Computed χ(iτ,k=0) for time point            1 / 30,    Execution time    0.0 s
 Computed χ(iτ,k=0) for time point            2 / 30,    Execution time    0.0 s
 Computed χ(iτ,k=0) for time point            3 / 30,    Execution time    0.0 s
 Computed χ(iτ,k=0) for time point            4 / 30,    Execution time    0.0 s
 Computed χ(iτ,k=0) for time point            5 / 30,    Execution time    0.0 s
 Computed χ(iτ,k=0) for time point            6 / 30,    Execution time    0.0 s
 Computed χ(iτ,k=0) for time point            7 / 30,    Execution time    0.0 s
 Computed χ(iτ,k=0) for time point            8 / 30,    Execution time    0.0 s
 Computed χ(iτ,k=0) for time point            9 / 30,    Execution time    0.0 s
 Computed χ(iτ,k=0) for time point           10 / 30,    Execution time    0.0 s
 Computed χ(iτ,k=0) for time point           11 / 30,    Execution time    0.0 s
 Computed χ(iτ,k=0) for time point           12 / 30,    Execution time    0.0 s
 Computed χ(iτ,k=0) for time point           13 / 30,    Execution time    0.0 s
 Computed χ(iτ,k=0) for time point           14 / 30,    Execution time    0.0 s
 Computed χ(iτ,k=0) for time point           15 / 30,    Execution time    0.0 s
 Computed χ(iτ,k=0) for time point           16 / 30,    Execution time    0.0 s
 Computed χ(iτ,k=0) for time point           17 / 30,    Execution time    0.0 s
 Computed χ(iτ,k=0) for time point           18 / 30,    Execution time    0.0 s
 Computed χ(iτ,k=0) for time point           19 / 30,    Execution time    0.0 s
 Computed χ(iτ,k=0) for time point           20 / 30,    Execution time    0.0 s
 Computed χ(iτ,k=0) for time point           21 / 30,    Execution time    0.0 s
 Computed χ(iτ,k=0) for time point           22 / 30,    Execution time    0.0 s
 Computed χ(iτ,k=0) for time point           23 / 30,    Execution time    0.0 s
 Computed χ(iτ,k=0) for time point           24 / 30,    Execution time    0.0 s
 Computed χ(iτ,k=0) for time point           25 / 30,    Execution time    0.0 s
 Computed χ(iτ,k=0) for time point           26 / 30,    Execution time    0.0 s
 Computed χ(iτ,k=0) for time point           27 / 30,    Execution time    0.0 s
 Computed χ(iτ,k=0) for time point           28 / 30,    Execution time    0.0 s
 Computed χ(iτ,k=0) for time point           29 / 30,    Execution time    0.0 s
 Computed χ(iτ,k=0) for time point           30 / 30,    Execution time    0.0 s
 
 Computed W(iτ),                                         Execution time    0.2 s
 
 Computed Σ^x(k=0),                                      Execution time    0.0 s
 
 Computed Σ^c(iτ) for time point              1 / 30,    Execution time    0.0 s
 Computed Σ^c(iτ) for time point              2 / 30,    Execution time    0.0 s
 Computed Σ^c(iτ) for time point              3 / 30,    Execution time    0.0 s
 Computed Σ^c(iτ) for time point              4 / 30,    Execution time    0.0 s
 Computed Σ^c(iτ) for time point              5 / 30,    Execution time    0.0 s
 Computed Σ^c(iτ) for time point              6 / 30,    Execution time    0.0 s
 Computed Σ^c(iτ) for time point              7 / 30,    Execution time    0.0 s
 Computed Σ^c(iτ) for time point              8 / 30,    Execution time    0.0 s
 Computed Σ^c(iτ) for time point              9 / 30,    Execution time    0.0 s
 Computed Σ^c(iτ) for time point             10 / 30,    Execution time    0.0 s
 Computed Σ^c(iτ) for time point             11 / 30,    Execution time    0.0 s
 Computed Σ^c(iτ) for time point             12 / 30,    Execution time    0.0 s
 Computed Σ^c(iτ) for time point             13 / 30,    Execution time    0.0 s
 Computed Σ^c(iτ) for time point             14 / 30,    Execution time    0.0 s
 Computed Σ^c(iτ) for time point             15 / 30,    Execution time    0.0 s
 Computed Σ^c(iτ) for time point             16 / 30,    Execution time    0.0 s
 Computed Σ^c(iτ) for time point             17 / 30,    Execution time    0.0 s
 Computed Σ^c(iτ) for time point             18 / 30,    Execution time    0.0 s
 Computed Σ^c(iτ) for time point             19 / 30,    Execution time    0.0 s
 Computed Σ^c(iτ) for time point             20 / 30,    Execution time    0.0 s
 Computed Σ^c(iτ) for time point             21 / 30,    Execution time    0.0 s
 Computed Σ^c(iτ) for time point             22 / 30,    Execution time    0.0 s
 Computed Σ^c(iτ) for time point             23 / 30,    Execution time    0.0 s
 Computed Σ^c(iτ) for time point             24 / 30,    Execution time    0.0 s
 Computed Σ^c(iτ) for time point             25 / 30,    Execution time    0.0 s
 Computed Σ^c(iτ) for time point             26 / 30,    Execution time    0.0 s
 Computed Σ^c(iτ) for time point             27 / 30,    Execution time    0.0 s
 Computed Σ^c(iτ) for time point             28 / 30,    Execution time    0.0 s
 Computed Σ^c(iτ) for time point             29 / 30,    Execution time    0.0 s
 Computed Σ^c(iτ) for time point             30 / 30,    Execution time    0.0 s
 
 SCF valence band maximum (eV):                                           -5.875
 SCF conduction band minimum (eV):                                        -0.918
 SCF indirect band gap (eV):                                               4.957
 SCF direct band gap (eV):                                                 4.957
 
 G0W0 valence band maximum (eV):                                          -8.788
 G0W0 conduction band minimum (eV):                                        1.046
 G0W0 indirect band gap (eV):                                              9.834
 G0W0 direct band gap (eV):                                                9.834
 
 Hartree-Fock with SCF orbitals valence band maximum (eV):               -11.417
 Hartree-Fock with SCF orbitals conduction band minimum (eV)               1.822
 Hartree-Fock with SCF orbitals indirect band gap (eV):                   13.239
 Hartree-Fock with SCF orbitals direct band gap (eV):                     13.239

 ENERGY| Total FORCE_EVAL ( QS ) energy [hartree]            -44.019600032481200

 -------------------------------------------------------------------------------
 -                                                                             -
 -                                DBCSR STATISTICS                             -
 -                                                                             -
 -------------------------------------------------------------------------------
 COUNTER                                    TOTAL       BLAS       SMM       ACC
 flops    26 x    49 x    54               550368       0.0%    100.0%      0.0%     
 flops    26 x    50 x    54               561600       0.0%    100.0%      0.0%     
 flops    26 x    49 x    60               611520       0.0%    100.0%      0.0%     
 flops    26 x    50 x    60               624000       0.0%    100.0%      0.0%     
 flops    26 x    52 x    60               648960       0.0%    100.0%      0.0%     
 flops    31 x    49 x    54               656208       0.0%    100.0%      0.0%     
 flops    31 x    50 x    54               669600       0.0%    100.0%      0.0%     
 flops    31 x    49 x    60               729120       0.0%    100.0%      0.0%     
 flops    31 x    50 x    60               744000       0.0%    100.0%      0.0%     
 flops    31 x    52 x    60               773760       0.0%    100.0%      0.0%     
 flops    26 x    52 x    54              1168128       0.0%    100.0%      0.0%     
 flops    26 x    52 x    59              1276288       0.0%    100.0%      0.0%     
 flops    31 x    52 x    54              1392768       0.0%    100.0%      0.0%     
 flops    31 x    52 x    59              1521728       0.0%    100.0%      0.0%     
 flops     9 x     9 x    28              2222640       0.0%    100.0%      0.0%     
 flops    32 x    49 x    54              3386880       0.0%    100.0%      0.0%     
 flops    32 x    50 x    54              3456000       0.0%    100.0%      0.0%     
 flops    32 x    49 x    60              3763200       0.0%    100.0%      0.0%     
 flops    32 x    50 x    60              3840000       0.0%    100.0%      0.0%     
 flops    32 x    52 x    60              3993600       0.0%    100.0%      0.0%     
 flops    22 x     9 x    28              4346496       0.0%    100.0%      0.0%     
 flops     9 x    22 x    28              4346496       0.0%    100.0%      0.0%     
 flops    32 x    52 x    54              7188480       0.0%    100.0%      0.0%     
 flops    32 x    52 x    59              7854080       0.0%    100.0%      0.0%     
 flops     9 x     9 x    26              9064224       0.0%    100.0%      0.0%     
 flops    49 x    49 x    26              9738456       0.0%    100.0%      0.0%     
 flops    50 x    49 x    26              9937200       0.0%    100.0%      0.0%     
 flops    49 x    50 x    26              9937200       0.0%    100.0%      0.0%     
 flops    50 x    50 x    26             10140000       0.0%    100.0%      0.0%     
 flops     9 x     9 x    31             10847520       0.0%    100.0%      0.0%     
 flops    49 x    49 x    31             11313512       0.0%    100.0%      0.0%     
 flops    50 x    49 x    31             11544400       0.0%    100.0%      0.0%     
 flops    49 x    50 x    31             11544400       0.0%    100.0%      0.0%     
 flops    26 x    49 x    50             11720800       0.0%    100.0%      0.0%     
 flops    26 x    50 x    49             11720800       0.0%    100.0%      0.0%     
 flops    50 x    50 x    31             11780000       0.0%    100.0%      0.0%     
 flops    26 x    50 x    50             11960000       0.0%    100.0%      0.0%     
 flops    26 x    49 x    49             11985792       0.0%    100.0%      0.0%     
 flops    64 x    49 x    26             12719616       0.0%    100.0%      0.0%     
 flops    49 x    64 x    26             12719616       0.0%    100.0%      0.0%     
 flops    50 x    64 x    26             12979200       0.0%    100.0%      0.0%     
 flops    64 x    50 x    26             12979200       0.0%    100.0%      0.0%     
 flops    22 x    22 x    28             13280960       0.0%    100.0%      0.0%     
 flops    31 x    49 x    50             13974800       0.0%    100.0%      0.0%     
 flops    31 x    50 x    49             13974800       0.0%    100.0%      0.0%     
 flops    31 x    50 x    50             14260000       0.0%    100.0%      0.0%     
 flops    31 x    49 x    49             14290752       0.0%    100.0%      0.0%     
 flops    49 x    74 x    26             14518504       0.0%    100.0%      0.0%     
 flops    74 x    49 x    26             14707056       0.0%    100.0%      0.0%     
 flops    64 x    49 x    31             14776832       0.0%    100.0%      0.0%     
 flops    49 x    64 x    31             14776832       0.0%    100.0%      0.0%     
 flops    50 x    74 x    26             14814800       0.0%    100.0%      0.0%     
 flops    74 x    50 x    26             15007200       0.0%    100.0%      0.0%     
 flops    50 x    64 x    31             15078400       0.0%    100.0%      0.0%     
 flops    64 x    50 x    31             15078400       0.0%    100.0%      0.0%     
 flops    49 x    78 x    26             15303288       0.0%    100.0%      0.0%     
 flops    49 x    77 x    26             15303288       0.0%    100.0%      0.0%     
 flops    77 x    49 x    26             15303288       0.0%    100.0%      0.0%     
 flops    26 x    64 x    50             15308800       0.0%    100.0%      0.0%     
 flops    78 x    49 x    26             15502032       0.0%    100.0%      0.0%     
 flops    50 x    78 x    26             15615600       0.0%    100.0%      0.0%     
 flops    50 x    77 x    26             15615600       0.0%    100.0%      0.0%     
 flops    77 x    50 x    26             15615600       0.0%    100.0%      0.0%     
 flops    26 x    64 x    49             15654912       0.0%    100.0%      0.0%     
 flops    78 x    50 x    26             15818400       0.0%    100.0%      0.0%     
 flops    64 x    64 x    26             16613376       0.0%    100.0%      0.0%     
 flops    49 x    74 x    31             17085712       0.0%    100.0%      0.0%     
 flops    74 x    49 x    31             17085712       0.0%    100.0%      0.0%     
 flops    26 x    74 x    49             17346784       0.0%    100.0%      0.0%     
 flops    50 x    74 x    31             17434400       0.0%    100.0%      0.0%     
 flops    74 x    50 x    31             17434400       0.0%    100.0%      0.0%     
 flops    26 x    74 x    50             17700800       0.0%    100.0%      0.0%     
 flops    49 x    77 x    31             17778376       0.0%    100.0%      0.0%     
 flops    77 x    49 x    31             17778376       0.0%    100.0%      0.0%     
 flops    49 x    78 x    31             18009264       0.0%    100.0%      0.0%     
 flops    78 x    49 x    31             18009264       0.0%    100.0%      0.0%     
 flops    50 x    77 x    31             18141200       0.0%    100.0%      0.0%     
 flops    77 x    50 x    31             18141200       0.0%    100.0%      0.0%     
 flops    31 x    64 x    50             18252800       0.0%    100.0%      0.0%     
 flops    50 x    78 x    31             18376800       0.0%    100.0%      0.0%     
 flops    78 x    50 x    31             18376800       0.0%    100.0%      0.0%     
 flops    26 x    78 x    50             18657600       0.0%    100.0%      0.0%     
 flops    31 x    64 x    49             18665472       0.0%    100.0%      0.0%     
 flops    26 x    77 x    49             18834816       0.0%    100.0%      0.0%     
 flops    64 x    74 x    26             18962944       0.0%    100.0%      0.0%     
 flops    26 x    78 x    49             19079424       0.0%    100.0%      0.0%     
 flops    74 x    64 x    26             19209216       0.0%    100.0%      0.0%     
 flops    26 x    77 x    50             19219200       0.0%    100.0%      0.0%     
 flops    64 x    64 x    31             19300352       0.0%    100.0%      0.0%     
 flops    64 x    78 x    26             19987968       0.0%    100.0%      0.0%     
 flops    64 x    77 x    26             19987968       0.0%    100.0%      0.0%     
 flops    77 x    64 x    26             19987968       0.0%    100.0%      0.0%     
 flops    78 x    64 x    26             20247552       0.0%    100.0%      0.0%     
 flops    52 x    49 x    26             20669376       0.0%    100.0%      0.0%     
 flops    31 x    74 x    49             20682704       0.0%    100.0%      0.0%     
 flops    49 x    52 x    26             21066864       0.0%    100.0%      0.0%     
 flops    52 x    50 x    26             21091200       0.0%    100.0%      0.0%     
 flops    31 x    74 x    50             21104800       0.0%    100.0%      0.0%     
 flops    50 x    52 x    26             21496800       0.0%    100.0%      0.0%     
 flops    74 x    74 x    26             21925904       0.0%    100.0%      0.0%     
 flops    22 x     9 x    26             22156992       0.0%    100.0%      0.0%     
 flops    31 x    78 x    50             22245600       0.0%    100.0%      0.0%     
 flops    64 x    74 x    31             22316032       0.0%    100.0%      0.0%     
 flops    74 x    64 x    31             22316032       0.0%    100.0%      0.0%     
 flops     9 x    22 x    26             22404096       0.0%    100.0%      0.0%     
 flops    31 x    77 x    49             22456896       0.0%    100.0%      0.0%     
 flops    26 x    49 x    26             22723064       0.0%    100.0%      0.0%     
 flops    31 x    78 x    49             22748544       0.0%    100.0%      0.0%     
 flops    77 x    74 x    26             22814792       0.0%    100.0%      0.0%     
 flops    31 x    77 x    50             22915200       0.0%    100.0%      0.0%     
 flops    74 x    78 x    26             23111088       0.0%    100.0%      0.0%     
 flops    74 x    77 x    26             23111088       0.0%    100.0%      0.0%     
 flops    78 x    74 x    26             23111088       0.0%    100.0%      0.0%     
 flops    26 x    50 x    26             23186800       0.0%    100.0%      0.0%     
 flops    64 x    77 x    31             23220736       0.0%    100.0%      0.0%     
 flops    77 x    64 x    31             23220736       0.0%    100.0%      0.0%     
 flops    64 x    78 x    31             23522304       0.0%    100.0%      0.0%     
 flops    78 x    64 x    31             23522304       0.0%    100.0%      0.0%     
 flops    52 x    49 x    31             24012352       0.0%    100.0%      0.0%     
 flops    77 x    77 x    26             24048024       0.0%    100.0%      0.0%     
 flops    77 x    78 x    26             24048024       0.0%    100.0%      0.0%     
 flops    49 x    52 x    31             24170328       0.0%    100.0%      0.0%     
 flops    78 x    77 x    26             24360336       0.0%    100.0%      0.0%     
 flops    78 x    78 x    26             24360336       0.0%    100.0%      0.0%     
 flops    26 x     9 x     9             24395904       0.0%    100.0%      0.0%     
 flops    52 x    50 x    31             24502400       0.0%    100.0%      0.0%     
 flops    50 x    52 x    31             24663600       0.0%    100.0%      0.0%     
 flops    26 x    52 x    50             24876800       0.0%    100.0%      0.0%     
 flops    26 x    50 x    52             24876800       0.0%    100.0%      0.0%     
 flops    26 x    52 x    49             24909248       0.0%    100.0%      0.0%     
 flops    26 x    49 x    52             24909248       0.0%    100.0%      0.0%     
 flops    26 x    26 x    49             25439232       0.0%    100.0%      0.0%     
 flops    74 x    74 x    31             25802912       0.0%    100.0%      0.0%     
 flops    26 x    26 x    50             25958400       0.0%    100.0%      0.0%     
 flops    22 x     9 x    31             26516160       0.0%    100.0%      0.0%     
 flops     9 x    22 x    31             26614368       0.0%    100.0%      0.0%     
 flops    74 x    77 x    31             26848976       0.0%    100.0%      0.0%     
 flops    77 x    74 x    31             26848976       0.0%    100.0%      0.0%     
 flops    52 x    64 x    26             26996736       0.0%    100.0%      0.0%     
 flops    31 x    49 x    26             27013896       0.0%    100.0%      0.0%     
 flops    74 x    78 x    31             27197664       0.0%    100.0%      0.0%     
 flops    78 x    74 x    31             27197664       0.0%    100.0%      0.0%     
 flops    26 x     9 x    26             27244152       0.0%    100.0%      0.0%     
 flops    64 x    52 x    26             27515904       0.0%    100.0%      0.0%     
 flops    31 x    50 x    26             27726400       0.0%    100.0%      0.0%     
 flops    26 x    49 x    31             27803776       0.0%    100.0%      0.0%     
 flops    77 x    77 x    31             27937448       0.0%    100.0%      0.0%     
 flops    78 x    77 x    31             28300272       0.0%    100.0%      0.0%     
 flops    77 x    78 x    31             28300272       0.0%    100.0%      0.0%     
 flops    26 x    50 x    31             28371200       0.0%    100.0%      0.0%     
 flops    78 x    78 x    31             28667808       0.0%    100.0%      0.0%     
 flops    31 x     9 x     9             29087424       0.0%    100.0%      0.0%     
 flops    26 x    64 x    26             29506048       0.0%    100.0%      0.0%     
 flops    31 x    52 x    50             29660800       0.0%    100.0%      0.0%     
 flops    31 x    50 x    52             29660800       0.0%    100.0%      0.0%     
 flops    31 x    52 x    49             29699488       0.0%    100.0%      0.0%     
 flops    31 x    49 x    52             29699488       0.0%    100.0%      0.0%     
 flops    31 x    26 x    49             30252404       0.0%    100.0%      0.0%     
 flops    26 x    31 x    49             30252404       0.0%    100.0%      0.0%     
 flops    52 x    74 x    26             30814784       0.0%    100.0%      0.0%     
 flops    31 x    26 x    50             30869800       0.0%    100.0%      0.0%     
 flops    26 x    31 x    50             30869800       0.0%    100.0%      0.0%     
 flops    52 x    64 x    31             31363072       0.0%    100.0%      0.0%     
 flops    64 x    52 x    31             31569408       0.0%    100.0%      0.0%     
 flops    74 x    52 x    26             31815264       0.0%    100.0%      0.0%     
 flops    31 x     9 x    26             32381856       0.0%    100.0%      0.0%     
 flops    52 x    78 x    26             32480448       0.0%    100.0%      0.0%     
 flops    52 x    77 x    26             32480448       0.0%    100.0%      0.0%     
 flops    26 x     9 x    31             32497920       0.0%    100.0%      0.0%     
 flops    26 x    64 x    52             32534528       0.0%    100.0%      0.0%     
 flops    77 x    52 x    26             33105072       0.0%    100.0%      0.0%     
 flops    31 x    49 x    31             33150656       0.0%    100.0%      0.0%     
 flops    78 x    52 x    26             33535008       0.0%    100.0%      0.0%     
 flops    31 x    50 x    31             33827200       0.0%    100.0%      0.0%     
 flops    26 x    74 x    26             34216416       0.0%    100.0%      0.0%     
 flops    31 x    64 x    26             34870784       0.0%    100.0%      0.0%     
 flops    26 x    77 x    26             35499464       0.0%    100.0%      0.0%     
 flops    31 x    31 x    49             35505106       0.0%    100.0%      0.0%     
 flops    26 x    78 x    26             35960496       0.0%    100.0%      0.0%     
 flops    31 x    31 x    50             36229700       0.0%    100.0%      0.0%     
 flops    52 x    74 x    31             36263552       0.0%    100.0%      0.0%     
 flops    26 x    64 x    31             36418304       0.0%    100.0%      0.0%     
 flops    74 x    52 x    31             36502128       0.0%    100.0%      0.0%     
 flops    26 x    74 x    52             37618048       0.0%    100.0%      0.0%     
 flops    52 x    77 x    31             37733696       0.0%    100.0%      0.0%     
 flops    77 x    52 x    31             37981944       0.0%    100.0%      0.0%     
 flops    52 x    78 x    31             38223744       0.0%    100.0%      0.0%     
 flops    78 x    52 x    31             38475216       0.0%    100.0%      0.0%     
 flops    31 x    64 x    52             38791168       0.0%    100.0%      0.0%     
 flops    31 x     9 x    31             38851308       0.0%    100.0%      0.0%     
 flops    26 x    77 x    52             39143104       0.0%    100.0%      0.0%     
 flops    26 x    78 x    52             39651456       0.0%    100.0%      0.0%     
 flops    31 x    74 x    26             40438632       0.0%    100.0%      0.0%     
 flops    31 x    77 x    26             41953912       0.0%    100.0%      0.0%     
 flops    26 x    74 x    31             41989376       0.0%    100.0%      0.0%     
 flops    31 x    78 x    26             42498768       0.0%    100.0%      0.0%     
 flops    31 x    64 x    31             43298816       0.0%    100.0%      0.0%     
 flops    26 x    77 x    31             43691648       0.0%    100.0%      0.0%     
 flops    26 x    78 x    31             44259072       0.0%    100.0%      0.0%     
 flops    52 x    52 x    26             44713344       0.0%    100.0%      0.0%     
 flops    31 x    74 x    52             44852288       0.0%    100.0%      0.0%     
 flops    31 x    77 x    52             46670624       0.0%    100.0%      0.0%     
 flops    31 x    78 x    52             47276736       0.0%    100.0%      0.0%     
 flops    26 x    52 x    26             48298848       0.0%    100.0%      0.0%     
 flops    31 x    74 x    31             50064256       0.0%    100.0%      0.0%     
 flops    52 x    52 x    31             51300288       0.0%    100.0%      0.0%     
 flops    31 x    77 x    31             51945894       0.0%    100.0%      0.0%     
 flops    26 x    52 x    52             52306176       0.0%    100.0%      0.0%     
 flops    31 x    78 x    31             52770432       0.0%    100.0%      0.0%     
 flops    26 x    26 x    52             52868608       0.0%    100.0%      0.0%     
 flops    22 x    22 x    26             54765568       0.0%    100.0%      0.0%     
 flops    31 x    52 x    26             57084144       0.0%    100.0%      0.0%     
 flops    26 x    52 x    31             59012096       0.0%    100.0%      0.0%     
 flops    26 x     9 x    22             60128640       0.0%    100.0%      0.0%     
 flops    26 x    22 x     9             60128640       0.0%    100.0%      0.0%     
 flops    49 x    49 x    32             60543616       0.0%    100.0%      0.0%     
 flops    49 x    50 x    32             61465600       0.0%    100.0%      0.0%     
 flops    50 x    49 x    32             61779200       0.0%    100.0%      0.0%     
 flops    31 x    52 x    52             62365056       0.0%    100.0%      0.0%     
 flops    50 x    50 x    32             62720000       0.0%    100.0%      0.0%     
 flops    31 x    26 x    52             62951824       0.0%    100.0%      0.0%     
 flops    26 x    31 x    52             62951824       0.0%    100.0%      0.0%     
 flops     9 x     9 x    32             63234432       0.0%    100.0%      0.0%     
 flops    22 x    22 x    31             65057344       0.0%    100.0%      0.0%     
 flops    26 x    22 x    26             67697344       0.0%    100.0%      0.0%     
 flops    31 x    52 x    31             70260632       0.0%    100.0%      0.0%     
 flops    26 x    26 x     9             70671744       0.0%    100.0%      0.0%     
 flops    31 x     9 x    22             71593632       0.0%    100.0%      0.0%     
 flops    31 x    22 x     9             71618184       0.0%    100.0%      0.0%     
 flops    32 x    49 x    50             72128000       0.0%    100.0%      0.0%     
 flops    32 x    50 x    49             72128000       0.0%    100.0%      0.0%     
 flops    32 x    50 x    50             73600000       0.0%    100.0%      0.0%     
 flops    32 x    49 x    49             73758720       0.0%    100.0%      0.0%     
 flops    31 x    31 x    52             74458280       0.0%    100.0%      0.0%     
 flops    49 x    64 x    32             78475264       0.0%    100.0%      0.0%     
 flops    64 x    49 x    32             79077376       0.0%    100.0%      0.0%     
 flops    26 x    22 x    31             79794000       0.0%    100.0%      0.0%     
 flops    50 x    64 x    32             80076800       0.0%    100.0%      0.0%     
 flops    64 x    50 x    32             80281600       0.0%    100.0%      0.0%     
 flops    31 x    22 x    26             80609672       0.0%    100.0%      0.0%     
 flops    26 x    31 x     9             84030336       0.0%    100.0%      0.0%     
 flops    31 x    26 x     9             84146400       0.0%    100.0%      0.0%     
 flops    49 x    74 x    32             89808768       0.0%    100.0%      0.0%     
 flops    74 x    49 x    32             91433216       0.0%    100.0%      0.0%     
 flops    50 x    74 x    32             91641600       0.0%    100.0%      0.0%     
 flops    74 x    50 x    32             92825600       0.0%    100.0%      0.0%     
 flops    49 x    77 x    32             93932608       0.0%    100.0%      0.0%     
 flops    32 x    64 x    50             94208000       0.0%    100.0%      0.0%     
 flops    49 x    78 x    32             94907904       0.0%    100.0%      0.0%     
 flops    31 x    22 x    31             95139000       0.0%    100.0%      0.0%     
 flops    77 x    49 x    32             95139968       0.0%    100.0%      0.0%     
 flops    50 x    77 x    32             95849600       0.0%    100.0%      0.0%     
 flops    32 x    64 x    49             96337920       0.0%    100.0%      0.0%     
 flops    78 x    49 x    32             96375552       0.0%    100.0%      0.0%     
 flops    77 x    50 x    32             96588800       0.0%    100.0%      0.0%     
 flops    50 x    78 x    32             96844800       0.0%    100.0%      0.0%     
 flops    78 x    50 x    32             97843200       0.0%    100.0%      0.0%     
 flops    31 x    31 x     9             99636480       0.0%    100.0%      0.0%     
 flops    64 x    64 x    32            102498304       0.0%    100.0%      0.0%     
 flops    32 x    74 x    49            106749440       0.0%    100.0%      0.0%     
 flops    32 x    74 x    50            108928000       0.0%    100.0%      0.0%     
 flops    32 x    78 x    50            114816000       0.0%    100.0%      0.0%     
 flops    32 x    77 x    49            115906560       0.0%    100.0%      0.0%     
 flops    64 x    74 x    32            117301248       0.0%    100.0%      0.0%     
 flops    32 x    78 x    49            117411840       0.0%    100.0%      0.0%     
 flops    32 x    77 x    50            118272000       0.0%    100.0%      0.0%     
 flops    74 x    64 x    32            118513664       0.0%    100.0%      0.0%     
 flops    64 x    77 x    32            122687488       0.0%    100.0%      0.0%     
 flops    77 x    64 x    32            123318272       0.0%    100.0%      0.0%     
 flops    64 x    78 x    32            123961344       0.0%    100.0%      0.0%     
 flops    78 x    64 x    32            124919808       0.0%    100.0%      0.0%     
 flops    52 x    49 x    32            128500736       0.0%    100.0%      0.0%     
 flops    49 x    52 x    32            128500736       0.0%    100.0%      0.0%     
 flops    52 x    50 x    32            130457600       0.0%    100.0%      0.0%     
 flops    50 x    52 x    32            131123200       0.0%    100.0%      0.0%     
 flops    74 x    74 x    32            135629568       0.0%    100.0%      0.0%     
 flops    26 x    49 x    32            137795840       0.0%    100.0%      0.0%     
 flops    32 x    49 x    26            140404992       0.0%    100.0%      0.0%     
 flops    26 x    50 x    32            140608000       0.0%    100.0%      0.0%     
 flops    77 x    74 x    32            141128064       0.0%    100.0%      0.0%     
 flops    74 x    77 x    32            141857408       0.0%    100.0%      0.0%     
 flops    78 x    74 x    32            142960896       0.0%    100.0%      0.0%     
 flops    74 x    78 x    32            143330304       0.0%    100.0%      0.0%     
 flops    32 x    50 x    26            143353600       0.0%    100.0%      0.0%     
 flops    77 x    77 x    32            147608384       0.0%    100.0%      0.0%     
 flops    26 x    22 x    22            148793216       0.0%    100.0%      0.0%     
 flops    77 x    78 x    32            149140992       0.0%    100.0%      0.0%     
 flops    78 x    77 x    32            149525376       0.0%    100.0%      0.0%     
 flops    32 x     9 x     9            150128640       0.0%    100.0%      0.0%     
 flops    22 x     9 x    32            150847488       0.0%    100.0%      0.0%     
 flops    78 x    78 x    32            151077888       0.0%    100.0%      0.0%     
 flops     9 x    22 x    32            152317440       0.0%    100.0%      0.0%     
 flops    32 x    52 x    50            153088000       0.0%    100.0%      0.0%     
 flops    32 x    50 x    52            153088000       0.0%    100.0%      0.0%     
 flops    32 x    52 x    49            153287680       0.0%    100.0%      0.0%     
 flops    32 x    49 x    52            153287680       0.0%    100.0%      0.0%     
 flops    32 x    26 x    49            156141440       0.0%    100.0%      0.0%     
 flops    26 x    32 x    49            156467584       0.0%    100.0%      0.0%     
 flops    32 x    26 x    50            158329600       0.0%    100.0%      0.0%     
 flops    26 x    32 x    50            159660800       0.0%    100.0%      0.0%     
 flops    31 x    49 x    32            163711744       0.0%    100.0%      0.0%     
 flops    52 x    64 x    32            166559744       0.0%    100.0%      0.0%     
 flops    31 x    50 x    32            167052800       0.0%    100.0%      0.0%     
 flops    32 x     9 x    26            167087232       0.0%    100.0%      0.0%     
 flops    64 x    52 x    32            167837696       0.0%    100.0%      0.0%     
 flops    26 x     9 x    32            168435072       0.0%    100.0%      0.0%     
 flops    32 x    49 x    31            171100160       0.0%    100.0%      0.0%     
 flops    26 x    26 x    22            174002400       0.0%    100.0%      0.0%     
 flops    32 x    50 x    31            174592000       0.0%    100.0%      0.0%     
 flops    31 x    22 x    22            177407296       0.0%    100.0%      0.0%     
 flops    26 x    64 x    32            179445760       0.0%    100.0%      0.0%     
 flops    32 x    64 x    26            182001664       0.0%    100.0%      0.0%     
 flops    32 x    31 x    49            185488128       0.0%    100.0%      0.0%     
 flops    31 x    32 x    49            186168640       0.0%    100.0%      0.0%     
 flops    32 x    31 x    50            188281600       0.0%    100.0%      0.0%     
 flops    31 x    32 x    50            189968000       0.0%    100.0%      0.0%     
 flops    52 x    74 x    32            190614528       0.0%    100.0%      0.0%     
 flops    74 x    52 x    32            194062336       0.0%    100.0%      0.0%     
 flops    52 x    77 x    32            199367168       0.0%    100.0%      0.0%     
 flops    32 x     9 x    31            199862208       0.0%    100.0%      0.0%     
 flops    32 x    64 x    52            200212480       0.0%    100.0%      0.0%     
 flops    31 x     9 x    32            200933568       0.0%    100.0%      0.0%     
 flops    52 x    78 x    32            201437184       0.0%    100.0%      0.0%     
 flops    77 x    52 x    32            201929728       0.0%    100.0%      0.0%     
 flops    78 x    52 x    32            204552192       0.0%    100.0%      0.0%     
 flops    31 x    26 x    22            206329552       0.0%    100.0%      0.0%     
 flops    26 x    31 x    22            207251616       0.0%    100.0%      0.0%     
 flops    26 x    74 x    32            208222976       0.0%    100.0%      0.0%     
 flops    32 x    74 x    26            211547648       0.0%    100.0%      0.0%     
 flops    31 x    64 x    32            212557824       0.0%    100.0%      0.0%     
 flops    26 x    77 x    32            215895680       0.0%    100.0%      0.0%     
 flops    26 x    78 x    32            218959104       0.0%    100.0%      0.0%     
 flops    32 x    77 x    26            219355136       0.0%    100.0%      0.0%     
 flops    32 x    78 x    26            222593280       0.0%    100.0%      0.0%     
 flops    32 x    64 x    31            224620544       0.0%    100.0%      0.0%     
 flops    32 x    74 x    52            231495680       0.0%    100.0%      0.0%     
 flops    32 x    77 x    52            240880640       0.0%    100.0%      0.0%     
 flops    32 x    78 x    52            244008960       0.0%    100.0%      0.0%     
 flops    31 x    31 x    22            244739792       0.0%    100.0%      0.0%     
 flops    31 x    74 x    32            247238144       0.0%    100.0%      0.0%     
 flops    31 x    77 x    32            255886400       0.0%    100.0%      0.0%     
 flops    32 x    74 x    31            258836608       0.0%    100.0%      0.0%     
 flops    31 x    78 x    32            259673856       0.0%    100.0%      0.0%     
 flops    32 x    77 x    31            268718912       0.0%    100.0%      0.0%     
 flops    32 x    78 x    31            272363520       0.0%    100.0%      0.0%     
 flops    52 x    52 x    32            272736256       0.0%    100.0%      0.0%     
 flops    26 x    52 x    32            292551168       0.0%    100.0%      0.0%     
 flops    32 x    52 x    26            298175488       0.0%    100.0%      0.0%     
 flops    32 x    52 x    52            321884160       0.0%    100.0%      0.0%     
 flops    26 x    32 x    52            325258752       0.0%    100.0%      0.0%     
 flops    32 x    26 x    52            325258752       0.0%    100.0%      0.0%     
 flops    31 x    52 x    32            347676160       0.0%    100.0%      0.0%     
 flops    32 x    52 x    31            363048192       0.0%    100.0%      0.0%     
 flops    32 x    22 x     9            369971712       0.0%    100.0%      0.0%     
 flops    32 x     9 x    22            370022400       0.0%    100.0%      0.0%     
 flops    22 x    22 x    32            381438464       0.0%    100.0%      0.0%     
 flops    32 x    31 x    52            387086336       0.0%    100.0%      0.0%     
 flops    31 x    32 x    52            387395840       0.0%    100.0%      0.0%     
 flops    32 x    22 x    26            415683840       0.0%    100.0%      0.0%     
 flops    26 x    22 x    32            418136576       0.0%    100.0%      0.0%     
 flops    26 x    32 x     9            435561984       0.0%    100.0%      0.0%     
 flops    32 x    26 x     9            435951360       0.0%    100.0%      0.0%     
 flops    32 x    22 x    31            490472576       0.0%    100.0%      0.0%     
 flops    31 x    22 x    32            498678400       0.0%    100.0%      0.0%     
 flops    32 x    31 x     9            517484736       0.0%    100.0%      0.0%     
 flops    31 x    32 x     9            517681152       0.0%    100.0%      0.0%     
 flops    32 x    49 x    32            848275456       0.0%    100.0%      0.0%     
 flops    32 x    50 x    32            865280000       0.0%    100.0%      0.0%     
 flops    32 x    22 x    22            915650560       0.0%    100.0%      0.0%     
 flops    32 x    32 x    49            960870400       0.0%    100.0%      0.0%     
 flops    32 x    32 x    50            974438400       0.0%    100.0%      0.0%     
 flops    32 x     9 x    32           1035583488       0.0%    100.0%      0.0%     
 flops    26 x    32 x    22           1071296512       0.0%    100.0%      0.0%     
 flops    32 x    26 x    22           1077007360       0.0%    100.0%      0.0%     
 flops    32 x    64 x    32           1104543744       0.0%    100.0%      0.0%     
 flops    31 x    32 x    22           1269196544       0.0%    100.0%      0.0%     
 flops    32 x    74 x    32           1279856640       0.0%    100.0%      0.0%     
 flops    32 x    31 x    22           1280588672       0.0%    100.0%      0.0%     
 flops    32 x    77 x    32           1329692672       0.0%    100.0%      0.0%     
 flops    32 x    78 x    32           1347600384       0.0%    100.0%      0.0%     
 flops    32 x    52 x    32           1801592832       0.0%    100.0%      0.0%     
 flops    32 x    32 x    52           2001592320       0.0%    100.0%      0.0%     
 flops    32 x    22 x    32           2573238272       0.0%    100.0%      0.0%     
 flops    32 x    32 x     9           2684270592       0.0%    100.0%      0.0%     
 flops    32 x    32 x    22           6629224448       0.0%    100.0%      0.0%     
 flops inhomo. stacks                 19038438144     100.0%      0.0%      0.0%
 flops total                        81.786579E+09      23.3%     76.7%      0.0%
 flops max/rank                      3.281934E+09      21.7%     78.3%      0.0%
 matmuls inhomo. stacks                     96960     100.0%      0.0%      0.0%
 matmuls total                            1386023       7.0%     93.0%      0.0%
 number of processed stacks                596113       3.4%     96.6%      0.0%
 average stack size                                     4.8       2.2       0.0
 marketing flops                   111.166464E+09
 -------------------------------------------------------------------------------
 # multiplications                            536
 max memory usage/rank              21.194207E+09
 # max total images/rank                        2
 # max 3D layers                                1
 # MPI messages exchanged                  222976
 MPI messages size (bytes):
  total size                         8.272006E+09
  min size                           0.000000E+00
  max size                         292.096000E+03
  average size                      37.098191E+03
 MPI breakdown and total messages size (bytes):
             size <=      128               37198                        0
       128 < size <=     8192               37020                149620880
      8192 < size <=    32768               70982               1236467840
     32768 < size <=   131072               58743               3479101344
    131072 < size <=  4194304               19033               3406815048
   4194304 < size <= 16777216                   0                        0
  16777216 < size                               0                        0
 -------------------------------------------------------------------------------

 *** WARNING in dbcsr_mm.F:301 :: Using a non-square number of MPI ranks ***
 *** might lead to poor performance. Used ranks: 32 Suggested: 36 64     ***

 -------------------------------------------------------------------------------
 -                                                                             -
 -                      DBCSR MESSAGE PASSING PERFORMANCE                      -
 -                                                                             -
 -------------------------------------------------------------------------------
 ROUTINE             CALLS      AVE VOLUME [Bytes]
 MP_Bcast              386                     12.
 MP_Allreduce         3060                     16.
 MP_Alltoall          4574                   8672.
 MP_ISend            20908                  18736.
 MP_IRecv            16410                  17904.
 -------------------------------------------------------------------------------

 -------------------------------------------------------------------------------
 -                                                                             -
 -                                GRID STATISTICS                              -
 -                                                                             -
 -------------------------------------------------------------------------------
 LP    KERNEL             BACKEND                              COUNT     PERCENT
 3     collocate ortho    CPU                                   1750      23.26%
 3     integrate ortho    CPU                                   1750      23.26%
 4     collocate ortho    CPU                                   1250      16.61%
 4     integrate ortho    CPU                                   1250      16.61%
 2     collocate ortho    CPU                                    750       9.97%
 2     integrate ortho    CPU                                    750       9.97%
 0     collocate general  CPU                                     16       0.21%
 0     integrate general  CPU                                      8       0.11%
 -------------------------------------------------------------------------------

 -------------------------------------------------------------------------------
 -                                                                             -
 -                          OFFLOAD MEMPOOL STATISTICS                         -
 -                                                                             -
 -------------------------------------------------------------------------------
 Memory consumption                Number of allocations  Used [MiB]  Size [MiB]
 Host                                                  7          48    21815783
 -------------------------------------------------------------------------------

 MEMORY| Estimated peak process memory [MiB]                                1110

 -------------------------------------------------------------------------------
 -                                                                             -
 -                         MESSAGE PASSING PERFORMANCE                         -
 -                                                                             -
 -------------------------------------------------------------------------------

 ROUTINE             CALLS      AVE VOLUME [Bytes]
 MP_Group                6
 MP_Bcast              472                 243640.
 MP_Allreduce         2796                   3700.
 MP_Sync                59
 MP_Alltoall          1108               29594994.
 MP_SendRecv          4650                 132779.
 MP_ISendRecv         4650                 132779.
 MP_Wait              9928
 MP_comm_split          60
 MP_ISend             4466                 905616.
 MP_IRecv             4466                 905556.
 -------------------------------------------------------------------------------


 -------------------------------------------------------------------------------
 -                                                                             -
 -                           R E F E R E N C E S                               -
 -                                                                             -
 -------------------------------------------------------------------------------
 
 CP2K version 2026.2 (Development Version), the CP2K developers group (2026).
 CP2K is freely available from https://www.cp2k.org/ .
 
 M. Iannuzzi, J. Wilhelm, F. Stein, A. Bussy, H. Elgabarty, D. Golze, A. Hehn, 
 M. Graml, S. Marek, B. Sertcan Gökmen, C. Schran, H. Forbert, R. Z. 
 Khaliullin, A. Kozhevnikov, M. Taillefumier, R. Meli, V. V. Rybkin, M. Brehm, 
 R. Schade, O. Schütt, J. V. Pototschnig, H. Mirhosseini, A. Knüpfer, D. Marx, 
 M. Krack, J. Hutter, T. D. Kühne.
 J. Phys. Chem. B 130, 1237-1310 (2026).
 The CP2K Program Package Made Simple.
 https://doi.org/10.1021/acs.jpcb.5c05851

 M. Graml, K. Zollner, D. Hernangómez-Pérez, P. E. Faria Junior, J. Wilhelm.
 J. Chem. Theory Comput. 20, 2202-2208 (2024).
 Low-scaling GW algorithm applied to twisted transition-metal dichalcogenide 
 heterobilayers.
 https://doi.org/10.1021/acs.jctc.3c01230

 T. D. Kühne, M. Iannuzzi, M. Del Ben, V. V. Rybkin, P. Seewald, F. Stein, T. 
 Laino, R. Z. Khaliullin, O. Schütt, F. Schiffmann, D. Golze, J. Wilhelm, S. 
 Chulkov, M. H. Bani-Hashemian, V. Weber, U. Borstnik, M. Taillefumier, A. S. 
 Jakobovits, A. Lazzaro, H. Pabst, T. Müller, R. Schade, M. Guidon, S. 
 Andermatt, N. Holmberg, G. K. Schenter, A. Hehn, A. Bussy, F. Belleflamme, G. 
 Tabacchi, A. Glöß, M. Lass, I. Bethune, C. J. Mundy, C. Plessl, M. Watkins, 
 J. VandeVondele, M. Krack, J. Hutter.
 J. Chem. Phys. 152, 194103 (2020).
 CP2K: An electronic structure and molecular dynamics software package - 
 Quickstep: Efficient and accurate electronic structure calculations.
 https://doi.org/10.1063/5.0007045

 O. Schuett, P. Messmer, J. Hutter, J. VandeVondele.
 Electronic Structure Calculations on Graphics Processing Units, 173-190 (2016).
 GPU-Accelerated Sparse Matrix-Matrix Multiplication for Linear Scaling Density 
 Functional Theory.
 https://doi.org/10.1002/9781118670712.ch8

 U. Borstnik, J. VandeVondele, V. Weber, J. Hutter.
 Parallel Comput. 40, 47-58 (2014).
 Sparse matrix multiplication: The distributed block-compressed sparse row 
 library.
 https://doi.org/10.1016/j.parco.2014.03.012

 J. VandeVondele, J. Hutter.
 J. Chem. Phys. 127, 114105 (2007).
 Gaussian basis sets for accurate calculations on molecular systems in gas and 
 condensed phases.
 https://doi.org/10.1063/1.2770708

 J. VandeVondele, M. Krack, F. Mohamed, M. Parrinello, T. Chassaing, J. Hutter.
 Comput. Phys. Commun. 167, 103-128 (2005).
 QUICKSTEP: Fast and accurate density functional calculations using a mixed 
 Gaussian and plane waves approach.
 https://doi.org/10.1016/j.cpc.2004.12.014

 M. Krack.
 Theor. Chem. Acc. 114, 145-152 (2005).
 Pseudopotentials for H to Kr optimized for gradient-corrected 
 exchange-correlation functionals.
 https://doi.org/10.1007/s00214-005-0655-y

 M. Frigo, S. G. Johnson.
 Proc. IEEE 93, 216-231 (2005).
 The design and implementation of FFTW3.
 https://doi.org/10.1109/JPROC.2004.840301

 C. Hartwigsen, S. Goedecker, J. Hutter.
 Phys. Rev. B 58, 3641-3662 (1998).
 Relativistic separable dual-space Gaussian pseudopotentials from H to Rn.
 https://doi.org/10.1103/PhysRevB.58.3641

 G. Lippert, J. Hutter, M. Parrinello.
 Mol. Phys. 92, 477-487 (1997).
 A hybrid Gaussian and plane wave density functional scheme.
 https://doi.org/10.1080/002689797170220

 S. Goedecker, M. Teter, J. Hutter.
 Phys. Rev. B 54, 1703-1710 (1996).
 Separable dual-space Gaussian pseudopotentials.
 https://doi.org/10.1103/PhysRevB.54.1703

 J. P. Perdew, K. Burke, M. Ernzerhof.
 Phys. Rev. Lett. 77, 3865-3868 (1996).
 Generalized gradient approximation made simple.
 https://doi.org/10.1103/PhysRevLett.77.3865

 P. E. Blöchl.
 J. Chem. Phys. 103, 7422-7428 (1995).
 Electrostatic decoupling of periodic images of plane‐wave‐expanded 
 densities and derived atomic point charges.
 https://doi.org/10.1063/1.470314

 R. H. Byrd, P. H. Lu, J. Nocedal, C. Y. Zhu.
 SIAM J. Sci. Comput. 16, 1190-1208 (1995).
 A Limited Memory Algorithm for Bound Constrained Optimization.
 https://doi.org/10.1137/0916069

 C. G. Broyden.
 Math. Comput. 19, 577-593 (1965).
 A class of methods for solving nonlinear simultaneous equations.
 https://doi.org/10.1090/S0025-5718-1965-0198670-6


 -------------------------------------------------------------------------------
 -                                                                             -
 -                                T I M I N G                                  -
 -                                                                             -
 -------------------------------------------------------------------------------
 SUBROUTINE                       CALLS  ASD         SELF TIME        TOTAL TIME
                                MAXIMUM       AVERAGE  MAXIMUM  AVERAGE  MAXIMUM
 CP2K                                 1  1.0    0.104    0.108  208.378  208.378
 qs_energies                          1  2.0    0.014    0.014  207.675  207.676
 qs_energies_properties               1  3.0    0.001    0.001  156.014  156.014
 post_scf_bandstructure               1  4.0    0.001    0.001  156.012  156.013
 run_gw                               1  5.0    0.000    0.001  155.937  155.948
 gw_calc_ri_rs_non_periodic           1  6.0    0.009    0.010  154.644  154.654
 mp_sum_d                          1324  6.2  132.179  154.185  132.179  154.185
 optimize_ri_rs_grid                  1  7.0    0.001    0.001  153.621  153.631
 rirs_grid_LBFGS                      1  8.0    0.588    3.052  153.140  153.286
 evaluate_rirs_grid_cluster         301  9.0    1.388    8.697   21.014  149.211
 scf_env_do_scf                       1  3.0    0.002    0.002   50.925   50.925
 scf_env_do_scf_inner_loop           49  4.0    0.008    0.010   50.922   50.922
 rirs_cluster_gradient_products     301 10.0    6.784   48.754    6.784   48.754
 qs_ks_build_kohn_sham_matrix        50  7.0    0.030    0.035   31.234   31.251
 qs_ks_update_qs_env                 49  5.0    0.001    0.001   31.028   31.045
 rebuild_ks_matrix                   49  6.0    0.001    0.001   31.024   31.040
 fft_wrap_pw1pw2                    992 10.0    0.019    0.023   25.056   25.431
 rirs_cluster_gradient_coordina     301 10.0    3.970   24.886    3.970   24.886
 fft_wrap_pw1pw2_300                592 11.4    1.610    1.924   24.153   24.725
 rirs_cluster_D_ll                  301 10.0    2.979   23.473    2.979   23.473
 qs_vxc_create                       50  8.0    0.006    0.006   20.468   20.623
 xc_vxc_pw_create                    49  9.0    0.265    0.344   20.462   20.618
 fft3d_ps                           992 12.0   10.049   10.691   17.894   18.374
 rirs_cluster_residual              301 10.0    2.360   17.639    2.360   17.639
 rirs_cluster_d_lP                  301 10.0    1.916   15.200    1.916   15.200
 xc_pw_derive                       294 11.0    0.003    0.003   14.660   15.029
 qs_rho_update_rho_low               50  5.0    0.000    0.000   11.267   11.271
 calculate_rho_elec                  50  6.0    0.158    0.168   11.267   11.271
 rirs_cluster_AO_products           301 10.0    1.617   10.563    1.617   10.563
 xc_rho_set_and_dset_create          49 10.0    0.377    0.483   10.257   10.527
 xc_pw_divergence                    49 10.0    0.002    0.002    9.663   10.007
 gspace_mixing                       48  5.0    0.153    0.163    8.396    8.396
 density_rs2pw                       50  7.0    0.010    0.011    6.463    6.641
 broyden_mixing                      48  6.0    6.034    6.102    6.213    6.228
 mp_alltoall_z22v                   992 14.0    5.285    6.145    5.285    6.145
 sum_up_and_integrate                50  8.0    0.002    0.002    5.268    5.287
 integrate_v_rspace                  50  9.0    0.002    0.002    5.175    5.196
 potential_pw2rs                     50 10.0    0.010    0.011    5.075    5.087
 x_to_yz                            544 13.4    1.607    2.311    4.391    4.910
 grid_collocate_task_list            50  7.0    4.455    4.606    4.455    4.606
 -------------------------------------------------------------------------------

 The number of warnings for this run is : 1
 
 -------------------------------------------------------------------------------
  **** **** ******  **  PROGRAM ENDED AT                 2026-09-18 04:47:00.383
 ***** ** ***  *** **   PROGRAM RAN ON                                  n2cn0768
 **    ****   ******    PROGRAM RAN BY                                  eprop2d1
 ***** **    ** ** **   PROGRAM PROCESS ID                                335986
  **** **  *******  **  PROGRAM STOPPED IN /scratch/hpc-prf-metdyn/eprop2d1_Jan/
                                           53_benchmark_RI_opt/129_GW100_Si293_A
                                           O_frontier_optimization_coopfst/recov
                                           ery/followup_stage4/97_urea/dzvp_t1
