 DBCSR| CPU Multiplication driver                                           XSMM (U)
 DBCSR| Multrec recursion limit                                              512 (U)
 DBCSR| Multiplication stack size                                           1000 (D)
 DBCSR| Maximum elements for images                                    UNLIMITED (U)
 DBCSR| Multiplicative factor virtual images                                   1 (U)
 DBCSR| Use multiplication densification                                       T (D)
 DBCSR| Multiplication size stacks                                             3 (U)
 DBCSR| Use memory pool for CPU allocation                                     F (U)
 DBCSR| Number of 3D layers                                               SINGLE (U)
 DBCSR| Use MPI memory allocation                                              F (U)
 DBCSR| Use RMA algorithm                                                      F (U)
 DBCSR| Use Communication thread                                               T (U)
 DBCSR| Communication thread load                                             60 (D)
 DBCSR| MPI: My process id                                                     0
 DBCSR| MPI: Number of processes                                              48
 DBCSR| OMP: Current number of threads                                         8
 DBCSR| OMP: Max number of threads                                             8
 DBCSR| Split modifier for TAS multiplication algorithm                  1.0E+00 (U)


  **** **** ******  **  PROGRAM STARTED AT               2026-10-02 05:31:55.444
 ***** ** ***  *** **   PROGRAM STARTED ON                              n2cn0954
 **    ****   ******    PROGRAM STARTED BY                              eprop2d1
 ***** **    ** ** **   PROGRAM PROCESS ID                               1316858
  **** **  *******  **  PROGRAM STARTED IN /scratch/hpc-prf-metdyn/eprop2d1_Jan/
                                           53_benchmark_RI_opt/405_figure4_phosp
                                           horene_eps1e10_20261001/h60_rc3_ri4_r
                                           s06_e10

 CP2K| version string:                 CP2K version 2026.2 (Development Version)
 CP2K| source code revision number:                                   d1dff42668
 CP2K| cp2kflags: omp libint fftw3 libxc parallel scalapack mpi_f08 cosma libxs 
 CP2K|            libxsmm spglib openblas libdftd4 s_dftd3 mctc-lib tblite libvo
 CP2K|            ori libbqb
 CP2K| is freely available from                            https://www.cp2k.org/
 CP2K| Program compiled at                                   2026-09-18 06:02:26
 CP2K| Program compiled on                                              n2login6
 CP2K| Program compiled for                                               x86_64
 CP2K| Data directory path    /scratch/hpc-prf-metdyn/eprop2d1_Jan/53_benchmark_
 CP2K| Input file name        /scratch/hpc-prf-metdyn/eprop2d1_Jan/53_benchmark_
 
 eprop2d1@n2cn0954 has created rank and process                      0   1316858
 eprop2d1@n2cn0954 has created rank and process                      1   1316859
 eprop2d1@n2cn0954 has created rank and process                      2   1316860
 eprop2d1@n2cn0954 has created rank and process                      3   1316861
 eprop2d1@n2cn0954 has created rank and process                      4   1316862
 eprop2d1@n2cn0954 has created rank and process                      5   1316863
 eprop2d1@n2cn0954 has created rank and process                      6   1316864
 eprop2d1@n2cn0954 has created rank and process                      7   1316865
 eprop2d1@n2cn0954 has created rank and process                      8   1316866
 eprop2d1@n2cn0954 has created rank and process                      9   1316867
 eprop2d1@n2cn0954 has created rank and process                     10   1316868
 eprop2d1@n2cn0954 has created rank and process                     11   1316869
 eprop2d1@n2cn0954 has created rank and process                     12   1316870
 eprop2d1@n2cn0954 has created rank and process                     13   1316871
 eprop2d1@n2cn0954 has created rank and process                     14   1316872
 eprop2d1@n2cn0954 has created rank and process                     15   1316873
 eprop2d1@n2cn0988 has created rank and process                     16    962820
 eprop2d1@n2cn0988 has created rank and process                     17    962821
 eprop2d1@n2cn0988 has created rank and process                     18    962822
 eprop2d1@n2cn0988 has created rank and process                     19    962823
 eprop2d1@n2cn0988 has created rank and process                     20    962824
 eprop2d1@n2cn0988 has created rank and process                     21    962825
 eprop2d1@n2cn0988 has created rank and process                     22    962826
 eprop2d1@n2cn0988 has created rank and process                     23    962827
 eprop2d1@n2cn0988 has created rank and process                     24    962828
 eprop2d1@n2cn0988 has created rank and process                     25    962829
 eprop2d1@n2cn0988 has created rank and process                     26    962830
 eprop2d1@n2cn0988 has created rank and process                     27    962831
 eprop2d1@n2cn0988 has created rank and process                     28    962832
 eprop2d1@n2cn0988 has created rank and process                     29    962833
 eprop2d1@n2cn0988 has created rank and process                     30    962834
 eprop2d1@n2cn0988 has created rank and process                     31    962835
 eprop2d1@n2cn0989 has created rank and process                     32   1014516
 eprop2d1@n2cn0989 has created rank and process                     33   1014517
 eprop2d1@n2cn0989 has created rank and process                     34   1014518
 eprop2d1@n2cn0989 has created rank and process                     35   1014519
 eprop2d1@n2cn0989 has created rank and process                     36   1014520
 eprop2d1@n2cn0989 has created rank and process                     37   1014521
 eprop2d1@n2cn0989 has created rank and process                     38   1014522
 eprop2d1@n2cn0989 has created rank and process                     39   1014523
 eprop2d1@n2cn0989 has created rank and process                     40   1014524
 eprop2d1@n2cn0989 has created rank and process                     41   1014525
 eprop2d1@n2cn0989 has created rank and process                     42   1014526
 eprop2d1@n2cn0989 has created rank and process                     43   1014527
 eprop2d1@n2cn0989 has created rank and process                     44   1014528
 eprop2d1@n2cn0989 has created rank and process                     45   1014529
 eprop2d1@n2cn0989 has created rank and process                     46   1014530
 eprop2d1@n2cn0989 has created rank and process                     47   1014531
 
 eprop2d1@n2cn0954 is running                                       16 processes
 eprop2d1@n2cn0988 is running                                       16 processes
 eprop2d1@n2cn0989 is running                                       16 processes

 GLOBAL| Force Environment number                                              1
 GLOBAL| Basis set file name            /scratch/hpc-prf-metdyn/eprop2d1_Jan/53_
 GLOBAL| Potential file name            /scratch/hpc-prf-metdyn/eprop2d1_Jan/53_
 GLOBAL| MM Potential file name                                     MM_POTENTIAL
 GLOBAL| Coordinate file name           /scratch/hpc-prf-metdyn/eprop2d1_Jan/53_
 GLOBAL| Method name                                                        CP2K
 GLOBAL| Project name                                       h60_rc3_ri4_rs06_e10
 GLOBAL| Run type                                                         ENERGY
 GLOBAL| FFT library                                                       FFTW3
 GLOBAL| Diagonalization library                                       ScaLAPACK
 GLOBAL| Cholesky decomposition library                                ScaLAPACK
 GLOBAL| DGEMM library                                                      BLAS
 GLOBAL| Direct generalized diagonalization requested                          F
 GLOBAL| Orthonormality check for eigenvectors                          DISABLED
 GLOBAL| Matrix multiplication library                                     COSMA
 GLOBAL| All-to-all communication in single precision                          F
 GLOBAL| Grid backend                                                       AUTO
 GLOBAL| Global print level                                                  LOW
 GLOBAL| MPI I/O enabled                                                       T
 GLOBAL| Total number of message passing processes                            48
 GLOBAL| Number of distributed systems (nodes)                                 3
 GLOBAL| Number of threads for this process                                    8
 GLOBAL| This output is from process                                           0
 GLOBAL| OpenMP stack size per thread (OMP_STACKSIZE)                       512M
 GLOBAL| CPU model name                          AMD EPYC 7763 64-Core Processor
 GLOBAL| CPUID                                                              1002
 GLOBAL| Compiled for CPUID                                                    0

 *** HINT in environment.F:968 :: The compiler target (generic) used to ***
 *** build this binary does not enable all instruction-set extensions   ***
 *** available on this CPU (x86_avx2). Consider reconfiguring and       ***
 *** rebuilding CP2K for this target system to enable them.             ***


 MEMORY| system memory details [Kb]
 MEMORY|                        rank 0           min           max       average
 MEMORY| MemTotal            263897600     263897592     263897600     263897594
 MEMORY| MemFree             233950276     233950276     248176356     243144357
 MEMORY| Buffers                139928        139928        250784        193320
 MEMORY| Cached               19986944       6968180      19986944      11510385
 MEMORY| Slab                  2611808       1531568       2611808       1917914
 MEMORY| SReclaimable           323112        262584        323112        292692
 MEMORY| MemLikelyFree       254400260     254400260     255596368     255140755


 GENERATE|  Preliminary Number of Bonds generated:                             0
 GENERATE|  Achieved consistency in connectivity generation.

 *******************************************************************************
 *******************************************************************************
 **                                                                           **
 **     #####                         ##              ##                      **
 **    ##   ##            ##          ##              ##                      **
 **   ##     ##                       ##            ######                    **
 **   ##     ##  ##   ##  ##   #####  ##  ##   ####   ##    #####    #####    **
 **   ##     ##  ##   ##  ##  ##      ## ##   ##      ##   ##   ##  ##   ##   **
 **   ##  ## ##  ##   ##  ##  ##      ####     ###    ##   ######   ######    **
 **    ##  ###   ##   ##  ##  ##      ## ##      ##   ##   ##       ##        **
 **     #######   #####   ##   #####  ##  ##  ####    ##    #####   ##        **
 **           ##                                                    ##        **
 **                                                                           **
 **                                                ... make the atoms dance   **
 **                                                                           **
 **            Copyright (C) by CP2K developers group (2000-2026)             **
 **                      J. Chem. Phys. 152, 194103 (2020)                    **
 **                                                                           **
 *******************************************************************************


 TOTAL NUMBERS AND MAXIMUM NUMBERS

  Total number of            - Atomic kinds:                                   2
                             - Atoms:                                        460
                             - Shell sets:                                   460
                             - Shells:                                      2240
                             - Primitive Cartesian functions:               2420
                             - Cartesian basis functions:                   5960
                             - Spherical basis functions:                   5560

  Maximum angular momentum of- Orbital basis functions:                        2
                             - Local part of the GTH pseudopotential:          2
                             - Non-local part of the GTH pseudopotential:      2


 SCF PARAMETERS         Density guess:                                   RESTART
                        --------------------------------------------------------
                        max_scf:                                             500
                        max_scf_history:                                       0
                        max_diis:                                              4
                        --------------------------------------------------------
                        eps_scf:                                        1.00E-08
                        eps_scf_history:                                0.00E+00
                        eps_diis:                                       0.00E+00
                        eps_eigval:                                     1.00E-05
                        --------------------------------------------------------
                        level_shift [a.u.]:                             0.000000
                        --------------------------------------------------------
                        Outer loop SCF in use 
                        No variables optimised in outer loop
                        eps_scf                                         1.00E-08
                        max_scf                                               20
                        No outer loop optimization
                        step_size                                       5.00E-01

 Extrapolation method: initial_guess

 Number of electrons:                                                       2060
 Number of occupied orbitals:                                               1030
 Number of molecular orbitals:                                              1030

 Number of orbital functions:                                               5560
 Number of independent orbital functions:                                   5560


 SCF WAVEFUNCTION OPTIMIZATION

  ----------------------------------- OT ---------------------------------------
  Minimizer      : DIIS                : direct inversion
                                         in the iterative subspace
                                         using   7 DIIS vectors
                                         safer DIIS on
  Preconditioner : FULL_KINETIC        : inversion of T + eS
  Lattice FFT   : OFF
  Precond_solver : DEFAULT
  stepsize       :    0.15000000                  energy_gap     :    0.20000000
  eps_taylor     :   0.10000E-15                  max_taylor     :             4
  ----------------------------------- OT ---------------------------------------

  Step     Update method      Time    Convergence         Total energy    Change
  ------------------------------------------------------------------------------
     1 OT DIIS     0.15E+00    5.0     6.3840E-09     -2666.5857629649 -2.67E+03

  *** SCF run converged in     1 steps ***


  Electronic density on regular grids:      -2060.0000000000       -0.0000000000
  Core density on regular grids:             2059.9999999969       -0.0000000031
  Total charge density on r-space grids:       -0.0000000031
  Total charge density g-space grids:          -0.0000000031

  Overlap energy of the core charge distribution:               0.00000116467783
  Self energy of the core charge distribution:              -6644.97243227351646
  Core Hamiltonian energy:                                   1438.48712859643365
  Hartree energy:                                            3228.65074891758331
  Exchange-correlation energy:                               -688.75120937007853

  Total energy:                                             -2666.58576296489991

  outer SCF iter =    1 RMS gradient =   0.64E-08 energy =      -2666.5857629649
  outer SCF loop converged in   1 iterations or    1 steps

  
 -------------------------------------------------------------------------------
 -                                                                             -
 -                          BANDSTRUCTURE CALCULATION                          -
 -                                                                             -
 -------------------------------------------------------------------------------
  
 Number of occupied molecular orbitals (MOs) = Number of occupied bands     1030
 Number of unoccupied (= virtual) MOs = Number of unoccupied bands          4530
 Number of Gaussian basis functions for MOs                                 5560
  
 -------------------------------------------------------------------------------
 -                                                                             -
 -                                GW CALCULATION                               -
 -                                                                             -
 -------------------------------------------------------------------------------
  
 Input: Number of time/freq. points                                           30
 Input: ω_max for fitting Σ(iω) (eV)                                        10.0
 Input: Filter threshold for sparse tensor operations                    1.0E-10
 Input: Apply Hedin shift                                                      F
 Detected: Available memory per MPI process                              14.3 GB
 
 Input: RI-RS Tikhonov regularization                                   1.00E-08
 Input: AO grid hard cutoff radius                                        8.00 Å
 Input: MPI ranks per atom in Z_lP solve                                      -1
 Input: Keep sparsity in χ/G/W panels                                          T
 Input: GW flavour                                                          G0W0
 
 Input: RI-RS grid optimization activated                                      T
 Input: RS points per AO function                                            6.0
 Input: Cutoff radius for atomic clusters                                  3.0 Å
 Input: Maximum grid optimization iterations                                 100
 
 Input: AUTO_RI basis optimization activated:                                  T
 Input: AUTO_RI number of RI functions per AO function:                      4.0
 Input: AUTO_RI frontier orbital window:                                  5.0 eV
 Input: AUTO_RI neighbor radius:                                           3.0 Å
 
 Cutoff radius for the truncated Coulomb operator in RI metric:            6.0 Å
 Regularization parameter of RI                                          0.0E+00
 Regularization parameter of minimax grids                               1.0E-06
 
 AUTO_RI| Number of automatic RI functions for χ, ε, W:                    22240
 AUTO_RI| Total RI basis optimization time:                              150.1 s
 
 SCF direct band gap (eV)                                                   1.12
 Max. SCF eigval diff. (eV)                                               101.94
 E-Range for minimax grid                                                  91.36
 Number of Padé parameters for analytic continuation:                         16
 
 RI-RS basis radii (Å):
     Kind  Elem     r_AO (Å)     r_RI (Å)
        1    H        11.3560        7.1821
        2    P         8.1109        5.7991
 
 Started RI-RS grid optimization
 RI-RS grid initial normalized error                          1.721717114911E-03
 RI-RS grid optimization completed, execution time:                       33.7 s
 Normalized 3C error:                                                    1.4E-06
 Maximum absolute 3C error:                                              9.5E-03
 Optimized points outside molecular Voronoi cells:                         13841 / 33360
 Total grid points used for RI-RS:                                         33360
 
 RI-RS grid row-blocks of ϕ_μ(r_l)                                          1320
 RI-RS grid points per block (max)                                            32
 
 Percentage of non-zero matrix elements in ϕ_μ(r_l)                      15.30 %
 
 RI-RS memory estimate per MPI process:
   Available memory per process (system)                                14.79 GB
   Required for Z_lP (dense upper bound; actual is sparser)              0.12 GB
   Required for χ, W, Σ panels (peak per panel step)                     0.89 GB
   Required for Z_lP solve peak (D_local+ϕ, worst-case atom)             0.96 GB
   Worst-case local-grid number of grid points:                             8845
   Worst-case memory D_local:                                            0.63 GB
 
 Started computing Z_lP
 Computed Z_lP (MPI rank 0) for atom          1 / 10,    Execution time    2.4 s
 Computed Z_lP (MPI rank 0) for atom          2 / 10,    Execution time    2.1 s
 Computed Z_lP (MPI rank 0) for atom          3 / 10,    Execution time    5.1 s
 Computed Z_lP (MPI rank 0) for atom          4 / 10,    Execution time    6.1 s
 Computed Z_lP (MPI rank 0) for atom          5 / 10,    Execution time    7.7 s
 Computed Z_lP (MPI rank 0) for atom          6 / 10,    Execution time    7.1 s
 Computed Z_lP (MPI rank 0) for atom          7 / 10,    Execution time    7.3 s
 Computed Z_lP (MPI rank 0) for atom          8 / 10,    Execution time    3.5 s
 Computed Z_lP (MPI rank 0) for atom          9 / 10,    Execution time    7.6 s
 Computed Z_lP (MPI rank 0) for atom         10 / 10,    Execution time    6.7 s
 Computed Z_lP (all MPI ranks) for all atoms,            Execution time  119.8 s

 Memory per MPI process after computing Z_lP:
 Available memory per MPI process                               14.7 GB
 Used memory per MPI process                                     2.2 GB
 Number of batches for χ, Σ matrices                                           1
 
 Percentage of non-zero matrix elements in Z_lP                          35.30 %
 Percentage of non-zero matrix elements in G_ll', χ_ll', W_ll'          100.00 %
 Percentage of non-zero matrix elements in χ_PQ for time point 1         99.43 %
 
 Computed χ(iτ,k=0) for time point            1 / 30,    Execution time    6.9 s
 Computed χ(iτ,k=0) for time point            2 / 30,    Execution time    6.7 s
 Computed χ(iτ,k=0) for time point            3 / 30,    Execution time    6.8 s
 Computed χ(iτ,k=0) for time point            4 / 30,    Execution time    6.8 s
 Computed χ(iτ,k=0) for time point            5 / 30,    Execution time    6.8 s
 Computed χ(iτ,k=0) for time point            6 / 30,    Execution time    6.8 s
 Computed χ(iτ,k=0) for time point            7 / 30,    Execution time    6.8 s
 Computed χ(iτ,k=0) for time point            8 / 30,    Execution time    6.8 s
 Computed χ(iτ,k=0) for time point            9 / 30,    Execution time    6.8 s
 Computed χ(iτ,k=0) for time point           10 / 30,    Execution time    6.8 s
 Computed χ(iτ,k=0) for time point           11 / 30,    Execution time    6.8 s
 Computed χ(iτ,k=0) for time point           12 / 30,    Execution time    6.8 s
 Computed χ(iτ,k=0) for time point           13 / 30,    Execution time    6.7 s
 Computed χ(iτ,k=0) for time point           14 / 30,    Execution time    6.7 s
 Computed χ(iτ,k=0) for time point           15 / 30,    Execution time    6.7 s
 Computed χ(iτ,k=0) for time point           16 / 30,    Execution time    6.6 s
 Computed χ(iτ,k=0) for time point           17 / 30,    Execution time    6.5 s
 Computed χ(iτ,k=0) for time point           18 / 30,    Execution time    6.3 s
 Computed χ(iτ,k=0) for time point           19 / 30,    Execution time    5.9 s
 Computed χ(iτ,k=0) for time point           20 / 30,    Execution time    5.2 s
 Computed χ(iτ,k=0) for time point           21 / 30,    Execution time    4.0 s
 Computed χ(iτ,k=0) for time point           22 / 30,    Execution time    3.3 s
 Computed χ(iτ,k=0) for time point           23 / 30,    Execution time    3.1 s
 Computed χ(iτ,k=0) for time point           24 / 30,    Execution time    2.5 s
 Computed χ(iτ,k=0) for time point           25 / 30,    Execution time    0.8 s
 Computed χ(iτ,k=0) for time point           26 / 30,    Execution time    0.8 s
 Computed χ(iτ,k=0) for time point           27 / 30,    Execution time    0.8 s
 Computed χ(iτ,k=0) for time point           28 / 30,    Execution time    0.8 s
 Computed χ(iτ,k=0) for time point           29 / 30,    Execution time    0.8 s
 Computed χ(iτ,k=0) for time point           30 / 30,    Execution time    0.8 s
 
 Computed W(iτ),                                         Execution time  767.3 s
 
 Computed Σ^x(k=0),                                      Execution time   13.7 s
 
 Computed Σ^c(iτ) for time point              1 / 30,    Execution time    9.3 s
 Computed Σ^c(iτ) for time point              2 / 30,    Execution time    9.4 s
 Computed Σ^c(iτ) for time point              3 / 30,    Execution time    9.3 s
 Computed Σ^c(iτ) for time point              4 / 30,    Execution time    9.4 s
 Computed Σ^c(iτ) for time point              5 / 30,    Execution time    9.3 s
 Computed Σ^c(iτ) for time point              6 / 30,    Execution time    9.3 s
 Computed Σ^c(iτ) for time point              7 / 30,    Execution time    9.3 s
 Computed Σ^c(iτ) for time point              8 / 30,    Execution time    9.3 s
 Computed Σ^c(iτ) for time point              9 / 30,    Execution time    9.3 s
 Computed Σ^c(iτ) for time point             10 / 30,    Execution time    9.3 s
 Computed Σ^c(iτ) for time point             11 / 30,    Execution time    9.2 s
 Computed Σ^c(iτ) for time point             12 / 30,    Execution time    9.3 s
 Computed Σ^c(iτ) for time point             13 / 30,    Execution time    9.2 s
 Computed Σ^c(iτ) for time point             14 / 30,    Execution time    9.2 s
 Computed Σ^c(iτ) for time point             15 / 30,    Execution time    9.2 s
 Computed Σ^c(iτ) for time point             16 / 30,    Execution time    9.1 s
 Computed Σ^c(iτ) for time point             17 / 30,    Execution time    9.0 s
 Computed Σ^c(iτ) for time point             18 / 30,    Execution time    8.8 s
 Computed Σ^c(iτ) for time point             19 / 30,    Execution time    8.7 s
 Computed Σ^c(iτ) for time point             20 / 30,    Execution time    8.7 s
 Computed Σ^c(iτ) for time point             21 / 30,    Execution time    8.4 s
 Computed Σ^c(iτ) for time point             22 / 30,    Execution time    8.3 s
 Computed Σ^c(iτ) for time point             23 / 30,    Execution time    8.2 s
 Computed Σ^c(iτ) for time point             24 / 30,    Execution time    7.3 s
 Computed Σ^c(iτ) for time point             25 / 30,    Execution time    1.9 s
 Computed Σ^c(iτ) for time point             26 / 30,    Execution time    0.9 s
 Computed Σ^c(iτ) for time point             27 / 30,    Execution time    0.9 s
 Computed Σ^c(iτ) for time point             28 / 30,    Execution time    0.9 s
 Computed Σ^c(iτ) for time point             29 / 30,    Execution time    0.9 s
 Computed Σ^c(iτ) for time point             30 / 30,    Execution time    0.9 s
 
 SCF valence band maximum (eV):                                           -4.409
 SCF conduction band minimum (eV):                                        -3.294
 SCF indirect band gap (eV):                                               1.116
 SCF direct band gap (eV):                                                 1.116
 
 G0W0 valence band maximum (eV):                                          -4.677
 G0W0 conduction band minimum (eV):                                       -2.198
 G0W0 indirect band gap (eV):                                              2.479
 G0W0 direct band gap (eV):                                                2.479
 
 Hartree-Fock with SCF orbitals valence band maximum (eV):                -5.872
 Hartree-Fock with SCF orbitals conduction band minimum (eV)               0.030
 Hartree-Fock with SCF orbitals indirect band gap (eV):                    5.902
 Hartree-Fock with SCF orbitals direct band gap (eV):                      5.902

 ENERGY| Total FORCE_EVAL ( QS ) energy [hartree]          -2666.585762964899914

 -------------------------------------------------------------------------------
 -                                                                             -
 -                                DBCSR STATISTICS                             -
 -                                                                             -
 -------------------------------------------------------------------------------
 COUNTER                                    TOTAL       BLAS       SMM       ACC
 flops     4 x    31 x    75               297600       0.0%    100.0%      0.0%     
 flops    38 x    70 x    70               372400       0.0%    100.0%      0.0%     
 flops     4 x    52 x    75               530400       0.0%    100.0%      0.0%     
 flops     4 x    45 x    76               601920       0.0%    100.0%      0.0%     
 flops    64 x    70 x    70               627200       0.0%    100.0%      0.0%     
 flops     4 x    41 x    75              1008600       0.0%    100.0%      0.0%     
 flops    38 x    64 x    70              1021440       0.0%    100.0%      0.0%     
 flops    38 x    70 x    64              1021440       0.0%    100.0%      0.0%     
 flops     4 x    41 x    76              1146688       0.0%    100.0%      0.0%     
 flops     4 x    45 x    75              1377000       0.0%    100.0%      0.0%     
 flops     4 x    50 x    77              1509200       0.0%    100.0%      0.0%     
 flops    64 x    64 x    70              1720320       0.0%    100.0%      0.0%     
 flops    64 x    70 x    64              1720320       0.0%    100.0%      0.0%     
 flops    91 x    70 x    70              2675400       0.0%    100.0%      0.0%     
 flops    38 x    64 x    64              2801664       0.0%    100.0%      0.0%     
 flops    97 x    70 x    70              2851800       0.0%    100.0%      0.0%     
 flops     4 x    52 x    77              3043040       0.0%    100.0%      0.0%     
 flops   116 x    70 x    70              3410400       0.0%    100.0%      0.0%     
 flops     6 x     6 x     6              3462912       0.0%    100.0%      0.0%     
 flops   123 x    70 x    70              3616200       0.0%    100.0%      0.0%     
 flops     4 x    53 x    76              3963552       0.0%    100.0%      0.0%     
 flops    38 x    96 x    70              4085760       0.0%    100.0%      0.0%     
 flops    38 x    70 x    96              4085760       0.0%    100.0%      0.0%     
 flops    64 x    64 x    64              4718592       0.0%    100.0%      0.0%     
 flops   162 x    70 x    70              4762800       0.0%    100.0%      0.0%     
 flops   168 x    70 x    70              4939200       0.0%    100.0%      0.0%     
 flops    64 x    70 x    96              6881280       0.0%    100.0%      0.0%     
 flops    64 x    96 x    70              6881280       0.0%    100.0%      0.0%     
 flops     6 x     6 x    70              6985440       0.0%    100.0%      0.0%     
 flops     4 x    52 x    76              7208448       0.0%    100.0%      0.0%     
 flops    91 x    64 x    70              7338240       0.0%    100.0%      0.0%     
 flops    91 x    70 x    64              7338240       0.0%    100.0%      0.0%     
 flops    97 x    64 x    70              7822080       0.0%    100.0%      0.0%     
 flops    97 x    70 x    64              7822080       0.0%    100.0%      0.0%     
 flops    32 x    70 x    70              8467200       0.0%    100.0%      0.0%     
 flops   116 x    64 x    70              9354240       0.0%    100.0%      0.0%     
 flops   116 x    70 x    64              9354240       0.0%    100.0%      0.0%     
 flops   123 x    64 x    70              9918720       0.0%    100.0%      0.0%     
 flops   123 x    70 x    64              9918720       0.0%    100.0%      0.0%     
 flops   174 x    70 x    70             10231200       0.0%    100.0%      0.0%     
 flops   175 x    70 x    70             10290000       0.0%    100.0%      0.0%     
 flops    14 x    31 x    75             10741500       0.0%    100.0%      0.0%     
 flops   188 x    70 x    70             11054400       0.0%    100.0%      0.0%     
 flops    38 x    96 x    64             11206656       0.0%    100.0%      0.0%     
 flops    38 x    64 x    96             11206656       0.0%    100.0%      0.0%     
 flops     4 x    41 x     4             11246464       0.0%    100.0%      0.0%     
 flops   162 x    64 x    70             13063680       0.0%    100.0%      0.0%     
 flops   162 x    70 x    64             13063680       0.0%    100.0%      0.0%     
 flops   168 x    64 x    70             13547520       0.0%    100.0%      0.0%     
 flops   168 x    70 x    64             13547520       0.0%    100.0%      0.0%     
 flops    38 x    70 x   453             14459760       0.0%    100.0%      0.0%     
 flops    14 x    52 x    75             15506400       0.0%    100.0%      0.0%     
 flops    64 x    64 x    96             18874368       0.0%    100.0%      0.0%     
 flops    64 x    96 x    64             18874368       0.0%    100.0%      0.0%     
 flops     6 x     6 x    64             19160064       0.0%    100.0%      0.0%     
 flops     4 x    33 x     4             20127360       0.0%    100.0%      0.0%     
 flops    91 x    64 x    64             20127744       0.0%    100.0%      0.0%     
 flops    97 x    64 x    64             21454848       0.0%    100.0%      0.0%     
 flops    91 x    70 x   453             23084880       0.0%    100.0%      0.0%     
 flops    32 x    64 x    70             23224320       0.0%    100.0%      0.0%     
 flops    32 x    70 x    64             23224320       0.0%    100.0%      0.0%     
 flops     6 x    32 x    32             23592960       0.0%    100.0%      0.0%     
 flops    64 x    70 x   453             24353280       0.0%    100.0%      0.0%     
 flops    97 x    70 x   453             24606960       0.0%    100.0%      0.0%     
 flops   116 x    64 x    64             25657344       0.0%    100.0%      0.0%     
 flops     4 x    50 x    76             26721600       0.0%    100.0%      0.0%     
 flops   123 x    64 x    64             27205632       0.0%    100.0%      0.0%     
 flops     4 x    51 x    75             27509400       0.0%    100.0%      0.0%     
 flops   174 x    64 x    70             28062720       0.0%    100.0%      0.0%     
 flops   174 x    70 x    64             28062720       0.0%    100.0%      0.0%     
 flops     4 x    50 x    75             28170000       0.0%    100.0%      0.0%     
 flops   175 x    64 x    70             28224000       0.0%    100.0%      0.0%     
 flops   175 x    70 x    64             28224000       0.0%    100.0%      0.0%     
 flops    91 x    96 x    70             29352960       0.0%    100.0%      0.0%     
 flops    91 x    70 x    96             29352960       0.0%    100.0%      0.0%     
 flops   116 x    70 x   453             29426880       0.0%    100.0%      0.0%     
 flops    38 x    70 x   466             29749440       0.0%    100.0%      0.0%     
 flops   188 x    64 x    70             30320640       0.0%    100.0%      0.0%     
 flops   188 x    70 x    64             30320640       0.0%    100.0%      0.0%     
 flops   123 x    70 x   453             31202640       0.0%    100.0%      0.0%     
 flops    97 x    70 x    96             31288320       0.0%    100.0%      0.0%     
 flops    97 x    96 x    70             31288320       0.0%    100.0%      0.0%     
 flops   181 x    70 x    70             31928400       0.0%    100.0%      0.0%     
 flops   162 x    64 x    64             35831808       0.0%    100.0%      0.0%     
 flops   168 x    64 x    64             37158912       0.0%    100.0%      0.0%     
 flops   116 x    70 x    96             37416960       0.0%    100.0%      0.0%     
 flops   116 x    96 x    70             37416960       0.0%    100.0%      0.0%     
 flops     4 x    51 x    77             39489912       0.0%    100.0%      0.0%     
 flops     4 x    45 x     4             39529440       0.0%    100.0%      0.0%     
 flops    38 x    64 x   453             39661056       0.0%    100.0%      0.0%     
 flops   123 x    70 x    96             39674880       0.0%    100.0%      0.0%     
 flops   123 x    96 x    70             39674880       0.0%    100.0%      0.0%     
 flops   162 x    70 x   453             41096160       0.0%    100.0%      0.0%     
 flops   168 x    70 x   453             42618240       0.0%    100.0%      0.0%     
 flops    14 x    41 x    76             42751520       0.0%    100.0%      0.0%     
 flops    31 x    41 x     4             43925760       0.0%    100.0%      0.0%     
 flops    14 x    45 x    75             43942500       0.0%    100.0%      0.0%     
 flops    38 x    70 x   465             44528400       0.0%    100.0%      0.0%     
 flops    38 x    96 x    96             44826624       0.0%    100.0%      0.0%     
 flops    14 x    41 x    75             47355000       0.0%    100.0%      0.0%     
 flops    91 x    70 x   466             47494720       0.0%    100.0%      0.0%     
 flops    53 x    44 x     4             49177216       0.0%    100.0%      0.0%     
 flops     4 x    31 x     4             49364896       0.0%    100.0%      0.0%     
 flops    53 x    41 x     4             49787776       0.0%    100.0%      0.0%     
 flops    64 x    70 x   466             50104320       0.0%    100.0%      0.0%     
 flops     6 x     6 x    13             50487840       0.0%    100.0%      0.0%     
 flops    97 x    70 x   466             50626240       0.0%    100.0%      0.0%     
 flops    13 x     6 x     6             50862240       0.0%    100.0%      0.0%     
 flops    31 x    44 x     4             51286400       0.0%    100.0%      0.0%     
 flops    32 x    31 x    75             51633600       0.0%    100.0%      0.0%     
 flops   162 x    70 x    96             52254720       0.0%    100.0%      0.0%     
 flops   162 x    96 x    70             52254720       0.0%    100.0%      0.0%     
 flops   168 x    70 x    96             54190080       0.0%    100.0%      0.0%     
 flops   168 x    96 x    70             54190080       0.0%    100.0%      0.0%     
 flops   116 x    70 x   466             60542720       0.0%    100.0%      0.0%     
 flops    91 x    64 x   453             63318528       0.0%    100.0%      0.0%     
 flops    32 x    64 x    64             63700992       0.0%    100.0%      0.0%     
 flops    53 x    54 x     4             64108800       0.0%    100.0%      0.0%     
 flops   123 x    70 x   466             64196160       0.0%    100.0%      0.0%     
 flops    31 x    54 x     4             65928816       0.0%    100.0%      0.0%     
 flops    64 x    64 x   453             66797568       0.0%    100.0%      0.0%     
 flops    97 x    64 x   453             67493376       0.0%    100.0%      0.0%     
 flops     4 x    51 x    76             67566432       0.0%    100.0%      0.0%     
 flops    14 x    45 x    76             67798080       0.0%    100.0%      0.0%     
 flops    31 x    47 x     4             69259952       0.0%    100.0%      0.0%     
 flops    91 x    70 x   465             71089200       0.0%    100.0%      0.0%     
 flops    64 x    70 x   465             74995200       0.0%    100.0%      0.0%     
 flops    64 x    96 x    96             75497472       0.0%    100.0%      0.0%     
 flops    97 x    70 x   465             75776400       0.0%    100.0%      0.0%     
 flops    32 x    52 x    75             76377600       0.0%    100.0%      0.0%     
 flops     6 x     6 x    96             76640256       0.0%    100.0%      0.0%     
 flops   174 x    64 x    64             76972032       0.0%    100.0%      0.0%     
 flops   175 x    64 x    64             77414400       0.0%    100.0%      0.0%     
 flops    91 x    96 x    64             80510976       0.0%    100.0%      0.0%     
 flops    91 x    64 x    96             80510976       0.0%    100.0%      0.0%     
 flops   116 x    64 x   453             80713728       0.0%    100.0%      0.0%     
 flops    38 x    64 x   466             81598464       0.0%    100.0%      0.0%     
 flops   188 x    64 x    64             83165184       0.0%    100.0%      0.0%     
 flops   162 x    70 x   466             84551040       0.0%    100.0%      0.0%     
 flops    31 x    55 x     4             84772600       0.0%    100.0%      0.0%     
 flops    31 x    53 x     4             85580584       0.0%    100.0%      0.0%     
 flops   123 x    64 x   453             85584384       0.0%    100.0%      0.0%     
 flops    97 x    64 x    96             85819392       0.0%    100.0%      0.0%     
 flops    97 x    96 x    64             85819392       0.0%    100.0%      0.0%     
 flops   181 x    64 x    70             87575040       0.0%    100.0%      0.0%     
 flops   181 x    70 x    64             87575040       0.0%    100.0%      0.0%     
 flops   168 x    70 x   466             87682560       0.0%    100.0%      0.0%     
 flops   174 x    70 x   453             88280640       0.0%    100.0%      0.0%     
 flops   175 x    70 x   453             88788000       0.0%    100.0%      0.0%     
 flops    53 x    55 x     4             90271720       0.0%    100.0%      0.0%     
 flops   116 x    70 x   465             90619200       0.0%    100.0%      0.0%     
 flops    32 x    96 x    70             92897280       0.0%    100.0%      0.0%     
 flops    32 x    70 x    96             92897280       0.0%    100.0%      0.0%     
 flops   188 x    70 x   453             95383680       0.0%    100.0%      0.0%     
 flops   123 x    70 x   465             96087600       0.0%    100.0%      0.0%     
 flops     6 x    13 x    70             96467280       0.0%    100.0%      0.0%     
 flops    14 x    50 x    77             98852600       0.0%    100.0%      0.0%     
 flops    13 x     6 x    70             99874320       0.0%    100.0%      0.0%     
 flops   116 x    64 x    96            102629376       0.0%    100.0%      0.0%     
 flops   116 x    96 x    64            102629376       0.0%    100.0%      0.0%     
 flops     4 x    53 x     4            108382880       0.0%    100.0%      0.0%     
 flops    53 x    47 x     4            108687312       0.0%    100.0%      0.0%     
 flops   123 x    64 x    96            108822528       0.0%    100.0%      0.0%     
 flops   123 x    96 x    64            108822528       0.0%    100.0%      0.0%     
 flops    14 x    53 x    76            112107296       0.0%    100.0%      0.0%     
 flops   174 x    70 x    96            112250880       0.0%    100.0%      0.0%     
 flops   174 x    96 x    70            112250880       0.0%    100.0%      0.0%     
 flops   162 x    64 x   453            112720896       0.0%    100.0%      0.0%     
 flops   175 x    70 x    96            112896000       0.0%    100.0%      0.0%     
 flops   175 x    96 x    70            112896000       0.0%    100.0%      0.0%     
 flops   168 x    64 x   453            116895744       0.0%    100.0%      0.0%     
 flops    52 x    41 x     4            118931488       0.0%    100.0%      0.0%     
 flops    53 x    53 x     4            119551040       0.0%    100.0%      0.0%     
 flops   188 x    96 x    70            121282560       0.0%    100.0%      0.0%     
 flops   188 x    70 x    96            121282560       0.0%    100.0%      0.0%     
 flops    38 x    64 x   465            122135040       0.0%    100.0%      0.0%     
 flops   162 x    70 x   465            126554400       0.0%    100.0%      0.0%     
 flops    91 x    64 x   466            130271232       0.0%    100.0%      0.0%     
 flops   168 x    70 x   465            131241600       0.0%    100.0%      0.0%     
 flops    52 x    44 x     4            132228096       0.0%    100.0%      0.0%     
 flops    64 x    64 x   466            137428992       0.0%    100.0%      0.0%     
 flops    97 x    64 x   466            138860544       0.0%    100.0%      0.0%     
 flops   162 x    64 x    96            143327232       0.0%    100.0%      0.0%     
 flops   162 x    96 x    64            143327232       0.0%    100.0%      0.0%     
 flops     4 x     6 x     4            145401600       0.0%    100.0%      0.0%     
 flops    14 x    52 x    77            147763616       0.0%    100.0%      0.0%     
 flops   168 x    64 x    96            148635648       0.0%    100.0%      0.0%     
 flops   168 x    96 x    64            148635648       0.0%    100.0%      0.0%     
 flops    38 x    96 x   453            158644224       0.0%    100.0%      0.0%     
 flops    31 x    31 x     4            162101480       0.0%    100.0%      0.0%     
 flops     4 x    52 x     4            165078784       0.0%    100.0%      0.0%     
 flops   116 x    64 x   466            166060032       0.0%    100.0%      0.0%     
 flops     6 x     6 x     4            172515168       0.0%    100.0%      0.0%     
 flops    52 x    54 x     4            175219200       0.0%    100.0%      0.0%     
 flops   123 x    64 x   466            176080896       0.0%    100.0%      0.0%     
 flops   174 x    70 x   466            181628160       0.0%    100.0%      0.0%     
 flops   175 x    70 x   466            182672000       0.0%    100.0%      0.0%     
 flops    52 x    47 x     4            188246656       0.0%    100.0%      0.0%     
 flops    91 x    64 x   465            194987520       0.0%    100.0%      0.0%     
 flops   188 x    70 x   466            196241920       0.0%    100.0%      0.0%     
 flops    53 x    31 x     4            200892896       0.0%    100.0%      0.0%     
 flops    64 x    64 x   465            205701120       0.0%    100.0%      0.0%     
 flops    32 x    41 x    76            206004992       0.0%    100.0%      0.0%     
 flops    97 x    64 x   465            207843840       0.0%    100.0%      0.0%     
 flops    32 x    45 x    75            213624000       0.0%    100.0%      0.0%     
 flops     4 x    33 x    52            221075712       0.0%    100.0%      0.0%     
 flops    32 x    41 x    75            225532800       0.0%    100.0%      0.0%     
 flops    52 x    55 x     4            227289920       0.0%    100.0%      0.0%     
 flops    52 x    53 x     4            228571616       0.0%    100.0%      0.0%     
 flops   162 x    64 x   466            231911424       0.0%    100.0%      0.0%     
 flops   181 x    64 x    64            240205824       0.0%    100.0%      0.0%     
 flops   168 x    64 x   466            240500736       0.0%    100.0%      0.0%     
 flops   174 x    64 x   453            242141184       0.0%    100.0%      0.0%     
 flops   175 x    64 x   453            243532800       0.0%    100.0%      0.0%     
 flops   116 x    64 x   465            248555520       0.0%    100.0%      0.0%     
 flops    91 x    96 x   453            253274112       0.0%    100.0%      0.0%     
 flops    32 x    96 x    64            254803968       0.0%    100.0%      0.0%     
 flops    32 x    64 x    96            254803968       0.0%    100.0%      0.0%     
 flops   188 x    64 x   453            261623808       0.0%    100.0%      0.0%     
 flops   123 x    64 x   465            263554560       0.0%    100.0%      0.0%     
 flops     6 x    13 x    64            264595968       0.0%    100.0%      0.0%     
 flops    64 x    96 x   453            267190272       0.0%    100.0%      0.0%     
 flops    97 x    96 x   453            269973504       0.0%    100.0%      0.0%     
 flops   174 x    70 x   465            271857600       0.0%    100.0%      0.0%     
 flops   175 x    70 x   465            273420000       0.0%    100.0%      0.0%     
 flops    13 x     6 x    64            273940992       0.0%    100.0%      0.0%     
 flops   181 x    70 x   453            275496480       0.0%    100.0%      0.0%     
 flops     4 x    41 x    52            280178912       0.0%    100.0%      0.0%     
 flops    14 x    52 x    76            287041664       0.0%    100.0%      0.0%     
 flops   188 x    70 x   465            293731200       0.0%    100.0%      0.0%     
 flops   174 x    64 x    96            307888128       0.0%    100.0%      0.0%     
 flops   174 x    96 x    64            307888128       0.0%    100.0%      0.0%     
 flops   175 x    64 x    96            309657600       0.0%    100.0%      0.0%     
 flops   175 x    96 x    64            309657600       0.0%    100.0%      0.0%     
 flops    32 x    45 x    76            316719360       0.0%    100.0%      0.0%     
 flops    91 x    96 x    96            322043904       0.0%    100.0%      0.0%     
 flops   116 x    96 x   453            322854912       0.0%    100.0%      0.0%     
 flops    38 x    96 x   466            326393856       0.0%    100.0%      0.0%     
 flops    32 x    70 x   453            328769280       0.0%    100.0%      0.0%     
 flops   188 x    96 x    64            332660736       0.0%    100.0%      0.0%     
 flops   188 x    64 x    96            332660736       0.0%    100.0%      0.0%     
 flops    13 x    32 x    32            340787200       0.0%    100.0%      0.0%     
 flops    31 x    52 x     4            341756896       0.0%    100.0%      0.0%     
 flops   123 x    96 x   453            342337536       0.0%    100.0%      0.0%     
 flops    97 x    96 x    96            343277568       0.0%    100.0%      0.0%     
 flops   162 x    64 x   465            347120640       0.0%    100.0%      0.0%     
 flops   181 x    96 x    70            350300160       0.0%    100.0%      0.0%     
 flops   181 x    70 x    96            350300160       0.0%    100.0%      0.0%     
 flops   168 x    64 x   465            359976960       0.0%    100.0%      0.0%     
 flops   116 x    96 x    96            410517504       0.0%    100.0%      0.0%     
 flops    52 x    31 x     4            428353536       0.0%    100.0%      0.0%     
 flops   123 x    96 x    96            435290112       0.0%    100.0%      0.0%     
 flops    50 x    41 x     4            436059600       0.0%    100.0%      0.0%     
 flops    53 x    52 x     4            437344128       0.0%    100.0%      0.0%     
 flops     4 x     4 x     6            437421312       0.0%    100.0%      0.0%     
 flops   162 x    96 x   453            450883584       0.0%    100.0%      0.0%     
 flops   168 x    96 x   453            467582976       0.0%    100.0%      0.0%     
 flops    32 x    50 x    77            468899200       0.0%    100.0%      0.0%     
 flops    14 x    41 x     4            471901472       0.0%    100.0%      0.0%     
 flops    50 x    44 x     4            480761600       0.0%    100.0%      0.0%     
 flops    38 x    96 x   465            488540160       0.0%    100.0%      0.0%     
 flops   174 x    64 x   466            498180096       0.0%    100.0%      0.0%     
 flops   175 x    64 x   466            501043200       0.0%    100.0%      0.0%     
 flops     4 x    31 x    52            519425088       0.0%    100.0%      0.0%     
 flops    91 x    96 x   466            521084928       0.0%    100.0%      0.0%     
 flops   188 x    64 x   466            538263552       0.0%    100.0%      0.0%     
 flops    64 x    96 x   466            549715968       0.0%    100.0%      0.0%     
 flops    32 x    53 x    76            551159296       0.0%    100.0%      0.0%     
 flops    97 x    96 x   466            555442176       0.0%    100.0%      0.0%     
 flops   181 x    70 x   466            566805120       0.0%    100.0%      0.0%     
 flops     4 x    33 x    50            572972400       0.0%    100.0%      0.0%     
 flops   162 x    96 x    96            573308928       0.0%    100.0%      0.0%     
 flops     4 x    33 x    14            574546896       0.0%    100.0%      0.0%     
 flops     6 x    32 x     6            586579968       0.0%    100.0%      0.0%     
 flops   168 x    96 x    96            594542592       0.0%    100.0%      0.0%     
 flops     4 x    50 x     4            627798400       0.0%    100.0%      0.0%     
 flops    50 x    54 x     4            635169600       0.0%    100.0%      0.0%     
 flops    14 x    33 x     4            650300112       0.0%    100.0%      0.0%     
 flops   116 x    96 x   466            664240128       0.0%    100.0%      0.0%     
 flops     4 x     6 x     6            669452544       0.0%    100.0%      0.0%     
 flops    32 x    70 x   466            676408320       0.0%    100.0%      0.0%     
 flops   123 x    96 x   466            704323584       0.0%    100.0%      0.0%     
 flops    32 x    52 x    77            709829120       0.0%    100.0%      0.0%     
 flops     4 x    41 x    50            721042400       0.0%    100.0%      0.0%     
 flops     4 x     4 x    52            745029376       0.0%    100.0%      0.0%     
 flops   174 x    64 x   465            745666560       0.0%    100.0%      0.0%     
 flops    50 x    47 x     4            745927600       0.0%    100.0%      0.0%     
 flops   175 x    64 x   465            749952000       0.0%    100.0%      0.0%     
 flops   181 x    64 x   453            755647488       0.0%    100.0%      0.0%     
 flops    91 x    96 x   465            779950080       0.0%    100.0%      0.0%     
 flops   188 x    64 x   465            805662720       0.0%    100.0%      0.0%     
 flops    64 x    96 x   465            822804480       0.0%    100.0%      0.0%     
 flops    50 x    55 x     4            828740000       0.0%    100.0%      0.0%     
 flops     4 x    13 x     4            830016096       0.0%    100.0%      0.0%     
 flops    97 x    96 x   465            831375360       0.0%    100.0%      0.0%     
 flops   181 x    70 x   465            848383200       0.0%    100.0%      0.0%     
 flops    51 x    41 x     4            850852992       0.0%    100.0%      0.0%     
 flops    13 x     6 x    13            879649056       0.0%    100.0%      0.0%     
 flops    50 x    53 x     4            896463200       0.0%    100.0%      0.0%     
 flops    32 x    64 x   453            901767168       0.0%    100.0%      0.0%     
 flops     4 x    45 x    52            918197280       0.0%    100.0%      0.0%     
 flops   162 x    96 x   466            927645696       0.0%    100.0%      0.0%     
 flops    51 x    44 x     4            929339136       0.0%    100.0%      0.0%     
 flops    52 x    52 x     4            934826880       0.0%    100.0%      0.0%     
 flops   181 x    96 x    64            960823296       0.0%    100.0%      0.0%     
 flops   181 x    64 x    96            960823296       0.0%    100.0%      0.0%     
 flops   168 x    96 x   466            962002944       0.0%    100.0%      0.0%     
 flops   174 x    96 x   453            968564736       0.0%    100.0%      0.0%     
 flops   175 x    96 x   453            974131200       0.0%    100.0%      0.0%     
 flops    13 x     6 x     4            979396704       0.0%    100.0%      0.0%     
 flops   116 x    96 x   465            994222080       0.0%    100.0%      0.0%     
 flops    32 x    70 x   465           1012435200       0.0%    100.0%      0.0%     
 flops    32 x    96 x    96           1019215872       0.0%    100.0%      0.0%     
 flops    14 x    51 x    75           1029766500       0.0%    100.0%      0.0%     
 flops   188 x    96 x   453           1046495232       0.0%    100.0%      0.0%     
 flops   123 x    96 x   465           1054218240       0.0%    100.0%      0.0%     
 flops     6 x    13 x    96           1058383872       0.0%    100.0%      0.0%     
 flops    13 x     6 x    96           1095763968       0.0%    100.0%      0.0%     
 flops    14 x    50 x    75           1113210000       0.0%    100.0%      0.0%     
 flops     4 x    33 x    51           1118064024       0.0%    100.0%      0.0%     
 flops    51 x    54 x     4           1179571248       0.0%    100.0%      0.0%     
 flops    14 x    50 x    76           1215832800       0.0%    100.0%      0.0%     
 flops   174 x    96 x    96           1231552512       0.0%    100.0%      0.0%     
 flops   175 x    96 x    96           1238630400       0.0%    100.0%      0.0%     
 flops     4 x    41 x    14           1254075200       0.0%    100.0%      0.0%     
 flops     4 x    51 x     4           1319205984       0.0%    100.0%      0.0%     
 flops   188 x    96 x    96           1330642944       0.0%    100.0%      0.0%     
 flops     4 x    31 x    50           1346057200       0.0%    100.0%      0.0%     
 flops   162 x    96 x   465           1388482560       0.0%    100.0%      0.0%     
 flops    32 x    52 x    76           1391356928       0.0%    100.0%      0.0%     
 flops     4 x    41 x    51           1411491912       0.0%    100.0%      0.0%     
 flops   168 x    96 x   465           1439907840       0.0%    100.0%      0.0%     
 flops     4 x    53 x    52           1444121952       0.0%    100.0%      0.0%     
 flops    51 x    47 x     4           1467347520       0.0%    100.0%      0.0%     
 flops    31 x    41 x    14           1506617980       0.0%    100.0%      0.0%     
 flops    14 x    45 x     4           1509187680       0.0%    100.0%      0.0%     
 flops   181 x    64 x   466           1554665472       0.0%    100.0%      0.0%     
 flops    14 x    31 x     4           1572597264       0.0%    100.0%      0.0%     
 flops    51 x    55 x     4           1616846880       0.0%    100.0%      0.0%     
 flops    50 x    31 x     4           1628206800       0.0%    100.0%      0.0%     
 flops     4 x    31 x    14           1636568864       0.0%    100.0%      0.0%     
 flops    13 x    13 x    70           1719892720       0.0%    100.0%      0.0%     
 flops    31 x    50 x     4           1722806400       0.0%    100.0%      0.0%     
 flops    51 x    53 x     4           1728168456       0.0%    100.0%      0.0%     
 flops    32 x    64 x   466           1855291392       0.0%    100.0%      0.0%     
 flops     4 x     4 x    50           1932308800       0.0%    100.0%      0.0%     
 flops   174 x    96 x   466           1992720384       0.0%    100.0%      0.0%     
 flops   175 x    96 x   466           2004172800       0.0%    100.0%      0.0%     
 flops   188 x    96 x   466           2153054208       0.0%    100.0%      0.0%     
 flops    53 x    41 x    14           2185699012       0.0%    100.0%      0.0%     
 flops    14 x    51 x    77           2190213564       0.0%    100.0%      0.0%     
 flops    53 x    50 x     4           2212177600       0.0%    100.0%      0.0%     
 flops    31 x    44 x    14           2266809776       0.0%    100.0%      0.0%     
 flops   181 x    64 x   465           2326993920       0.0%    100.0%      0.0%     
 flops     4 x    45 x    50           2371680000       0.0%    100.0%      0.0%     
 flops    32 x    41 x     4           2411372032       0.0%    100.0%      0.0%     
 flops     4 x     6 x    14           2566991616       0.0%    100.0%      0.0%     
 flops     4 x    31 x    51           2623309032       0.0%    100.0%      0.0%     
 flops    31 x    54 x    14           2736949824       0.0%    100.0%      0.0%     
 flops    32 x    64 x   465           2776965120       0.0%    100.0%      0.0%     
 flops     4 x    52 x    52           2839156736       0.0%    100.0%      0.0%     
 flops     6 x    13 x     4           2850443856       0.0%    100.0%      0.0%     
 flops    31 x    55 x    14           2947945000       0.0%    100.0%      0.0%     
 flops   174 x    96 x   465           2982666240       0.0%    100.0%      0.0%     
 flops    31 x    47 x    14           2994467196       0.0%    100.0%      0.0%     
 flops   175 x    96 x   465           2999808000       0.0%    100.0%      0.0%     
 flops   181 x    96 x   453           3022589952       0.0%    100.0%      0.0%     
 flops     4 x    33 x    32           3090185472       0.0%    100.0%      0.0%     
 flops    51 x    31 x     4           3147353616       0.0%    100.0%      0.0%     
 flops     6 x     6 x    14           3169887840       0.0%    100.0%      0.0%     
 flops    53 x    44 x    14           3177107472       0.0%    100.0%      0.0%     
 flops    14 x    51 x    76           3184428576       0.0%    100.0%      0.0%     
 flops   188 x    96 x   465           3222650880       0.0%    100.0%      0.0%     
 flops    32 x    33 x     4           3248703744       0.0%    100.0%      0.0%     
 flops    31 x    53 x    14           3422835612       0.0%    100.0%      0.0%     
 flops    50 x    52 x     4           3541137600       0.0%    100.0%      0.0%     
 flops     4 x     4 x    13           3550075776       0.0%    100.0%      0.0%     
 flops    31 x    51 x     4           3581660640       0.0%    100.0%      0.0%     
 flops     4 x    45 x    14           3599396640       0.0%    100.0%      0.0%     
 flops    32 x    96 x   453           3607068672       0.0%    100.0%      0.0%     
 flops     4 x    53 x    50           3741333600       0.0%    100.0%      0.0%     
 flops     4 x     4 x    51           3764384256       0.0%    100.0%      0.0%     
 flops    14 x     6 x     4           3768371040       0.0%    100.0%      0.0%     
 flops    53 x    54 x    14           3782419200       0.0%    100.0%      0.0%     
 flops   181 x    96 x    96           3843293184       0.0%    100.0%      0.0%     
 flops    14 x    53 x     4           3954747216       0.0%    100.0%      0.0%     
 flops    53 x    55 x    14           4201389500       0.0%    100.0%      0.0%     
 flops     4 x    53 x    14           4400196528       0.0%    100.0%      0.0%     
 flops    53 x    51 x     4           4544543088       0.0%    100.0%      0.0%     
 flops    52 x    50 x     4           4600169600       0.0%    100.0%      0.0%     
 flops     4 x    45 x    51           4637423880       0.0%    100.0%      0.0%     
 flops    13 x    13 x    64           4717420032       0.0%    100.0%      0.0%     
 flops    53 x    47 x    14           4817773352       0.0%    100.0%      0.0%     
 flops    32 x    51 x    75           4967726400       0.0%    100.0%      0.0%     
 flops     4 x     6 x    13           5191105296       0.0%    100.0%      0.0%     
 flops    53 x    53 x    14           5280066064       0.0%    100.0%      0.0%     
 flops    32 x    50 x    75           5335200000       0.0%    100.0%      0.0%     
 flops    52 x    41 x    14           5369953680       0.0%    100.0%      0.0%     
 flops    32 x    50 x    76           5851635200       0.0%    100.0%      0.0%     
 flops    31 x    31 x    14           5887900928       0.0%    100.0%      0.0%     
 flops    14 x    52 x     4           6180673408       0.0%    100.0%      0.0%     
 flops   181 x    96 x   466           6218661888       0.0%    100.0%      0.0%     
 flops     4 x    41 x    32           6385084160       0.0%    100.0%      0.0%     
 flops    51 x    52 x     4           6828475680       0.0%    100.0%      0.0%     
 flops     4 x    53 x    51           7287936720       0.0%    100.0%      0.0%     
 flops     4 x    52 x    50           7329275200       0.0%    100.0%      0.0%     
 flops    32 x    96 x   466           7421165568       0.0%    100.0%      0.0%     
 flops    31 x    41 x    32           7484298752       0.0%    100.0%      0.0%     
 flops     4 x    14 x     6           7560203616       0.0%    100.0%      0.0%     
 flops    32 x    45 x     4           7664762880       0.0%    100.0%      0.0%     
 flops    32 x    31 x     4           7890280704       0.0%    100.0%      0.0%     
 flops    52 x    44 x    14           8064504448       0.0%    100.0%      0.0%     
 flops    13 x    32 x     6           8616591360       0.0%    100.0%      0.0%     
 flops     6 x    32 x    13           8616591360       0.0%    100.0%      0.0%     
 flops    14 x    33 x    52           8620868256       0.0%    100.0%      0.0%     
 flops     4 x    31 x    32           8664754944       0.0%    100.0%      0.0%     
 flops    53 x    31 x    14           8715181776       0.0%    100.0%      0.0%     
 flops   181 x    96 x   465           9307975680       0.0%    100.0%      0.0%     
 flops    52 x    51 x     4           9546330144       0.0%    100.0%      0.0%     
 flops    52 x    54 x    14           9796550400       0.0%    100.0%      0.0%     
 flops     4 x    13 x     6          10000275168       0.0%    100.0%      0.0%     
 flops    32 x    51 x    77          10404979200       0.0%    100.0%      0.0%     
 flops    52 x    55 x    14          10524594080       0.0%    100.0%      0.0%     
 flops     4 x    52 x    14          10634961792       0.0%    100.0%      0.0%     
 flops    14 x     4 x     6          10643329536       0.0%    100.0%      0.0%     
 flops    53 x    41 x    32          10744146432       0.0%    100.0%      0.0%     
 flops    52 x    47 x    14          10837644272       0.0%    100.0%      0.0%     
 flops    14 x    41 x    52          10901086560       0.0%    100.0%      0.0%     
 flops    32 x    96 x   465          11107860480       0.0%    100.0%      0.0%     
 flops    31 x    44 x    32          11335822080       0.0%    100.0%      0.0%     
 flops    14 x     6 x     6          11470910976       0.0%    100.0%      0.0%     
 flops    52 x    53 x    14          12412164128       0.0%    100.0%      0.0%     
 flops     4 x    50 x    52          12438670400       0.0%    100.0%      0.0%     
 flops    31 x    52 x    14          13092464112       0.0%    100.0%      0.0%     
 flops    31 x    54 x    32          13538026368       0.0%    100.0%      0.0%     
 flops     4 x    52 x    51          14312801568       0.0%    100.0%      0.0%     
 flops     4 x     6 x    32          14316103680       0.0%    100.0%      0.0%     
 flops    31 x    55 x    32          14689079680       0.0%    100.0%      0.0%     
 flops    31 x    47 x    32          15111864128       0.0%    100.0%      0.0%     
 flops    32 x    51 x    76          15294633984       0.0%    100.0%      0.0%     
 flops    53 x    44 x    32          15821780480       0.0%    100.0%      0.0%     
 flops    13 x    13 x     4          16216373368       0.0%    100.0%      0.0%     
 flops    31 x    53 x    32          17280259072       0.0%    100.0%      0.0%     
 flops    14 x    33 x    14          17485332480       0.0%    100.0%      0.0%     
 flops    50 x    50 x     4          17639500000       0.0%    100.0%      0.0%     
 flops     6 x     6 x    32          17743276800       0.0%    100.0%      0.0%     
 flops    14 x     4 x    52          17881718400       0.0%    100.0%      0.0%     
 flops     4 x    45 x    32          18530012160       0.0%    100.0%      0.0%     
 flops    53 x    54 x    32          18634596480       0.0%    100.0%      0.0%     
 flops    32 x     6 x     4          18835230720       0.0%    100.0%      0.0%     
 flops    13 x    13 x    96          18869680128       0.0%    100.0%      0.0%     
 flops    53 x    52 x    14          19568184272       0.0%    100.0%      0.0%     
 flops    32 x    53 x     4          20134220032       0.0%    100.0%      0.0%     
 flops    14 x    31 x    52          20269313792       0.0%    100.0%      0.0%     
 flops    53 x    55 x    32          20800880320       0.0%    100.0%      0.0%     
 flops    52 x    31 x    14          21122068240       0.0%    100.0%      0.0%     
 flops    14 x    13 x     4          22139126464       0.0%    100.0%      0.0%     
 flops     4 x    53 x    32          23492069376       0.0%    100.0%      0.0%     
 flops    53 x    47 x    32          23885541376       0.0%    100.0%      0.0%     
 flops    14 x    50 x     4          25142650400       0.0%    100.0%      0.0%     
 flops    50 x    41 x    14          25380443200       0.0%    100.0%      0.0%     
 flops     4 x    51 x    52          25545294528       0.0%    100.0%      0.0%     
 flops    52 x    41 x    32          26086128640       0.0%    100.0%      0.0%     
 flops    53 x    53 x    32          26269947776       0.0%    100.0%      0.0%     
 flops    14 x    33 x    50          26464376400       0.0%    100.0%      0.0%     
 flops    31 x    31 x    32          29661964608       0.0%    100.0%      0.0%     
 flops     4 x    14 x    52          29954451072       0.0%    100.0%      0.0%     
 flops    32 x    52 x     4          31518995456       0.0%    100.0%      0.0%     
 flops     4 x    50 x    50          32093220000       0.0%    100.0%      0.0%     
 flops    14 x    41 x    50          33218872400       0.0%    100.0%      0.0%     
 flops    51 x    50 x     4          34040541600       0.0%    100.0%      0.0%     
 flops    14 x    45 x    52          35804583360       0.0%    100.0%      0.0%     
 flops    50 x    51 x     4          36395130000       0.0%    100.0%      0.0%     
 flops    50 x    44 x    14          38357765600       0.0%    100.0%      0.0%     
 flops    14 x    41 x    14          38715889016       0.0%    100.0%      0.0%     
 flops    52 x    44 x    32          39527268352       0.0%    100.0%      0.0%     
 flops     4 x    32 x     6          40647539712       0.0%    100.0%      0.0%     
 flops    32 x    33 x    52          41820210432       0.0%    100.0%      0.0%     
 flops    53 x    31 x    32          43456061888       0.0%    100.0%      0.0%     
 flops    14 x     4 x    50          46378505600       0.0%    100.0%      0.0%     
 flops    50 x    54 x    14          46622293200       0.0%    100.0%      0.0%     
 flops    52 x    52 x    14          47209990464       0.0%    100.0%      0.0%     
 flops    52 x    54 x    32          47569047552       0.0%    100.0%      0.0%     
 flops    14 x    31 x    14          48525013992       0.0%    100.0%      0.0%     
 flops    50 x    55 x    14          49746389000       0.0%    100.0%      0.0%     
 flops    51 x    41 x    14          50541970836       0.0%    100.0%      0.0%     
 flops    14 x    51 x     4          50711735760       0.0%    100.0%      0.0%     
 flops    52 x    55 x    32          51299522560       0.0%    100.0%      0.0%     
 flops    50 x    47 x    14          52361600200       0.0%    100.0%      0.0%     
 flops    32 x     4 x     6          52464531456       0.0%    100.0%      0.0%     
 flops     6 x    13 x    14          52617270888       0.0%    100.0%      0.0%     
 flops    14 x    33 x    51          52780293720       0.0%    100.0%      0.0%     
 flops     4 x    50 x    14          52888813600       0.0%    100.0%      0.0%     
 flops    32 x    41 x    52          52898979328       0.0%    100.0%      0.0%     
 flops    52 x    47 x    32          53428264448       0.0%    100.0%      0.0%     
 flops     4 x    52 x    32          55363183616       0.0%    100.0%      0.0%     
 flops     4 x    13 x    14          55414040864       0.0%    100.0%      0.0%     
 flops    14 x    53 x    52          56373076032       0.0%    100.0%      0.0%     
 flops    50 x    53 x    14          59709778800       0.0%    100.0%      0.0%     
 flops    52 x    53 x    32          61277565440       0.0%    100.0%      0.0%     
 flops    32 x     6 x     6          61729795584       0.0%    100.0%      0.0%     
 flops    31 x    50 x    14          62160127400       0.0%    100.0%      0.0%     
 flops    14 x    31 x    50          62229090000       0.0%    100.0%      0.0%     
 flops     4 x    50 x    51          62706662400       0.0%    100.0%      0.0%     
 flops    31 x    52 x    32          65706358016       0.0%    100.0%      0.0%     
 flops     4 x    51 x    50          65984514000       0.0%    100.0%      0.0%     
 flops    14 x    41 x    51          66581898012       0.0%    100.0%      0.0%     
 flops    14 x     6 x    14          66882800880       0.0%    100.0%      0.0%     
 flops    13 x     6 x    14          68697586776       0.0%    100.0%      0.0%     
 flops    51 x    51 x     4          70119922032       0.0%    100.0%      0.0%     
 flops    51 x    44 x    14          76342387968       0.0%    100.0%      0.0%     
 flops     4 x    13 x    13          81212038752       0.0%    100.0%      0.0%     
 flops    32 x    33 x    14          86582555136       0.0%    100.0%      0.0%     
 flops    32 x     4 x    52          88199547904       0.0%    100.0%      0.0%     
 flops    14 x     4 x    13          89443795168       0.0%    100.0%      0.0%     
 flops    14 x     4 x    51          90309033360       0.0%    100.0%      0.0%     
 flops    14 x    33 x    32          90644754816       0.0%    100.0%      0.0%     
 flops     4 x    14 x    50          91860944000       0.0%    100.0%      0.0%     
 flops    51 x    54 x    14          92636650512       0.0%    100.0%      0.0%     
 flops    53 x    50 x    14          92927560600       0.0%    100.0%      0.0%     
 flops    53 x    52 x    32          97129553664       0.0%    100.0%      0.0%     
 flops    32 x    31 x    52          98328904960       0.0%    100.0%      0.0%     
 flops    51 x    55 x    14          98958436500       0.0%    100.0%      0.0%     
 flops    50 x    31 x    14         100846844000       0.0%    100.0%      0.0%     
 flops    52 x    31 x    32         103979622656       0.0%    100.0%      0.0%     
 flops     4 x    51 x    14         104486651472       0.0%    100.0%      0.0%     
 flops    51 x    47 x    14         105444873744       0.0%    100.0%      0.0%     
 flops    14 x    45 x    50         109496331000       0.0%    100.0%      0.0%     
 flops    14 x    52 x    52         110572833280       0.0%    100.0%      0.0%     
 flops    32 x    13 x     4         112007783680       0.0%    100.0%      0.0%     
 flops    14 x    45 x    14         112668020640       0.0%    100.0%      0.0%     
 flops    51 x    53 x    14         119760318132       0.0%    100.0%      0.0%     
 flops    50 x    41 x    32         121887948800       0.0%    100.0%      0.0%     
 flops    14 x    31 x    51         123992498868       0.0%    100.0%      0.0%     
 flops    32 x    33 x    50         127010400000       0.0%    100.0%      0.0%     
 flops    32 x    50 x     4         128454156800       0.0%    100.0%      0.0%     
 flops     4 x    51 x    51         128880798480       0.0%    100.0%      0.0%     
 flops    31 x    51 x    14         129080175840       0.0%    100.0%      0.0%     
 flops    14 x    53 x    14         144396441056       0.0%    100.0%      0.0%     
 flops     4 x    32 x    52         145859197952       0.0%    100.0%      0.0%     
 flops    13 x    32 x    13         150126772224       0.0%    100.0%      0.0%     
 flops    32 x    41 x    50         159484096000       0.0%    100.0%      0.0%     
 flops    14 x    13 x     6         171509677248       0.0%    100.0%      0.0%     
 flops    14 x    53 x    50         173085598000       0.0%    100.0%      0.0%     
 flops    32 x    45 x    52         173729387520       0.0%    100.0%      0.0%     
 flops     4 x    14 x    51         183276243024       0.0%    100.0%      0.0%     
 flops    14 x    14 x     6         184111516512       0.0%    100.0%      0.0%     
 flops    50 x    44 x    32         185622272000       0.0%    100.0%      0.0%     
 flops    14 x    41 x    32         188607069056       0.0%    100.0%      0.0%     
 flops    53 x    51 x    14         192096436392       0.0%    100.0%      0.0%     
 flops    32 x    41 x    14         192315715200       0.0%    100.0%      0.0%     
 flops     4 x    14 x    13         194834213392       0.0%    100.0%      0.0%     
 flops    51 x    31 x    14         201518781660       0.0%    100.0%      0.0%     
 flops    14 x    45 x    51         218935490760       0.0%    100.0%      0.0%     
 flops    52 x    50 x    14         222770329600       0.0%    100.0%      0.0%     
 flops    50 x    54 x    32         223580044800       0.0%    100.0%      0.0%     
 flops    50 x    52 x    14         225250844000       0.0%    100.0%      0.0%     
 flops    32 x     4 x    50         228819481600       0.0%    100.0%      0.0%     
 flops    52 x    52 x    32         231677508608       0.0%    100.0%      0.0%     
 flops    50 x    55 x    32         239578416000       0.0%    100.0%      0.0%     
 flops    32 x    31 x    14         240547548416       0.0%    100.0%      0.0%     
 flops    51 x    41 x    32         241864531392       0.0%    100.0%      0.0%     
 flops    14 x    31 x    32         247781668736       0.0%    100.0%      0.0%     
 flops    32 x    33 x    51         252385803648       0.0%    100.0%      0.0%     
 flops    50 x    47 x    32         254911456000       0.0%    100.0%      0.0%     
 flops    32 x    51 x     4         259310503680       0.0%    100.0%      0.0%     
 flops     4 x    50 x    32         272924044800       0.0%    100.0%      0.0%     
 flops    32 x    53 x    52         273626086656       0.0%    100.0%      0.0%     
 flops     4 x    13 x    32         278954214656       0.0%    100.0%      0.0%     
 flops    50 x    53 x    32         290571609600       0.0%    100.0%      0.0%     
 flops     6 x    13 x    32         290736795648       0.0%    100.0%      0.0%     
 flops    14 x     6 x    13         291646786704       0.0%    100.0%      0.0%     
 flops    32 x    31 x    50         298662630400       0.0%    100.0%      0.0%     
 flops    31 x    50 x    32         310932083200       0.0%    100.0%      0.0%     
 flops    32 x    41 x    51         318552240768       0.0%    100.0%      0.0%     
 flops    32 x     6 x    14         333259820544       0.0%    100.0%      0.0%     
 flops    14 x    52 x    14         335099812320       0.0%    100.0%      0.0%     
 flops    14 x    52 x    50         338654534400       0.0%    100.0%      0.0%     
 flops    14 x    53 x    51         344423049936       0.0%    100.0%      0.0%     
 flops    13 x     6 x    32         346116950400       0.0%    100.0%      0.0%     
 flops    51 x    44 x    32         368029069056       0.0%    100.0%      0.0%     
 flops    14 x     6 x    32         369198600960       0.0%    100.0%      0.0%     
 flops    32 x     4 x    13         441942908160       0.0%    100.0%      0.0%     
 flops     4 x    32 x    50         442558361600       0.0%    100.0%      0.0%     
 flops    51 x    54 x    32         443152705536       0.0%    100.0%      0.0%     
 flops    32 x     4 x    51         445479767808       0.0%    100.0%      0.0%     
 flops    32 x    33 x    32         448140650496       0.0%    100.0%      0.0%     
 flops    51 x    52 x    14         449961880368       0.0%    100.0%      0.0%     
 flops    53 x    50 x    32         459147395200       0.0%    100.0%      0.0%     
 flops    52 x    51 x    14         462395305008       0.0%    100.0%      0.0%     
 flops    51 x    55 x    32         475163409600       0.0%    100.0%      0.0%     
 flops    14 x    50 x    52         484350266400       0.0%    100.0%      0.0%     
 flops    50 x    31 x    32         490396985600       0.0%    100.0%      0.0%     
 flops    51 x    47 x    32         511057888512       0.0%    100.0%      0.0%     
 flops    32 x    45 x    50         525674880000       0.0%    100.0%      0.0%     
 flops    32 x    52 x    52         536725742592       0.0%    100.0%      0.0%     
 flops     4 x    51 x    32         538947462912       0.0%    100.0%      0.0%     
 flops    14 x    45 x    32         556108882560       0.0%    100.0%      0.0%     
 flops    32 x    45 x    14         560136810240       0.0%    100.0%      0.0%     
 flops    51 x    53 x    32         580547312640       0.0%    100.0%      0.0%     
 flops    32 x    31 x    51         592897058112       0.0%    100.0%      0.0%     
 flops    31 x    51 x    32         646786745856       0.0%    100.0%      0.0%     
 flops    14 x    52 x    51         675557326080       0.0%    100.0%      0.0%     
 flops    32 x    53 x    14         718939304832       0.0%    100.0%      0.0%     
 flops    14 x    14 x    52         722738976960       0.0%    100.0%      0.0%     
 flops    14 x    53 x    32         731075765504       0.0%    100.0%      0.0%     
 flops    32 x    53 x    50         831052380800       0.0%    100.0%      0.0%     
 flops     4 x    32 x    51         879771483648       0.0%    100.0%      0.0%     
 flops    32 x    14 x     6         907472498688       0.0%    100.0%      0.0%     
 flops    32 x    13 x     6         923052099840       0.0%    100.0%      0.0%     
 flops    32 x    41 x    32         935318796288       0.0%    100.0%      0.0%     
 flops     4 x    32 x    13         949074570496       0.0%    100.0%      0.0%     
 flops    53 x    51 x    32         951818245248       0.0%    100.0%      0.0%     
 flops    51 x    31 x    32         975933744576       0.0%    100.0%      0.0%     
 flops    14 x    32 x     6         990180635136       0.0%    100.0%      0.0%     
 flops    14 x    51 x    52         995502148368       0.0%    100.0%      0.0%     
 flops    32 x    45 x    51        1047392467200       0.0%    100.0%      0.0%     
 flops    50 x    50 x    14        1060990700000       0.0%    100.0%      0.0%     
 flops    52 x    50 x    32        1089014118400       0.0%    100.0%      0.0%     
 flops    50 x    52 x    32        1091938598400       0.0%    100.0%      0.0%     
 flops    13 x    13 x    14        1166295372788       0.0%    100.0%      0.0%     
 flops    32 x    31 x    32        1226970230784       0.0%    100.0%      0.0%     
 flops    32 x     6 x    13        1420964019072       0.0%    100.0%      0.0%     
 flops    14 x    50 x    50        1481254530000       0.0%    100.0%      0.0%     
 flops    14 x    13 x    14        1497869405032       0.0%    100.0%      0.0%     
 flops    32 x    52 x    50        1625986752000       0.0%    100.0%      0.0%     
 flops    14 x    50 x    14        1635355243200       0.0%    100.0%      0.0%     
 flops    32 x    53 x    51        1647768694080       0.0%    100.0%      0.0%     
 flops    14 x    52 x    32        1662703730688       0.0%    100.0%      0.0%     
 flops    32 x    52 x    14        1664865133568       0.0%    100.0%      0.0%     
 flops    32 x     6 x    32        1837648084992       0.0%    100.0%      0.0%     
 flops    51 x    50 x    14        2118561950400       0.0%    100.0%      0.0%     
 flops    51 x    52 x    32        2173160990208       0.0%    100.0%      0.0%     
 flops    50 x    51 x    14        2203153528800       0.0%    100.0%      0.0%     
 flops    14 x    14 x    50        2216175763200       0.0%    100.0%      0.0%     
 flops    52 x    51 x    32        2265692113152       0.0%    100.0%      0.0%     
 flops    32 x    50 x    52        2350784051200       0.0%    100.0%      0.0%     
 flops    32 x    45 x    32        2759334082560       0.0%    100.0%      0.0%     
 flops    14 x    50 x    51        2957748427200       0.0%    100.0%      0.0%     
 flops    14 x    51 x    50        3047954616000       0.0%    100.0%      0.0%     
 flops    32 x    52 x    51        3231957011712       0.0%    100.0%      0.0%     
 flops    14 x    51 x    14        3245405398368       0.0%    100.0%      0.0%     
 flops    14 x    32 x    52        3512352037376       0.0%    100.0%      0.0%     
 flops    32 x    14 x    52        3557232526848       0.0%    100.0%      0.0%     
 flops    32 x    53 x    32        3632137318400       0.0%    100.0%      0.0%     
 flops    51 x    51 x    14        4398656222016       0.0%    100.0%      0.0%     
 flops    14 x    14 x    51        4421239996320       0.0%    100.0%      0.0%     
 flops    14 x    13 x    13        4448543012004       0.0%    100.0%      0.0%     
 flops    14 x    14 x    13        4806316473504       0.0%    100.0%      0.0%     
 flops    32 x    51 x    52        4831575690240       0.0%    100.0%      0.0%     
 flops    32 x    32 x     6        4880761147392       0.0%    100.0%      0.0%     
 flops    50 x    50 x    32        5124869440000       0.0%    100.0%      0.0%     
 flops    13 x    13 x    32        5821823707648       0.0%    100.0%      0.0%     
 flops    14 x    51 x    51        6083638112412       0.0%    100.0%      0.0%     
 flops    32 x    50 x    50        7111470560000       0.0%    100.0%      0.0%     
 flops    14 x    13 x    32        7472383388288       0.0%    100.0%      0.0%     
 flops    32 x    13 x    14        7488767348608       0.0%    100.0%      0.0%     
 flops    14 x    50 x    32        8051740256000       0.0%    100.0%      0.0%     
 flops    32 x    50 x    14        8121943424000       0.0%    100.0%      0.0%     
 flops    32 x    52 x    32        8243995828224       0.0%    100.0%      0.0%     
 flops    51 x    50 x    32       10194280656000       0.0%    100.0%      0.0%     
 flops    14 x    32 x    50       10655275500800       0.0%    100.0%      0.0%     
 flops    50 x    51 x    32       10662905865600       0.0%    100.0%      0.0%     
 flops    32 x    14 x    50       10906710348800       0.0%    100.0%      0.0%     
 flops    32 x    50 x    51       14149579209600       0.0%    100.0%      0.0%     
 flops    32 x    51 x    50       14633553379200       0.0%    100.0%      0.0%     
 flops    14 x    51 x    32       15955821334656       0.0%    100.0%      0.0%     
 flops    32 x    51 x    14       16120954203648       0.0%    100.0%      0.0%     
 flops    32 x    32 x    52       17279346393088       0.0%    100.0%      0.0%     
 flops    14 x    32 x    51       21177228667392       0.0%    100.0%      0.0%     
 flops    51 x    51 x    32       21209664148416       0.0%    100.0%      0.0%     
 flops    32 x    13 x    13       21646860167296       0.0%    100.0%      0.0%     
 flops    32 x    14 x    51       21758176401024       0.0%    100.0%      0.0%     
 flops    14 x    32 x    13       23380916004992       0.0%    100.0%      0.0%     
 flops    32 x    14 x    13       23688401085440       0.0%    100.0%      0.0%     
 flops    32 x    51 x    51       29104052218560       0.0%    100.0%      0.0%     
 flops    32 x    13 x    32       37341534437376       0.0%    100.0%      0.0%     
 flops    32 x    50 x    32       39913562828800       0.0%    100.0%      0.0%     
 flops    32 x    32 x    50       52414161715200       0.0%    100.0%      0.0%     
 flops    32 x    51 x    32       79103697186816       0.0%    100.0%      0.0%     
 flops    32 x    32 x    51      104172768135168       0.0%    100.0%      0.0%     
 flops    32 x    32 x    13      115227093436416       0.0%    100.0%      0.0%     
 flops inhomo. stacks            1324771935438400     100.0%      0.0%      0.0%
 flops total                         2.226670E+15      59.5%     40.5%      0.0%
 flops max/rank                     50.221226E+12      60.0%     40.0%      0.0%
 matmuls inhomo. stacks                7812547497     100.0%      0.0%      0.0%
 matmuls total                        35153454742      22.2%     77.8%      0.0%
 number of processed stacks              57831274      14.0%     86.0%      0.0%
 average stack size                                   964.0     549.8       0.0
 marketing flops                     7.710529E+15
 -------------------------------------------------------------------------------
 # multiplications                            506
 max memory usage/rank              34.193449E+09
 # max total images/rank                        3
 # max 3D layers                                1
 # MPI messages exchanged                  485760
 MPI messages size (bytes):
  total size                        13.563512E+12
  min size                           0.000000E+00
  max size                         196.568832E+06
  average size                      27.922250E+06
 MPI breakdown and total messages size (bytes):
             size <=      128               49188                        0
       128 < size <=     8192                 207                  1019616
      8192 < size <=    32768                 636                 14528712
     32768 < size <=   131072                3149                206894904
    131072 < size <=  4194304              137860             212745978560
   4194304 < size <= 16777216              139053             996490098464
  16777216 < size                          155667           12354039262232
 -------------------------------------------------------------------------------

 *** WARNING in dbcsr_mm.F:301 :: Using a non-square number of MPI ranks ***
 *** might lead to poor performance. Used ranks: 48 Suggested: 49 100    ***

 -------------------------------------------------------------------------------
 -                                                                             -
 -                      DBCSR MESSAGE PASSING PERFORMANCE                      -
 -                                                                             -
 -------------------------------------------------------------------------------
 ROUTINE             CALLS      AVE VOLUME [Bytes]
 MP_Bcast              683                     12.
 MP_Allreduce         3491                    154.
 MP_Alltoall          3387                6846305.
 MP_ISend            35198                8363677.
 MP_IRecv            35280                8337096.
 -------------------------------------------------------------------------------

 -------------------------------------------------------------------------------
 -                                                                             -
 -                                GRID STATISTICS                              -
 -                                                                             -
 -------------------------------------------------------------------------------
 LP    KERNEL             BACKEND                              COUNT     PERCENT
 4     collocate ortho    CPU                                  11474      41.05%
 4     integrate ortho    CPU                                  11474      41.05%
 3     collocate ortho    CPU                                   1978       7.08%
 3     integrate ortho    CPU                                   1978       7.08%
 0     collocate general  CPU                                    460       1.65%
 2     collocate ortho    CPU                                    292       1.04%
 2     integrate ortho    CPU                                    292       1.04%
 -------------------------------------------------------------------------------

 -------------------------------------------------------------------------------
 -                                                                             -
 -                          OFFLOAD MEMPOOL STATISTICS                         -
 -                                                                             -
 -------------------------------------------------------------------------------
 Memory consumption                Number of allocations  Used [MiB]  Size [MiB]
 Host                                                  6         215    21726883
 -------------------------------------------------------------------------------

 MEMORY| Estimated peak process memory [MiB]                                7347

 -------------------------------------------------------------------------------
 -                                                                             -
 -                         MESSAGE PASSING PERFORMANCE                         -
 -                                                                             -
 -------------------------------------------------------------------------------

 ROUTINE             CALLS      AVE VOLUME [Bytes]
 MP_Group                5
 MP_Bcast             2538                  59923.
 MP_Allreduce         2857                 595860.
 MP_Sync                10
 MP_Alltoall            46              147066611.
 MP_SendRecv           188                1255500.
 MP_ISendRecv          188                1255500.
 MP_Wait               323
 MP_comm_split          12
 MP_ISend              108                4975868.
 MP_IRecv              108                4977035.
 -------------------------------------------------------------------------------


 -------------------------------------------------------------------------------
 -                                                                             -
 -                           R E F E R E N C E S                               -
 -                                                                             -
 -------------------------------------------------------------------------------
 
 CP2K version 2026.2 (Development Version), the CP2K developers group (2026).
 CP2K is freely available from https://www.cp2k.org/ .
 
 M. Iannuzzi, J. Wilhelm, F. Stein, A. Bussy, H. Elgabarty, D. Golze, A. Hehn, 
 M. Graml, S. Marek, B. Sertcan Gökmen, C. Schran, H. Forbert, R. Z. 
 Khaliullin, A. Kozhevnikov, M. Taillefumier, R. Meli, V. V. Rybkin, M. Brehm, 
 R. Schade, O. Schütt, J. V. Pototschnig, H. Mirhosseini, A. Knüpfer, D. Marx, 
 M. Krack, J. Hutter, T. D. Kühne.
 J. Phys. Chem. B 130, 1237-1310 (2026).
 The CP2K Program Package Made Simple.
 https://doi.org/10.1021/acs.jpcb.5c05851

 M. Graml, K. Zollner, D. Hernangómez-Pérez, P. E. Faria Junior, J. Wilhelm.
 J. Chem. Theory Comput. 20, 2202-2208 (2024).
 Low-scaling GW algorithm applied to twisted transition-metal dichalcogenide 
 heterobilayers.
 https://doi.org/10.1021/acs.jctc.3c01230

 T. D. Kühne, M. Iannuzzi, M. Del Ben, V. V. Rybkin, P. Seewald, F. Stein, T. 
 Laino, R. Z. Khaliullin, O. Schütt, F. Schiffmann, D. Golze, J. Wilhelm, S. 
 Chulkov, M. H. Bani-Hashemian, V. Weber, U. Borstnik, M. Taillefumier, A. S. 
 Jakobovits, A. Lazzaro, H. Pabst, T. Müller, R. Schade, M. Guidon, S. 
 Andermatt, N. Holmberg, G. K. Schenter, A. Hehn, A. Bussy, F. Belleflamme, G. 
 Tabacchi, A. Glöß, M. Lass, I. Bethune, C. J. Mundy, C. Plessl, M. Watkins, 
 J. VandeVondele, M. Krack, J. Hutter.
 J. Chem. Phys. 152, 194103 (2020).
 CP2K: An electronic structure and molecular dynamics software package - 
 Quickstep: Efficient and accurate electronic structure calculations.
 https://doi.org/10.1063/5.0007045

 O. Schuett, P. Messmer, J. Hutter, J. VandeVondele.
 Electronic Structure Calculations on Graphics Processing Units, 173-190 (2016).
 GPU-Accelerated Sparse Matrix-Matrix Multiplication for Linear Scaling Density 
 Functional Theory.
 https://doi.org/10.1002/9781118670712.ch8

 A. Heinecke, G. Henry, M. Hutchinson, H. Pabst.
 Proceedings of Intl. Supercomputing Conference, 981-991 (2016).
 LIBXSMM: Accelerating Small Matrix Multiplications by Runtime Code Generation.
 https://doi.org/10.1109/SC.2016.83

 U. Borstnik, J. VandeVondele, V. Weber, J. Hutter.
 Parallel Comput. 40, 47-58 (2014).
 Sparse matrix multiplication: The distributed block-compressed sparse row 
 library.
 https://doi.org/10.1016/j.parco.2014.03.012

 J. VandeVondele, J. Hutter.
 J. Chem. Phys. 127, 114105 (2007).
 Gaussian basis sets for accurate calculations on molecular systems in gas and 
 condensed phases.
 https://doi.org/10.1063/1.2770708

 J. VandeVondele, M. Krack, F. Mohamed, M. Parrinello, T. Chassaing, J. Hutter.
 Comput. Phys. Commun. 167, 103-128 (2005).
 QUICKSTEP: Fast and accurate density functional calculations using a mixed 
 Gaussian and plane waves approach.
 https://doi.org/10.1016/j.cpc.2004.12.014

 M. Krack.
 Theor. Chem. Acc. 114, 145-152 (2005).
 Pseudopotentials for H to Kr optimized for gradient-corrected 
 exchange-correlation functionals.
 https://doi.org/10.1007/s00214-005-0655-y

 M. Frigo, S. G. Johnson.
 Proc. IEEE 93, 216-231 (2005).
 The design and implementation of FFTW3.
 https://doi.org/10.1109/JPROC.2004.840301

 J. VandeVondele, J. Hutter.
 J. Chem. Phys. 118, 4365-4369 (2003).
 An efficient orbital transformation method for electronic structure 
 calculations.
 https://doi.org/10.1063/1.1543154

 C. Hartwigsen, S. Goedecker, J. Hutter.
 Phys. Rev. B 58, 3641-3662 (1998).
 Relativistic separable dual-space Gaussian pseudopotentials from H to Rn.
 https://doi.org/10.1103/PhysRevB.58.3641

 G. Lippert, J. Hutter, M. Parrinello.
 Mol. Phys. 92, 477-487 (1997).
 A hybrid Gaussian and plane wave density functional scheme.
 https://doi.org/10.1080/002689797170220

 S. Goedecker, M. Teter, J. Hutter.
 Phys. Rev. B 54, 1703-1710 (1996).
 Separable dual-space Gaussian pseudopotentials.
 https://doi.org/10.1103/PhysRevB.54.1703

 J. P. Perdew, K. Burke, M. Ernzerhof.
 Phys. Rev. Lett. 77, 3865-3868 (1996).
 Generalized gradient approximation made simple.
 https://doi.org/10.1103/PhysRevLett.77.3865

 P. E. Blöchl.
 J. Chem. Phys. 103, 7422-7428 (1995).
 Electrostatic decoupling of periodic images of plane‐wave‐expanded 
 densities and derived atomic point charges.
 https://doi.org/10.1063/1.470314

 R. H. Byrd, P. H. Lu, J. Nocedal, C. Y. Zhu.
 SIAM J. Sci. Comput. 16, 1190-1208 (1995).
 A Limited Memory Algorithm for Bound Constrained Optimization.
 https://doi.org/10.1137/0916069


 -------------------------------------------------------------------------------
 -                                                                             -
 -                                T I M I N G                                  -
 -                                                                             -
 -------------------------------------------------------------------------------
 SUBROUTINE                       CALLS  ASD         SELF TIME        TOTAL TIME MAXRANK
                                MAXIMUM       AVERAGE  MAXIMUM  AVERAGE  MAXIMUM
 CP2K                                 1  1.0    0.046    0.120 1506.902 1506.904       0
 qs_energies                          1  2.0    0.012    0.022 1505.108 1505.110      29
 qs_energies_properties               1  3.0    0.000    0.001 1490.609 1490.619       9
 post_scf_bandstructure               1  4.0    0.000    0.001 1490.608 1490.619       4
 run_gw                               1  5.0    0.000    0.000 1482.454 1482.474      18
 gw_calc_ri_rs_non_periodic           1  6.0    0.001    0.002 1330.787 1330.823       1
 compute_W                            1  7.0    0.005    0.012  767.343  767.364      18
 parallel_gemm_fm_cosma             431  9.6  612.710  615.700  612.710  615.700      17
 compute_fm_W_freq                   30  8.0    0.036    0.046  545.074  545.437      45
 dbcsr_multiply_generic             506  9.6    0.051    0.058  358.647  372.924       3
 multiply_cannon                    506 10.6    0.097    0.116  295.935  306.741      40
 multiply_cannon_loop               506 11.6    0.214    0.269  287.327  300.927      14
 multiply_cannon_multrec           6072 12.6  241.382  251.887  241.961  252.519       2
 compute_Sigma_c_and_QP_energie       1  7.0    0.009    0.009  244.501  244.521       2
 compute_Sigma_c                      1  8.0    0.002    0.021  229.872  229.873       0
 contract_grid_panels_sigma_c        30  9.0    0.004    0.004  214.969  215.038      45
 create_and_init_bs_env_for_gw        1  6.0    0.013    0.019  151.667  151.787      24
 generate_auto_ri_basis               1  7.0    0.000    0.001  150.085  150.086       9
 get_mat_chi_Gamma_tau                1  7.0    0.000    0.001  149.966  149.985       0
 contract_grid_panels                31  8.0    0.003    0.004  147.720  149.478      43
 compute_M_pq_inv_and_V_pq            1  8.0    0.000    0.001  143.291  143.318       5
 compute_Z_lP                         1  7.0    0.000    0.000  119.765  119.766       8
 compute_Z_lP_auto_ri                 1  8.0    0.000    0.001  119.765  119.766       9
 cp_fm_cholesky_invert               31  9.0  105.048  105.092  105.048  105.092       9
 compute_M_pq_inv                     1  9.0    0.016    0.017   74.664   74.702      17
 cp_fm_geeig                          2  9.5    0.001    0.001   72.540   72.542      43
 compute_auto_ri_d_lp                 1  9.0    0.000    0.001   70.196   70.241       7
 compute_auto_ri_d_lp_AB_d_lp         1 10.0    0.026    0.059   59.010   69.830       6
 compute_contracted_RI_matrix         2  9.0    0.056    0.070   68.627   68.696      46
 compute_optimized_RI_matrix_bl    4418 10.0    6.322    6.394   66.789   67.742      31
 mp_waitall_1                     40695 13.8   49.705   65.757   49.705   65.757      12
 compute_d_lp_auto_ri_atom           10 11.0   32.777   39.789   54.595   64.909      14
 cp_fm_syevd                          5  9.0    0.000    0.000   63.539   63.629      37
 cp_fm_redistribute_end               5 10.0   31.804   63.566   31.868   63.569      40
 cp_fm_syevd_base                     5 10.0   31.504   63.097   31.504   63.097      16
 compute_M_PQ_AB                  57176 11.0    0.061    0.064   60.544   61.452      16
 compute_M_PQ                     57176 12.0    0.081    0.085   60.483   61.389      16
 int_operators_r12_ab_os          57176 13.0    0.030    0.032   60.402   61.305      16
 int_operator_ab_os_low           57176 14.0   28.302   28.892   60.372   61.274      10
 cp_fm_cholesky_decompose            35  9.0   50.521   52.552   50.521   52.552      21
 fit_auto_ri_z_lp                     1  9.0   13.041   16.670   43.917   49.515       7
 multiply_cannon_metrocomm3        6072 12.6    0.023    0.026   28.214   43.540      24
 mp_sum_l                          1710 10.5   28.068   41.851   28.068   41.851      36
 optimize_ri_rs_grid                  1  7.0    0.000    0.002   35.481   35.518       0
 rirs_grid_LBFGS                      1  8.0    1.159    1.242   33.851   34.018      25
 evaluate_rirs_grid_cluster        1010  9.0    2.450    2.741   22.104   32.020      25
 make_m2s                          1012 10.6    0.031    0.036   28.140   31.099       3
 make_images                       1012 11.6    2.704    3.263   28.045   31.008       5
 mp_sum_root_rm                     499 10.1   17.215   25.159   17.215   25.159      20
 compute_auto_ri_d_lp_transform       1 10.0    0.000    0.000   11.186   23.926      12
 fit_auto_ri_z_lp_gather_rhs         10 10.0    0.000    0.000   14.941   22.884      13
 hybrid_alltoall_any               1116 13.4    1.090    5.236   18.550   22.422       0
 make_images_data                  1012 12.6    0.019    0.020   19.086   22.393      29
 build_G_ao                         121  8.5    0.002    0.003   16.667   18.284      10
 operator2                      ******* 15.0   16.483   16.730   16.483   16.730      32
 G_occ_vir                          121  9.5    0.752    0.864   14.793   16.384       2
 ab_contract                    ******* 15.0   15.588   16.219   15.588   16.219      32
 build_gram_jacobi_blas              10 10.0    1.372    1.704   12.055   15.194      15
 dbcsr_complete_redistribute        265 10.4    4.381    4.773   14.337   14.792      13
 compute_fm_chi_Gamma_freq           30  8.0    0.002    0.002   14.342   14.734      30
 abc_contract_xsmm                86991 12.0   12.861   14.729   12.861   14.729      14
 compute_QP_energies                  1  8.0    0.001    0.001   14.621   14.634       5
 build_3c_integral_block_auto_r   65187 12.0    0.072    0.088   12.597   14.479      15
 compute_Sigma_x                      1  7.0    0.001    0.001   13.661   13.675      35
 build_gram_jacobi_blas_dsyrk        10 11.0   10.683   13.519   10.683   13.519      14
 calculate_norms                  10224 12.6   11.942   13.310   11.942   13.310      30
 mp_sum_d                           558  2.9   10.590   13.286   10.590   13.286      36
 to_Gamma_and_mo_real                62  9.0    0.008    0.008   12.437   12.437      15
 copy_dbcsr_to_fm                   104  9.5    0.003    0.004   10.575   11.994       0
 cp_fm_uplo_to_full                  63  9.0    8.917   11.693    8.917   11.693      45
 mp_sync                             10  9.2    5.627   11.268    5.627   11.268      36
 build_3c_integral_block_auto_r   65187 12.0    9.061   10.798    9.061   10.798      15
 Fourier_transform_w_to_t            30  8.0    0.003    0.003   10.501   10.599       8
 cp_fm_scale_and_add                901  9.0   10.498   10.596   10.498   10.596       1
 rirs_cluster_AO_products          1010 10.0    2.595    9.557    2.595    9.557      25
 build_phi_on_sphere                 20 10.5    0.935    1.208    8.045    9.497       7
 dbcsr_finalize                    2071 10.8    0.109    0.147    8.338    9.015      12
 copy_fm_to_dbcsr                   161  9.3    0.001    0.002    8.667    8.863      14
 dbcsr_merge_all                   1812 11.9    0.729    0.931    8.154    8.821      37
 evaluate_ao_on_points             6005 11.5    7.110    8.378    7.110    8.378      14
 cp_fm_triangular_multiply            7 10.0    7.787    7.902    7.787    7.902       8
 mp_alltoall_d11v                  1111 11.7    7.626    7.899    7.626    7.899      28
 rirs_cluster_gradient_coordina    1010 10.0    6.321    7.529    6.321    7.529      25
 dbcsr_add_d                        935  9.0    0.004    0.008    6.784    7.153       1
 dbcsr_add_anytype                  935 10.0    6.340    6.684    6.780    7.151      31
 multiply_cannon_metrocomm1        6072 12.6    0.014    0.016    4.208    7.125      14
 scf_env_do_scf                       1  3.0    0.001    0.001    6.478    6.482      26
 fft_wrap_pw1pw2                     28 10.0    0.001    0.001    6.141    6.331      40
 fft_wrap_pw1pw2_300                 16 11.2    0.157    0.170    5.918    6.098      12
 qs_energies_init_hamiltonians        1  3.0    0.001    0.002    5.996    5.996      16
 qs_env_update_s_mstruct              1  4.0    0.004    0.008    5.906    5.944      16
 buffer_matrices_ensure_size       1012 11.6    4.838    5.797    4.838    5.797       6
 rirs_cluster_gradient_products    1010 10.0    5.075    5.670    5.075    5.670      21
 compute_V_MinvVsqrt                  1  8.0    0.010    0.011    5.499    5.526      12
 mp_allgather_i34                   506 11.6    3.394    5.430    3.394    5.430      36
 fft3d_ps                            28 12.0    1.369    1.502    5.241    5.419       7
 qs_ks_build_kohn_sham_matrix         2  7.5    0.017    0.041    5.329    5.336       4
 hadamard_product                    91  9.7    2.424    2.648    4.598    4.958      27
 dbcsr_sort_data                   1953 14.1    4.461    4.932    4.461    4.932      32
 init_scf_loop                        1  4.0    0.006    0.010    4.765    4.767      23
 dbcsr_desymmetrize_deep            104 10.5    0.529    0.548    3.277    4.653      25
 eval_bandstructure_properties        1  5.0    0.001    0.001    4.273    4.274       3
 extract_masked_blocks              244  9.6    3.198    3.702    3.708    4.224      22
 make_images_pack                  1012 12.6    3.618    4.193    3.627    4.201      27
 dbcsr_copy                        1160 10.5    3.774    4.158    3.789    4.173      17
 qs_ks_update_qs_env                  2  5.0    0.000    0.001    4.080    4.084      31
 rebuild_ks_matrix                    1  6.0    0.000    0.001    4.076    4.081      16
 cp_fm_syrk                           1 10.0    4.066    4.070    4.066    4.070      47
 compute_AB_optimized_RI_basis        1  8.0    0.004    0.006    4.007    4.007       0
 cp_ddapc_init                        1  5.0    0.000    0.000    3.952    3.961      28
 cp_ddapc_create                      1  6.0    0.002    0.003    3.952    3.961      19
 compute_AB_optimized_RI_basis_       1  9.0    0.003    0.005    3.941    3.949       6
 ddapc_eval_AmI                       1  7.0    0.105    0.214    3.811    3.915       4
 create_and_init_bs_env               1  5.0    0.001    0.001    3.881    3.891      12
 mp_alltoall_i22                    369 11.4    2.316    3.830    2.316    3.830       2
 mp_alltoall_z22v                    28 14.0    3.409    3.685    3.409    3.685      44
 build_A_matrix                       1  8.0    3.331    3.661    3.331    3.661       2
 diagonalize_ks_matrix                1  6.0    0.000    0.000    3.512    3.514      22
 cp_fm_geeig_canon                    1  7.0    0.000    0.001    3.512    3.514      22
 cp_cfm_geeig                         1  6.0    0.000    0.001    3.152    3.156      15
 mp_sum_dm                         1531 11.0    2.583    3.063    2.583    3.063      45
 dbcsr_data_copy_aa2                660 12.8    2.606    3.053    2.606    3.053      25
 mp_isend_dv                      18852 14.0    1.318    3.021    1.318    3.021      16
 make_images_sizes                 1012 12.6    0.001    0.002    1.184    3.010      26
 mp_alltoall_i44                   1012 13.6    1.182    3.009    1.182    3.009      36
 cp_fm_get_submatrix               1528 10.0    0.651    0.719    2.835    2.888       2
 extract_grid_panel                 122  9.5    2.093    2.428    2.414    2.880      22
 yz_to_x                             14 12.2    0.217    0.304    2.637    2.853       2
 compute_AA_optimized_RI_basis        1  8.0    0.007    0.009    2.760    2.761      21
 rirs_cluster_residual             1010 10.0    2.335    2.739    2.335    2.739      25
 qs_vxc_create                        2  8.5    0.003    0.007    2.692    2.704      17
 xc_vxc_pw_create                     1  9.0    0.045    0.053    2.689    2.704       6
 qs_rho_update_rho_low                2  5.0    0.002    0.006    2.607    2.610      19
 calculate_rho_elec                   2  6.0    0.047    0.049    2.605    2.610      25
 cp_fm_triangular_invert              2 10.5    2.518    2.526    2.518    2.526      35
 compute_B_PQ_AA                    460  9.0    0.010    0.011    2.349    2.365      16
 cp_cfm_heevd                         1  7.0    0.000    0.000    2.098    2.112      22
 cp_cfm_heevd_base                    1  8.0    2.098    2.112    2.098    2.112      37
 xc_pw_derive                         6 11.0    0.000    0.000    1.902    2.039      23
 rirs_cluster_d_lP                 1010 10.0    1.765    2.033    1.765    2.033      25
 init_scf_run                         1  3.0    0.004    0.007    2.006    2.008      23
 scf_env_initial_rho_setup            1  4.0    0.000    0.000    2.002    2.002       9
 calculate_rho_core                   1  5.0    0.051    0.069    1.899    1.940       3
 rirs_cluster_D_ll                 1010 10.0    1.564    1.769    1.564    1.769      25
 multiply_cannon_metrocomm4        5566 12.6    0.028    0.031    0.238    1.748      24
 scf_env_do_scf_inner_loop            1  4.0    0.003    0.008    1.671    1.710      24
 rirs_grid_build_clusters             1  8.0    1.046    1.343    1.333    1.680      12
 dbcsr_add_wm_from_matrix           167 10.6    0.593    0.747    1.454    1.634       0
 density_rs2pw                        2  7.0    0.003    0.006    1.549    1.599      15
 xc_pw_divergence                     1 10.0    0.000    0.000    1.309    1.550      23
 mp_sum_iv                          568 11.3    0.891    1.534    0.891    1.534      32
 -------------------------------------------------------------------------------

 The number of warnings for this run is : 1
 
 -------------------------------------------------------------------------------
  **** **** ******  **  PROGRAM ENDED AT                 2026-10-02 05:57:18.958
 ***** ** ***  *** **   PROGRAM RAN ON                                  n2cn0954
 **    ****   ******    PROGRAM RAN BY                                  eprop2d1
 ***** **    ** ** **   PROGRAM PROCESS ID                               1316858
  **** **  *******  **  PROGRAM STOPPED IN /scratch/hpc-prf-metdyn/eprop2d1_Jan/
                                           53_benchmark_RI_opt/405_figure4_phosp
                                           horene_eps1e10_20261001/h60_rc3_ri4_r
                                           s06_e10
