 DBCSR| CPU Multiplication driver                                           XSMM (U)
 DBCSR| Multrec recursion limit                                              512 (U)
 DBCSR| Multiplication stack size                                           1000 (D)
 DBCSR| Maximum elements for images                                    UNLIMITED (U)
 DBCSR| Multiplicative factor virtual images                                   1 (U)
 DBCSR| Use multiplication densification                                       T (D)
 DBCSR| Multiplication size stacks                                             3 (U)
 DBCSR| Use memory pool for CPU allocation                                     F (U)
 DBCSR| Number of 3D layers                                               SINGLE (U)
 DBCSR| Use MPI memory allocation                                              F (U)
 DBCSR| Use RMA algorithm                                                      F (U)
 DBCSR| Use Communication thread                                               T (U)
 DBCSR| Communication thread load                                             30 (D)
 DBCSR| MPI: My process id                                                     5
 DBCSR| MPI: Number of processes                                               8
 DBCSR| OMP: Current number of threads                                        16
 DBCSR| OMP: Max number of threads                                            16
 DBCSR| Split modifier for TAS multiplication algorithm                  1.0E+00 (U)


  **** **** ******  **  PROGRAM STARTED AT               2026-09-16 21:47:16.991
 ***** ** ***  *** **   PROGRAM STARTED ON                              n2cn0641
 **    ****   ******    PROGRAM STARTED BY                              eprop2d1
 ***** **    ** ** **   PROGRAM PROCESS ID                                199866
  **** **  *******  **  PROGRAM STARTED IN /scratch/hpc-prf-metdyn/eprop2d1_Jan/
                                           53_benchmark_RI_opt/111_GW100_GTH_Leb
                                           edev_riao245_rc3/calculations/66_NCH_
                                           riao5_r02

 CP2K| version string:                 CP2K version 2026.2 (Development Version)
 CP2K| source code revision number:                                      unknown
 CP2K| cp2kflags: omp libint fftw3 libxc parallel scalapack openblas            
 CP2K| is freely available from                            https://www.cp2k.org/
 CP2K| Program compiled at                                   2026-09-15 17:57:52
 CP2K| Program compiled on                                              n2login6
 CP2K| Program compiled for                                               x86_64
 CP2K| Data directory path    /scratch/hpc-prf-metdyn/eprop2d1_Jan/53_benchmark_
 CP2K| Input file name                                                 input.inp
 
 eprop2d1@n2cn0641 has created rank and process                      0    199866
 
 eprop2d1@n2cn0641 is running                                        1 processes

 GLOBAL| Force Environment number                                              1
 GLOBAL| Basis set file name            /scratch/hpc-prf-metdyn/eprop2d1_Jan/53_
 GLOBAL| Potential file name            /scratch/hpc-prf-metdyn/eprop2d1_Jan/53_
 GLOBAL| MM Potential file name                                     MM_POTENTIAL
 GLOBAL| Coordinate file name                                      __STD_INPUT__
 GLOBAL| Method name                                                        CP2K
 GLOBAL| Project name                                gw100_106_66_NCH_a3_leb_r02
 GLOBAL| Run type                                                         ENERGY
 GLOBAL| FFT library                                                       FFTW3
 GLOBAL| Diagonalization library                                       ScaLAPACK
 GLOBAL| Cholesky decomposition library                                ScaLAPACK
 GLOBAL| DGEMM library                                                      BLAS
 GLOBAL| Direct generalized diagonalization requested                          F
 GLOBAL| Orthonormality check for eigenvectors                          DISABLED
 GLOBAL| Matrix multiplication library                                 ScaLAPACK
 GLOBAL| All-to-all communication in single precision                          F
 GLOBAL| Grid backend                                                       AUTO
 GLOBAL| Global print level                                                  LOW
 GLOBAL| MPI I/O enabled                                                       T
 GLOBAL| Total number of message passing processes                             1
 GLOBAL| Number of distributed systems (nodes)                                 1
 GLOBAL| Number of threads for this process                                   16
 GLOBAL| This output is from process                                           0
 GLOBAL| OpenMP stack size per thread (OMP_STACKSIZE)                       128M
 GLOBAL| CPU model name                          AMD EPYC 7763 64-Core Processor

 MEMORY| system memory details [Kb]
 MEMORY|                        rank 0           min           max       average
 MEMORY| MemTotal            263897592     263897592     263897592     263897592
 MEMORY| MemFree             251188876     251188876     251188876     251188876
 MEMORY| Buffers                383228        383228        383228        383228
 MEMORY| Cached                7065336       7065336       7065336       7065336
 MEMORY| Slab                  1253164       1253164       1253164       1253164
 MEMORY| SReclaimable           309544        309544        309544        309544
 MEMORY| MemLikelyFree       258946984     258946984     258946984     258946984


 GENERATE|  Preliminary Number of Bonds generated:                             0
 GENERATE|  Achieved consistency in connectivity generation.

 *******************************************************************************
 *******************************************************************************
 **                                                                           **
 **     #####                         ##              ##                      **
 **    ##   ##            ##          ##              ##                      **
 **   ##     ##                       ##            ######                    **
 **   ##     ##  ##   ##  ##   #####  ##  ##   ####   ##    #####    #####    **
 **   ##     ##  ##   ##  ##  ##      ## ##   ##      ##   ##   ##  ##   ##   **
 **   ##  ## ##  ##   ##  ##  ##      ####     ###    ##   ######   ######    **
 **    ##  ###   ##   ##  ##  ##      ## ##      ##   ##   ##       ##        **
 **     #######   #####   ##   #####  ##  ##  ####    ##    #####   ##        **
 **           ##                                                    ##        **
 **                                                                           **
 **                                                ... make the atoms dance   **
 **                                                                           **
 **            Copyright (C) by CP2K developers group (2000-2026)             **
 **                      J. Chem. Phys. 152, 194103 (2020)                    **
 **                                                                           **
 *******************************************************************************


 TOTAL NUMBERS AND MAXIMUM NUMBERS

  Total number of            - Atomic kinds:                                   3
                             - Atoms:                                          3
                             - Shell sets:                                     3
                             - Shells:                                        14
                             - Primitive Cartesian functions:                 19
                             - Cartesian basis functions:                     34
                             - Spherical basis functions:                     32

  Maximum angular momentum of- Orbital basis functions:                        2
                             - Local part of the GTH pseudopotential:          2
                             - Non-local part of the GTH pseudopotential:      0


 SCF PARAMETERS         Density guess:                                    ATOMIC
                        --------------------------------------------------------
                        max_scf:                                             500
                        max_scf_history:                                       0
                        max_diis:                                              4
                        --------------------------------------------------------
                        eps_scf:                                        1.00E-08
                        eps_scf_history:                                0.00E+00
                        eps_diis:                                       0.00E+00
                        eps_eigval:                                     1.00E-05
                        --------------------------------------------------------
                        level_shift [a.u.]:                             0.000000
                        --------------------------------------------------------
                        Outer loop SCF in use 
                        No variables optimised in outer loop
                        eps_scf                                         1.00E-08
                        max_scf                                               20
                        No outer loop optimization
                        step_size                                       5.00E-01

 Extrapolation method: initial_guess

 Number of electrons:                                                         10
 Number of occupied orbitals:                                                  5
 Number of molecular orbitals:                                                 5

 Number of orbital functions:                                                 32
 Number of independent orbital functions:                                     32


 SCF WAVEFUNCTION OPTIMIZATION

  ----------------------------------- OT ---------------------------------------
  Minimizer      : DIIS                : direct inversion
                                         in the iterative subspace
                                         using   7 DIIS vectors
                                         safer DIIS on
  Preconditioner : FULL_KINETIC        : inversion of T + eS
  Lattice FFT   : OFF
  Precond_solver : DEFAULT
  stepsize       :    0.15000000                  energy_gap     :    0.20000000
  eps_taylor     :   0.10000E-15                  max_taylor     :             4
  ----------------------------------- OT ---------------------------------------

  Step     Update method      Time    Convergence         Total energy    Change
  ------------------------------------------------------------------------------
  Decoupling Energy:                                               0.0000746695
     1 OT DIIS     0.15E+00    6.1     0.15025893       -15.2784508323 -1.53E+01
  Decoupling Energy:                                               0.0000059142
     2 OT DIIS     0.15E+00    6.8     0.08402798       -15.6322302932 -3.54E-01
  Decoupling Energy:                                              -0.0000002706
     3 OT DIIS     0.15E+00    6.9     0.06257072       -15.7657904754 -1.34E-01
  Decoupling Energy:                                               0.0000057969
     4 OT DIIS     0.15E+00    6.8     0.04728857       -15.8763751161 -1.11E-01
  Decoupling Energy:                                               0.0000200687
     5 OT DIIS     0.15E+00    6.9     0.03678949       -15.9767971507 -1.00E-01
  Decoupling Energy:                                               0.0000322760
     6 OT DIIS     0.15E+00    6.8     0.02892217       -16.0472907201 -7.05E-02
  Decoupling Energy:                                               0.0000389608
     7 OT DIIS     0.15E+00    6.9     0.02156734       -16.1000141428 -5.27E-02
  Decoupling Energy:                                               0.0000412064
     8 OT DIIS     0.15E+00    6.8     0.01220471       -16.1465582564 -4.65E-02
  Decoupling Energy:                                               0.0000405120
     9 OT DIIS     0.15E+00    6.8     0.00816427       -16.1573986097 -1.08E-02
  Decoupling Energy:                                               0.0000397125
    10 OT DIIS     0.15E+00    6.8     0.00551579       -16.1614445938 -4.05E-03
  Decoupling Energy:                                               0.0000388292
    11 OT DIIS     0.15E+00    6.8     0.00344693       -16.1634279997 -1.98E-03
  Decoupling Energy:                                               0.0000382171
    12 OT DIIS     0.15E+00    6.8     0.00232084       -16.1641450677 -7.17E-04
  Decoupling Energy:                                               0.0000378318
    13 OT DIIS     0.15E+00    6.8     0.00159669       -16.1644602864 -3.15E-04
  Decoupling Energy:                                               0.0000375416
    14 OT DIIS     0.15E+00    6.8     0.00101872       -16.1646224665 -1.62E-04
  Decoupling Energy:                                               0.0000374384
    15 OT DIIS     0.15E+00    6.8     0.00072937       -16.1646729497 -5.05E-05
  Decoupling Energy:                                               0.0000373879
    16 OT DIIS     0.15E+00    6.8     0.00052641       -16.1646997234 -2.68E-05
  Decoupling Energy:                                               0.0000374137
    17 OT DIIS     0.15E+00    6.8     0.00038357       -16.1647157606 -1.60E-05
  Decoupling Energy:                                               0.0000374485
    18 OT DIIS     0.15E+00    6.8     0.00029220       -16.1647235500 -7.79E-06
  Decoupling Energy:                                               0.0000374701
    19 OT DIIS     0.15E+00    6.8     0.00021206       -16.1647287942 -5.24E-06
  Decoupling Energy:                                               0.0000374661
    20 OT DIIS     0.15E+00    6.8     0.00015834       -16.1647315445 -2.75E-06
  Decoupling Energy:                                               0.0000374522
    21 OT DIIS     0.15E+00    6.8     0.00012328       -16.1647329259 -1.38E-06
  Decoupling Energy:                                               0.0000374379
    22 OT DIIS     0.15E+00    6.8     0.00008333       -16.1647340129 -1.09E-06
  Decoupling Energy:                                               0.0000374424
    23 OT DIIS     0.15E+00    6.8     0.00005798       -16.1647344403 -4.27E-07
  Decoupling Energy:                                               0.0000374494
    24 OT DIIS     0.15E+00    6.8     0.00004224       -16.1647346137 -1.73E-07
  Decoupling Energy:                                               0.0000374616
    25 OT DIIS     0.15E+00    6.8     0.00002904       -16.1647347145 -1.01E-07
  Decoupling Energy:                                               0.0000374671
    26 OT DIIS     0.15E+00    6.8     0.00002197       -16.1647347551 -4.06E-08
  Decoupling Energy:                                               0.0000374699
    27 OT DIIS     0.15E+00    6.8     0.00001655       -16.1647347794 -2.44E-08
  Decoupling Energy:                                               0.0000374703
    28 OT DIIS     0.15E+00    6.8     0.00001246       -16.1647347951 -1.57E-08
  Decoupling Energy:                                               0.0000374702
    29 OT DIIS     0.15E+00    6.8     0.00000985       -16.1647348033 -8.18E-09
  Decoupling Energy:                                               0.0000374704
    30 OT DIIS     0.15E+00    6.8     0.00000776       -16.1647348086 -5.34E-09
  Decoupling Energy:                                               0.0000374712
    31 OT DIIS     0.15E+00    6.8     0.00000594       -16.1647348124 -3.72E-09
  Decoupling Energy:                                               0.0000374714
    32 OT DIIS     0.15E+00    6.8     0.00000474       -16.1647348143 -1.90E-09
  Decoupling Energy:                                               0.0000374715
    33 OT DIIS     0.15E+00    6.8     0.00000358       -16.1647348157 -1.44E-09
  Decoupling Energy:                                               0.0000374712
    34 OT DIIS     0.15E+00    6.8     0.00000270       -16.1647348165 -7.83E-10
  Decoupling Energy:                                               0.0000374708
    35 OT DIIS     0.15E+00    6.8     0.00000205       -16.1647348169 -4.36E-10
  Decoupling Energy:                                               0.0000374705
    36 OT DIIS     0.15E+00    6.8     0.00000143       -16.1647348172 -2.85E-10
  Decoupling Energy:                                               0.0000374705
    37 OT DIIS     0.15E+00    6.8     0.00000105       -16.1647348173 -1.22E-10
  Decoupling Energy:                                               0.0000374706
    38 OT DIIS     0.15E+00    6.8     0.00000083       -16.1647348174 -5.01E-11
  Decoupling Energy:                                               0.0000374707
    39 OT DIIS     0.15E+00    7.0     0.00000062       -16.1647348174 -3.77E-11
  Decoupling Energy:                                               0.0000374707
    40 OT DIIS     0.15E+00    6.8     0.00000048       -16.1647348174 -1.98E-11
  Decoupling Energy:                                               0.0000374707
    41 OT DIIS     0.15E+00    6.9     0.00000037       -16.1647348174 -1.23E-11
  Decoupling Energy:                                               0.0000374706
    42 OT DIIS     0.15E+00    6.8     0.00000028       -16.1647348174 -7.10E-12
  Decoupling Energy:                                               0.0000374706
    43 OT DIIS     0.15E+00    6.8     0.00000023       -16.1647348174 -3.99E-12
  Decoupling Energy:                                               0.0000374706
    44 OT DIIS     0.15E+00    7.1     0.00000017       -16.1647348175 -3.13E-12
  Decoupling Energy:                                               0.0000374706
    45 OT DIIS     0.15E+00    6.9     0.00000013       -16.1647348175 -1.72E-12
  Decoupling Energy:                                               0.0000374706
    46 OT DIIS     0.15E+00    6.8     0.00000011       -16.1647348175 -8.53E-13
  Decoupling Energy:                                               0.0000374707
    47 OT DIIS     0.15E+00    6.8     0.00000008       -16.1647348175 -7.92E-13
  Decoupling Energy:                                               0.0000374707
    48 OT DIIS     0.15E+00    6.8     0.00000006       -16.1647348175 -4.19E-13
  Decoupling Energy:                                               0.0000374706
    49 OT DIIS     0.15E+00    6.8     0.00000005       -16.1647348175 -2.13E-13
  Decoupling Energy:                                               0.0000374706
    50 OT DIIS     0.15E+00    6.8     0.00000004       -16.1647348175 -1.56E-13
  Decoupling Energy:                                               0.0000374706
    51 OT DIIS     0.15E+00    6.8     0.00000003       -16.1647348175 -6.39E-14
  Decoupling Energy:                                               0.0000374706
    52 OT DIIS     0.15E+00    6.8     0.00000002       -16.1647348175 -4.62E-14
  Decoupling Energy:                                               0.0000374706
    53 OT DIIS     0.15E+00    6.8     0.00000002       -16.1647348175 -2.49E-14
  Decoupling Energy:                                               0.0000374706
    54 OT DIIS     0.15E+00    6.9     0.00000001       -16.1647348175 -7.11E-15
  Decoupling Energy:                                               0.0000374706
    55 OT DIIS     0.15E+00    6.9     0.00000001       -16.1647348175 -1.07E-14
  Decoupling Energy:                                               0.0000374706
    56 OT DIIS     0.15E+00    6.8     7.9804E-09       -16.1647348175 -3.55E-15

  *** SCF run converged in    56 steps ***


  Electronic density on regular grids:        -10.0000000000        0.0000000000
  Core density on regular grids:               10.0000000000       -0.0000000000
  Total charge density on r-space grids:       -0.0000000000
  Total charge density g-space grids:          -0.0000000000

  Overlap energy of the core charge distribution:               0.00000800609004
  Self energy of the core charge distribution:                -39.59610072538000
  Core Hamiltonian energy:                                     11.70188692231299
  Hartree energy:                                              16.21614069512025
  Exchange-correlation energy:                                 -4.48666971560065

  Total energy:                                               -16.16473481745737

  outer SCF iter =    1 RMS gradient =   0.80E-08 energy =        -16.1647348175
  outer SCF loop converged in   1 iterations or   56 steps

  
 -------------------------------------------------------------------------------
 -                                                                             -
 -                          BANDSTRUCTURE CALCULATION                          -
 -                                                                             -
 -------------------------------------------------------------------------------
  
 Number of occupied molecular orbitals (MOs) = Number of occupied bands        5
 Number of unoccupied (= virtual) MOs = Number of unoccupied bands            27
 Number of Gaussian basis functions for MOs                                   32
  
 -------------------------------------------------------------------------------
 -                                                                             -
 -                                GW CALCULATION                               -
 -                                                                             -
 -------------------------------------------------------------------------------
  
 Input: Number of time/freq. points                                           30
 Input: ω_max for fitting Σ(iω) (eV)                                        10.0
 Input: Filter threshold for sparse tensor operations                    1.0E-07
 Input: Apply Hedin shift                                                      F
 Input: Available memory per MPI process                                  8.0 GB
 
 Input: RI-RS Tikhonov regularization                                   1.00E-04
 Input: AO grid hard cutoff radius                                        8.00 Å
 Input: MPI ranks per atom in Z_lP solve                                      -1
 Input: Keep sparsity in χ/G/W panels                                          T
 Input: GW flavour                                                          G0W0
 
 Input: RI-RS grid optimization activated                                      T
 Input: Initial RI-RS grid                                              CHOLESKY
 Input: RS points per AO function                                         2.0000
 Input: Initial RS candidates per AO function                            30.0000
 Input: Additional Lebedev degree                                              2
 Input: Cholesky selection matrix                                        D_PRIME
 Input: Cholesky candidate domain                                      FULL_ATOM
 Input: Initial radial quadrature                                       GAPW_LOG
 Input: Cutoff radius for atomic clusters                                  3.0 Å
 Input: Maximum grid optimization iterations                                 300
 Input: L-BFGS history size                                                    7
 Input: L-BFGS relative-function factor                              0.00000E+00
 Input: L-BFGS projected-gradient tolerance                          1.00000E-09
 
 Input: AUTO_RI basis optimization activated:                                  T
 Input: AUTO_RI requested RI/AO ratio:                                       5.0
 Input: AUTO_RI frontier orbital window:                                  5.0 eV
 Input: AUTO_RI neighbor radius:                                           3.0 Å
 
 Cutoff radius for the truncated Coulomb operator in RI metric:            7.0 Å
 Regularization parameter of RI                                          0.0E+00
 Regularization parameter of minimax grids                               1.0E-06
 
 AUTO_RI| Number of automatic RI functions for χ, ε, W:                      160
 AUTO_RI| Total RI basis optimization time:                                0.6 s
  Decoupling Energy:                                               0.0000374706
 
 SCF direct band gap (eV)                                                   8.04
 Max. SCF eigval diff. (eV)                                               136.45
 E-Range for minimax grid                                                  16.97
 Number of Padé parameters for analytic continuation:                         16
 
 RI-RS basis radii (Å):
     Kind  Elem     r_AO (Å)     r_RI (Å)
        1    C         8.0299        5.0785
        2    H         9.5011        6.0090
        3    N         8.0299        5.0785
 
 RI-RS initialization: atomic kind                                             1
 RI-RS initialization: Lebedev degree                                         11
 RI-RS initialization: radial shells                                           8
 RI-RS initialization: candidates per atom                                   400
 RI-RS initialization: retained points per atom                               26
 RI-RS initialization: atomic kind                                             2
 RI-RS initialization: Lebedev degree                                          7
 RI-RS initialization: radial shells                                           7
 RI-RS initialization: candidates per atom                                   182
 RI-RS initialization: retained points per atom                               12
 RI-RS initialization: atomic kind                                             3
 RI-RS initialization: Lebedev degree                                          9
 RI-RS initialization: radial shells                                          11
 RI-RS initialization: candidates per atom                                   418
 RI-RS initialization: retained points per atom                               26
 RI-RS initialization: largest cluster candidate count                      1000
 RI-RS initialization: most pivots in one cluster                             98
 RI-RS initialization: most stored AO values in one cluster                32000
 RI-RS initialization: wall time [s]                                       0.006
 Started RI-RS grid optimization
 RI-RS grid initial normalized error                          6.569870830714E-02
 RI-RS grid optimization completed, execution time:                        2.3 s
 Normalized 3C error:                                                    8.2E-04
 Maximum absolute 3C error:                                              1.3E-01
 Optimized points outside molecular Voronoi cells:                            11 / 64
 Total grid points used for RI-RS:                                            64
 
 RI-RS grid row-blocks of Φ_μ(r_l)                                             3
 RI-RS grid points per block (max)                                            32
 
 Percentage of non-zero matrix elements in Φ_μ(r_l)                     100.00 %
 
 RI-RS memory estimate per MPI process:
   Available memory per process (system)                               224.82 GB
   Required for Z_lP (dense upper bound; actual is sparser)              0.00 GB
   Required for χ, W, Σ panels (peak per panel step)                     0.00 GB
   Required for Z_lP solve peak (D_local+φ, worst-case atom)             0.00 GB
   Worst-case local-grid number of grid points:                               64
   Worst-case memory D_local:                                            0.00 GB
 
 Started computing Z_lP
 Computed Z_lP (MPI rank 0) for atom          1 /  3,    Execution time    0.0 s
 Computed Z_lP (MPI rank 0) for atom          2 /  3,    Execution time    0.0 s
 Computed Z_lP (MPI rank 0) for atom          3 /  3,    Execution time    0.0 s
 Computed Z_lP (all MPI ranks) for all atoms,            Execution time    0.0 s

 Number of batches for χ, Σ matrices                                           1
 
 Percentage of non-zero matrix elements in Z_lP                         100.00 %
 Percentage of non-zero matrix elements in G_ll', χ_ll', W_ll'          100.00 %
 Percentage of non-zero matrix elements in χ_PQ for time point 1        100.00 %
 
 Computed χ(iτ,k=0) for time point            1 / 30,    Execution time    0.0 s
 Computed χ(iτ,k=0) for time point            2 / 30,    Execution time    0.0 s
 Computed χ(iτ,k=0) for time point            3 / 30,    Execution time    0.0 s
 Computed χ(iτ,k=0) for time point            4 / 30,    Execution time    0.0 s
 Computed χ(iτ,k=0) for time point            5 / 30,    Execution time    0.0 s
 Computed χ(iτ,k=0) for time point            6 / 30,    Execution time    0.0 s
 Computed χ(iτ,k=0) for time point            7 / 30,    Execution time    0.0 s
 Computed χ(iτ,k=0) for time point            8 / 30,    Execution time    0.0 s
 Computed χ(iτ,k=0) for time point            9 / 30,    Execution time    0.0 s
 Computed χ(iτ,k=0) for time point           10 / 30,    Execution time    0.0 s
 Computed χ(iτ,k=0) for time point           11 / 30,    Execution time    0.0 s
 Computed χ(iτ,k=0) for time point           12 / 30,    Execution time    0.0 s
 Computed χ(iτ,k=0) for time point           13 / 30,    Execution time    0.0 s
 Computed χ(iτ,k=0) for time point           14 / 30,    Execution time    0.0 s
 Computed χ(iτ,k=0) for time point           15 / 30,    Execution time    0.0 s
 Computed χ(iτ,k=0) for time point           16 / 30,    Execution time    0.0 s
 Computed χ(iτ,k=0) for time point           17 / 30,    Execution time    0.0 s
 Computed χ(iτ,k=0) for time point           18 / 30,    Execution time    0.0 s
 Computed χ(iτ,k=0) for time point           19 / 30,    Execution time    0.0 s
 Computed χ(iτ,k=0) for time point           20 / 30,    Execution time    0.0 s
 Computed χ(iτ,k=0) for time point           21 / 30,    Execution time    0.0 s
 Computed χ(iτ,k=0) for time point           22 / 30,    Execution time    0.0 s
 Computed χ(iτ,k=0) for time point           23 / 30,    Execution time    0.0 s
 Computed χ(iτ,k=0) for time point           24 / 30,    Execution time    0.0 s
 Computed χ(iτ,k=0) for time point           25 / 30,    Execution time    0.0 s
 Computed χ(iτ,k=0) for time point           26 / 30,    Execution time    0.0 s
 Computed χ(iτ,k=0) for time point           27 / 30,    Execution time    0.0 s
 Computed χ(iτ,k=0) for time point           28 / 30,    Execution time    0.0 s
 Computed χ(iτ,k=0) for time point           29 / 30,    Execution time    0.0 s
 Computed χ(iτ,k=0) for time point           30 / 30,    Execution time    0.0 s
 
 Computed W(iτ),                                         Execution time    0.1 s
 
 Computed Σ^x(k=0),                                      Execution time    0.0 s
 
 Computed Σ^c(iτ) for time point              1 / 30,    Execution time    0.0 s
 Computed Σ^c(iτ) for time point              2 / 30,    Execution time    0.0 s
 Computed Σ^c(iτ) for time point              3 / 30,    Execution time    0.0 s
 Computed Σ^c(iτ) for time point              4 / 30,    Execution time    0.0 s
 Computed Σ^c(iτ) for time point              5 / 30,    Execution time    0.0 s
 Computed Σ^c(iτ) for time point              6 / 30,    Execution time    0.0 s
 Computed Σ^c(iτ) for time point              7 / 30,    Execution time    0.0 s
 Computed Σ^c(iτ) for time point              8 / 30,    Execution time    0.0 s
 Computed Σ^c(iτ) for time point              9 / 30,    Execution time    0.0 s
 Computed Σ^c(iτ) for time point             10 / 30,    Execution time    0.0 s
 Computed Σ^c(iτ) for time point             11 / 30,    Execution time    0.0 s
 Computed Σ^c(iτ) for time point             12 / 30,    Execution time    0.0 s
 Computed Σ^c(iτ) for time point             13 / 30,    Execution time    0.0 s
 Computed Σ^c(iτ) for time point             14 / 30,    Execution time    0.0 s
 Computed Σ^c(iτ) for time point             15 / 30,    Execution time    0.0 s
 Computed Σ^c(iτ) for time point             16 / 30,    Execution time    0.0 s
 Computed Σ^c(iτ) for time point             17 / 30,    Execution time    0.0 s
 Computed Σ^c(iτ) for time point             18 / 30,    Execution time    0.0 s
 Computed Σ^c(iτ) for time point             19 / 30,    Execution time    0.0 s
 Computed Σ^c(iτ) for time point             20 / 30,    Execution time    0.0 s
 Computed Σ^c(iτ) for time point             21 / 30,    Execution time    0.0 s
 Computed Σ^c(iτ) for time point             22 / 30,    Execution time    0.0 s
 Computed Σ^c(iτ) for time point             23 / 30,    Execution time    0.0 s
 Computed Σ^c(iτ) for time point             24 / 30,    Execution time    0.0 s
 Computed Σ^c(iτ) for time point             25 / 30,    Execution time    0.0 s
 Computed Σ^c(iτ) for time point             26 / 30,    Execution time    0.0 s
 Computed Σ^c(iτ) for time point             27 / 30,    Execution time    0.0 s
 Computed Σ^c(iτ) for time point             28 / 30,    Execution time    0.0 s
 Computed Σ^c(iτ) for time point             29 / 30,    Execution time    0.0 s
 Computed Σ^c(iτ) for time point             30 / 30,    Execution time    0.0 s

 *** WARNING in post_scf_bandstructure_utils.F:3164 :: G0W0 reorders the   ***
 *** empty levels: the SCF conduction band minimum (SCF LUMO) is level 6,  ***
 *** whereas the G0W0 conduction band minimum (G0W0 LUMO) is level 8. The  ***
 *** SCF and G0W0 band edges printed below therefore belong to different   ***
 *** orbitals; see the eigenvalues in the file bandstructure_SCF_and_G0W0. ***

 
 SCF valence band maximum (eV):                                           -9.131
 SCF conduction band minimum (eV):                                        -1.088
 SCF indirect band gap (eV):                                               8.043
 SCF direct band gap (eV):                                                 8.043
 
 G0W0 valence band maximum (eV):                                         -11.997
 G0W0 conduction band minimum (eV):                                        1.995
 G0W0 indirect band gap (eV):                                             13.992
 G0W0 direct band gap (eV):                                               13.992
 
 Hartree-Fock with SCF orbitals valence band maximum (eV):               -12.640
 Hartree-Fock with SCF orbitals conduction band minimum (eV)               2.554
 Hartree-Fock with SCF orbitals indirect band gap (eV):                   15.194
 Hartree-Fock with SCF orbitals direct band gap (eV):                     15.194

 ENERGY| Total FORCE_EVAL ( QS ) energy [hartree]            -16.164734817457372

 -------------------------------------------------------------------------------
 -                                                                             -
 -                                DBCSR STATISTICS                             -
 -                                                                             -
 -------------------------------------------------------------------------------
 COUNTER                                    TOTAL       BLAS       SMM       ACC
 flops     6 x     6 x     5                20520     100.0%      0.0%      0.0%     
 flops     6 x     6 x    12                22464     100.0%      0.0%      0.0%     
 flops     6 x     5 x     6                43200     100.0%      0.0%      0.0%     
 flops    13 x     6 x     5                44460     100.0%      0.0%      0.0%     
 flops     6 x    13 x     5                44460     100.0%      0.0%      0.0%     
 flops    12 x     6 x    12                48384     100.0%      0.0%      0.0%     
 flops    12 x     6 x     6                63072     100.0%      0.0%      0.0%     
 flops     6 x     5 x     5                83700     100.0%      0.0%      0.0%     
 flops    12 x    12 x     6                95040     100.0%      0.0%      0.0%     
 flops    13 x     6 x    12                97344     100.0%      0.0%      0.0%     
 flops     6 x    13 x    12               101088     100.0%      0.0%      0.0%     
 flops     6 x     6 x    26               104832     100.0%      0.0%      0.0%     
 flops     6 x     5 x    32               109440     100.0%      0.0%      0.0%     
 flops     5 x     5 x     5               124500     100.0%      0.0%      0.0%     
 flops    12 x    12 x    32               156672     100.0%      0.0%      0.0%     
 flops    13 x     5 x     6               187200     100.0%      0.0%      0.0%     
 flops     6 x     5 x    13               187200     100.0%      0.0%      0.0%     
 flops    12 x    13 x    12               205920     100.0%      0.0%      0.0%     
 flops    26 x     6 x    12               209664     100.0%      0.0%      0.0%     
 flops    12 x     6 x    26               209664     100.0%      0.0%      0.0%     
 flops    12 x    54 x    12               248832     100.0%      0.0%      0.0%     
 flops    26 x     6 x     6               273312     100.0%      0.0%      0.0%     
 flops    12 x    13 x     6               273312     100.0%      0.0%      0.0%     
 flops    12 x     6 x    13               273312     100.0%      0.0%      0.0%     
 flops    13 x    13 x     5               288990     100.0%      0.0%      0.0%     
 flops     5 x     5 x    32               356800     100.0%      0.0%      0.0%     
 flops    13 x     5 x     5               362700     100.0%      0.0%      0.0%     
 flops    12 x    26 x     6               404352     100.0%      0.0%      0.0%     
 flops    26 x    12 x     6               411840     100.0%      0.0%      0.0%     
 flops    12 x    12 x    13               411840     100.0%      0.0%      0.0%     
 flops    13 x    13 x    12               433992     100.0%      0.0%      0.0%     
 flops    13 x     6 x    26               454272     100.0%      0.0%      0.0%     
 flops     6 x    13 x    26               454272     100.0%      0.0%      0.0%     
 flops    13 x     5 x    32               474240     100.0%      0.0%      0.0%     
 flops    12 x    53 x    12               488448     100.0%      0.0%      0.0%     
 flops    26 x    12 x    32               718848     100.0%      0.0%      0.0%     
 flops    12 x    26 x    32               718848     100.0%      0.0%      0.0%     
 flops    12 x    12 x   160               737280     100.0%      0.0%      0.0%     
 flops    13 x     5 x    13               811200     100.0%      0.0%      0.0%     
 flops    26 x    13 x    12               900432     100.0%      0.0%      0.0%     
 flops    12 x    13 x    26               932880     100.0%      0.0%      0.0%     
 flops    26 x     6 x    26               957216     100.0%      0.0%      0.0%     
 flops    54 x    54 x    12              1049760     100.0%      0.0%      0.0%     
 flops    12 x    54 x    54              1119744     100.0%      0.0%      0.0%     
 flops    26 x    54 x    12              1145664     100.0%      0.0%      0.0%     
 flops    12 x    54 x    26              1145664     100.0%      0.0%      0.0%     
 flops    26 x    13 x     6              1184352     100.0%      0.0%      0.0%     
 flops    26 x     6 x    13              1184352     100.0%      0.0%      0.0%     
 flops    12 x    13 x    13              1184352     100.0%      0.0%      0.0%     
 flops    26 x    26 x     6              1784640     100.0%      0.0%      0.0%     
 flops    26 x    12 x    13              1784640     100.0%      0.0%      0.0%     
 flops    12 x    26 x    13              1784640     100.0%      0.0%      0.0%     
 flops    13 x    13 x    26              1968512     100.0%      0.0%      0.0%     
 flops    54 x    53 x    12              2060640     100.0%      0.0%      0.0%     
 flops    53 x    54 x    12              2060640     100.0%      0.0%      0.0%     
 flops    12 x    53 x    54              2198016     100.0%      0.0%      0.0%     
 flops    12 x    54 x    53              2198016     100.0%      0.0%      0.0%     
 flops    26 x    53 x    12              2248896     100.0%      0.0%      0.0%     
 flops    12 x    53 x    26              2248896     100.0%      0.0%      0.0%     
 flops    26 x    26 x    32              3115008     100.0%      0.0%      0.0%     
 flops    26 x    12 x   160              3194880     100.0%      0.0%      0.0%     
 flops    12 x    26 x   160              3194880     100.0%      0.0%      0.0%     
 flops    53 x    53 x    12              4044960     100.0%      0.0%      0.0%     
 flops    26 x    13 x    26              4235816     100.0%      0.0%      0.0%     
 flops    12 x    53 x    53              4314624     100.0%      0.0%      0.0%     
 flops    54 x    54 x    26              4852224     100.0%      0.0%      0.0%     
 flops    26 x    54 x    54              4852224     100.0%      0.0%      0.0%     
 flops    26 x    54 x    26              5110560     100.0%      0.0%      0.0%     
 flops    26 x    13 x    13              5132192     100.0%      0.0%      0.0%     
 flops    26 x    26 x    13              7733440     100.0%      0.0%      0.0%     
 flops    54 x    53 x    26              9524736     100.0%      0.0%      0.0%     
 flops    26 x    53 x    54              9524736     100.0%      0.0%      0.0%     
 flops    26 x    54 x    53              9524736     100.0%      0.0%      0.0%     
 flops    53 x    54 x    26              9524736     100.0%      0.0%      0.0%     
 flops    26 x    53 x    26             10031840     100.0%      0.0%      0.0%     
 flops    26 x    26 x   160             13844480     100.0%      0.0%      0.0%     
 flops    26 x    53 x    53             18696704     100.0%      0.0%      0.0%     
 flops    53 x    53 x    26             18696704     100.0%      0.0%      0.0%     
 flops inhomo. stacks                           0       0.0%      0.0%      0.0%
 flops total                       191.046946E+06     100.0%      0.0%      0.0%
 flops max/rank                    191.046946E+06     100.0%      0.0%      0.0%
 matmuls inhomo. stacks                         0       0.0%      0.0%      0.0%
 matmuls total                               9750     100.0%      0.0%      0.0%
 number of processed stacks                  5741     100.0%      0.0%      0.0%
 average stack size                                     1.7       0.0       0.0
 marketing flops                   354.729472E+06
 -------------------------------------------------------------------------------
 # multiplications                           1721
 max memory usage/rank              25.783513E+09
 # max total images/rank                        1
 # max 3D layers                                1
 # MPI messages exchanged                       0
 -------------------------------------------------------------------------------
 -                                                                             -
 -                      DBCSR MESSAGE PASSING PERFORMANCE                      -
 -                                                                             -
 -------------------------------------------------------------------------------
 ROUTINE             CALLS      AVE VOLUME [Bytes]
 MP_Bcast               79                     12.
 MP_Allreduce         8120                      9.
 MP_Alltoall          7366                  11490.
 MP_ISend             6464                     79.
 MP_IRecv             6464                     79.
 -------------------------------------------------------------------------------

 -------------------------------------------------------------------------------
 -                                                                             -
 -                                GRID STATISTICS                              -
 -                                                                             -
 -------------------------------------------------------------------------------
 LP    KERNEL             BACKEND                              COUNT     PERCENT
 4     collocate ortho    CPU                                   6156      22.69%
 4     integrate ortho    CPU                                   6156      22.69%
 3     collocate ortho    CPU                                   4617      17.01%
 3     integrate ortho    CPU                                   4617      17.01%
 2     collocate ortho    CPU                                   2793      10.29%
 2     integrate ortho    CPU                                   2793      10.29%
 0     collocate general  CPU                                      3       0.01%
 -------------------------------------------------------------------------------

 -------------------------------------------------------------------------------
 -                                                                             -
 -                          OFFLOAD MEMPOOL STATISTICS                         -
 -                                                                             -
 -------------------------------------------------------------------------------
 Memory consumption                Number of allocations  Used [MiB]  Size [MiB]
 Host                                                  6         260    21971046
 -------------------------------------------------------------------------------

 MEMORY| Estimated peak process memory [MiB]                               11917

 -------------------------------------------------------------------------------
 -                                                                             -
 -                         MESSAGE PASSING PERFORMANCE                         -
 -                                                                             -
 -------------------------------------------------------------------------------

 ROUTINE             CALLS      AVE VOLUME [Bytes]
 MP_Group                5
 MP_Bcast              742                   3189.
 MP_Allreduce         4335                    257.
 MP_Sync                68
 MP_comm_split          65
 -------------------------------------------------------------------------------


 -------------------------------------------------------------------------------
 -                                                                             -
 -                           R E F E R E N C E S                               -
 -                                                                             -
 -------------------------------------------------------------------------------
 
 CP2K version 2026.2 (Development Version), the CP2K developers group (2026).
 CP2K is freely available from https://www.cp2k.org/ .
 
 M. Iannuzzi, J. Wilhelm, F. Stein, A. Bussy, H. Elgabarty, D. Golze, A. Hehn, 
 M. Graml, S. Marek, B. Sertcan Gökmen, C. Schran, H. Forbert, R. Z. 
 Khaliullin, A. Kozhevnikov, M. Taillefumier, R. Meli, V. V. Rybkin, M. Brehm, 
 R. Schade, O. Schütt, J. V. Pototschnig, H. Mirhosseini, A. Knüpfer, D. Marx, 
 M. Krack, J. Hutter, T. D. Kühne.
 J. Phys. Chem. B 130, 1237-1310 (2026).
 The CP2K Program Package Made Simple.
 https://doi.org/10.1021/acs.jpcb.5c05851

 M. Graml, K. Zollner, D. Hernangómez-Pérez, P. E. Faria Junior, J. Wilhelm.
 J. Chem. Theory Comput. 20, 2202-2208 (2024).
 Low-scaling GW algorithm applied to twisted transition-metal dichalcogenide 
 heterobilayers.
 https://doi.org/10.1021/acs.jctc.3c01230

 T. D. Kühne, M. Iannuzzi, M. Del Ben, V. V. Rybkin, P. Seewald, F. Stein, T. 
 Laino, R. Z. Khaliullin, O. Schütt, F. Schiffmann, D. Golze, J. Wilhelm, S. 
 Chulkov, M. H. Bani-Hashemian, V. Weber, U. Borstnik, M. Taillefumier, A. S. 
 Jakobovits, A. Lazzaro, H. Pabst, T. Müller, R. Schade, M. Guidon, S. 
 Andermatt, N. Holmberg, G. K. Schenter, A. Hehn, A. Bussy, F. Belleflamme, G. 
 Tabacchi, A. Glöß, M. Lass, I. Bethune, C. J. Mundy, C. Plessl, M. Watkins, 
 J. VandeVondele, M. Krack, J. Hutter.
 J. Chem. Phys. 152, 194103 (2020).
 CP2K: An electronic structure and molecular dynamics software package - 
 Quickstep: Efficient and accurate electronic structure calculations.
 https://doi.org/10.1063/5.0007045

 O. Schuett, P. Messmer, J. Hutter, J. VandeVondele.
 Electronic Structure Calculations on Graphics Processing Units, 173-190 (2016).
 GPU-Accelerated Sparse Matrix-Matrix Multiplication for Linear Scaling Density 
 Functional Theory.
 https://doi.org/10.1002/9781118670712.ch8

 U. Borstnik, J. VandeVondele, V. Weber, J. Hutter.
 Parallel Comput. 40, 47-58 (2014).
 Sparse matrix multiplication: The distributed block-compressed sparse row 
 library.
 https://doi.org/10.1016/j.parco.2014.03.012

 J. VandeVondele, J. Hutter.
 J. Chem. Phys. 127, 114105 (2007).
 Gaussian basis sets for accurate calculations on molecular systems in gas and 
 condensed phases.
 https://doi.org/10.1063/1.2770708

 J. VandeVondele, M. Krack, F. Mohamed, M. Parrinello, T. Chassaing, J. Hutter.
 Comput. Phys. Commun. 167, 103-128 (2005).
 QUICKSTEP: Fast and accurate density functional calculations using a mixed 
 Gaussian and plane waves approach.
 https://doi.org/10.1016/j.cpc.2004.12.014

 M. Krack.
 Theor. Chem. Acc. 114, 145-152 (2005).
 Pseudopotentials for H to Kr optimized for gradient-corrected 
 exchange-correlation functionals.
 https://doi.org/10.1007/s00214-005-0655-y

 M. Frigo, S. G. Johnson.
 Proc. IEEE 93, 216-231 (2005).
 The design and implementation of FFTW3.
 https://doi.org/10.1109/JPROC.2004.840301

 J. VandeVondele, J. Hutter.
 J. Chem. Phys. 118, 4365-4369 (2003).
 An efficient orbital transformation method for electronic structure 
 calculations.
 https://doi.org/10.1063/1.1543154

 C. Hartwigsen, S. Goedecker, J. Hutter.
 Phys. Rev. B 58, 3641-3662 (1998).
 Relativistic separable dual-space Gaussian pseudopotentials from H to Rn.
 https://doi.org/10.1103/PhysRevB.58.3641

 G. Lippert, J. Hutter, M. Parrinello.
 Mol. Phys. 92, 477-487 (1997).
 A hybrid Gaussian and plane wave density functional scheme.
 https://doi.org/10.1080/002689797170220

 S. Goedecker, M. Teter, J. Hutter.
 Phys. Rev. B 54, 1703-1710 (1996).
 Separable dual-space Gaussian pseudopotentials.
 https://doi.org/10.1103/PhysRevB.54.1703

 J. P. Perdew, K. Burke, M. Ernzerhof.
 Phys. Rev. Lett. 77, 3865-3868 (1996).
 Generalized gradient approximation made simple.
 https://doi.org/10.1103/PhysRevLett.77.3865

 P. E. Blöchl.
 J. Chem. Phys. 103, 7422-7428 (1995).
 Electrostatic decoupling of periodic images of plane‐wave‐expanded 
 densities and derived atomic point charges.
 https://doi.org/10.1063/1.470314

 R. H. Byrd, P. H. Lu, J. Nocedal, C. Y. Zhu.
 SIAM J. Sci. Comput. 16, 1190-1208 (1995).
 A Limited Memory Algorithm for Bound Constrained Optimization.
 https://doi.org/10.1137/0916069


 -------------------------------------------------------------------------------
 -                                                                             -
 -                                T I M I N G                                  -
 -                                                                             -
 -------------------------------------------------------------------------------
 SUBROUTINE                       CALLS  ASD         SELF TIME        TOTAL TIME MAXRANK
                                MAXIMUM       AVERAGE  MAXIMUM  AVERAGE  MAXIMUM
 CP2K                                 1  1.0    0.016    0.016  399.276  399.276       0
 qs_energies                          1  2.0    0.006    0.006  392.316  392.316       0
 scf_env_do_scf                       1  3.0    0.000    0.000  384.243  384.243       0
 scf_env_do_scf_inner_loop           56  4.0    0.013    0.013  378.115  378.115       0
 qs_ks_build_kohn_sham_matrix        57  7.0    0.049    0.049  302.434  302.434       0
 qs_ks_update_qs_env                 57  5.0    0.001    0.001  300.792  300.792       0
 rebuild_ks_matrix                   56  6.0    0.000    0.000  300.787  300.787       0
 fft_wrap_pw1pw2                    963 10.3    0.022    0.022  236.573  236.573       0
 fft_wrap_pw1pw2_300                621 11.8   11.294   11.294  228.357  228.357       0
 qs_vxc_create                       57  8.0    0.002    0.002  206.878  206.878       0
 xc_vxc_pw_create                    56  9.0    8.359    8.359  206.876  206.876       0
 xc_pw_derive                       336 11.0    0.003    0.003  149.418  149.418       0
 fft3d_s                            964 12.3  140.278  140.278  140.285  140.285       0
 xc_pw_divergence                    56 10.0    0.002    0.002  101.312  101.312       0
 xc_rho_set_and_dset_create          56 10.0    4.539    4.539   94.462   94.462       0
 qs_rho_update_rho_low               57  5.0    0.000    0.000   83.641   83.641       0
 calculate_rho_elec                  57  6.0    5.716    5.716   83.640   83.640       0
 density_rs2pw                       57  7.0    0.003    0.003   51.233   51.233       0
 pw_scatter_s                       509 12.8   44.687   44.687   44.687   44.687       0
 qs_ks_ddapc                         57  8.0    0.009    0.009   31.642   31.642       0
 sum_up_and_integrate                57  8.0    0.001    0.001   30.135   30.135       0
 pw_derive                          507 11.3   30.039   30.039   30.039   30.039       0
 pw_poisson_solve                    57  8.0    0.004    0.004   29.988   29.988       0
 integrate_v_rspace                  57  9.0    0.003    0.003   28.666   28.666       0
 potential_pw2rs                     57 10.0    0.202    0.202   28.385   28.385       0
 grid_collocate_task_list            57  7.0   26.691   26.691   26.691   26.691       0
 pw_gather_s                        454 11.9   23.479   23.479   23.479   23.479       0
 pw_copy                            908 10.6   22.257   22.257   22.257   22.257       0
 pw_integral_ab_c1d_c1d_gs          114  9.5   16.778   16.778   16.778   16.778       0
 pw_poisson_set                      58  9.0    0.002    0.002   15.895   15.895       0
 pw_axpy                            575  9.2   12.393   12.393   12.393   12.393       0
 xc_functional_eval                  56 11.0    0.005    0.005   11.072   11.072       0
 pbe_lda_eval                        56 12.0   11.067   11.067   11.067   11.067       0
 cp_ddapc_apply_CD                   57  9.0    0.050    0.050   10.575   10.575       0
 pw_copy_to_array                   454 11.9    8.278    8.278    8.278    8.278       0
 pw_copy_from_array                 509 12.8    7.949    7.949    7.949    7.949       0
 fft_wrap_pw1pw2_100                114 10.5    0.519    0.519    7.462    7.462       0
 qs_init_subsys                       1  2.0    0.012    0.012    6.505    6.505       0
 qs_env_setup                         1  3.0    0.000    0.000    6.470    6.470       0
 qs_env_rebuild_pw_env                2  3.5    0.001    0.001    6.470    6.470       0
 pw_env_rebuild                       1  5.0    0.003    0.003    6.469    6.469       0
 pw_grid_setup                        5  5.2    0.000    0.000    6.462    6.462       0
 pw_grid_setup_internal               5  6.2    0.082    0.082    6.462    6.462       0
 init_scf_loop                        1  4.0    0.003    0.003    6.128    6.128       0
 pw_grid_sort                         5  7.2    4.717    4.717    6.083    6.083       0
 qs_energies_properties               1  3.0    0.000    0.000    5.470    5.470       0
 post_scf_bandstructure               1  4.0    0.000    0.000    5.470    5.470       0
 gw                                   1  5.0    0.000    0.000    5.468    5.468       0
 pw_zero                            300  9.9    4.293    4.293    4.293    4.293       0
 gw_calc_non_periodic_ri_rs           1  6.0    0.000    0.000    2.861    2.861       0
 create_and_init_bs_env_for_gw        1  6.0    0.012    0.012    2.607    2.607       0
 pw_scale                           225  9.8    2.474    2.474    2.474    2.474       0
 ri_rs_grid_assembler                 1  7.0    0.000    0.000    2.319    2.319       0
 optimize_ri_rs_grid                  1  8.0    0.000    0.000    2.314    2.314       0
 rirs_grid_LBFGS                      1  9.0    0.075    0.075    2.121    2.121       0
 evaluate_rirs_grid_cluster         903 10.0    0.219    0.219    2.046    2.046       0
 get_ddapc                           57 10.0    0.025    0.025    2.031    2.031       0
 init_scf_run                         1  3.0    0.003    0.003    1.879    1.879       0
 scf_env_initial_rho_setup            1  4.0    0.005    0.005    1.874    1.874       0
 pw_multiply_with                    57  9.0    1.869    1.869    1.869    1.869       0
 compute_V_xc                         1  7.0    0.000    0.000    1.648    1.648       0
 sort_shells                          5  8.2    1.365    1.365    1.365    1.365       0
 transfer_rs2pw                     229  8.0    0.004    0.004    1.268    1.268       0
 transfer_pw2rs                     228 11.0    0.002    0.002    1.264    1.264       0
 transfer_rs2pw_300                  58  9.0    0.998    0.998    0.998    0.998       0
 transfer_pw2rs_300                  57 12.0    0.996    0.996    0.996    0.996       0
 xc_pw_smooth                        56 10.0    0.000    0.000    0.893    0.893       0
 rirs_cluster_AO_products           903 11.0    0.739    0.739    0.739    0.739       0
 qs_scf_new_mos                      56  5.0    0.000    0.000    0.734    0.734       0
 qs_scf_loop_do_ot                   56  6.0    0.000    0.000    0.733    0.733       0
 qs_energies_init_hamiltonians        1  3.0    0.005    0.005    0.710    0.710       0
 ot_scf_mini                         56  7.0    0.017    0.017    0.708    0.708       0
 qs_env_update_s_mstruct              1  4.0    0.003    0.003    0.646    0.646       0
 generate_auto_ri_basis               1  7.0    0.000    0.000    0.609    0.609       0
 prepare_preconditioner               1  5.0    0.000    0.000    0.605    0.605       0
 make_preconditioner                  1  6.0    0.247    0.247    0.605    0.605       0
 fft_wrap_pw1pw2_40                 114 10.5    0.046    0.046    0.591    0.591       0
 calculate_rho_core                   1  5.0    0.102    0.102    0.529    0.529       0
 ot_mini                             56  8.0    0.000    0.000    0.485    0.485       0
 -------------------------------------------------------------------------------

 The number of warnings for this run is : 1
 
 -------------------------------------------------------------------------------
  **** **** ******  **  PROGRAM ENDED AT                 2026-09-16 21:54:14.025
 ***** ** ***  *** **   PROGRAM RAN ON                                  n2cn0641
 **    ****   ******    PROGRAM RAN BY                                  eprop2d1
 ***** **    ** ** **   PROGRAM PROCESS ID                                199866
  **** **  *******  **  PROGRAM STOPPED IN /scratch/hpc-prf-metdyn/eprop2d1_Jan/
                                           53_benchmark_RI_opt/111_GW100_GTH_Leb
                                           edev_riao245_rc3/calculations/66_NCH_
                                           riao5_r02
