 DBCSR| CPU Multiplication driver                                           XSMM (U)
 DBCSR| Multrec recursion limit                                              512 (U)
 DBCSR| Multiplication stack size                                           1000 (D)
 DBCSR| Maximum elements for images                                    UNLIMITED (U)
 DBCSR| Multiplicative factor virtual images                                   1 (U)
 DBCSR| Use multiplication densification                                       T (D)
 DBCSR| Multiplication size stacks                                             3 (U)
 DBCSR| Use memory pool for CPU allocation                                     F (U)
 DBCSR| Number of 3D layers                                               SINGLE (U)
 DBCSR| Use MPI memory allocation                                              F (U)
 DBCSR| Use RMA algorithm                                                      F (U)
 DBCSR| Use Communication thread                                               T (U)
 DBCSR| Communication thread load                                             57 (D)
 DBCSR| MPI: My process id                                                     0
 DBCSR| MPI: Number of processes                                              13
 DBCSR| OMP: Current number of threads                                         9
 DBCSR| OMP: Max number of threads                                             9
 DBCSR| Split modifier for TAS multiplication algorithm                  1.0E+00 (U)


  **** **** ******  **  PROGRAM STARTED AT               2026-10-03 11:56:26.148
 ***** ** ***  *** **   PROGRAM STARTED ON                              n2cn0534
 **    ****   ******    PROGRAM STARTED BY                              eprop2d1
 ***** **    ** ** **   PROGRAM PROCESS ID                               1384427
  **** **  *******  **  PROGRAM STARTED IN /scratch/hpc-prf-metdyn/eprop2d1_Jan/
                                           53_benchmark_RI_opt/418_gw100_fig5_fu
                                           ll_epsfilter_1e12_20261002/calculatio
                                           ns/rc0p5/ri5_rs09/50_AsH3

 CP2K| version string:                 CP2K version 2026.2 (Development Version)
 CP2K| source code revision number:                                   0671c5aa6c
 CP2K| cp2kflags: omp libint fftw3 libxc parallel scalapack openblas            
 CP2K| is freely available from                            https://www.cp2k.org/
 CP2K| Program compiled at                                   2026-09-20 09:25:26
 CP2K| Program compiled on                                              n2login5
 CP2K| Program compiled for                                               x86_64
 CP2K| Data directory path    /scratch/hpc-prf-metdyn/eprop2d1_Jan/53_benchmark_
 CP2K| Input file name                                                 input.inp
 
 eprop2d1@n2cn0534 has created rank and process                      0   1384427
 eprop2d1@n2cn0534 has created rank and process                      1   1384428
 eprop2d1@n2cn0534 has created rank and process                      2   1384429
 eprop2d1@n2cn0534 has created rank and process                      3   1384430
 
 eprop2d1@n2cn0534 is running                                        4 processes

 GLOBAL| Force Environment number                                              1
 GLOBAL| Basis set file name            /scratch/hpc-prf-metdyn/eprop2d1_Jan/53_
 GLOBAL| Potential file name            /scratch/hpc-prf-metdyn/eprop2d1_Jan/53_
 GLOBAL| MM Potential file name                                     MM_POTENTIAL
 GLOBAL| Coordinate file name                                      __STD_INPUT__
 GLOBAL| Method name                                                        CP2K
 GLOBAL| Project name                                             g418_a509_m050
 GLOBAL| Run type                                                         ENERGY
 GLOBAL| FFT library                                                       FFTW3
 GLOBAL| Diagonalization library                                       ScaLAPACK
 GLOBAL| Cholesky decomposition library                                ScaLAPACK
 GLOBAL| DGEMM library                                                      BLAS
 GLOBAL| Direct generalized diagonalization requested                          F
 GLOBAL| Orthonormality check for eigenvectors                          DISABLED
 GLOBAL| Matrix multiplication library                                 ScaLAPACK
 GLOBAL| All-to-all communication in single precision                          F
 GLOBAL| Grid backend                                                       AUTO
 GLOBAL| Global print level                                                  LOW
 GLOBAL| MPI I/O enabled                                                       T
 GLOBAL| Total number of message passing processes                             4
 GLOBAL| Number of distributed systems (nodes)                                 1
 GLOBAL| Number of threads for this process                                    9
 GLOBAL| This output is from process                                           0
 GLOBAL| OpenMP stack size per thread (OMP_STACKSIZE)                       512M
 GLOBAL| CPU model name                          AMD EPYC 7763 64-Core Processor

 MEMORY| system memory details [Kb]
 MEMORY|                        rank 0           min           max       average
 MEMORY| MemTotal            263897592     263897592     263897592     263897592
 MEMORY| MemFree             225547340     225547340     225547340     225547340
 MEMORY| Buffers                151940        151940        151940        151940
 MEMORY| Cached                9376416       9376416       9376416       9376416
 MEMORY| Slab                  1596992       1596992       1596992       1596992
 MEMORY| SReclaimable           299512        299512        299512        299512
 MEMORY| MemLikelyFree       235375208     235375208     235375208     235375208


 GENERATE|  Preliminary Number of Bonds generated:                             0
 GENERATE|  Achieved consistency in connectivity generation.

 *******************************************************************************
 *******************************************************************************
 **                                                                           **
 **     #####                         ##              ##                      **
 **    ##   ##            ##          ##              ##                      **
 **   ##     ##                       ##            ######                    **
 **   ##     ##  ##   ##  ##   #####  ##  ##   ####   ##    #####    #####    **
 **   ##     ##  ##   ##  ##  ##      ## ##   ##      ##   ##   ##  ##   ##   **
 **   ##  ## ##  ##   ##  ##  ##      ####     ###    ##   ######   ######    **
 **    ##  ###   ##   ##  ##  ##      ## ##      ##   ##   ##       ##        **
 **     #######   #####   ##   #####  ##  ##  ####    ##    #####   ##        **
 **           ##                                                    ##        **
 **                                                                           **
 **                                                ... make the atoms dance   **
 **                                                                           **
 **            Copyright (C) by CP2K developers group (2000-2026)             **
 **                      J. Chem. Phys. 152, 194103 (2020)                    **
 **                                                                           **
 *******************************************************************************


 TOTAL NUMBERS AND MAXIMUM NUMBERS

  Total number of            - Atomic kinds:                                   2
                             - Atoms:                                          4
                             - Shell sets:                                     4
                             - Shells:                                        24
                             - Primitive Cartesian functions:                 23
                             - Cartesian basis functions:                     61
                             - Spherical basis functions:                     56

  Maximum angular momentum of- Orbital basis functions:                        3
                             - Local part of the GTH pseudopotential:          2
                             - Non-local part of the GTH pseudopotential:      4


 SCF PARAMETERS         Density guess:                                   RESTART
                        --------------------------------------------------------
                        max_scf:                                             500
                        max_scf_history:                                       0
                        max_diis:                                              4
                        --------------------------------------------------------
                        eps_scf:                                        1.00E-08
                        eps_scf_history:                                0.00E+00
                        eps_diis:                                       0.00E+00
                        eps_eigval:                                     1.00E-05
                        --------------------------------------------------------
                        level_shift [a.u.]:                             0.000000
                        --------------------------------------------------------
                        Outer loop SCF in use 
                        No variables optimised in outer loop
                        eps_scf                                         1.00E-08
                        max_scf                                               20
                        No outer loop optimization
                        step_size                                       5.00E-01

 Extrapolation method: initial_guess

 Number of electrons:                                                          8
 Number of occupied orbitals:                                                  4
 Number of molecular orbitals:                                                 4

 Number of orbital functions:                                                 56
 Number of independent orbital functions:                                     56


 SCF WAVEFUNCTION OPTIMIZATION

  ----------------------------------- OT ---------------------------------------
  Minimizer      : DIIS                : direct inversion
                                         in the iterative subspace
                                         using   7 DIIS vectors
                                         safer DIIS on
  Preconditioner : FULL_KINETIC        : inversion of T + eS
  Lattice FFT   : OFF
  Precond_solver : DEFAULT
  stepsize       :    0.15000000                  energy_gap     :    0.20000000
  eps_taylor     :   0.10000E-15                  max_taylor     :             4
  ----------------------------------- OT ---------------------------------------

  Step     Update method      Time    Convergence         Total energy    Change
  ------------------------------------------------------------------------------
  Decoupling Energy:                                               0.0000065527
     1 OT DIIS     0.15E+00    2.8     3.8166E-09        -8.0432253843 -8.04E+00

  *** SCF run converged in     1 steps ***


  Electronic density on regular grids:         -8.0000000000        0.0000000000
  Core density on regular grids:                8.0000000000       -0.0000000000
  Total charge density on r-space grids:       -0.0000000000
  Total charge density g-space grids:          -0.0000000000

  Overlap energy of the core charge distribution:               0.00000156266935
  Self energy of the core charge distribution:                -17.79367148112155
  Core Hamiltonian energy:                                      4.47361099195874
  Hartree energy:                                               7.86492826831537
  Exchange-correlation energy:                                 -2.58809472616814

  Total energy:                                                -8.04322538434622

  outer SCF iter =    1 RMS gradient =   0.38E-08 energy =         -8.0432253843
  outer SCF loop converged in   1 iterations or    1 steps

  
 -------------------------------------------------------------------------------
 -                                                                             -
 -                          BANDSTRUCTURE CALCULATION                          -
 -                                                                             -
 -------------------------------------------------------------------------------
  
 Number of occupied molecular orbitals (MOs) = Number of occupied bands        4
 Number of unoccupied (= virtual) MOs = Number of unoccupied bands            52
 Number of Gaussian basis functions for MOs                                   56
  
 -------------------------------------------------------------------------------
 -                                                                             -
 -                                GW CALCULATION                               -
 -                                                                             -
 -------------------------------------------------------------------------------
  
 Input: Number of time/freq. points                                           30
 Input: ω_max for fitting Σ(iω) (eV)                                        10.0
 Input: Filter threshold for sparse tensor operations                    1.0E-12
 Input: Apply Hedin shift                                                      F
 Detected: Available memory per MPI process                              50.3 GB
 
 Input: RI-RS Tikhonov regularization                                   1.00E-04
 Input: AO grid hard cutoff radius                                        8.00 Å
 Input: MPI ranks per atom in Z_lP solve                                      -1
 Input: Keep sparsity in χ/G/W panels                                          T
 Input: GW flavour                                                          G0W0
 
 Input: RI-RS grid optimization activated                                      T
 Input: RS points per AO function                                            9.0
 Input: Cutoff radius for atomic clusters                                  0.5 Å
 Input: Maximum grid optimization iterations                                 300
 
 Input: AUTO_RI basis optimization activated:                                  T
 Input: AUTO_RI number of RI functions per AO function:                      5.0
 Input: AUTO_RI frontier orbital window:                                  5.0 eV
 Input: AUTO_RI neighbor radius:                                           3.0 Å
 
 Cutoff radius for the truncated Coulomb operator in RI metric:            7.0 Å
 Regularization parameter of RI                                          0.0E+00
 Regularization parameter of minimax grids                               1.0E-06
 
 AUTO_RI| Number of automatic RI functions for χ, ε, W:                      263
 AUTO_RI| Total RI basis optimization time:                                0.3 s
  Decoupling Energy:                                               0.0000065527
 
 SCF direct band gap (eV)                                                   6.12
 Max. SCF eigval diff. (eV)                                               157.06
 E-Range for minimax grid                                                  25.68
 Number of Padé parameters for analytic continuation:                         16
 
 RI-RS basis radii (Å):
     Kind  Elem     r_AO (Å)     r_RI (Å)
        1    As        8.8864        5.7292
        2    H        13.9082        8.7963
 
 Started RI-RS grid optimization
 RI-RS grid initial normalized error                          9.751167498924E-03
 RI-RS grid optimization completed, execution time:                        0.5 s
 Normalized 3C error:                                                    4.5E-09
 Maximum absolute 3C error:                                              4.8E-04
 Optimized points outside molecular Voronoi cells:                           109 / 504
 Total grid points used for RI-RS:                                           504
 
 RI-RS grid row-blocks of ϕ_μ(r_l)                                            18
 RI-RS grid points per block (max)                                            32
 
 Percentage of non-zero matrix elements in ϕ_μ(r_l)                     100.00 %
 
 RI-RS memory estimate per MPI process:
   Available memory per process (system)                                59.82 GB
   Required for Z_lP (dense upper bound; actual is sparser)              0.00 GB
   Required for χ, W, Σ panels (peak per panel step)                     0.00 GB
   Required for Z_lP solve peak (D_local+ϕ, worst-case atom)             0.00 GB
   Worst-case local-grid number of grid points:                              504
   Worst-case memory D_local:                                            0.00 GB
 
 Started computing Z_lP
 Computed Z_lP (MPI rank 0) for atom          1 /  1,    Execution time    0.0 s
 Computed Z_lP (all MPI ranks) for all atoms,            Execution time    0.0 s

 Memory per MPI process after computing Z_lP:
 Available memory per MPI process                               59.8 GB
 Used memory per MPI process                                     1.4 GB
 Number of batches for χ, Σ matrices                                           1
 
 Percentage of non-zero matrix elements in Z_lP                         100.00 %
 Percentage of non-zero matrix elements in G_ll', χ_ll', W_ll'          100.00 %
 Percentage of non-zero matrix elements in χ_PQ for time point 1        100.00 %
 
 Computed χ(iτ,k=0) for time point            1 / 30,    Execution time    0.0 s
 Computed χ(iτ,k=0) for time point            2 / 30,    Execution time    0.0 s
 Computed χ(iτ,k=0) for time point            3 / 30,    Execution time    0.0 s
 Computed χ(iτ,k=0) for time point            4 / 30,    Execution time    0.0 s
 Computed χ(iτ,k=0) for time point            5 / 30,    Execution time    0.0 s
 Computed χ(iτ,k=0) for time point            6 / 30,    Execution time    0.0 s
 Computed χ(iτ,k=0) for time point            7 / 30,    Execution time    0.0 s
 Computed χ(iτ,k=0) for time point            8 / 30,    Execution time    0.0 s
 Computed χ(iτ,k=0) for time point            9 / 30,    Execution time    0.0 s
 Computed χ(iτ,k=0) for time point           10 / 30,    Execution time    0.0 s
 Computed χ(iτ,k=0) for time point           11 / 30,    Execution time    0.0 s
 Computed χ(iτ,k=0) for time point           12 / 30,    Execution time    0.0 s
 Computed χ(iτ,k=0) for time point           13 / 30,    Execution time    0.0 s
 Computed χ(iτ,k=0) for time point           14 / 30,    Execution time    0.0 s
 Computed χ(iτ,k=0) for time point           15 / 30,    Execution time    0.0 s
 Computed χ(iτ,k=0) for time point           16 / 30,    Execution time    0.0 s
 Computed χ(iτ,k=0) for time point           17 / 30,    Execution time    0.0 s
 Computed χ(iτ,k=0) for time point           18 / 30,    Execution time    0.0 s
 Computed χ(iτ,k=0) for time point           19 / 30,    Execution time    0.0 s
 Computed χ(iτ,k=0) for time point           20 / 30,    Execution time    0.0 s
 Computed χ(iτ,k=0) for time point           21 / 30,    Execution time    0.0 s
 Computed χ(iτ,k=0) for time point           22 / 30,    Execution time    0.0 s
 Computed χ(iτ,k=0) for time point           23 / 30,    Execution time    0.0 s
 Computed χ(iτ,k=0) for time point           24 / 30,    Execution time    0.0 s
 Computed χ(iτ,k=0) for time point           25 / 30,    Execution time    0.0 s
 Computed χ(iτ,k=0) for time point           26 / 30,    Execution time    0.0 s
 Computed χ(iτ,k=0) for time point           27 / 30,    Execution time    0.0 s
 Computed χ(iτ,k=0) for time point           28 / 30,    Execution time    0.0 s
 Computed χ(iτ,k=0) for time point           29 / 30,    Execution time    0.0 s
 Computed χ(iτ,k=0) for time point           30 / 30,    Execution time    0.0 s
 
 Cholesky decomposition failed, using diagonalization.
 Discarded eigenmodes:                                                         2
 Computed W(iτ),                                         Execution time    0.2 s
 
 Computed Σ^x(k=0),                                      Execution time    0.0 s
 
 Computed Σ^c(iτ) for time point              1 / 30,    Execution time    0.0 s
 Computed Σ^c(iτ) for time point              2 / 30,    Execution time    0.0 s
 Computed Σ^c(iτ) for time point              3 / 30,    Execution time    0.0 s
 Computed Σ^c(iτ) for time point              4 / 30,    Execution time    0.0 s
 Computed Σ^c(iτ) for time point              5 / 30,    Execution time    0.0 s
 Computed Σ^c(iτ) for time point              6 / 30,    Execution time    0.0 s
 Computed Σ^c(iτ) for time point              7 / 30,    Execution time    0.0 s
 Computed Σ^c(iτ) for time point              8 / 30,    Execution time    0.0 s
 Computed Σ^c(iτ) for time point              9 / 30,    Execution time    0.0 s
 Computed Σ^c(iτ) for time point             10 / 30,    Execution time    0.0 s
 Computed Σ^c(iτ) for time point             11 / 30,    Execution time    0.0 s
 Computed Σ^c(iτ) for time point             12 / 30,    Execution time    0.0 s
 Computed Σ^c(iτ) for time point             13 / 30,    Execution time    0.0 s
 Computed Σ^c(iτ) for time point             14 / 30,    Execution time    0.0 s
 Computed Σ^c(iτ) for time point             15 / 30,    Execution time    0.0 s
 Computed Σ^c(iτ) for time point             16 / 30,    Execution time    0.0 s
 Computed Σ^c(iτ) for time point             17 / 30,    Execution time    0.0 s
 Computed Σ^c(iτ) for time point             18 / 30,    Execution time    0.0 s
 Computed Σ^c(iτ) for time point             19 / 30,    Execution time    0.0 s
 Computed Σ^c(iτ) for time point             20 / 30,    Execution time    0.0 s
 Computed Σ^c(iτ) for time point             21 / 30,    Execution time    0.0 s
 Computed Σ^c(iτ) for time point             22 / 30,    Execution time    0.0 s
 Computed Σ^c(iτ) for time point             23 / 30,    Execution time    0.0 s
 Computed Σ^c(iτ) for time point             24 / 30,    Execution time    0.0 s
 Computed Σ^c(iτ) for time point             25 / 30,    Execution time    0.0 s
 Computed Σ^c(iτ) for time point             26 / 30,    Execution time    0.0 s
 Computed Σ^c(iτ) for time point             27 / 30,    Execution time    0.0 s
 Computed Σ^c(iτ) for time point             28 / 30,    Execution time    0.0 s
 Computed Σ^c(iτ) for time point             29 / 30,    Execution time    0.0 s
 Computed Σ^c(iτ) for time point             30 / 30,    Execution time    0.0 s
 
 SCF valence band maximum (eV):                                           -6.732
 SCF conduction band minimum (eV):                                        -0.616
 SCF indirect band gap (eV):                                               6.116
 SCF direct band gap (eV):                                                 6.116
 
 G0W0 valence band maximum (eV):                                          -9.875
 G0W0 conduction band minimum (eV):                                        1.316
 G0W0 indirect band gap (eV):                                             11.191
 G0W0 direct band gap (eV):                                               11.191
 
 Hartree-Fock with SCF orbitals valence band maximum (eV):               -10.152
 Hartree-Fock with SCF orbitals conduction band minimum (eV)               2.029
 Hartree-Fock with SCF orbitals indirect band gap (eV):                   12.181
 Hartree-Fock with SCF orbitals direct band gap (eV):                     12.181

 ENERGY| Total FORCE_EVAL ( QS ) energy [hartree]             -8.043225384346220

 -------------------------------------------------------------------------------
 -                                                                             -
 -                                DBCSR STATISTICS                             -
 -                                                                             -
 -------------------------------------------------------------------------------
 COUNTER                                    TOTAL       BLAS       SMM       ACC
 flops     4 x     4 x     4                  128     100.0%      0.0%      0.0%     
 flops     4 x     4 x    27                 2592     100.0%      0.0%      0.0%     
 flops     4 x     4 x    29                 2784     100.0%      0.0%      0.0%     
 flops     9 x     4 x     4                 3456     100.0%      0.0%      0.0%     
 flops    29 x     4 x     4                 3712     100.0%      0.0%      0.0%     
 flops    29 x     9 x     4                 4176     100.0%      0.0%      0.0%     
 flops     9 x     9 x     4                 7776     100.0%      0.0%      0.0%     
 flops     9 x    29 x     4                 8352     100.0%      0.0%      0.0%     
 flops     9 x     4 x    27                11664     100.0%      0.0%      0.0%     
 flops    29 x     4 x    27                12528     100.0%      0.0%      0.0%     
 flops    29 x    29 x     4                13456     100.0%      0.0%      0.0%     
 flops     5 x     5 x    18                18900     100.0%      0.0%      0.0%     
 flops     9 x     4 x     9                34992     100.0%      0.0%      0.0%     
 flops    29 x     4 x     9                37584     100.0%      0.0%      0.0%     
 flops     5 x     5 x    38                39900     100.0%      0.0%      0.0%     
 flops     5 x     9 x     5                44550     100.0%      0.0%      0.0%     
 flops     5 x    29 x     5                49300     100.0%      0.0%      0.0%     
 flops     9 x     4 x    29                50112     100.0%      0.0%      0.0%     
 flops    29 x     4 x    29                53824     100.0%      0.0%      0.0%     
 flops     5 x    62 x     5                58900     100.0%      0.0%      0.0%     
 flops     5 x    66 x     5                62700     100.0%      0.0%      0.0%     
 flops     5 x    67 x     5                63650     100.0%      0.0%      0.0%     
 flops     5 x    68 x     5                64600     100.0%      0.0%      0.0%     
 flops     5 x     5 x     9                86400     100.0%      0.0%      0.0%     
 flops     5 x     5 x    29                92800     100.0%      0.0%      0.0%     
 flops    32 x     5 x    62               119040     100.0%      0.0%      0.0%     
 flops    32 x     5 x    67               128640     100.0%      0.0%      0.0%     
 flops     5 x     5 x   129               129000     100.0%      0.0%      0.0%     
 flops     5 x     5 x   134               134000     100.0%      0.0%      0.0%     
 flops     5 x    17 x    18               192780     100.0%      0.0%      0.0%     
 flops    17 x     5 x    18               192780     100.0%      0.0%      0.0%     
 flops     9 x     9 x     5               240570     100.0%      0.0%      0.0%     
 flops     9 x    29 x     5               258390     100.0%      0.0%      0.0%     
 flops    29 x     9 x     5               258390     100.0%      0.0%      0.0%     
 flops    29 x    29 x     5               277530     100.0%      0.0%      0.0%     
 flops     5 x    17 x    38               406980     100.0%      0.0%      0.0%     
 flops    17 x     5 x    38               406980     100.0%      0.0%      0.0%     
 flops     5 x     9 x    17               455940     100.0%      0.0%      0.0%     
 flops    17 x     9 x     5               455940     100.0%      0.0%      0.0%     
 flops     5 x    29 x    17               493000     100.0%      0.0%      0.0%     
 flops    17 x    29 x     5               502860     100.0%      0.0%      0.0%     
 flops    17 x    62 x     5               600780     100.0%      0.0%      0.0%     
 flops     5 x    62 x    17               600780     100.0%      0.0%      0.0%     
 flops    17 x    66 x     5               617100     100.0%      0.0%      0.0%     
 flops     5 x     9 x     9               619650     100.0%      0.0%      0.0%     
 flops    17 x    67 x     5               626450     100.0%      0.0%      0.0%     
 flops    17 x    68 x     5               635800     100.0%      0.0%      0.0%     
 flops     5 x    66 x    17               639540     100.0%      0.0%      0.0%     
 flops     5 x    67 x    17               649230     100.0%      0.0%      0.0%     
 flops     5 x    68 x    17               658920     100.0%      0.0%      0.0%     
 flops     5 x     9 x    29               665550     100.0%      0.0%      0.0%     
 flops     5 x    29 x     9               665550     100.0%      0.0%      0.0%     
 flops    62 x    62 x     5               730360     100.0%      0.0%      0.0%     
 flops    62 x    66 x     5               736560     100.0%      0.0%      0.0%     
 flops     5 x    29 x    29               748490     100.0%      0.0%      0.0%     
 flops    66 x    62 x     5               777480     100.0%      0.0%      0.0%     
 flops    66 x    66 x     5               784080     100.0%      0.0%      0.0%     
 flops    67 x    62 x     5               789260     100.0%      0.0%      0.0%     
 flops    62 x    67 x     5               789260     100.0%      0.0%      0.0%     
 flops    67 x    66 x     5               795960     100.0%      0.0%      0.0%     
 flops    68 x    62 x     5               801040     100.0%      0.0%      0.0%     
 flops    62 x    68 x     5               801040     100.0%      0.0%      0.0%     
 flops     5 x    62 x    62               807240     100.0%      0.0%      0.0%     
 flops    68 x    66 x     5               807840     100.0%      0.0%      0.0%     
 flops     5 x    66 x    62               818400     100.0%      0.0%      0.0%     
 flops     5 x    62 x    66               818400     100.0%      0.0%      0.0%     
 flops    66 x    67 x     5               840180     100.0%      0.0%      0.0%     
 flops    66 x    68 x     5               852720     100.0%      0.0%      0.0%     
 flops    67 x    67 x     5               852910     100.0%      0.0%      0.0%     
 flops    68 x    67 x     5               865640     100.0%      0.0%      0.0%     
 flops    67 x    68 x     5               865640     100.0%      0.0%      0.0%     
 flops     5 x    66 x    66               871200     100.0%      0.0%      0.0%     
 flops     5 x    62 x    67               872340     100.0%      0.0%      0.0%     
 flops     5 x    67 x    62               872340     100.0%      0.0%      0.0%     
 flops    68 x    68 x     5               878560     100.0%      0.0%      0.0%     
 flops     5 x    17 x     9               881280     100.0%      0.0%      0.0%     
 flops    17 x     5 x     9               881280     100.0%      0.0%      0.0%     
 flops     5 x    66 x    67               884400     100.0%      0.0%      0.0%     
 flops     5 x    67 x    66               884400     100.0%      0.0%      0.0%     
 flops     5 x    68 x    62               885360     100.0%      0.0%      0.0%     
 flops     5 x    68 x    66               897600     100.0%      0.0%      0.0%     
 flops     5 x    67 x    67               942690     100.0%      0.0%      0.0%     
 flops     5 x    17 x    29               946560     100.0%      0.0%      0.0%     
 flops    17 x     5 x    29               946560     100.0%      0.0%      0.0%     
 flops     5 x    68 x    67               956760     100.0%      0.0%      0.0%     
 flops    32 x    17 x    62              1214208     100.0%      0.0%      0.0%     
 flops    32 x    17 x    67              1312128     100.0%      0.0%      0.0%     
 flops     5 x    17 x   129              1315800     100.0%      0.0%      0.0%     
 flops    17 x     5 x   129              1315800     100.0%      0.0%      0.0%     
 flops     5 x    17 x   134              1366800     100.0%      0.0%      0.0%     
 flops    17 x     5 x   134              1366800     100.0%      0.0%      0.0%     
 flops    32 x     5 x    18              1693440     100.0%      0.0%      0.0%     
 flops     5 x    32 x    18              1693440     100.0%      0.0%      0.0%     
 flops    17 x    17 x    18              1966356     100.0%      0.0%      0.0%     
 flops     9 x     9 x    17              2503386     100.0%      0.0%      0.0%     
 flops    29 x     9 x    17              2688822     100.0%      0.0%      0.0%     
 flops     9 x    29 x    17              2715444     100.0%      0.0%      0.0%     
 flops    29 x    29 x    17              2916588     100.0%      0.0%      0.0%     
 flops    32 x     5 x    38              3575040     100.0%      0.0%      0.0%     
 flops     5 x    32 x    38              3575040     100.0%      0.0%      0.0%     
 flops    32 x     9 x     5              4106880     100.0%      0.0%      0.0%     
 flops    17 x    17 x    38              4151196     100.0%      0.0%      0.0%     
 flops     5 x     9 x    32              4164480     100.0%      0.0%      0.0%     
 flops    32 x    29 x     5              4519360     100.0%      0.0%      0.0%     
 flops     5 x    29 x    32              4547200     100.0%      0.0%      0.0%     
 flops    17 x     9 x    17              4832658     100.0%      0.0%      0.0%     
 flops    32 x    62 x     5              5277440     100.0%      0.0%      0.0%     
 flops    17 x    29 x    17              5280030     100.0%      0.0%      0.0%     
 flops     5 x    62 x    32              5356800     100.0%      0.0%      0.0%     
 flops    32 x    66 x     5              5596800     100.0%      0.0%      0.0%     
 flops     5 x    66 x    32              5702400     100.0%      0.0%      0.0%     
 flops    32 x    67 x     5              5703040     100.0%      0.0%      0.0%     
 flops    32 x    68 x     5              5788160     100.0%      0.0%      0.0%     
 flops     5 x    67 x    32              5788800     100.0%      0.0%      0.0%     
 flops     5 x    68 x    32              5875200     100.0%      0.0%      0.0%     
 flops    17 x    62 x    17              6127956     100.0%      0.0%      0.0%     
 flops    17 x     9 x     9              6320430     100.0%      0.0%      0.0%     
 flops    17 x    66 x    17              6370716     100.0%      0.0%      0.0%     
 flops    17 x    67 x    17              6622146     100.0%      0.0%      0.0%     
 flops    17 x    68 x    17              6720984     100.0%      0.0%      0.0%     
 flops    17 x     9 x    29              6788610     100.0%      0.0%      0.0%     
 flops    17 x    29 x     9              6788610     100.0%      0.0%      0.0%     
 flops    62 x    62 x    17              7057584     100.0%      0.0%      0.0%     
 flops    62 x    66 x    17              7512912     100.0%      0.0%      0.0%     
 flops    66 x    62 x    17              7512912     100.0%      0.0%      0.0%     
 flops    67 x    62 x    17              7626744     100.0%      0.0%      0.0%     
 flops    62 x    67 x    17              7626744     100.0%      0.0%      0.0%     
 flops    17 x    29 x    29              7634598     100.0%      0.0%      0.0%     
 flops    68 x    62 x    17              7740576     100.0%      0.0%      0.0%     
 flops    62 x    68 x    17              7740576     100.0%      0.0%      0.0%     
 flops    32 x     5 x     9              7741440     100.0%      0.0%      0.0%     
 flops     5 x    32 x     9              7741440     100.0%      0.0%      0.0%     
 flops    66 x    66 x    17              7997616     100.0%      0.0%      0.0%     
 flops    67 x    66 x    17              8118792     100.0%      0.0%      0.0%     
 flops    66 x    67 x    17              8118792     100.0%      0.0%      0.0%     
 flops    17 x    62 x    62              8233848     100.0%      0.0%      0.0%     
 flops    68 x    66 x    17              8239968     100.0%      0.0%      0.0%     
 flops    66 x    68 x    17              8239968     100.0%      0.0%      0.0%     
 flops    67 x    67 x    17              8241804     100.0%      0.0%      0.0%     
 flops    32 x     5 x    29              8314880     100.0%      0.0%      0.0%     
 flops     5 x    32 x    29              8314880     100.0%      0.0%      0.0%     
 flops    17 x    66 x    62              8347680     100.0%      0.0%      0.0%     
 flops    17 x    62 x    66              8347680     100.0%      0.0%      0.0%     
 flops    68 x    67 x    17              8364816     100.0%      0.0%      0.0%     
 flops    67 x    68 x    17              8364816     100.0%      0.0%      0.0%     
 flops    68 x    68 x    17              8489664     100.0%      0.0%      0.0%     
 flops    17 x    66 x    66              8886240     100.0%      0.0%      0.0%     
 flops    17 x    62 x    67              8897868     100.0%      0.0%      0.0%     
 flops    17 x    67 x    62              8897868     100.0%      0.0%      0.0%     
 flops    17 x    17 x     9              8989056     100.0%      0.0%      0.0%     
 flops    17 x    66 x    67              9020880     100.0%      0.0%      0.0%     
 flops    17 x    67 x    66              9020880     100.0%      0.0%      0.0%     
 flops    17 x    68 x    62              9030672     100.0%      0.0%      0.0%     
 flops    17 x    68 x    66              9155520     100.0%      0.0%      0.0%     
 flops    17 x    67 x    67              9615438     100.0%      0.0%      0.0%     
 flops    17 x    17 x    29              9654912     100.0%      0.0%      0.0%     
 flops    17 x    68 x    67              9758952     100.0%      0.0%      0.0%     
 flops    32 x    32 x    62             10665984     100.0%      0.0%      0.0%     
 flops    32 x    32 x    67             11526144     100.0%      0.0%      0.0%     
 flops    32 x     5 x   129             11558400     100.0%      0.0%      0.0%     
 flops     5 x    32 x   129             11558400     100.0%      0.0%      0.0%     
 flops    32 x     5 x   134             12006400     100.0%      0.0%      0.0%     
 flops     5 x    32 x   134             12006400     100.0%      0.0%      0.0%     
 flops    17 x    17 x   129             13421160     100.0%      0.0%      0.0%     
 flops    17 x    17 x   134             13941360     100.0%      0.0%      0.0%     
 flops    32 x    17 x    18             17273088     100.0%      0.0%      0.0%     
 flops    17 x    32 x    18             17273088     100.0%      0.0%      0.0%     
 flops     9 x     9 x    32             22239360     100.0%      0.0%      0.0%     
 flops    29 x     9 x    32             23886720     100.0%      0.0%      0.0%     
 flops     9 x    29 x    32             24454656     100.0%      0.0%      0.0%     
 flops    29 x    29 x    32             26266112     100.0%      0.0%      0.0%     
 flops    32 x    17 x    38             36465408     100.0%      0.0%      0.0%     
 flops    17 x    32 x    38             36465408     100.0%      0.0%      0.0%     
 flops    32 x     9 x    17             42888960     100.0%      0.0%      0.0%     
 flops    17 x     9 x    32             43261056     100.0%      0.0%      0.0%     
 flops    32 x    29 x    17             46444544     100.0%      0.0%      0.0%     
 flops    17 x    29 x    32             46476096     100.0%      0.0%      0.0%     
 flops    32 x    62 x    17             53829888     100.0%      0.0%      0.0%     
 flops    17 x    62 x    32             54639360     100.0%      0.0%      0.0%     
 flops    32 x     9 x     9             55520640     100.0%      0.0%      0.0%     
 flops    32 x    66 x    17             57302784     100.0%      0.0%      0.0%     
 flops    17 x    66 x    32             58164480     100.0%      0.0%      0.0%     
 flops    32 x    67 x    17             58171008     100.0%      0.0%      0.0%     
 flops    32 x    68 x    17             59039232     100.0%      0.0%      0.0%     
 flops    17 x    67 x    32             59045760     100.0%      0.0%      0.0%     
 flops    32 x     9 x    29             59633280     100.0%      0.0%      0.0%     
 flops    32 x    29 x     9             59633280     100.0%      0.0%      0.0%     
 flops    17 x    68 x    32             59927040     100.0%      0.0%      0.0%     
 flops    62 x    62 x    32             64948224     100.0%      0.0%      0.0%     
 flops    32 x    29 x    29             67064704     100.0%      0.0%      0.0%     
 flops    62 x    66 x    32             67305216     100.0%      0.0%      0.0%     
 flops    66 x    62 x    32             69138432     100.0%      0.0%      0.0%     
 flops    67 x    62 x    32             70185984     100.0%      0.0%      0.0%     
 flops    62 x    67 x    32             70185984     100.0%      0.0%      0.0%     
 flops    68 x    62 x    32             71233536     100.0%      0.0%      0.0%     
 flops    62 x    68 x    32             71233536     100.0%      0.0%      0.0%     
 flops    66 x    66 x    32             71647488     100.0%      0.0%      0.0%     
 flops    32 x    62 x    62             72328704     100.0%      0.0%      0.0%     
 flops    67 x    66 x    32             72733056     100.0%      0.0%      0.0%     
 flops    32 x    66 x    62             73328640     100.0%      0.0%      0.0%     
 flops    32 x    62 x    66             73328640     100.0%      0.0%      0.0%     
 flops    68 x    66 x    32             73818624     100.0%      0.0%      0.0%     
 flops    66 x    67 x    32             74714112     100.0%      0.0%      0.0%     
 flops    66 x    68 x    32             75829248     100.0%      0.0%      0.0%     
 flops    67 x    67 x    32             75846144     100.0%      0.0%      0.0%     
 flops    68 x    67 x    32             76978176     100.0%      0.0%      0.0%     
 flops    67 x    68 x    32             76978176     100.0%      0.0%      0.0%     
 flops    32 x    66 x    66             78059520     100.0%      0.0%      0.0%     
 flops    68 x    68 x    32             78127104     100.0%      0.0%      0.0%     
 flops    32 x    62 x    67             78161664     100.0%      0.0%      0.0%     
 flops    32 x    67 x    62             78161664     100.0%      0.0%      0.0%     
 flops    32 x    17 x     9             78962688     100.0%      0.0%      0.0%     
 flops    17 x    32 x     9             78962688     100.0%      0.0%      0.0%     
 flops    32 x    66 x    67             79242240     100.0%      0.0%      0.0%     
 flops    32 x    67 x    66             79242240     100.0%      0.0%      0.0%     
 flops    32 x    68 x    62             79328256     100.0%      0.0%      0.0%     
 flops    32 x    68 x    66             80424960     100.0%      0.0%      0.0%     
 flops    32 x    67 x    67             84465024     100.0%      0.0%      0.0%     
 flops    32 x    17 x    29             84811776     100.0%      0.0%      0.0%     
 flops    17 x    32 x    29             84811776     100.0%      0.0%      0.0%     
 flops    32 x    68 x    67             85725696     100.0%      0.0%      0.0%     
 flops    32 x    17 x   129            117895680     100.0%      0.0%      0.0%     
 flops    17 x    32 x   129            117895680     100.0%      0.0%      0.0%     
 flops    32 x    17 x   134            122465280     100.0%      0.0%      0.0%     
 flops    17 x    32 x   134            122465280     100.0%      0.0%      0.0%     
 flops    32 x    32 x    18            151732224     100.0%      0.0%      0.0%     
 flops    32 x    32 x    38            320323584     100.0%      0.0%      0.0%     
 flops    32 x     9 x    32            381376512     100.0%      0.0%      0.0%     
 flops    32 x    29 x    32            410220544     100.0%      0.0%      0.0%     
 flops    32 x    62 x    32            480096256     100.0%      0.0%      0.0%     
 flops    32 x    66 x    32            510935040     100.0%      0.0%      0.0%     
 flops    32 x    67 x    32            518676480     100.0%      0.0%      0.0%     
 flops    32 x    68 x    32            526974976     100.0%      0.0%      0.0%     
 flops    32 x    32 x     9            693633024     100.0%      0.0%      0.0%     
 flops    32 x    32 x    29            745013248     100.0%      0.0%      0.0%     
 flops    32 x    32 x   129           1035632640     100.0%      0.0%      0.0%     
 flops    32 x    32 x   134           1075773440     100.0%      0.0%      0.0%     
 flops inhomo. stacks                   453878784     100.0%      0.0%      0.0%
 flops total                        11.883881E+09     100.0%      0.0%      0.0%
 flops max/rank                      3.336086E+09     100.0%      0.0%      0.0%
 matmuls inhomo. stacks                      1602     100.0%      0.0%      0.0%
 matmuls total                             225916     100.0%      0.0%      0.0%
 number of processed stacks                 59704     100.0%      0.0%      0.0%
 average stack size                                     3.8       0.0       0.0
 marketing flops                    18.156880E+09
 -------------------------------------------------------------------------------
 # multiplications                           4040
 max memory usage/rank              15.509676E+09
 # max total images/rank                        1
 # max 3D layers                                1
 # MPI messages exchanged                    4040
 MPI messages size (bytes):
  total size                       423.646016E+06
  min size                           0.000000E+00
  max size                         532.512000E+03
  average size                     104.862875E+03
 MPI breakdown and total messages size (bytes):
             size <=      128                 696                      768
       128 < size <=     8192                 335                  1417600
      8192 < size <=    32768                  89                  1090640
     32768 < size <=   131072                1989                115835640
    131072 < size <=  4194304                 931                305301360
   4194304 < size <= 16777216                   0                        0
  16777216 < size                               0                        0
 -------------------------------------------------------------------------------
 -                                                                             -
 -                      DBCSR MESSAGE PASSING PERFORMANCE                      -
 -                                                                             -
 -------------------------------------------------------------------------------
 ROUTINE             CALLS      AVE VOLUME [Bytes]
 MP_Bcast              238                     12.
 MP_Allreduce         2593                     16.
 MP_Alltoall          3385                  10811.
 MP_ISend             4628                  29207.
 MP_IRecv             4338                  23060.
 -------------------------------------------------------------------------------

 -------------------------------------------------------------------------------
 -                                                                             -
 -                                GRID STATISTICS                              -
 -                                                                             -
 -------------------------------------------------------------------------------
 LP    KERNEL             BACKEND                              COUNT     PERCENT
 2     collocate ortho    CPU                                   3312      31.75%
 2     integrate ortho    CPU                                   3312      31.75%
 4     collocate ortho    CPU                                   1440      13.80%
 4     integrate ortho    CPU                                   1440      13.80%
 6     collocate ortho    CPU                                    400       3.83%
 6     integrate ortho    CPU                                    400       3.83%
 0     collocate general  CPU                                    128       1.23%
 -------------------------------------------------------------------------------

 -------------------------------------------------------------------------------
 -                                                                             -
 -                          OFFLOAD MEMPOOL STATISTICS                         -
 -                                                                             -
 -------------------------------------------------------------------------------
 Memory consumption                Number of allocations  Used [MiB]  Size [MiB]
 Host                                                  6         152    21705451
 -------------------------------------------------------------------------------

 MEMORY| Estimated peak process memory [MiB]                                3969

 -------------------------------------------------------------------------------
 -                                                                             -
 -                         MESSAGE PASSING PERFORMANCE                         -
 -                                                                             -
 -------------------------------------------------------------------------------

 ROUTINE             CALLS      AVE VOLUME [Bytes]
 MP_Group                5
 MP_Bcast              501                 315740.
 MP_Allreduce          902                   5154.
 MP_Sync                11
 MP_Alltoall            44              167347515.
 MP_SendRecv            18                4698667.
 MP_ISendRecv           18                4698667.
 MP_Wait                58
 MP_comm_split          11
 MP_ISend               30               17160000.
 MP_IRecv               30               17160000.
 -------------------------------------------------------------------------------


 -------------------------------------------------------------------------------
 -                                                                             -
 -                           R E F E R E N C E S                               -
 -                                                                             -
 -------------------------------------------------------------------------------
 
 CP2K version 2026.2 (Development Version), the CP2K developers group (2026).
 CP2K is freely available from https://www.cp2k.org/ .
 
 M. Iannuzzi, J. Wilhelm, F. Stein, A. Bussy, H. Elgabarty, D. Golze, A. Hehn, 
 M. Graml, S. Marek, B. Sertcan Gökmen, C. Schran, H. Forbert, R. Z. 
 Khaliullin, A. Kozhevnikov, M. Taillefumier, R. Meli, V. V. Rybkin, M. Brehm, 
 R. Schade, O. Schütt, J. V. Pototschnig, H. Mirhosseini, A. Knüpfer, D. Marx, 
 M. Krack, J. Hutter, T. D. Kühne.
 J. Phys. Chem. B 130, 1237-1310 (2026).
 The CP2K Program Package Made Simple.
 https://doi.org/10.1021/acs.jpcb.5c05851

 M. Graml, K. Zollner, D. Hernangómez-Pérez, P. E. Faria Junior, J. Wilhelm.
 J. Chem. Theory Comput. 20, 2202-2208 (2024).
 Low-scaling GW algorithm applied to twisted transition-metal dichalcogenide 
 heterobilayers.
 https://doi.org/10.1021/acs.jctc.3c01230

 T. D. Kühne, M. Iannuzzi, M. Del Ben, V. V. Rybkin, P. Seewald, F. Stein, T. 
 Laino, R. Z. Khaliullin, O. Schütt, F. Schiffmann, D. Golze, J. Wilhelm, S. 
 Chulkov, M. H. Bani-Hashemian, V. Weber, U. Borstnik, M. Taillefumier, A. S. 
 Jakobovits, A. Lazzaro, H. Pabst, T. Müller, R. Schade, M. Guidon, S. 
 Andermatt, N. Holmberg, G. K. Schenter, A. Hehn, A. Bussy, F. Belleflamme, G. 
 Tabacchi, A. Glöß, M. Lass, I. Bethune, C. J. Mundy, C. Plessl, M. Watkins, 
 J. VandeVondele, M. Krack, J. Hutter.
 J. Chem. Phys. 152, 194103 (2020).
 CP2K: An electronic structure and molecular dynamics software package - 
 Quickstep: Efficient and accurate electronic structure calculations.
 https://doi.org/10.1063/5.0007045

 O. Schuett, P. Messmer, J. Hutter, J. VandeVondele.
 Electronic Structure Calculations on Graphics Processing Units, 173-190 (2016).
 GPU-Accelerated Sparse Matrix-Matrix Multiplication for Linear Scaling Density 
 Functional Theory.
 https://doi.org/10.1002/9781118670712.ch8

 U. Borstnik, J. VandeVondele, V. Weber, J. Hutter.
 Parallel Comput. 40, 47-58 (2014).
 Sparse matrix multiplication: The distributed block-compressed sparse row 
 library.
 https://doi.org/10.1016/j.parco.2014.03.012

 J. VandeVondele, J. Hutter.
 J. Chem. Phys. 127, 114105 (2007).
 Gaussian basis sets for accurate calculations on molecular systems in gas and 
 condensed phases.
 https://doi.org/10.1063/1.2770708

 J. VandeVondele, M. Krack, F. Mohamed, M. Parrinello, T. Chassaing, J. Hutter.
 Comput. Phys. Commun. 167, 103-128 (2005).
 QUICKSTEP: Fast and accurate density functional calculations using a mixed 
 Gaussian and plane waves approach.
 https://doi.org/10.1016/j.cpc.2004.12.014

 M. Krack.
 Theor. Chem. Acc. 114, 145-152 (2005).
 Pseudopotentials for H to Kr optimized for gradient-corrected 
 exchange-correlation functionals.
 https://doi.org/10.1007/s00214-005-0655-y

 M. Frigo, S. G. Johnson.
 Proc. IEEE 93, 216-231 (2005).
 The design and implementation of FFTW3.
 https://doi.org/10.1109/JPROC.2004.840301

 J. VandeVondele, J. Hutter.
 J. Chem. Phys. 118, 4365-4369 (2003).
 An efficient orbital transformation method for electronic structure 
 calculations.
 https://doi.org/10.1063/1.1543154

 C. Hartwigsen, S. Goedecker, J. Hutter.
 Phys. Rev. B 58, 3641-3662 (1998).
 Relativistic separable dual-space Gaussian pseudopotentials from H to Rn.
 https://doi.org/10.1103/PhysRevB.58.3641

 G. Lippert, J. Hutter, M. Parrinello.
 Mol. Phys. 92, 477-487 (1997).
 A hybrid Gaussian and plane wave density functional scheme.
 https://doi.org/10.1080/002689797170220

 S. Goedecker, M. Teter, J. Hutter.
 Phys. Rev. B 54, 1703-1710 (1996).
 Separable dual-space Gaussian pseudopotentials.
 https://doi.org/10.1103/PhysRevB.54.1703

 J. P. Perdew, K. Burke, M. Ernzerhof.
 Phys. Rev. Lett. 77, 3865-3868 (1996).
 Generalized gradient approximation made simple.
 https://doi.org/10.1103/PhysRevLett.77.3865

 P. E. Blöchl.
 J. Chem. Phys. 103, 7422-7428 (1995).
 Electrostatic decoupling of periodic images of plane‐wave‐expanded 
 densities and derived atomic point charges.
 https://doi.org/10.1063/1.470314

 R. H. Byrd, P. H. Lu, J. Nocedal, C. Y. Zhu.
 SIAM J. Sci. Comput. 16, 1190-1208 (1995).
 A Limited Memory Algorithm for Bound Constrained Optimization.
 https://doi.org/10.1137/0916069


 -------------------------------------------------------------------------------
 -                                                                             -
 -                                T I M I N G                                  -
 -                                                                             -
 -------------------------------------------------------------------------------
 SUBROUTINE                       CALLS  ASD         SELF TIME        TOTAL TIME MAXRANK
                                MAXIMUM       AVERAGE  MAXIMUM  AVERAGE  MAXIMUM
 CP2K                                 1  1.0    0.009    0.018    9.352    9.352       0
 qs_energies                          1  2.0    0.000    0.000    7.634    7.634       2
 scf_env_do_scf                       1  3.0    0.000    0.000    3.685    3.685       0
 qs_ks_build_kohn_sham_matrix         2  7.5    0.003    0.005    3.671    3.671       3
 fft_wrap_pw1pw2                     28 10.0    0.001    0.001    3.369    3.428       3
 fft_wrap_pw1pw2_300                 16 11.2    0.173    0.186    3.201    3.278       3
 init_scf_loop                        1  4.0    0.000    0.000    2.799    2.799       1
 qs_ks_update_qs_env                  2  5.0    0.000    0.000    2.797    2.797       0
 rebuild_ks_matrix                    1  6.0    0.000    0.000    2.797    2.797       1
 qs_energies_properties               1  3.0    0.000    0.000    2.687    2.687       3
 post_scf_bandstructure               1  4.0    0.000    0.000    2.687    2.687       3
 run_gw                               1  5.0    0.000    0.000    2.673    2.682       1
 fft3d_ps                            28 12.0    1.395    1.418    2.385    2.443       0
 qs_vxc_create                        2  8.5    0.000    0.000    1.895    1.905       1
 xc_vxc_pw_create                     1  9.0    0.036    0.038    1.895    1.905       2
 qs_rho_update_rho_low                2  5.0    0.000    0.000    1.788    1.788       1
 calculate_rho_elec                   2  6.0    0.050    0.050    1.788    1.788       3
 create_and_init_bs_env_for_gw        1  6.0    0.004    0.005    1.458    1.577       3
 xc_pw_derive                         6 11.0    0.000    0.000    1.405    1.483       3
 qs_init_subsys                       1  2.0    0.001    0.001    1.390    1.390       0
 qs_env_setup                         1  3.0    0.000    0.000    1.388    1.389       0
 qs_env_rebuild_pw_env                2  3.5    0.000    0.000    1.388    1.389       0
 pw_env_rebuild                       1  5.0    0.000    0.000    1.388    1.389       3
 pw_grid_setup                        5  5.2    0.000    0.000    1.384    1.384       1
 pw_grid_setup_internal               5  6.2    0.022    0.022    1.384    1.384       2
 gw_calc_ri_rs_non_periodic           1  6.0    0.000    0.000    1.215    1.307       3
 pw_grid_sort                         5  7.2    0.854    0.858    1.245    1.249       2
 density_rs2pw                        2  7.0    0.000    0.000    1.099    1.105       3
 xc_pw_divergence                     1 10.0    0.000    0.000    0.931    0.998       2
 xc_rho_set_and_dset_create           1 10.0    0.038    0.063    0.913    0.989       1
 init_scf_run                         1  3.0    0.000    0.000    0.927    0.927       0
 scf_env_initial_rho_setup            1  4.0    0.000    0.000    0.927    0.927       0
 scf_env_do_scf_inner_loop            1  4.0    0.000    0.000    0.881    0.886       0
 compute_V_xc                         1  7.0    0.000    0.000    0.875    0.875       0
 sum_up_and_integrate                 2  8.5    0.000    0.000    0.707    0.712       2
 integrate_v_rspace                   2  9.5    0.000    0.000    0.696    0.700       3
 potential_pw2rs                      2 10.5    0.002    0.002    0.689    0.691       2
 optimize_ri_rs_grid                  1  7.0    0.000    0.000    0.595    0.678       0
 grid_collocate_task_list             2  7.0    0.630    0.649    0.630    0.649       0
 yz_to_x                             14 12.2    0.244    0.259    0.491    0.549       2
 qs_ks_ddapc                          2  8.5    0.000    0.000    0.535    0.539       2
 x_to_yz                             14 13.8    0.321    0.329    0.497    0.524       3
 mp_alltoall_z22v                    28 14.0    0.423    0.486    0.423    0.486       3
 mp_sum_d                           535  3.1    0.363    0.479    0.363    0.479       2
 rirs_grid_LBFGS                      1  8.0    0.019    0.045    0.472    0.475       0
 pw_poisson_solve                     2  8.5    0.000    0.000    0.468    0.469       3
 evaluate_rirs_grid_cluster         112  9.0    0.025    0.078    0.124    0.414       0
 setup_time_and_frequency_minim       1  7.0    0.000    0.000    0.289    0.407       0
 build_minimax_time_frequency_g       1  8.0    0.000    0.000    0.289    0.407       3
 fit_l_sq_weights                     3  9.0    0.289    0.407    0.289    0.407       3
 sort_shells                          5  8.2    0.391    0.394    0.391    0.394       3
 pw_gather_p                         14 11.2    0.315    0.356    0.315    0.356       3
 qs_energies_init_hamiltonians        1  3.0    0.000    0.000    0.334    0.334       1
 qs_env_update_s_mstruct              1  4.0    0.000    0.000    0.333    0.334       0
 pw_derive                           12 11.2    0.309    0.318    0.309    0.318       3
 pw_copy                             28 10.5    0.307    0.309    0.307    0.309       1
 calculate_rho_core                   1  5.0    0.026    0.026    0.303    0.304       1
 pw_scatter_p                        14 12.8    0.293    0.299    0.293    0.299       1
 create_qs_kind_set                   1  2.0    0.000    0.000    0.292    0.295       0
 read_qs_kind                         2  3.0    0.140    0.147    0.292    0.295       0
 pw_poisson_set                       3  8.3    0.000    0.000    0.258    0.260       2
 generate_auto_ri_basis               1  7.0    0.000    0.000    0.255    0.255       0
 compute_Sigma_c_and_QP_energie       1  7.0    0.000    0.000    0.243    0.252       0
 compute_Sigma_c                      1  8.0    0.002    0.002    0.233    0.233       0
 transfer_rs2pw                       9  7.8    0.000    0.000    0.219    0.232       3
 initialize_ri_rs_grid                1  8.0    0.002    0.007    0.119    0.202       0
 contract_grid_panels_sigma_c        30  9.0    0.178    0.179    0.200    0.201       0
 transfer_pw2rs                       8 11.5    0.000    0.000    0.198    0.198       3
 pw_integral_ab_c1d_c1d_gs            4 10.0    0.174    0.180    0.192    0.195       3
 mp_bcast_dm                         12  9.3    0.118    0.195    0.118    0.195       0
 transfer_rs2pw_300                   3  8.3    0.090    0.098    0.170    0.181       1
 compute_W                            1  7.0    0.000    0.000    0.173    0.173       0
 xc_functional_eval                   1 11.0    0.000    0.000    0.122    0.172       1
 pbe_lda_eval                         1 12.0    0.122    0.172    0.122    0.172       1
 parser_read_line                 73867  4.0    0.013    0.013    0.152    0.160       1
 get_mat_chi_Gamma_tau                1  7.0    0.000    0.001    0.154    0.154       0
 transfer_pw2rs_300                   2 12.5    0.071    0.083    0.142    0.151       3
 fft_wrap_pw1pw2_100                  4 10.8    0.008    0.010    0.139    0.149       1
 rirs_cluster_gradient_coordina     112 10.0    0.041    0.149    0.041    0.149       0
 parser_read_line_low                77  5.0    0.023    0.081    0.139    0.147       0
 contract_grid_panels                31  8.0    0.123    0.131    0.138    0.146       3
 broadcast_input_information         77  6.0    0.020    0.029    0.116    0.143       1
 mp_sum_dm                           16 10.4    0.051    0.139    0.051    0.139       3
 compute_AB_optimized_RI_basis        1  8.0    0.000    0.000    0.138    0.138       1
 compute_AB_optimized_RI_basis_       1  9.0    0.000    0.000    0.127    0.137       0
 pw_axpy                             25  6.6    0.125    0.131    0.125    0.131       0
 mp_waitany                          30 11.0    0.117    0.130    0.117    0.130       2
 cp_ddapc_apply_CD                    2  9.5    0.000    0.000    0.126    0.128       0
 pw_copy_to_array                    14 11.2    0.118    0.125    0.118    0.125       2
 compute_B_PQ_AB                      2 10.0    0.018    0.023    0.093    0.124       1
 parallel_gemm_fm_gemm              431  9.6    0.000    0.000    0.097    0.104       3
 cp_fm_gemm                         434 10.5    0.097    0.104    0.097    0.104       0
 cp_fm_get_submatrix                 12 10.0    0.000    0.000    0.025    0.098       3
 compute_fm_W_freq                   30  8.0    0.000    0.000    0.092    0.093       3
 pw_grid_assign                       5  7.2    0.084    0.090    0.090    0.091       2
 contract_B_PQ                       10 11.8    0.055    0.078    0.060    0.085       0
 compute_M_pq_inv_and_V_pq            1  8.0    0.000    0.000    0.084    0.084       1
 pw_copy_from_array                  14 12.8    0.075    0.080    0.075    0.080       0
 mp_bcast_i_src                     313  7.0    0.059    0.079    0.059    0.079       3
 copy_dbcsr_to_fm                   104  9.5    0.052    0.072    0.054    0.073       2
 compute_contracted_RI_matrix         2  9.0    0.000    0.000    0.071    0.071       3
 rirs_cluster_gradient_products     112 10.0    0.023    0.071    0.023    0.071       0
 compute_optimized_RI_matrix_bl       6 10.0    0.006    0.009    0.051    0.070       0
 compute_M_PQ_AB                     74 11.0    0.000    0.000    0.050    0.069       0
 compute_M_PQ                        74 12.0    0.000    0.000    0.050    0.069       0
 int_operators_r12_ab_os             74 13.0    0.000    0.000    0.050    0.068       0
 int_operator_ab_os_low              74 14.0    0.022    0.031    0.050    0.068       0
 transfer_pw2rs_100                   2 12.5    0.025    0.031    0.046    0.054       3
 mp_bcast_am_src                     77  7.0    0.036    0.051    0.036    0.051       3
 mp_waitall_1                        28 12.6    0.041    0.051    0.041    0.051       1
 transfer_rs2pw_100                   2  9.0    0.023    0.027    0.040    0.046       3
 pw_zero                             25  4.7    0.042    0.044    0.042    0.044       2
 compute_B_PQ_exchange                5 10.8    0.000    0.000    0.030    0.043       0
 compute_B_PQ_transition              5 10.8    0.000    0.000    0.030    0.043       0
 compute_fm_chi_Gamma_freq           30  8.0    0.024    0.028    0.041    0.042       3
 compute_Z_lP                         1  7.0    0.000    0.000    0.042    0.042       3
 compute_Z_lP_auto_ri                 1  8.0    0.000    0.000    0.042    0.042       3
 build_G_ao                         121  8.5    0.004    0.004    0.033    0.038       3
 compute_d_lp_auto_ri_batch           1  9.0    0.000    0.000    0.021    0.037       0
 compute_d_lp_auto_ri_atom            1 10.0    0.007    0.010    0.021    0.037       0
 rirs_cluster_AO_products           112 10.0    0.009    0.035    0.009    0.035       0
 rirs_cluster_D_ll                  112 10.0    0.011    0.035    0.011    0.035       0
 abc_contract_xsmm                  372 10.9    0.019    0.034    0.019    0.034       0
 get_ddapc                            2 10.5    0.000    0.000    0.032    0.033       2
 pw_grid_remap                        4  8.0    0.014    0.015    0.023    0.033       1
 compute_AA_optimized_RI_basis        1  8.0    0.000    0.000    0.033    0.033       3
 check_for_restart_files              1  7.0    0.032    0.032    0.032    0.032       1
 pw_multiply_with                     2  9.5    0.030    0.031    0.030    0.031       3
 cp_ddapc_init                        1  5.0    0.000    0.000    0.029    0.029       1
 cp_ddapc_create                      1  6.0    0.000    0.000    0.029    0.029       3
 mp_sendrecv_dv                      18 10.0    0.021    0.029    0.021    0.029       2
 rirs_cluster_residual              112 10.0    0.009    0.028    0.009    0.028       0
 ddapc_eval_gfunc                     1  7.0    0.028    0.028    0.028    0.028       1
 rs_grid_zero                         3 11.0    0.027    0.028    0.027    0.028       1
 eval_pw_TabLR                        1  2.0    0.013    0.013    0.026    0.026       1
 fft_wrap_pw1pw2_40                   4 10.8    0.001    0.002    0.021    0.025       1
 cp_fm_syevd                          6  9.2    0.000    0.000    0.024    0.024       1
 cp_fm_redistribute_end               6 10.2    0.012    0.023    0.012    0.023       3
 copy_fm_to_dbcsr                   161  9.3    0.018    0.018    0.022    0.022       2
 cp_fm_syevd_base                     6 10.2    0.011    0.022    0.011    0.022       1
 G_occ_vir                          121  9.5    0.001    0.001    0.016    0.022       0
 cp_fm_cholesky_invert               31  9.0    0.021    0.021    0.021    0.021       1
 operator2                        30689 15.0    0.015    0.020    0.015    0.020       0
 rirs_cluster_d_lP                  112 10.0    0.006    0.019    0.006    0.019       0
 mp_sum_im3                           5  9.0    0.008    0.018    0.008    0.018       1
 ab_contract                      31626 14.8    0.013    0.018    0.013    0.018       0
 compute_B_PQ_AA                      4  9.0    0.000    0.000    0.016    0.017       0
 pw_poisson_rebuild                   2  9.5    0.016    0.017    0.016    0.017       3
 mp_sum_root_rm                       4 10.0    0.013    0.017    0.013    0.017       3
 write_mo_set_to_restart              1  5.0    0.003    0.014    0.011    0.016       0
 pw_scale                             5  9.8    0.014    0.015    0.014    0.015       0
 rirs_grid_build_clusters             1  8.0    0.002    0.008    0.004    0.015       0
 cp_fm_cholesky_decompose            35  9.0    0.013    0.015    0.013    0.015       0
 eval_bandstructure_properties        1  5.0    0.000    0.000    0.011    0.015       0
 compute_int_3c                       2  9.0    0.010    0.010    0.014    0.015       3
 cp_cfm_geeig                         1  6.0    0.000    0.000    0.011    0.014       3
 mp_sum_iv                          144 10.1    0.010    0.014    0.010    0.014       1
 cp_fm_geeig                          2  9.5    0.000    0.000    0.014    0.014       3
 build_3c_integral_block_auto_r      24 11.0    0.008    0.014    0.008    0.014       0
 build_3c_integral_block_auto_r      24 11.0    0.000    0.000    0.007    0.013       0
 cp_cfm_cholesky_decompose            2  7.0    0.010    0.013    0.010    0.013       1
 compute_M_pq_inv                     1  9.0    0.000    0.000    0.013    0.013       1
 solve_AB_eigenproblem                2 10.0    0.006    0.008    0.010    0.013       1
 extract_masked_blocks              244  9.6    0.012    0.013    0.012    0.013       2
 extract_grid_panel                 122  9.5    0.012    0.012    0.012    0.012       2
 compute_V_MinvVsqrt                  1  8.0    0.000    0.000    0.011    0.012       0
 cp_fm_power                          1  9.0    0.001    0.001    0.010    0.010       0
 delete_unnecessary_files             1  8.0    0.000    0.000    0.003    0.010       0
 safe_delete                         60  9.0    0.003    0.010    0.003    0.010       0
 fill_fm_Sigma_c_Gamma_time           1  9.0    0.000    0.000    0.010    0.010       2
 cp_fm_uplo_to_full                  64  9.0    0.005    0.010    0.005    0.010       2
 mp_sum_l                            21  4.2    0.007    0.009    0.007    0.009       1
 transfer_pw2rs_40                    2 12.5    0.004    0.005    0.008    0.009       3
 write_mo_set_low                     1  6.0    0.000    0.000    0.008    0.009       0
 -------------------------------------------------------------------------------

 The number of warnings for this run is : 0
 
 -------------------------------------------------------------------------------
  **** **** ******  **  PROGRAM ENDED AT                 2026-10-03 11:56:35.530
 ***** ** ***  *** **   PROGRAM RAN ON                                  n2cn0534
 **    ****   ******    PROGRAM RAN BY                                  eprop2d1
 ***** **    ** ** **   PROGRAM PROCESS ID                               1384427
  **** **  *******  **  PROGRAM STOPPED IN /scratch/hpc-prf-metdyn/eprop2d1_Jan/
                                           53_benchmark_RI_opt/418_gw100_fig5_fu
                                           ll_epsfilter_1e12_20261002/calculatio
                                           ns/rc0p5/ri5_rs09/50_AsH3
