 DBCSR| CPU Multiplication driver                                           XSMM (U)
 DBCSR| Multrec recursion limit                                              512 (U)
 DBCSR| Multiplication stack size                                           1000 (D)
 DBCSR| Maximum elements for images                                    UNLIMITED (U)
 DBCSR| Multiplicative factor virtual images                                   1 (U)
 DBCSR| Use multiplication densification                                       T (D)
 DBCSR| Multiplication size stacks                                             3 (U)
 DBCSR| Use memory pool for CPU allocation                                     F (U)
 DBCSR| Number of 3D layers                                               SINGLE (U)
 DBCSR| Use MPI memory allocation                                              F (U)
 DBCSR| Use RMA algorithm                                                      F (U)
 DBCSR| Use Communication thread                                               T (U)
 DBCSR| Communication thread load                                             30 (D)
 DBCSR| MPI: My process id                                                     1
 DBCSR| MPI: Number of processes                                               8
 DBCSR| OMP: Current number of threads                                        16
 DBCSR| OMP: Max number of threads                                            16
 DBCSR| Split modifier for TAS multiplication algorithm                  1.0E+00 (U)


  **** **** ******  **  PROGRAM STARTED AT               2026-09-18 08:10:37.800
 ***** ** ***  *** **   PROGRAM STARTED ON                              n2cn0245
 **    ****   ******    PROGRAM STARTED BY                              eprop2d1
 ***** **    ** ** **   PROGRAM PROCESS ID                                901458
  **** **  *******  **  PROGRAM STARTED IN /scratch/hpc-prf-metdyn/eprop2d1_Jan/
                                           53_benchmark_RI_opt/131_GW100_RI_basi
                                           s_radius_rqsued/calculations/45_BH3_r
                                           c5_a3

 CP2K| version string:                 CP2K version 2026.2 (Development Version)
 CP2K| source code revision number:                                   d1dff42668
 CP2K| cp2kflags: omp libint fftw3 libxc parallel scalapack mpi_f08 cosma libxs 
 CP2K|            libxsmm spglib openblas libdftd4 s_dftd3 mctc-lib tblite libvo
 CP2K|            ori libbqb
 CP2K| is freely available from                            https://www.cp2k.org/
 CP2K| Program compiled at                                   2026-09-18 06:02:26
 CP2K| Program compiled on                                              n2login6
 CP2K| Program compiled for                                               x86_64
 CP2K| Data directory path    /scratch/hpc-prf-metdyn/eprop2d1_Jan/53_benchmark_
 CP2K| Input file name                                                 input.inp
 
 eprop2d1@n2cn0245 has created rank and process                      0    901458
 
 eprop2d1@n2cn0245 is running                                        1 processes

 GLOBAL| Force Environment number                                              1
 GLOBAL| Basis set file name            /scratch/hpc-prf-metdyn/eprop2d1_Jan/53_
 GLOBAL| Potential file name            /scratch/hpc-prf-metdyn/eprop2d1_Jan/53_
 GLOBAL| MM Potential file name                                     MM_POTENTIAL
 GLOBAL| Coordinate file name                                      __STD_INPUT__
 GLOBAL| Method name                                                        CP2K
 GLOBAL| Project name                                        gw100_45_BH3_rc5_a3
 GLOBAL| Run type                                                         ENERGY
 GLOBAL| FFT library                                                       FFTW3
 GLOBAL| Diagonalization library                                       ScaLAPACK
 GLOBAL| Cholesky decomposition library                                ScaLAPACK
 GLOBAL| DGEMM library                                                      BLAS
 GLOBAL| Direct generalized diagonalization requested                          F
 GLOBAL| Orthonormality check for eigenvectors                          DISABLED
 GLOBAL| Matrix multiplication library                                     COSMA
 GLOBAL| All-to-all communication in single precision                          F
 GLOBAL| Grid backend                                                       AUTO
 GLOBAL| Global print level                                                  LOW
 GLOBAL| MPI I/O enabled                                                       T
 GLOBAL| Total number of message passing processes                             1
 GLOBAL| Number of distributed systems (nodes)                                 1
 GLOBAL| Number of threads for this process                                   16
 GLOBAL| This output is from process                                           0
 GLOBAL| OpenMP stack size per thread (OMP_STACKSIZE)                       128M
 GLOBAL| CPU model name                          AMD EPYC 7763 64-Core Processor
 GLOBAL| CPUID                                                              1002
 GLOBAL| Compiled for CPUID                                                    0

 *** HINT in environment.F:968 :: The compiler target (generic) used to ***
 *** build this binary does not enable all instruction-set extensions   ***
 *** available on this CPU (x86_avx2). Consider reconfiguring and       ***
 *** rebuilding CP2K for this target system to enable them.             ***


 MEMORY| system memory details [Kb]
 MEMORY|                        rank 0           min           max       average
 MEMORY| MemTotal            263897556     263897556     263897556     263897556
 MEMORY| MemFree             251239524     251239524     251239524     251239524
 MEMORY| Buffers                227576        227576        227576        227576
 MEMORY| Cached                6944092       6944092       6944092       6944092
 MEMORY| Slab                  1328632       1328632       1328632       1328632
 MEMORY| SReclaimable           257872        257872        257872        257872
 MEMORY| MemLikelyFree       258669064     258669064     258669064     258669064


 GENERATE|  Preliminary Number of Bonds generated:                             0
 GENERATE|  Achieved consistency in connectivity generation.

 *******************************************************************************
 *******************************************************************************
 **                                                                           **
 **     #####                         ##              ##                      **
 **    ##   ##            ##          ##              ##                      **
 **   ##     ##                       ##            ######                    **
 **   ##     ##  ##   ##  ##   #####  ##  ##   ####   ##    #####    #####    **
 **   ##     ##  ##   ##  ##  ##      ## ##   ##      ##   ##   ##  ##   ##   **
 **   ##  ## ##  ##   ##  ##  ##      ####     ###    ##   ######   ######    **
 **    ##  ###   ##   ##  ##  ##      ## ##      ##   ##   ##       ##        **
 **     #######   #####   ##   #####  ##  ##  ####    ##    #####   ##        **
 **           ##                                                    ##        **
 **                                                                           **
 **                                                ... make the atoms dance   **
 **                                                                           **
 **            Copyright (C) by CP2K developers group (2000-2026)             **
 **                      J. Chem. Phys. 152, 194103 (2020)                    **
 **                                                                           **
 *******************************************************************************


 TOTAL NUMBERS AND MAXIMUM NUMBERS

  Total number of            - Atomic kinds:                                   2
                             - Atoms:                                          4
                             - Shell sets:                                     4
                             - Shells:                                        17
                             - Primitive Cartesian functions:                 26
                             - Cartesian basis functions:                     32
                             - Spherical basis functions:                     31

  Maximum angular momentum of- Orbital basis functions:                        2
                             - Local part of the GTH pseudopotential:          2
                             - Non-local part of the GTH pseudopotential:      0


 SCF PARAMETERS         Density guess:                                    ATOMIC
                        --------------------------------------------------------
                        max_scf:                                             500
                        max_scf_history:                                       0
                        max_diis:                                              4
                        --------------------------------------------------------
                        eps_scf:                                        1.00E-08
                        eps_scf_history:                                0.00E+00
                        eps_diis:                                       0.00E+00
                        eps_eigval:                                     1.00E-05
                        --------------------------------------------------------
                        level_shift [a.u.]:                             0.000000
                        --------------------------------------------------------
                        Outer loop SCF in use 
                        No variables optimised in outer loop
                        eps_scf                                         1.00E-08
                        max_scf                                               20
                        No outer loop optimization
                        step_size                                       5.00E-01

 Extrapolation method: initial_guess

 Number of electrons:                                                          6
 Number of occupied orbitals:                                                  3
 Number of molecular orbitals:                                                 3

 Number of orbital functions:                                                 31
 Number of independent orbital functions:                                     31


 SCF WAVEFUNCTION OPTIMIZATION

  ----------------------------------- OT ---------------------------------------
  Minimizer      : DIIS                : direct inversion
                                         in the iterative subspace
                                         using   7 DIIS vectors
                                         safer DIIS on
  Preconditioner : FULL_KINETIC        : inversion of T + eS
  Lattice FFT   : OFF
  Precond_solver : DEFAULT
  stepsize       :    0.15000000                  energy_gap     :    0.20000000
  eps_taylor     :   0.10000E-15                  max_taylor     :             4
  ----------------------------------- OT ---------------------------------------

  Step     Update method      Time    Convergence         Total energy    Change
  ------------------------------------------------------------------------------
  Decoupling Energy:                                               0.0000249512
     1 OT DIIS     0.15E+00    5.7     0.12833448        -4.1344709129 -4.13E+00
  Decoupling Energy:                                               0.0000085687
     2 OT DIIS     0.15E+00    6.9     0.07560856        -4.3075139820 -1.73E-01
  Decoupling Energy:                                               0.0000020798
     3 OT DIIS     0.15E+00    6.9     0.05074855        -4.4030876435 -9.56E-02
  Decoupling Energy:                                               0.0000000009
     4 OT DIIS     0.15E+00    6.9     0.03687747        -4.4625116027 -5.94E-02
  Decoupling Energy:                                              -0.0000004814
     5 OT DIIS     0.15E+00    6.9     0.02204343        -4.5136455728 -5.11E-02
  Decoupling Energy:                                              -0.0000004342
     6 OT DIIS     0.15E+00    6.9     0.01166805        -4.5345477843 -2.09E-02
  Decoupling Energy:                                              -0.0000004581
     7 OT DIIS     0.15E+00    6.8     0.00543584        -4.5402277430 -5.68E-03
  Decoupling Energy:                                              -0.0000004853
     8 OT DIIS     0.15E+00    6.9     0.00262298        -4.5411917818 -9.64E-04
  Decoupling Energy:                                              -0.0000004902
     9 OT DIIS     0.15E+00    6.8     0.00106324        -4.5414320943 -2.40E-04
  Decoupling Energy:                                              -0.0000004921
    10 OT DIIS     0.15E+00    6.8     0.00046020        -4.5414611386 -2.90E-05
  Decoupling Energy:                                              -0.0000004912
    11 OT DIIS     0.15E+00    6.8     0.00020021        -4.5414664843 -5.35E-06
  Decoupling Energy:                                              -0.0000004910
    12 OT DIIS     0.15E+00    6.8     0.00011538        -4.5414675461 -1.06E-06
  Decoupling Energy:                                              -0.0000004905
    13 OT DIIS     0.15E+00    6.8     0.00008389        -4.5414677926 -2.46E-07
  Decoupling Energy:                                              -0.0000004898
    14 OT DIIS     0.15E+00    6.9     0.00003824        -4.5414680363 -2.44E-07
  Decoupling Energy:                                              -0.0000004898
    15 OT DIIS     0.15E+00    6.8     0.00002268        -4.5414680815 -4.52E-08
  Decoupling Energy:                                              -0.0000004898
    16 OT DIIS     0.15E+00    6.8     0.00001645        -4.5414680949 -1.34E-08
  Decoupling Energy:                                              -0.0000004898
    17 OT DIIS     0.15E+00    6.8     0.00001091        -4.5414681046 -9.69E-09
  Decoupling Energy:                                              -0.0000004898
    18 OT DIIS     0.15E+00    6.8     0.00000591        -4.5414681104 -5.84E-09
  Decoupling Energy:                                              -0.0000004898
    19 OT DIIS     0.15E+00    6.8     0.00000322        -4.5414681118 -1.31E-09
  Decoupling Energy:                                              -0.0000004899
    20 OT DIIS     0.15E+00    6.8     0.00000116        -4.5414681121 -3.82E-10
  Decoupling Energy:                                              -0.0000004899
    21 OT DIIS     0.15E+00    6.9     0.00000054        -4.5414681122 -4.37E-11
  Decoupling Energy:                                              -0.0000004899
    22 OT DIIS     0.15E+00    6.8     0.00000028        -4.5414681122 -8.24E-12
  Decoupling Energy:                                              -0.0000004899
    23 OT DIIS     0.15E+00    6.8     0.00000016        -4.5414681122 -2.34E-12
  Decoupling Energy:                                              -0.0000004899
    24 OT DIIS     0.15E+00    6.8     0.00000007        -4.5414681122 -8.54E-13
  Decoupling Energy:                                              -0.0000004899
    25 OT DIIS     0.15E+00    6.8     0.00000003        -4.5414681122 -9.77E-14
  Decoupling Energy:                                              -0.0000004899
    26 OT DIIS     0.15E+00    6.8     0.00000002        -4.5414681122 -2.13E-14
  Decoupling Energy:                                              -0.0000004899
    27 OT DIIS     0.15E+00    6.9     9.3227E-09        -4.5414681122 -7.11E-15

  *** SCF run converged in    27 steps ***


  Electronic density on regular grids:         -6.0000000000        0.0000000000
  Core density on regular grids:                6.0000000000       -0.0000000000
  Total charge density on r-space grids:       -0.0000000000
  Total charge density g-space grids:          -0.0000000000

  Overlap energy of the core charge distribution:               0.00000510130053
  Self energy of the core charge distribution:                -10.29086086030319
  Core Hamiltonian energy:                                      3.47197010904777
  Hartree energy:                                               4.35842482224091
  Exchange-correlation energy:                                 -2.08100728447559

  Total energy:                                                -4.54146811218957

  outer SCF iter =    1 RMS gradient =   0.93E-08 energy =         -4.5414681122
  outer SCF loop converged in   1 iterations or   27 steps

  
 -------------------------------------------------------------------------------
 -                                                                             -
 -                          BANDSTRUCTURE CALCULATION                          -
 -                                                                             -
 -------------------------------------------------------------------------------
  
 Number of occupied molecular orbitals (MOs) = Number of occupied bands        3
 Number of unoccupied (= virtual) MOs = Number of unoccupied bands            28
 Number of Gaussian basis functions for MOs                                   31
  
 -------------------------------------------------------------------------------
 -                                                                             -
 -                                GW CALCULATION                               -
 -                                                                             -
 -------------------------------------------------------------------------------
  
 Input: Number of time/freq. points                                           30
 Input: ω_max for fitting Σ(iω) (eV)                                        10.0
 Input: Filter threshold for sparse tensor operations                    1.0E-07
 Input: Apply Hedin shift                                                      F
 Detected: Available memory per MPI process                             138.7 GB
 
 Input: RI-RS Tikhonov regularization                                   1.00E-04
 Input: AO grid hard cutoff radius                                        8.00 Å
 Input: MPI ranks per atom in Z_lP solve                                      -1
 Input: Keep sparsity in χ/G/W panels                                          T
 Input: GW flavour                                                          G0W0
 
 Input: RI-RS grid optimization activated                                      T
 Input: RS points per AO function                                            7.0
 Input: Cutoff radius for atomic clusters                                  3.0 Å
 Input: Maximum grid optimization iterations                                 300
 
 Input: AUTO_RI basis optimization activated:                                  T
 Input: AUTO_RI number of RI functions per AO function:                      3.0
 Input: AUTO_RI frontier orbital window:                                  5.0 eV
 Input: AUTO_RI neighbor radius:                                           5.0 Å
 
 Cutoff radius for the truncated Coulomb operator in RI metric:            7.0 Å
 Regularization parameter of RI                                          0.0E+00
 Regularization parameter of minimax grids                               1.0E-06
 
 AUTO_RI| Number of automatic RI functions for χ, ε, W:                       93
 AUTO_RI| Total RI basis optimization time:                                0.9 s
  Decoupling Energy:                                              -0.0000004899
 
 SCF direct band gap (eV)                                                   5.72
 Max. SCF eigval diff. (eV)                                                86.74
 E-Range for minimax grid                                                  15.16
 Number of Padé parameters for analytic continuation:                         16
 
 RI-RS basis radii (Å):
     Kind  Elem     r_AO (Å)     r_RI (Å)
        1    B         8.0299        5.0785
        2    H         9.5011        6.0090
 
 Started RI-RS grid optimization
 RI-RS grid initial normalized error                          2.052007013234E-04
 RI-RS grid optimization completed, execution time:                        3.6 s
 Normalized 3C error:                                                    1.2E-08
 Maximum absolute 3C error:                                              4.0E-04
 Optimized points outside molecular Voronoi cells:                            52 / 217
 Total grid points used for RI-RS:                                           217
 
 RI-RS grid row-blocks of ϕ_μ(r_l)                                             9
 RI-RS grid points per block (max)                                            32
 
 Percentage of non-zero matrix elements in ϕ_μ(r_l)                     100.00 %
 
 RI-RS memory estimate per MPI process:
   Available memory per process (system)                               169.58 GB
   Required for Z_lP (dense upper bound; actual is sparser)              0.00 GB
   Required for χ, W, Σ panels (peak per panel step)                     0.00 GB
   Required for Z_lP solve peak (D_local+ϕ, worst-case atom)             0.00 GB
   Worst-case local-grid number of grid points:                              217
   Worst-case memory D_local:                                            0.00 GB
 
 Started computing Z_lP
 Computed Z_lP (MPI rank 0) for atom          1 /  4,    Execution time    0.0 s
 Computed Z_lP (MPI rank 0) for atom          2 /  4,    Execution time    0.0 s
 Computed Z_lP (MPI rank 0) for atom          3 /  4,    Execution time    0.0 s
 Computed Z_lP (MPI rank 0) for atom          4 /  4,    Execution time    0.0 s
 Computed Z_lP (all MPI ranks) for all atoms,            Execution time    0.0 s

 Memory per MPI process after computing Z_lP:
 Available memory per MPI process                              170.8 GB
 Used memory per MPI process                                     0.7 GB
 Number of batches for χ, Σ matrices                                           1
 
 Percentage of non-zero matrix elements in Z_lP                         100.00 %
 Percentage of non-zero matrix elements in G_ll', χ_ll', W_ll'          100.00 %
 Percentage of non-zero matrix elements in χ_PQ for time point 1        100.00 %
 
 Computed χ(iτ,k=0) for time point            1 / 30,    Execution time    0.0 s
 Computed χ(iτ,k=0) for time point            2 / 30,    Execution time    0.0 s
 Computed χ(iτ,k=0) for time point            3 / 30,    Execution time    0.0 s
 Computed χ(iτ,k=0) for time point            4 / 30,    Execution time    0.0 s
 Computed χ(iτ,k=0) for time point            5 / 30,    Execution time    0.0 s
 Computed χ(iτ,k=0) for time point            6 / 30,    Execution time    0.0 s
 Computed χ(iτ,k=0) for time point            7 / 30,    Execution time    0.0 s
 Computed χ(iτ,k=0) for time point            8 / 30,    Execution time    0.0 s
 Computed χ(iτ,k=0) for time point            9 / 30,    Execution time    0.0 s
 Computed χ(iτ,k=0) for time point           10 / 30,    Execution time    0.0 s
 Computed χ(iτ,k=0) for time point           11 / 30,    Execution time    0.0 s
 Computed χ(iτ,k=0) for time point           12 / 30,    Execution time    0.0 s
 Computed χ(iτ,k=0) for time point           13 / 30,    Execution time    0.0 s
 Computed χ(iτ,k=0) for time point           14 / 30,    Execution time    0.0 s
 Computed χ(iτ,k=0) for time point           15 / 30,    Execution time    0.0 s
 Computed χ(iτ,k=0) for time point           16 / 30,    Execution time    0.0 s
 Computed χ(iτ,k=0) for time point           17 / 30,    Execution time    0.0 s
 Computed χ(iτ,k=0) for time point           18 / 30,    Execution time    0.0 s
 Computed χ(iτ,k=0) for time point           19 / 30,    Execution time    0.0 s
 Computed χ(iτ,k=0) for time point           20 / 30,    Execution time    0.0 s
 Computed χ(iτ,k=0) for time point           21 / 30,    Execution time    0.0 s
 Computed χ(iτ,k=0) for time point           22 / 30,    Execution time    0.0 s
 Computed χ(iτ,k=0) for time point           23 / 30,    Execution time    0.0 s
 Computed χ(iτ,k=0) for time point           24 / 30,    Execution time    0.0 s
 Computed χ(iτ,k=0) for time point           25 / 30,    Execution time    0.0 s
 Computed χ(iτ,k=0) for time point           26 / 30,    Execution time    0.0 s
 Computed χ(iτ,k=0) for time point           27 / 30,    Execution time    0.0 s
 Computed χ(iτ,k=0) for time point           28 / 30,    Execution time    0.0 s
 Computed χ(iτ,k=0) for time point           29 / 30,    Execution time    0.0 s
 Computed χ(iτ,k=0) for time point           30 / 30,    Execution time    0.0 s
 
 Computed W(iτ),                                         Execution time    0.1 s
 
 Computed Σ^x(k=0),                                      Execution time    0.0 s
 
 Computed Σ^c(iτ) for time point              1 / 30,    Execution time    0.0 s
 Computed Σ^c(iτ) for time point              2 / 30,    Execution time    0.0 s
 Computed Σ^c(iτ) for time point              3 / 30,    Execution time    0.0 s
 Computed Σ^c(iτ) for time point              4 / 30,    Execution time    0.0 s
 Computed Σ^c(iτ) for time point              5 / 30,    Execution time    0.0 s
 Computed Σ^c(iτ) for time point              6 / 30,    Execution time    0.0 s
 Computed Σ^c(iτ) for time point              7 / 30,    Execution time    0.0 s
 Computed Σ^c(iτ) for time point              8 / 30,    Execution time    0.0 s
 Computed Σ^c(iτ) for time point              9 / 30,    Execution time    0.0 s
 Computed Σ^c(iτ) for time point             10 / 30,    Execution time    0.0 s
 Computed Σ^c(iτ) for time point             11 / 30,    Execution time    0.0 s
 Computed Σ^c(iτ) for time point             12 / 30,    Execution time    0.0 s
 Computed Σ^c(iτ) for time point             13 / 30,    Execution time    0.0 s
 Computed Σ^c(iτ) for time point             14 / 30,    Execution time    0.0 s
 Computed Σ^c(iτ) for time point             15 / 30,    Execution time    0.0 s
 Computed Σ^c(iτ) for time point             16 / 30,    Execution time    0.0 s
 Computed Σ^c(iτ) for time point             17 / 30,    Execution time    0.0 s
 Computed Σ^c(iτ) for time point             18 / 30,    Execution time    0.0 s
 Computed Σ^c(iτ) for time point             19 / 30,    Execution time    0.0 s
 Computed Σ^c(iτ) for time point             20 / 30,    Execution time    0.0 s
 Computed Σ^c(iτ) for time point             21 / 30,    Execution time    0.0 s
 Computed Σ^c(iτ) for time point             22 / 30,    Execution time    0.0 s
 Computed Σ^c(iτ) for time point             23 / 30,    Execution time    0.0 s
 Computed Σ^c(iτ) for time point             24 / 30,    Execution time    0.0 s
 Computed Σ^c(iτ) for time point             25 / 30,    Execution time    0.0 s
 Computed Σ^c(iτ) for time point             26 / 30,    Execution time    0.0 s
 Computed Σ^c(iτ) for time point             27 / 30,    Execution time    0.0 s
 Computed Σ^c(iτ) for time point             28 / 30,    Execution time    0.0 s
 Computed Σ^c(iτ) for time point             29 / 30,    Execution time    0.0 s
 Computed Σ^c(iτ) for time point             30 / 30,    Execution time    0.0 s
 
 SCF valence band maximum (eV):                                           -8.484
 SCF conduction band minimum (eV):                                        -2.764
 SCF indirect band gap (eV):                                               5.720
 SCF direct band gap (eV):                                                 5.720
 
 G0W0 valence band maximum (eV):                                         -12.196
 G0W0 conduction band minimum (eV):                                        0.593
 G0W0 indirect band gap (eV):                                             12.788
 G0W0 direct band gap (eV):                                               12.788
 
 Hartree-Fock with SCF orbitals valence band maximum (eV):               -13.401
 Hartree-Fock with SCF orbitals conduction band minimum (eV)               2.203
 Hartree-Fock with SCF orbitals indirect band gap (eV):                   15.605
 Hartree-Fock with SCF orbitals direct band gap (eV):                     15.605

 ENERGY| Total FORCE_EVAL ( QS ) energy [hartree]             -4.541468112189573

 -------------------------------------------------------------------------------
 -                                                                             -
 -                                DBCSR STATISTICS                             -
 -                                                                             -
 -------------------------------------------------------------------------------
 COUNTER                                    TOTAL       BLAS       SMM       ACC
 flops     3 x     3 x     3                12798     100.0%      0.0%      0.0%     
 flops    13 x     6 x     3                13104     100.0%      0.0%      0.0%     
 flops     6 x    13 x     3                26208     100.0%      0.0%      0.0%     
 flops    13 x    13 x     3                28392     100.0%      0.0%      0.0%     
 flops    13 x     3 x     3                31356     100.0%      0.0%      0.0%     
 flops    27 x    27 x    22                32076     100.0%      0.0%      0.0%     
 flops    10 x    27 x    22                35640     100.0%      0.0%      0.0%     
 flops    27 x    10 x    22                35640     100.0%      0.0%      0.0%     
 flops     6 x     6 x     3                36288     100.0%      0.0%      0.0%     
 flops    10 x    10 x    22                39600     100.0%      0.0%      0.0%     
 flops     6 x     3 x     3                43416     100.0%      0.0%      0.0%     
 flops     3 x     3 x    31                59706     100.0%      0.0%      0.0%     
 flops    13 x     3 x    13                61854     100.0%      0.0%      0.0%     
 flops    13 x     3 x    31                67704     100.0%      0.0%      0.0%     
 flops    27 x    27 x    24                69984     100.0%      0.0%      0.0%     
 flops    10 x    27 x    24                77760     100.0%      0.0%      0.0%     
 flops    27 x    10 x    24                77760     100.0%      0.0%      0.0%     
 flops    13 x     3 x     6                85644     100.0%      0.0%      0.0%     
 flops     6 x     3 x    13                85644     100.0%      0.0%      0.0%     
 flops    10 x    10 x    24                86400     100.0%      0.0%      0.0%     
 flops     6 x     3 x    31                93744     100.0%      0.0%      0.0%     
 flops     6 x     3 x     6               118584     100.0%      0.0%      0.0%     
 flops    32 x    27 x    22               190080     100.0%      0.0%      0.0%     
 flops    27 x    32 x    22               190080     100.0%      0.0%      0.0%     
 flops    32 x    10 x    22               211200     100.0%      0.0%      0.0%     
 flops    10 x    32 x    22               211200     100.0%      0.0%      0.0%     
 flops    13 x    13 x    27               228150     100.0%      0.0%      0.0%     
 flops    13 x    13 x    10               253500     100.0%      0.0%      0.0%     
 flops    13 x     6 x    27               315900     100.0%      0.0%      0.0%     
 flops     6 x    13 x    27               315900     100.0%      0.0%      0.0%     
 flops    13 x     6 x    10               332280     100.0%      0.0%      0.0%     
 flops     6 x    13 x    10               351000     100.0%      0.0%      0.0%     
 flops    22 x    22 x    27               392040     100.0%      0.0%      0.0%     
 flops    23 x    22 x    27               409860     100.0%      0.0%      0.0%     
 flops    22 x    23 x    27               409860     100.0%      0.0%      0.0%     
 flops    32 x    27 x    24               414720     100.0%      0.0%      0.0%     
 flops    27 x    32 x    24               414720     100.0%      0.0%      0.0%     
 flops    22 x    22 x    10               416240     100.0%      0.0%      0.0%     
 flops    23 x    23 x    27               428490     100.0%      0.0%      0.0%     
 flops    23 x    22 x    10               435160     100.0%      0.0%      0.0%     
 flops    27 x    22 x    23               437184     100.0%      0.0%      0.0%     
 flops    27 x    23 x    22               437184     100.0%      0.0%      0.0%     
 flops     6 x     6 x    27               437400     100.0%      0.0%      0.0%     
 flops    27 x    22 x    22               444312     100.0%      0.0%      0.0%     
 flops    22 x    23 x    10               455400     100.0%      0.0%      0.0%     
 flops    27 x    23 x    23               457056     100.0%      0.0%      0.0%     
 flops     6 x     6 x    10               457200     100.0%      0.0%      0.0%     
 flops    32 x    10 x    24               460800     100.0%      0.0%      0.0%     
 flops    10 x    32 x    24               460800     100.0%      0.0%      0.0%     
 flops    23 x    23 x    10               476100     100.0%      0.0%      0.0%     
 flops    10 x    22 x    23               485760     100.0%      0.0%      0.0%     
 flops    10 x    23 x    22               485760     100.0%      0.0%      0.0%     
 flops    10 x    22 x    22               493680     100.0%      0.0%      0.0%     
 flops    10 x    23 x    23               507840     100.0%      0.0%      0.0%     
 flops    27 x    13 x    27               511758     100.0%      0.0%      0.0%     
 flops    27 x    22 x    27               513216     100.0%      0.0%      0.0%     
 flops    27 x    13 x    10               526500     100.0%      0.0%      0.0%     
 flops    27 x    23 x    27               536544     100.0%      0.0%      0.0%     
 flops    10 x    13 x    27               568620     100.0%      0.0%      0.0%     
 flops    10 x    13 x    10               569400     100.0%      0.0%      0.0%     
 flops    10 x    22 x    27               570240     100.0%      0.0%      0.0%     
 flops    27 x    22 x    10               570240     100.0%      0.0%      0.0%     
 flops    10 x    23 x    27               596160     100.0%      0.0%      0.0%     
 flops    27 x    23 x    10               596160     100.0%      0.0%      0.0%     
 flops    10 x    22 x    10               624800     100.0%      0.0%      0.0%     
 flops    10 x    23 x    10               653200     100.0%      0.0%      0.0%     
 flops    27 x    13 x    13               666198     100.0%      0.0%      0.0%     
 flops    27 x     6 x    27               708588     100.0%      0.0%      0.0%     
 flops    27 x    27 x    31               723168     100.0%      0.0%      0.0%     
 flops    10 x     6 x    27               729000     100.0%      0.0%      0.0%     
 flops    27 x     6 x    10               732240     100.0%      0.0%      0.0%     
 flops    10 x    13 x    13               740220     100.0%      0.0%      0.0%     
 flops    10 x     6 x    10               775200     100.0%      0.0%      0.0%     
 flops    10 x    27 x    31               803520     100.0%      0.0%      0.0%     
 flops    27 x    10 x    31               803520     100.0%      0.0%      0.0%     
 flops    24 x    22 x    27               855360     100.0%      0.0%      0.0%     
 flops    22 x    24 x    27               855360     100.0%      0.0%      0.0%     
 flops    10 x    10 x    31               892800     100.0%      0.0%      0.0%     
 flops    24 x    23 x    27               894240     100.0%      0.0%      0.0%     
 flops    23 x    24 x    27               894240     100.0%      0.0%      0.0%     
 flops    27 x     6 x    13               897156     100.0%      0.0%      0.0%     
 flops    27 x    13 x     6               897156     100.0%      0.0%      0.0%     
 flops    24 x    22 x    10               908160     100.0%      0.0%      0.0%     
 flops    22 x    24 x    10               908160     100.0%      0.0%      0.0%     
 flops    27 x    24 x    22               940896     100.0%      0.0%      0.0%     
 flops    27 x    22 x    24               940896     100.0%      0.0%      0.0%     
 flops    23 x    24 x    10               949440     100.0%      0.0%      0.0%     
 flops    27 x    24 x    23               953856     100.0%      0.0%      0.0%     
 flops    27 x    23 x    24               953856     100.0%      0.0%      0.0%     
 flops    24 x    23 x    10               993600     100.0%      0.0%      0.0%     
 flops    10 x     6 x    13               996840     100.0%      0.0%      0.0%     
 flops    10 x    13 x     6               996840     100.0%      0.0%      0.0%     
 flops    10 x    24 x    22              1045440     100.0%      0.0%      0.0%     
 flops    10 x    22 x    24              1045440     100.0%      0.0%      0.0%     
 flops    10 x    24 x    23              1059840     100.0%      0.0%      0.0%     
 flops    10 x    23 x    24              1059840     100.0%      0.0%      0.0%     
 flops    27 x    27 x    13              1080378     100.0%      0.0%      0.0%     
 flops    27 x    24 x    27              1119744     100.0%      0.0%      0.0%     
 flops    32 x    32 x    22              1126400     100.0%      0.0%      0.0%     
 flops    10 x    27 x    13              1158300     100.0%      0.0%      0.0%     
 flops    27 x    10 x    13              1200420     100.0%      0.0%      0.0%     
 flops    27 x     6 x     6              1207224     100.0%      0.0%      0.0%     
 flops    10 x    24 x    27              1244160     100.0%      0.0%      0.0%     
 flops    27 x    24 x    10              1244160     100.0%      0.0%      0.0%     
 flops    10 x    10 x    13              1287000     100.0%      0.0%      0.0%     
 flops    10 x     6 x     6              1332720     100.0%      0.0%      0.0%     
 flops    13 x    13 x    32              1352000     100.0%      0.0%      0.0%     
 flops    10 x    24 x    10              1363200     100.0%      0.0%      0.0%     
 flops    27 x    27 x     6              1443420     100.0%      0.0%      0.0%     
 flops    10 x    27 x     6              1551960     100.0%      0.0%      0.0%     
 flops    27 x    10 x     6              1603800     100.0%      0.0%      0.0%     
 flops    10 x    10 x     6              1698000     100.0%      0.0%      0.0%     
 flops    24 x    24 x    27              1866240     100.0%      0.0%      0.0%     
 flops    13 x     6 x    32              1872000     100.0%      0.0%      0.0%     
 flops     6 x    13 x    32              1872000     100.0%      0.0%      0.0%     
 flops    24 x    24 x    10              1981440     100.0%      0.0%      0.0%     
 flops    27 x    24 x    24              2115072     100.0%      0.0%      0.0%     
 flops    27 x    27 x    93              2169504     100.0%      0.0%      0.0%     
 flops    22 x    22 x    32              2323200     100.0%      0.0%      0.0%     
 flops    10 x    24 x    24              2350080     100.0%      0.0%      0.0%     
 flops    10 x    27 x    93              2410560     100.0%      0.0%      0.0%     
 flops    27 x    10 x    93              2410560     100.0%      0.0%      0.0%     
 flops    23 x    22 x    32              2428800     100.0%      0.0%      0.0%     
 flops    22 x    23 x    32              2428800     100.0%      0.0%      0.0%     
 flops    32 x    32 x    24              2457600     100.0%      0.0%      0.0%     
 flops    23 x    23 x    32              2539200     100.0%      0.0%      0.0%     
 flops    32 x    22 x    23              2590720     100.0%      0.0%      0.0%     
 flops    32 x    23 x    22              2590720     100.0%      0.0%      0.0%     
 flops     6 x     6 x    32              2592000     100.0%      0.0%      0.0%     
 flops    32 x    22 x    22              2632960     100.0%      0.0%      0.0%     
 flops    10 x    10 x    93              2678400     100.0%      0.0%      0.0%     
 flops    32 x    23 x    23              2708480     100.0%      0.0%      0.0%     
 flops    32 x    13 x    27              3032640     100.0%      0.0%      0.0%     
 flops    27 x    13 x    32              3032640     100.0%      0.0%      0.0%     
 flops    32 x    22 x    27              3041280     100.0%      0.0%      0.0%     
 flops    27 x    22 x    32              3041280     100.0%      0.0%      0.0%     
 flops    32 x    13 x    10              3128320     100.0%      0.0%      0.0%     
 flops    32 x    23 x    27              3179520     100.0%      0.0%      0.0%     
 flops    27 x    23 x    32              3179520     100.0%      0.0%      0.0%     
 flops    10 x    13 x    32              3253120     100.0%      0.0%      0.0%     
 flops    10 x    22 x    32              3336960     100.0%      0.0%      0.0%     
 flops    32 x    22 x    10              3365120     100.0%      0.0%      0.0%     
 flops    10 x    23 x    32              3503360     100.0%      0.0%      0.0%     
 flops    32 x    23 x    10              3518080     100.0%      0.0%      0.0%     
 flops    32 x    13 x    13              3947840     100.0%      0.0%      0.0%     
 flops    27 x     6 x    32              4095360     100.0%      0.0%      0.0%     
 flops    32 x     6 x    27              4199040     100.0%      0.0%      0.0%     
 flops    32 x     6 x    10              4262400     100.0%      0.0%      0.0%     
 flops    32 x    27 x    31              4285440     100.0%      0.0%      0.0%     
 flops    27 x    32 x    31              4285440     100.0%      0.0%      0.0%     
 flops    10 x     6 x    32              4346880     100.0%      0.0%      0.0%     
 flops    32 x    10 x    31              4761600     100.0%      0.0%      0.0%     
 flops    10 x    32 x    31              4761600     100.0%      0.0%      0.0%     
 flops    22 x    24 x    32              5001216     100.0%      0.0%      0.0%     
 flops    24 x    22 x    32              5068800     100.0%      0.0%      0.0%     
 flops    23 x    24 x    32              5228544     100.0%      0.0%      0.0%     
 flops    24 x    23 x    32              5299200     100.0%      0.0%      0.0%     
 flops    32 x     6 x    13              5316480     100.0%      0.0%      0.0%     
 flops    32 x    13 x     6              5316480     100.0%      0.0%      0.0%     
 flops    32 x    24 x    22              5575680     100.0%      0.0%      0.0%     
 flops    32 x    22 x    24              5575680     100.0%      0.0%      0.0%     
 flops    32 x    24 x    23              5652480     100.0%      0.0%      0.0%     
 flops    32 x    23 x    24              5652480     100.0%      0.0%      0.0%     
 flops    32 x    27 x    13              6357312     100.0%      0.0%      0.0%     
 flops    27 x    32 x    13              6402240     100.0%      0.0%      0.0%     
 flops    32 x    24 x    27              6635520     100.0%      0.0%      0.0%     
 flops    27 x    24 x    32              6635520     100.0%      0.0%      0.0%     
 flops    10 x    32 x    13              6864000     100.0%      0.0%      0.0%     
 flops    32 x    10 x    13              7013760     100.0%      0.0%      0.0%     
 flops    32 x     6 x     6              7153920     100.0%      0.0%      0.0%     
 flops    10 x    24 x    32              7296000     100.0%      0.0%      0.0%     
 flops    32 x    24 x    10              7357440     100.0%      0.0%      0.0%     
 flops    32 x    27 x     6              8553600     100.0%      0.0%      0.0%     
 flops    27 x    32 x     6              8553600     100.0%      0.0%      0.0%     
 flops    10 x    32 x     6              9196800     100.0%      0.0%      0.0%     
 flops    32 x    10 x     6              9446400     100.0%      0.0%      0.0%     
 flops    24 x    24 x    32             10911744     100.0%      0.0%      0.0%     
 flops    32 x    24 x    24             12533760     100.0%      0.0%      0.0%     
 flops    32 x    27 x    93             12856320     100.0%      0.0%      0.0%     
 flops    27 x    32 x    93             12856320     100.0%      0.0%      0.0%     
 flops    32 x    10 x    93             14284800     100.0%      0.0%      0.0%     
 flops    10 x    32 x    93             14284800     100.0%      0.0%      0.0%     
 flops    32 x    13 x    32             17864704     100.0%      0.0%      0.0%     
 flops    32 x    22 x    32             18022400     100.0%      0.0%      0.0%     
 flops    32 x    23 x    32             18841600     100.0%      0.0%      0.0%     
 flops    32 x     6 x    32             24305664     100.0%      0.0%      0.0%     
 flops    32 x    32 x    31             25395200     100.0%      0.0%      0.0%     
 flops    32 x    32 x    13             37672960     100.0%      0.0%      0.0%     
 flops    32 x    24 x    32             39321600     100.0%      0.0%      0.0%     
 flops    32 x    32 x     6             50688000     100.0%      0.0%      0.0%     
 flops    32 x    32 x    93             76185600     100.0%      0.0%      0.0%     
 flops inhomo. stacks                           0       0.0%      0.0%      0.0%
 flops total                       729.861352E+06     100.0%      0.0%      0.0%
 flops max/rank                    729.861352E+06     100.0%      0.0%      0.0%
 matmuls inhomo. stacks                         0       0.0%      0.0%      0.0%
 matmuls total                              54388     100.0%      0.0%      0.0%
 number of processed stacks                 13322     100.0%      0.0%      0.0%
 average stack size                                     4.1       0.0       0.0
 marketing flops                     1.371326E+09
 -------------------------------------------------------------------------------
 # multiplications                           1082
 max memory usage/rank              25.915335E+09
 # max total images/rank                        1
 # max 3D layers                                1
 # MPI messages exchanged                       0
 -------------------------------------------------------------------------------
 -                                                                             -
 -                      DBCSR MESSAGE PASSING PERFORMANCE                      -
 -                                                                             -
 -------------------------------------------------------------------------------
 ROUTINE             CALLS      AVE VOLUME [Bytes]
 MP_Bcast              192                     12.
 MP_Allreduce         5267                     12.
 MP_Alltoall          5303                   6166.
 MP_ISend             3902                    326.
 MP_IRecv             3902                    326.
 -------------------------------------------------------------------------------

 -------------------------------------------------------------------------------
 -                                                                             -
 -                                GRID STATISTICS                              -
 -                                                                             -
 -------------------------------------------------------------------------------
 LP    KERNEL             BACKEND                              COUNT     PERCENT
 2     collocate ortho    CPU                                   7980      34.33%
 2     integrate ortho    CPU                                   7980      34.33%
 3     collocate ortho    CPU                                   2940      12.65%
 3     integrate ortho    CPU                                   2940      12.65%
 4     collocate ortho    CPU                                    700       3.01%
 4     integrate ortho    CPU                                    700       3.01%
 0     collocate general  CPU                                      4       0.02%
 -------------------------------------------------------------------------------

 -------------------------------------------------------------------------------
 -                                                                             -
 -                          OFFLOAD MEMPOOL STATISTICS                         -
 -                                                                             -
 -------------------------------------------------------------------------------
 Memory consumption                Number of allocations  Used [MiB]  Size [MiB]
 Host                                                  6         260    21783065
 -------------------------------------------------------------------------------

 MEMORY| Estimated peak process memory [MiB]                               11913

 -------------------------------------------------------------------------------
 -                                                                             -
 -                         MESSAGE PASSING PERFORMANCE                         -
 -                                                                             -
 -------------------------------------------------------------------------------

 ROUTINE             CALLS      AVE VOLUME [Bytes]
 MP_Group                5
 MP_Bcast              264                   7742.
 MP_Allreduce         2302                    818.
 MP_Sync                38
 MP_comm_split          38
 -------------------------------------------------------------------------------


 -------------------------------------------------------------------------------
 -                                                                             -
 -                           R E F E R E N C E S                               -
 -                                                                             -
 -------------------------------------------------------------------------------
 
 CP2K version 2026.2 (Development Version), the CP2K developers group (2026).
 CP2K is freely available from https://www.cp2k.org/ .
 
 M. Iannuzzi, J. Wilhelm, F. Stein, A. Bussy, H. Elgabarty, D. Golze, A. Hehn, 
 M. Graml, S. Marek, B. Sertcan Gökmen, C. Schran, H. Forbert, R. Z. 
 Khaliullin, A. Kozhevnikov, M. Taillefumier, R. Meli, V. V. Rybkin, M. Brehm, 
 R. Schade, O. Schütt, J. V. Pototschnig, H. Mirhosseini, A. Knüpfer, D. Marx, 
 M. Krack, J. Hutter, T. D. Kühne.
 J. Phys. Chem. B 130, 1237-1310 (2026).
 The CP2K Program Package Made Simple.
 https://doi.org/10.1021/acs.jpcb.5c05851

 M. Graml, K. Zollner, D. Hernangómez-Pérez, P. E. Faria Junior, J. Wilhelm.
 J. Chem. Theory Comput. 20, 2202-2208 (2024).
 Low-scaling GW algorithm applied to twisted transition-metal dichalcogenide 
 heterobilayers.
 https://doi.org/10.1021/acs.jctc.3c01230

 T. D. Kühne, M. Iannuzzi, M. Del Ben, V. V. Rybkin, P. Seewald, F. Stein, T. 
 Laino, R. Z. Khaliullin, O. Schütt, F. Schiffmann, D. Golze, J. Wilhelm, S. 
 Chulkov, M. H. Bani-Hashemian, V. Weber, U. Borstnik, M. Taillefumier, A. S. 
 Jakobovits, A. Lazzaro, H. Pabst, T. Müller, R. Schade, M. Guidon, S. 
 Andermatt, N. Holmberg, G. K. Schenter, A. Hehn, A. Bussy, F. Belleflamme, G. 
 Tabacchi, A. Glöß, M. Lass, I. Bethune, C. J. Mundy, C. Plessl, M. Watkins, 
 J. VandeVondele, M. Krack, J. Hutter.
 J. Chem. Phys. 152, 194103 (2020).
 CP2K: An electronic structure and molecular dynamics software package - 
 Quickstep: Efficient and accurate electronic structure calculations.
 https://doi.org/10.1063/5.0007045

 O. Schuett, P. Messmer, J. Hutter, J. VandeVondele.
 Electronic Structure Calculations on Graphics Processing Units, 173-190 (2016).
 GPU-Accelerated Sparse Matrix-Matrix Multiplication for Linear Scaling Density 
 Functional Theory.
 https://doi.org/10.1002/9781118670712.ch8

 A. Heinecke, G. Henry, M. Hutchinson, H. Pabst.
 Proceedings of Intl. Supercomputing Conference, 981-991 (2016).
 LIBXSMM: Accelerating Small Matrix Multiplications by Runtime Code Generation.
 https://doi.org/10.1109/SC.2016.83

 U. Borstnik, J. VandeVondele, V. Weber, J. Hutter.
 Parallel Comput. 40, 47-58 (2014).
 Sparse matrix multiplication: The distributed block-compressed sparse row 
 library.
 https://doi.org/10.1016/j.parco.2014.03.012

 J. VandeVondele, J. Hutter.
 J. Chem. Phys. 127, 114105 (2007).
 Gaussian basis sets for accurate calculations on molecular systems in gas and 
 condensed phases.
 https://doi.org/10.1063/1.2770708

 J. VandeVondele, M. Krack, F. Mohamed, M. Parrinello, T. Chassaing, J. Hutter.
 Comput. Phys. Commun. 167, 103-128 (2005).
 QUICKSTEP: Fast and accurate density functional calculations using a mixed 
 Gaussian and plane waves approach.
 https://doi.org/10.1016/j.cpc.2004.12.014

 M. Krack.
 Theor. Chem. Acc. 114, 145-152 (2005).
 Pseudopotentials for H to Kr optimized for gradient-corrected 
 exchange-correlation functionals.
 https://doi.org/10.1007/s00214-005-0655-y

 M. Frigo, S. G. Johnson.
 Proc. IEEE 93, 216-231 (2005).
 The design and implementation of FFTW3.
 https://doi.org/10.1109/JPROC.2004.840301

 J. VandeVondele, J. Hutter.
 J. Chem. Phys. 118, 4365-4369 (2003).
 An efficient orbital transformation method for electronic structure 
 calculations.
 https://doi.org/10.1063/1.1543154

 C. Hartwigsen, S. Goedecker, J. Hutter.
 Phys. Rev. B 58, 3641-3662 (1998).
 Relativistic separable dual-space Gaussian pseudopotentials from H to Rn.
 https://doi.org/10.1103/PhysRevB.58.3641

 G. Lippert, J. Hutter, M. Parrinello.
 Mol. Phys. 92, 477-487 (1997).
 A hybrid Gaussian and plane wave density functional scheme.
 https://doi.org/10.1080/002689797170220

 S. Goedecker, M. Teter, J. Hutter.
 Phys. Rev. B 54, 1703-1710 (1996).
 Separable dual-space Gaussian pseudopotentials.
 https://doi.org/10.1103/PhysRevB.54.1703

 J. P. Perdew, K. Burke, M. Ernzerhof.
 Phys. Rev. Lett. 77, 3865-3868 (1996).
 Generalized gradient approximation made simple.
 https://doi.org/10.1103/PhysRevLett.77.3865

 P. E. Blöchl.
 J. Chem. Phys. 103, 7422-7428 (1995).
 Electrostatic decoupling of periodic images of plane‐wave‐expanded 
 densities and derived atomic point charges.
 https://doi.org/10.1063/1.470314

 R. H. Byrd, P. H. Lu, J. Nocedal, C. Y. Zhu.
 SIAM J. Sci. Comput. 16, 1190-1208 (1995).
 A Limited Memory Algorithm for Bound Constrained Optimization.
 https://doi.org/10.1137/0916069


 -------------------------------------------------------------------------------
 -                                                                             -
 -                                T I M I N G                                  -
 -                                                                             -
 -------------------------------------------------------------------------------
 SUBROUTINE                       CALLS  ASD         SELF TIME        TOTAL TIME MAXRANK
                                MAXIMUM       AVERAGE  MAXIMUM  AVERAGE  MAXIMUM
 CP2K                                 1  1.0    0.053    0.053  202.050  202.050       0
 qs_energies                          1  2.0    0.015    0.015  195.286  195.286       0
 scf_env_do_scf                       1  3.0    0.002    0.002  185.165  185.165       0
 scf_env_do_scf_inner_loop           27  4.0    0.012    0.012  179.563  179.563       0
 qs_ks_build_kohn_sham_matrix        28  7.0    0.035    0.035  146.799  146.799       0
 qs_ks_update_qs_env                 28  5.0    0.001    0.001  145.157  145.157       0
 rebuild_ks_matrix                   27  6.0    0.000    0.000  145.154  145.154       0
 fft_wrap_pw1pw2                    470 10.3    0.013    0.013  114.984  114.984       0
 fft_wrap_pw1pw2_300                302 11.8    5.544    5.544  110.913  110.913       0
 qs_vxc_create                       28  8.0    0.006    0.006   99.958   99.958       0
 xc_vxc_pw_create                    27  9.0    4.035    4.035   99.952   99.952       0
 xc_pw_derive                       162 11.0    0.001    0.001   71.982   71.982       0
 fft3d_s                            471 12.3   67.952   67.952   67.974   67.974       0
 xc_pw_divergence                    27 10.0    0.001    0.001   48.834   48.834       0
 xc_rho_set_and_dset_create          27 10.0    2.200    2.200   45.759   45.759       0
 qs_rho_update_rho_low               28  5.0    0.000    0.000   41.206   41.206       0
 calculate_rho_elec                  28  6.0    2.807    2.807   41.206   41.206       0
 density_rs2pw                       28  7.0    0.002    0.002   25.180   25.180       0
 pw_scatter_s                       248 12.8   21.734   21.734   21.734   21.734       0
 qs_ks_ddapc                         28  8.0    0.001    0.001   15.461   15.461       0
 pw_poisson_solve                    28  8.0    0.001    0.001   14.779   14.779       0
 sum_up_and_integrate                28  8.0    0.001    0.001   14.716   14.716       0
 pw_derive                          246 11.3   14.597   14.597   14.597   14.597       0
 integrate_v_rspace                  28  9.0    0.001    0.001   14.007   14.007       0
 potential_pw2rs                     28 10.0    0.099    0.099   13.919   13.919       0
 grid_collocate_task_list            28  7.0   13.220   13.220   13.220   13.220       0
 pw_gather_s                        222 11.8   11.537   11.537   11.537   11.537       0
 pw_copy                            444 10.6   10.918   10.918   10.918   10.918       0
 pw_integral_ab_c1d_c1d_gs           56  9.5    8.235    8.235    8.235    8.235       0
 pw_poisson_set                      29  8.9    0.001    0.001    7.821    7.821       0
 qs_energies_properties               1  3.0    0.001    0.001    7.542    7.542       0
 post_scf_bandstructure               1  4.0    0.001    0.001    7.541    7.541       0
 run_gw                               1  5.0    0.031    0.031    7.349    7.349       0
 qs_init_subsys                       1  2.0    0.051    0.051    6.542    6.542       0
 qs_env_setup                         1  3.0    0.004    0.004    6.476    6.476       0
 qs_env_rebuild_pw_env                2  3.5    0.000    0.000    6.467    6.467       0
 pw_env_rebuild                       1  5.0    0.002    0.002    6.466    6.466       0
 pw_grid_setup                        5  5.2    0.001    0.001    6.464    6.464       0
 pw_grid_setup_internal               5  6.2    0.082    0.082    6.462    6.462       0
 pw_grid_sort                         5  7.2    4.698    4.698    6.083    6.083       0
 pw_axpy                            285  9.1    6.029    6.029    6.029    6.029       0
 init_scf_loop                        1  4.0    0.009    0.009    5.600    5.600       0
 xc_functional_eval                  27 11.0    0.000    0.000    5.581    5.581       0
 pbe_lda_eval                        27 12.0    5.581    5.581    5.581    5.581       0
 cp_ddapc_apply_CD                   28  9.0    0.002    0.002    5.193    5.193       0
 gw_calc_ri_rs_non_periodic           1  6.0    0.021    0.021    4.286    4.286       0
 pw_copy_to_array                   222 11.8    4.024    4.024    4.024    4.024       0
 pw_copy_from_array                 248 12.8    3.868    3.868    3.868    3.868       0
 optimize_ri_rs_grid                  1  7.0    0.020    0.020    3.843    3.843       0
 fft_wrap_pw1pw2_100                 56 10.5    0.261    0.261    3.691    3.691       0
 rirs_grid_LBFGS                      1  8.0    0.206    0.206    3.557    3.557       0
 evaluate_rirs_grid_cluster         852  9.0    0.718    0.718    3.350    3.350       0
 create_and_init_bs_env_for_gw        1  6.0    0.084    0.084    3.032    3.032       0
 pw_zero                            155  9.5    2.092    2.092    2.092    2.092       0
 init_scf_run                         1  3.0    0.009    0.009    1.762    1.762       0
 scf_env_initial_rho_setup            1  4.0    0.001    0.001    1.750    1.750       0
 compute_V_xc                         1  7.0    0.000    0.000    1.646    1.646       0
 sort_shells                          5  8.2    1.385    1.385    1.385    1.385       0
 pw_scale                           109  9.8    1.164    1.164    1.164    1.164       0
 rirs_cluster_gradient_coordina     852 10.0    1.086    1.086    1.086    1.086       0
 get_ddapc                           28 10.0    0.005    0.005    0.997    0.997       0
 pw_multiply_with                    28  9.0    0.920    0.920    0.920    0.920       0
 generate_auto_ri_basis               1  7.0    0.002    0.002    0.881    0.881       0
 qs_energies_init_hamiltonians        1  3.0    0.004    0.004    0.790    0.790       0
 qs_env_update_s_mstruct              1  4.0    0.001    0.001    0.694    0.694       0
 transfer_rs2pw                     113  8.0    0.002    0.002    0.640    0.640       0
 transfer_pw2rs                     112 11.0    0.001    0.001    0.601    0.601       0
 calculate_rho_core                   1  5.0    0.111    0.111    0.563    0.563       0
 rirs_cluster_gradient_products     852 10.0    0.563    0.563    0.563    0.563       0
 transfer_rs2pw_300                  29  8.9    0.512    0.512    0.512    0.512       0
 compute_AA_optimized_RI_basis        1  8.0    0.001    0.001    0.501    0.501       0
 transfer_pw2rs_300                  28 12.0    0.475    0.475    0.475    0.475       0
 xc_pw_smooth                        27 10.0    0.000    0.000    0.432    0.432       0
 qs_scf_new_mos                      27  5.0    0.000    0.000    0.356    0.356       0
 qs_scf_loop_do_ot                   27  6.0    0.000    0.000    0.356    0.356       0
 ot_scf_mini                         27  7.0    0.015    0.015    0.343    0.343       0
 rirs_cluster_AO_products           852 10.0    0.338    0.338    0.338    0.338       0
 rirs_cluster_residual              852 10.0    0.329    0.329    0.329    0.329       0
 setup_time_and_frequency_minim       1  7.0    0.001    0.001    0.324    0.324       0
 build_minimax_time_frequency_g       1  8.0    0.006    0.006    0.323    0.323       0
 fit_l_sq_weights                     3  9.0    0.314    0.314    0.314    0.314       0
 fft_wrap_pw1pw2_40                  56 10.5    0.024    0.024    0.298    0.298       0
 pw_grid_assign                       5  7.2    0.296    0.296    0.296    0.296       0
 compute_int_3c                       2  9.0    0.248    0.248    0.250    0.250       0
 rirs_grid_build_clusters             1  8.0    0.182    0.182    0.239    0.239       0
 ot_mini                             27  8.0    0.000    0.000    0.232    0.232       0
 initialize_auto_ri_integrals         2  9.0    0.223    0.223    0.223    0.223       0
 compute_Sigma_c_and_QP_energie       1  7.0    0.000    0.000    0.217    0.217       0
 compute_M_PQ_AB                    206 11.0    0.000    0.000    0.205    0.205       0
 compute_M_PQ                       206 12.0    0.000    0.000    0.205    0.205       0
 int_operators_r12_ab_os            206 13.0    0.000    0.000    0.205    0.205       0
 int_operator_ab_os_low             206 14.0    0.091    0.091    0.205    0.205       0
 -------------------------------------------------------------------------------

 The number of warnings for this run is : 0
 
 -------------------------------------------------------------------------------
  **** **** ******  **  PROGRAM ENDED AT                 2026-09-18 08:14:01.869
 ***** ** ***  *** **   PROGRAM RAN ON                                  n2cn0245
 **    ****   ******    PROGRAM RAN BY                                  eprop2d1
 ***** **    ** ** **   PROGRAM PROCESS ID                                901458
  **** **  *******  **  PROGRAM STOPPED IN /scratch/hpc-prf-metdyn/eprop2d1_Jan/
                                           53_benchmark_RI_opt/131_GW100_RI_basi
                                           s_radius_rqsued/calculations/45_BH3_r
                                           c5_a3
