 DBCSR| CPU Multiplication driver                                           XSMM (U)
 DBCSR| Multrec recursion limit                                              512 (U)
 DBCSR| Multiplication stack size                                           1000 (D)
 DBCSR| Maximum elements for images                                    UNLIMITED (U)
 DBCSR| Multiplicative factor virtual images                                   1 (U)
 DBCSR| Use multiplication densification                                       T (D)
 DBCSR| Multiplication size stacks                                             3 (U)
 DBCSR| Use memory pool for CPU allocation                                     F (U)
 DBCSR| Number of 3D layers                                               SINGLE (U)
 DBCSR| Use MPI memory allocation                                              F (U)
 DBCSR| Use RMA algorithm                                                      F (U)
 DBCSR| Use Communication thread                                               T (U)
 DBCSR| Communication thread load                                             30 (D)
 DBCSR| MPI: My process id                                                     2
 DBCSR| MPI: Number of processes                                               8
 DBCSR| OMP: Current number of threads                                        16
 DBCSR| OMP: Max number of threads                                            16
 DBCSR| Split modifier for TAS multiplication algorithm                  1.0E+00 (U)


  **** **** ******  **  PROGRAM STARTED AT               2026-09-18 21:13:38.063
 ***** ** ***  *** **   PROGRAM STARTED ON                              n2cn0183
 **    ****   ******    PROGRAM STARTED BY                              eprop2d1
 ***** **    ** ** **   PROGRAM PROCESS ID                                298958
  **** **  *******  **  PROGRAM STARTED IN /scratch/hpc-prf-metdyn/eprop2d1_Jan/
                                           53_benchmark_RI_opt/144_Figure1_compl
                                           ete_initial_metdyn/runs/gw100_initial
                                           /49_PH3/dzvp_t1

 CP2K| version string:                 CP2K version 2026.2 (Development Version)
 CP2K| source code revision number:                                      0671c5a
 CP2K| cp2kflags: omp libint fftw3 libxc parallel scalapack openblas            
 CP2K| is freely available from                            https://www.cp2k.org/
 CP2K| Program compiled at                                   2026-09-18 20:50:38
 CP2K| Program compiled on                                              n2login1
 CP2K| Program compiled for                                               x86_64
 CP2K| Data directory path    /scratch/hpc-prf-metdyn/eprop2d1_Jan/53_benchmark_
 CP2K| Input file name                                                 input.inp

 GLOBAL| Force Environment number                                              1
 GLOBAL| Basis set file name            /scratch/hpc-prf-metdyn/eprop2d1_Jan/53_
 GLOBAL| Potential file name            /scratch/hpc-prf-metdyn/eprop2d1_Jan/53_
 GLOBAL| MM Potential file name                                     MM_POTENTIAL
 GLOBAL| Coordinate file name                                      __STD_INPUT__
 GLOBAL| Method name                                                        CP2K
 GLOBAL| Project name                                               f144i_049_d1
 GLOBAL| Run type                                                         ENERGY
 GLOBAL| FFT library                                                       FFTW3
 GLOBAL| Diagonalization library                                       ScaLAPACK
 GLOBAL| Cholesky decomposition library                                ScaLAPACK
 GLOBAL| DGEMM library                                                      BLAS
 GLOBAL| Direct generalized diagonalization requested                          F
 GLOBAL| Orthonormality check for eigenvectors                          DISABLED
 GLOBAL| Matrix multiplication library                                 ScaLAPACK
 GLOBAL| All-to-all communication in single precision                          F
 GLOBAL| Grid backend                                                       AUTO
 GLOBAL| Global print level                                               MEDIUM
 GLOBAL| MPI I/O enabled                                                       T
 GLOBAL| Total number of message passing processes                             1
 GLOBAL| Number of distributed systems (nodes)                                 1
 GLOBAL| Number of threads for this process                                   16
 GLOBAL| This output is from process                                           0
 GLOBAL| OpenMP stack size per thread (OMP_STACKSIZE)                       256M
 GLOBAL| CPU model name                          AMD EPYC 7763 64-Core Processor

 MEMORY| system memory details [Kb]
 MEMORY|                        rank 0           min           max       average
 MEMORY| MemTotal            263897588     263897588     263897588     263897588
 MEMORY| MemFree             250536196     250536196     250536196     250536196
 MEMORY| Buffers                384208        384208        384208        384208
 MEMORY| Cached                7463488       7463488       7463488       7463488
 MEMORY| Slab                  1391116       1391116       1391116       1391116
 MEMORY| SReclaimable           354780        354780        354780        354780
 MEMORY| MemLikelyFree       258738672     258738672     258738672     258738672


 *** Fundamental physical constants (SI units) ***

 *** Literature: B. J. Mohr and B. N. Taylor,
 ***             CODATA recommended values of the fundamental physical
 ***             constants: 2006, Web Version 5.1
 ***             http://physics.nist.gov/constants

 Speed of light in vacuum [m/s]                             2.99792458000000E+08
 Magnetic constant or permeability of vacuum [N/A**2]       1.25663706143592E-06
 Electric constant or permittivity of vacuum [F/m]          8.85418781762039E-12
 Planck constant (h) [J*s]                                  6.62606896000000E-34
 Planck constant (h-bar) [J*s]                              1.05457162825177E-34
 Elementary charge [C]                                      1.60217648700000E-19
 Electron mass [kg]                                         9.10938215000000E-31
 Electron g factor [ ]                                     -2.00231930436220E+00
 Proton mass [kg]                                           1.67262163700000E-27
 Fine-structure constant                                    7.29735253760000E-03
 Rydberg constant [1/m]                                     1.09737315685270E+07
 Avogadro constant [1/mol]                                  6.02214179000000E+23
 Boltzmann constant [J/K]                                   1.38065040000000E-23
 Atomic mass unit [kg]                                      1.66053878200000E-27
 Bohr radius [m]                                            5.29177208590000E-11

 *** Conversion factors ***

 [u] -> [a.u.]                                              1.82288848426455E+03
 [Angstrom] -> [Bohr] = [a.u.]                              1.88972613288564E+00
 [a.u.] = [Bohr] -> [Angstrom]                              5.29177208590000E-01
 [a.u.] -> [s]                                              2.41888432650478E-17
 [a.u.] -> [fs]                                             2.41888432650478E-02
 [a.u.] -> [J]                                              4.35974393937059E-18
 [a.u.] -> [N]                                              8.23872205491840E-08
 [a.u.] -> [K]                                              3.15774647902944E+05
 [a.u.] -> [kJ/mol]                                         2.62549961709828E+03
 [a.u.] -> [kcal/mol]                                       6.27509468713739E+02
 [a.u.] -> [Pa]                                             2.94210107994716E+13
 [a.u.] -> [bar]                                            2.94210107994716E+08
 [a.u.] -> [atm]                                            2.90362800883016E+08
 [a.u.] -> [eV]                                             2.72113838565563E+01
 [a.u.] -> [Hz]                                             6.57968392072181E+15
 [a.u.] -> [1/cm] (wave numbers)                            2.19474631370540E+05
 [a.u./Bohr**2] -> [1/cm]                                   5.14048714338585E+03
 

 CELL| Volume [angstrom^3]:                                          8000.000000
 CELL| Vector a [angstrom]:      20.000     0.000     0.000   |a| =    20.000000
 CELL| Vector b [angstrom]:       0.000    20.000     0.000   |b| =    20.000000
 CELL| Vector c [angstrom]:       0.000     0.000    20.000   |c| =    20.000000
 CELL| Angle (b,c), alpha [degree]:                                    90.000000
 CELL| Angle (a,c), beta  [degree]:                                    90.000000
 CELL| Angle (a,b), gamma [degree]:                                    90.000000
 CELL| Numerically orthorhombic:                                             YES
 CELL| Periodicity                                                          NONE

 CELL_REF| Volume [angstrom^3]:                                      8000.000000
 CELL_REF| Vector a [angstrom    20.000     0.000     0.000   |a| =    20.000000
 CELL_REF| Vector b [angstrom     0.000    20.000     0.000   |b| =    20.000000
 CELL_REF| Vector c [angstrom     0.000     0.000    20.000   |c| =    20.000000
 CELL_REF| Angle (b,c), alpha [degree]:                                90.000000
 CELL_REF| Angle (a,c), beta  [degree]:                                90.000000
 CELL_REF| Angle (a,b), gamma [degree]:                                90.000000
 CELL_REF| Numerically orthorhombic:                                         YES
 CELL_REF| Periodicity                                                      NONE

 GENERATE|  Preliminary Number of Bonds generated:                             0
 GENERATE|  Achieved consistency in connectivity generation.

 PW_GRID| Information for grid number                                          1
 PW_GRID| Cutoff [a.u.]                                                      8.0
 PW_GRID| spherical cutoff:                                                   NO
 PW_GRID|   Bounds   1              0      49                Points:          50
 PW_GRID|   Bounds   2              0      49                Points:          50
 PW_GRID|   Bounds   3              0      49                Points:          50
 PW_GRID| Volume element (a.u.^3)  0.4319         Volume (a.u.^3)     53986.6767
 PW_GRID| Grid span                                                    HALFSPACE

 *******************************************************************************
 *******************************************************************************
 **                                                                           **
 **     #####                         ##              ##                      **
 **    ##   ##            ##          ##              ##                      **
 **   ##     ##                       ##            ######                    **
 **   ##     ##  ##   ##  ##   #####  ##  ##   ####   ##    #####    #####    **
 **   ##     ##  ##   ##  ##  ##      ## ##   ##      ##   ##   ##  ##   ##   **
 **   ##  ## ##  ##   ##  ##  ##      ####     ###    ##   ######   ######    **
 **    ##  ###   ##   ##  ##  ##      ## ##      ##   ##   ##       ##        **
 **     #######   #####   ##   #####  ##  ##  ####    ##    #####   ##        **
 **           ##                                                    ##        **
 **                                                                           **
 **                                                ... make the atoms dance   **
 **                                                                           **
 **            Copyright (C) by CP2K developers group (2000-2026)             **
 **                      J. Chem. Phys. 152, 194103 (2020)                    **
 **                                                                           **
 *******************************************************************************

 DFT| Spin restricted Kohn-Sham (RKS) calculation                            RKS
 DFT| Multiplicity                                                             1
 DFT| Number of spin states                                                    1
 DFT| Charge                                                                   0
 DFT| Self-interaction correction (SIC)                                       NO
 DFT| Cutoffs: density                                              1.000000E-10
 DFT|          gradient                                             1.000000E-10
 DFT|          tau                                                  1.000000E-10
 DFT|          cutoff_smoothing_range                               0.000000E+00
 DFT| XC density smoothing                                                  NONE
 DFT| XC derivatives                                                          PW

 FUNCTIONAL| PBE:
 FUNCTIONAL| J.P.Perdew, K.Burke, M.Ernzerhof, Phys. Rev. Letter, vol. 77, n 18,
 FUNCTIONAL|  pp. 3865-3868, (1996) {spin unpolarized}                          


 QS| Method:                                                                 GPW
 QS| Density plane wave grid type                        NON-SPHERICAL FULLSPACE
 QS| Number of grid levels:                                                    5
 QS| Density cutoff [a.u.]:                                                300.0
 QS| Multi grid cutoff [a.u.]: 1) grid level                               300.0
 QS|                           2) grid level                               100.0
 QS|                           3) grid level                                33.3
 QS|                           4) grid level                                11.1
 QS|                           5) grid level                                 3.7
 QS| Grid level progression factor:                                          3.0
 QS| Relative density cutoff [a.u.]:                                        30.0
 QS| Interaction thresholds: eps_pgf_orb:                                1.0E-12
 QS|                         eps_filter_matrix:                          0.0E+00
 QS|                         eps_core_charge:                            1.0E-14
 QS|                         eps_rho_gspace:                             1.0E-12
 QS|                         eps_rho_rspace:                             1.0E-12
 QS|                         eps_gvg_rspace:                             1.0E-06
 QS|                         eps_ppl:                                    1.0E-02
 QS|                         eps_ppnl:                                   1.0E-08


 ATOMIC KIND INFORMATION

  1. Atomic kind: P                                     Number of atoms:       1

     Orbital Basis Set                                aug-DZVP-MOLOPT-GTH-tier-1

       Number of orbital shell sets:                                           1
       Number of orbital shells:                                               8
       Number of primitive Cartesian functions:                                5
       Number of Cartesian basis functions:                                   24
       Number of spherical basis functions:                                   22
       Norm type:                                                              2

       Normalised Cartesian orbitals:

                        Set   Shell   Orbital            Exponent    Coefficient

                          1       1    2s                0.098012      -0.033509
                                                         0.160000       0.000000
                                                         0.284968      -0.248058
                                                         0.708433      -0.011644
                                                         1.631862       0.315960

                          1       2    3s                0.098012       0.197813
                                                         0.160000       0.000000
                                                         0.284968      -0.282133
                                                         0.708433       0.005280
                                                         1.631862       0.419007

                          1       3    4s                0.098012       0.009958
                                                         0.160000       0.114178
                                                         0.284968       0.066842
                                                         0.708433       0.036039
                                                         1.631862       0.027120

                          1       4    3px               0.098012      -0.028303
                                                         0.160000       0.000000
                                                         0.284968      -0.167400
                                                         0.708433      -0.227650
                                                         1.631862       0.226607
                          1       4    3py               0.098012      -0.028303
                                                         0.160000       0.000000
                                                         0.284968      -0.167400
                                                         0.708433      -0.227650
                                                         1.631862       0.226607
                          1       4    3pz               0.098012      -0.028303
                                                         0.160000       0.000000
                                                         0.284968      -0.167400
                                                         0.708433      -0.227650
                                                         1.631862       0.226607

                          1       5    4px               0.098012       0.090235
                                                         0.160000       0.000000
                                                         0.284968      -0.044799
                                                         0.708433      -0.392252
                                                         1.631862       0.384209
                          1       5    4py               0.098012       0.090235
                                                         0.160000       0.000000
                                                         0.284968      -0.044799
                                                         0.708433      -0.392252
                                                         1.631862       0.384209
                          1       5    4pz               0.098012       0.090235
                                                         0.160000       0.000000
                                                         0.284968      -0.044799
                                                         0.708433      -0.392252
                                                         1.631862       0.384209

                          1       6    5px               0.098012       0.108246
                                                         0.160000      -0.301324
                                                         0.284968       0.002753
                                                         0.708433      -0.074607
                                                         1.631862       0.000767
                          1       6    5py               0.098012       0.108246
                                                         0.160000      -0.301324
                                                         0.284968       0.002753
                                                         0.708433      -0.074607
                                                         1.631862       0.000767
                          1       6    5pz               0.098012       0.108246
                                                         0.160000      -0.301324
                                                         0.284968       0.002753
                                                         0.708433      -0.074607
                                                         1.631862       0.000767

                          1       7    4dx2              0.098012       0.007956
                                                         0.160000       0.000000
                                                         0.284968       0.088381
                                                         0.708433       0.312960
                                                         1.631862       0.468050
                          1       7    4dxy              0.098012       0.013780
                                                         0.160000       0.000000
                                                         0.284968       0.153080
                                                         0.708433       0.542063
                                                         1.631862       0.810687
                          1       7    4dxz              0.098012       0.013780
                                                         0.160000       0.000000
                                                         0.284968       0.153080
                                                         0.708433       0.542063
                                                         1.631862       0.810687
                          1       7    4dy2              0.098012       0.007956
                                                         0.160000       0.000000
                                                         0.284968       0.088381
                                                         0.708433       0.312960
                                                         1.631862       0.468050
                          1       7    4dyz              0.098012       0.013780
                                                         0.160000       0.000000
                                                         0.284968       0.153080
                                                         0.708433       0.542063
                                                         1.631862       0.810687
                          1       7    4dz2              0.098012       0.007956
                                                         0.160000       0.000000
                                                         0.284968       0.088381
                                                         0.708433       0.312960
                                                         1.631862       0.468050

                          1       8    5dx2              0.098012       0.041140
                                                         0.160000      -0.046570
                                                         0.284968       0.050238
                                                         0.708433      -0.032362
                                                         1.631862       0.065745
                          1       8    5dxy              0.098012       0.071256
                                                         0.160000      -0.080662
                                                         0.284968       0.087015
                                                         0.708433      -0.056052
                                                         1.631862       0.113873
                          1       8    5dxz              0.098012       0.071256
                                                         0.160000      -0.080662
                                                         0.284968       0.087015
                                                         0.708433      -0.056052
                                                         1.631862       0.113873
                          1       8    5dy2              0.098012       0.041140
                                                         0.160000      -0.046570
                                                         0.284968       0.050238
                                                         0.708433      -0.032362
                                                         1.631862       0.065745
                          1       8    5dyz              0.098012       0.071256
                                                         0.160000      -0.080662
                                                         0.284968       0.087015
                                                         0.708433      -0.056052
                                                         1.631862       0.113873
                          1       8    5dz2              0.098012       0.041140
                                                         0.160000      -0.046570
                                                         0.284968       0.050238
                                                         0.708433      -0.032362
                                                         1.631862       0.065745

     RI Auxiliary Basis Set             RI_aug-DZVP-MOLOPT-GTH-tier-1_N_RI_066_s

       Number of orbital shell sets:                                          20
       Number of orbital shells:                                              20
       Number of primitive Cartesian functions:                               20
       Number of Cartesian basis functions:                                   79
       Number of spherical basis functions:                                   66
       Norm type:                                                              2

       Normalised Cartesian orbitals:

                        Set   Shell   Orbital            Exponent    Coefficient

                          1       1    1s                0.235731       0.241114

                          2       1    2s                0.360316       0.331453

                          3       1    3s                0.542194       0.450325

                          4       1    4s                0.810495       0.608797

                          5       1    5s                1.213402       0.823974

                          6       1    6s                1.818162       1.115924

                          7       1    7s                2.720248       1.509616

                          8       1    8px               0.214417       0.207976
                          8       1    8py               0.214417       0.207976
                          8       1    8pz               0.214417       0.207976

                          9       1    9px               0.370912       0.412600
                          9       1    9py               0.370912       0.412600
                          9       1    9pz               0.370912       0.412600

                         10       1   10px               0.617352       0.780020
                         10       1   10py               0.617352       0.780020
                         10       1   10pz               0.617352       0.780020

                         11       1   11px               1.026176       1.472201
                         11       1   11py               1.026176       1.472201
                         11       1   11pz               1.026176       1.472201

                         12       1   12px               1.672668       2.711455
                         12       1   12py               1.672668       2.711455
                         12       1   12pz               1.672668       2.711455

                         13       1   13px               2.704274       4.943146
                         13       1   13py               2.704274       4.943146
                         13       1   13pz               2.704274       4.943146

                         14       1   14dx2              0.206794       0.104376
                         14       1   14dxy              0.206794       0.180785
                         14       1   14dxz              0.206794       0.180785
                         14       1   14dy2              0.206794       0.104376
                         14       1   14dyz              0.206794       0.180785
                         14       1   14dz2              0.206794       0.104376

                         15       1   15dx2              0.427219       0.371576
                         15       1   15dxy              0.427219       0.643589
                         15       1   15dxz              0.427219       0.643589
                         15       1   15dy2              0.427219       0.371576
                         15       1   15dyz              0.427219       0.643589
                         15       1   15dz2              0.427219       0.371576

                         16       1   16dx2              0.943298       1.486090
                         16       1   16dxy              0.943298       2.573983
                         16       1   16dxz              0.943298       2.573983
                         16       1   16dy2              0.943298       1.486090
                         16       1   16dyz              0.943298       2.573983
                         16       1   16dz2              0.943298       1.486090

                         17       1   17dx2              2.046578       5.763799
                         17       1   17dxy              2.046578       9.983193
                         17       1   17dxz              2.046578       9.983193
                         17       1   17dy2              2.046578       5.763799
                         17       1   17dyz              2.046578       9.983193
                         17       1   17dz2              2.046578       5.763799

                         18       1   18fx3              0.240335       0.059538
                         18       1   18fx2y             0.240335       0.133131
                         18       1   18fx2z             0.240335       0.133131
                         18       1   18fxy2             0.240335       0.133131
                         18       1   18fxyz             0.240335       0.230590
                         18       1   18fxz2             0.240335       0.133131
                         18       1   18fy3              0.240335       0.059538
                         18       1   18fy2z             0.240335       0.133131
                         18       1   18fyz2             0.240335       0.133131
                         18       1   18fz3              0.240335       0.059538

                         19       1   19fx3              0.652467       0.563264
                         19       1   19fx2y             0.652467       1.259496
                         19       1   19fx2z             0.652467       1.259496
                         19       1   19fxy2             0.652467       1.259496
                         19       1   19fxyz             0.652467       2.181511
                         19       1   19fxz2             0.652467       1.259496
                         19       1   19fy3              0.652467       0.563264
                         19       1   19fy2z             0.652467       1.259496
                         19       1   19fyz2             0.652467       1.259496
                         19       1   19fz3              0.652467       0.563264

                         20       1   20fx3              1.869534       6.016650
                         20       1   20fx2y             1.869534      13.453638
                         20       1   20fx2z             1.869534      13.453638
                         20       1   20fxy2             1.869534      13.453638
                         20       1   20fxyz             1.869534      23.302384
                         20       1   20fxz2             1.869534      13.453638
                         20       1   20fy3              1.869534       6.016650
                         20       1   20fy2z             1.869534      13.453638
                         20       1   20fyz2             1.869534      13.453638
                         20       1   20fz3              1.869534       6.016650

       Atomic covalent radius [Angstrom]:                                  1.060

       Atomic van der Waals radius [Angstrom]:                             1.800

     GTH Potential information for                                       GTH-PBE

       Description:                       Goedecker-Teter-Hutter pseudopotential
                                           Goedecker et al., PRB 54, 1703 (1996)
                                          Hartwigsen et al., PRB 58, 3641 (1998)
                                                      Krack, TCA 114, 145 (2005)

       Gaussian exponent of the core charge distribution:               2.704164
       Electronic configuration (s p d ...):                               2   3

       Parameters of the local part of the GTH pseudopotential:

                          rloc        C1          C2          C3          C4
                        0.430000   -5.875943

       Parameters of the non-local part of the GTH pseudopotential:

                   l      r(l)      h(i,j,l)

                   0    0.396377   11.008862   -3.470356
                                   -3.470356    4.480210
                   1    0.448298    3.056064

  2. Atomic kind: H                                     Number of atoms:       3

     Orbital Basis Set                                aug-DZVP-MOLOPT-GTH-tier-1

       Number of orbital shell sets:                                           1
       Number of orbital shells:                                               5
       Number of primitive Cartesian functions:                                6
       Number of Cartesian basis functions:                                    9
       Number of spherical basis functions:                                    9
       Norm type:                                                              2

       Normalised Cartesian orbitals:

                        Set   Shell   Orbital            Exponent    Coefficient

                          1       1    2s                0.040000       0.000000
                                                         0.082193      -0.014019
                                                         0.239116      -0.107525
                                                         0.791502      -0.258419
                                                         2.680223      -0.177618
                                                        10.068468      -0.133023

                          1       2    3s                0.040000       0.000000
                                                         0.082193       0.082660
                                                         0.239116       0.017430
                                                         0.791502      -0.999069
                                                         2.680223       1.819821
                                                        10.068468       0.344673

                          1       3    4s                0.040000      -0.163296
                                                         0.082193       0.271255
                                                         0.239116      -0.183085
                                                         0.791502      -0.064934
                                                         2.680223       0.000000
                                                        10.068468       0.000000

                          1       4    3px               0.040000       0.000000
                                                         0.082193       0.033440
                                                         0.239116       0.080105
                                                         0.791502       0.311480
                                                         2.680223       0.367157
                                                        10.068468       0.155326
                          1       4    3py               0.040000       0.000000
                                                         0.082193       0.033440
                                                         0.239116       0.080105
                                                         0.791502       0.311480
                                                         2.680223       0.367157
                                                        10.068468       0.155326
                          1       4    3pz               0.040000       0.000000
                                                         0.082193       0.033440
                                                         0.239116       0.080105
                                                         0.791502       0.311480
                                                         2.680223       0.367157
                                                        10.068468       0.155326

                          1       5    4px               0.040000       0.023154
                                                         0.082193      -0.079949
                                                         0.239116      -0.084991
                                                         0.791502      -0.021199
                                                         2.680223       0.000000
                                                        10.068468       0.000000
                          1       5    4py               0.040000       0.023154
                                                         0.082193      -0.079949
                                                         0.239116      -0.084991
                                                         0.791502      -0.021199
                                                         2.680223       0.000000
                                                        10.068468       0.000000
                          1       5    4pz               0.040000       0.023154
                                                         0.082193      -0.079949
                                                         0.239116      -0.084991
                                                         0.791502      -0.021199
                                                         2.680223       0.000000
                                                        10.068468       0.000000

     RI Auxiliary Basis Set             RI_aug-DZVP-MOLOPT-GTH-tier-2_N_RI_055_s

       Number of orbital shell sets:                                          19
       Number of orbital shells:                                              19
       Number of primitive Cartesian functions:                               19
       Number of Cartesian basis functions:                                   61
       Number of spherical basis functions:                                   55
       Norm type:                                                              2

       Normalised Cartesian orbitals:

                        Set   Shell   Orbital            Exponent    Coefficient

                          1       1    1s                0.100000       0.126739

                          2       1    2s                0.234856       0.240443

                          3       1    3s                0.551574       0.456156

                          4       1    4s                1.295407       0.865396

                          5       1    5s                3.042342       1.641785

                          6       1    6s                7.145130       3.114711

                          7       1    7s               16.780780       5.909071

                          8       1    8px               0.100000       0.080157
                          8       1    8py               0.100000       0.080157
                          8       1    8pz               0.100000       0.080157

                          9       1    9px               0.278588       0.288498
                          9       1    9py               0.278588       0.288498
                          9       1    9pz               0.278588       0.288498

                         10       1   10px               0.776113       1.038356
                         10       1   10py               0.776113       1.038356
                         10       1   10pz               0.776113       1.038356

                         11       1   11px               2.162157       3.737225
                         11       1   11py               2.162157       3.737225
                         11       1   11pz               2.162157       3.737225

                         12       1   12px               6.023511      13.450928
                         12       1   12py               6.023511      13.450928
                         12       1   12pz               6.023511      13.450928

                         13       1   13px              16.780780      48.412251
                         13       1   13py              16.780780      48.412251
                         13       1   13pz              16.780780      48.412251

                         14       1   14dx2              0.100000       0.029269
                         14       1   14dxy              0.100000       0.050696
                         14       1   14dxz              0.100000       0.050696
                         14       1   14dy2              0.100000       0.029269
                         14       1   14dyz              0.100000       0.050696
                         14       1   14dz2              0.100000       0.029269

                         15       1   15dx2              0.278588       0.175830
                         15       1   15dxy              0.278588       0.304547
                         15       1   15dxz              0.278588       0.304547
                         15       1   15dy2              0.278588       0.175830
                         15       1   15dyz              0.278588       0.304547
                         15       1   15dz2              0.278588       0.175830

                         16       1   16dx2              0.776113       1.056277
                         16       1   16dxy              0.776113       1.829526
                         16       1   16dxz              0.776113       1.829526
                         16       1   16dy2              0.776113       1.056277
                         16       1   16dyz              0.776113       1.829526
                         16       1   16dz2              0.776113       1.056277

                         17       1   17dx2              2.162157       6.345447
                         17       1   17dxy              2.162157      10.990637
                         17       1   17dxz              2.162157      10.990637
                         17       1   17dy2              2.162157       6.345447
                         17       1   17dyz              2.162157      10.990637
                         17       1   17dz2              2.162157       6.345447

                         18       1   18dx2              6.023511      38.119436
                         18       1   18dxy              6.023511      66.024801
                         18       1   18dxz              6.023511      66.024801
                         18       1   18dy2              6.023511      38.119436
                         18       1   18dyz              6.023511      66.024801
                         18       1   18dz2              6.023511      38.119436

                         19       1   19dx2             16.780780     228.997491
                         19       1   19dxy             16.780780     396.635290
                         19       1   19dxz             16.780780     396.635290
                         19       1   19dy2             16.780780     228.997491
                         19       1   19dyz             16.780780     396.635290
                         19       1   19dz2             16.780780     228.997491

       Atomic covalent radius [Angstrom]:                                  0.320

       Atomic van der Waals radius [Angstrom]:                             1.090

     GTH Potential information for                                       GTH-PBE

       Description:                       Goedecker-Teter-Hutter pseudopotential
                                           Goedecker et al., PRB 54, 1703 (1996)
                                          Hartwigsen et al., PRB 58, 3641 (1998)
                                                      Krack, TCA 114, 145 (2005)

       Gaussian exponent of the core charge distribution:              12.500000
       Electronic configuration (s p d ...):                                   1

       Parameters of the local part of the GTH pseudopotential:

                          rloc        C1          C2          C3          C4
                        0.200000   -4.178900    0.724463


 MOLECULE KIND INFORMATION


 All atoms are their own molecule, skipping detailed information


 TOTAL NUMBERS AND MAXIMUM NUMBERS

  Total number of            - Atomic kinds:                                   2
                             - Atoms:                                          4
                             - Shell sets:                                     4
                             - Shells:                                        23
                             - Primitive Cartesian functions:                 23
                             - Cartesian basis functions:                     51
                             - Spherical basis functions:                     49

  Maximum angular momentum of- Orbital basis functions:                        2
                             - Local part of the GTH pseudopotential:          2
                             - Non-local part of the GTH pseudopotential:      2


 MODULE QUICKSTEP: ATOMIC COORDINATES IN ANGSTROM

   Atom Kind Element         X             Y             Z       Z(eff)     Mass
      1    1 P    15     10.000000     10.298300     10.385850   5.0000  30.9738
      2    2 H     1     10.000000      9.105100      9.614150   1.0000   1.0079
      3    2 H     1     11.033300     10.894900      9.614150   1.0000   1.0079
      4    2 H     1      8.966700     10.894900      9.614150   1.0000   1.0079



 SCF PARAMETERS         Density guess:                                    ATOMIC
                        --------------------------------------------------------
                        max_scf:                                             200
                        max_scf_history:                                       0
                        max_diis:                                              4
                        --------------------------------------------------------
                        eps_scf:                                        1.00E-07
                        eps_scf_history:                                0.00E+00
                        eps_diis:                                       1.00E-01
                        eps_eigval:                                     1.00E-05
                        --------------------------------------------------------
                        level_shift [a.u.]:                             0.000000
                        SCF update method:                                MIXING
                        added MOs                                        45    0
                        --------------------------------------------------------
                        Mixing method:                            BROYDEN_MIXING
                                                charge density mixing in g-space
                        --------------------------------------------------------
                        Outer loop SCF in use 
                        No variables optimised in outer loop
                        eps_scf                                         1.00E-07
                        max_scf                                               20
                        No outer loop optimization
                        step_size                                       5.00E-01

 PW_GRID| Information for grid number                                          2
 PW_GRID| Cutoff [a.u.]                                                    300.0
 PW_GRID| spherical cutoff:                                                   NO
 PW_GRID|   Bounds   1           -150     149                Points:         300
 PW_GRID|   Bounds   2           -150     149                Points:         300
 PW_GRID|   Bounds   3           -150     149                Points:         300
 PW_GRID| Volume element (a.u.^3)  0.2000E-02     Volume (a.u.^3)     53986.6767
 PW_GRID| Grid span                                                    FULLSPACE

 PW_GRID| Information for grid number                                          3
 PW_GRID| Number of the reference grid                                         2
 PW_GRID| Cutoff [a.u.]                                                    100.0
 PW_GRID| spherical cutoff:                                                   NO
 PW_GRID|   Bounds   1            -90      89                Points:         180
 PW_GRID|   Bounds   2            -90      89                Points:         180
 PW_GRID|   Bounds   3            -90      89                Points:         180
 PW_GRID| Volume element (a.u.^3)  0.9257E-02     Volume (a.u.^3)     53986.6767
 PW_GRID| Grid span                                                    FULLSPACE

 PW_GRID| Information for grid number                                          4
 PW_GRID| Number of the reference grid                                         2
 PW_GRID| Cutoff [a.u.]                                                     33.3
 PW_GRID| spherical cutoff:                                                   NO
 PW_GRID|   Bounds   1            -50      49                Points:         100
 PW_GRID|   Bounds   2            -50      49                Points:         100
 PW_GRID|   Bounds   3            -50      49                Points:         100
 PW_GRID| Volume element (a.u.^3)  0.5399E-01     Volume (a.u.^3)     53986.6767
 PW_GRID| Grid span                                                    FULLSPACE

 PW_GRID| Information for grid number                                          5
 PW_GRID| Number of the reference grid                                         2
 PW_GRID| Cutoff [a.u.]                                                     11.1
 PW_GRID| spherical cutoff:                                                   NO
 PW_GRID|   Bounds   1            -30      29                Points:          60
 PW_GRID|   Bounds   2            -30      29                Points:          60
 PW_GRID|   Bounds   3            -30      29                Points:          60
 PW_GRID| Volume element (a.u.^3)  0.2499         Volume (a.u.^3)     53986.6767
 PW_GRID| Grid span                                                    FULLSPACE

 PW_GRID| Information for grid number                                          6
 PW_GRID| Number of the reference grid                                         2
 PW_GRID| Cutoff [a.u.]                                                      3.7
 PW_GRID| spherical cutoff:                                                   NO
 PW_GRID|   Bounds   1            -18      17                Points:          36
 PW_GRID|   Bounds   2            -18      17                Points:          36
 PW_GRID|   Bounds   3            -18      17                Points:          36
 PW_GRID| Volume element (a.u.^3)   1.157         Volume (a.u.^3)     53986.6767
 PW_GRID| Grid span                                                    FULLSPACE

 POISSON| Solver                                             MULTIPOLE (Bloechl)
 POISSON| Periodicity                                                       NONE

 RS_GRID| Information for grid number                                          2
 RS_GRID|   Bounds   1           -150     149                Points:         300
 RS_GRID|   Bounds   2           -150     149                Points:         300
 RS_GRID|   Bounds   3           -150     149                Points:         300

 RS_GRID| Information for grid number                                          3
 RS_GRID|   Bounds   1            -90      89                Points:         180
 RS_GRID|   Bounds   2            -90      89                Points:         180
 RS_GRID|   Bounds   3            -90      89                Points:         180

 RS_GRID| Information for grid number                                          4
 RS_GRID|   Bounds   1            -50      49                Points:         100
 RS_GRID|   Bounds   2            -50      49                Points:         100
 RS_GRID|   Bounds   3            -50      49                Points:         100

 RS_GRID| Information for grid number                                          5
 RS_GRID|   Bounds   1            -30      29                Points:          60
 RS_GRID|   Bounds   2            -30      29                Points:          60
 RS_GRID|   Bounds   3            -30      29                Points:          60

 RS_GRID| Information for grid number                                          6
 RS_GRID|   Bounds   1            -18      17                Points:          36
 RS_GRID|   Bounds   2            -18      17                Points:          36
 RS_GRID|   Bounds   3            -18      17                Points:          36

 Extrapolation method: initial_guess

 Atomic guess: The first density matrix is obtained in terms of atomic orbitals
               and electronic configurations assigned to each atomic kind

 Guess for atomic kind: P

 Electronic structure
    Total number of core electrons                                         10.00
    Total number of valence electrons                                       5.00
    Total number of electrons                                              15.00
    Multiplicity                                                   not specified
    S   [  2.00  2.00] 2.00
    P   [  6.00] 3.00


 *******************************************************************************
                  Iteration          Convergence                     Energy [au]
 *******************************************************************************
                          1        0.575225E-01                  -6.294090030400
                          2        0.332454E-01                  -6.295513805902
                          3        0.291738E-03                  -6.296139637434
                          4        0.121889E-04                  -6.296139693389
                          5        0.112619E-06                  -6.296139693477

 Energy components [Hartree]           Total Energy ::           -6.296139693477
                                        Band Energy ::           -1.502604299816
                                     Kinetic Energy ::            2.375845543092
                                   Potential Energy ::           -8.671985236569
                                      Virial (-V/T) ::            3.650062716318
                                        Core Energy ::          -10.074542058978
                                          XC Energy ::           -1.459757722081
                                     Coulomb Energy ::            5.238160087582
                       Total Pseudopotential Energy ::          -12.510451014950
                       Local Pseudopotential Energy ::          -13.853561737466
                    Nonlocal Pseudopotential Energy ::            1.343110722517
                                        Confinement ::            0.600634128799

 Orbital energies  State     L     Occupation   Energy[a.u.]          Energy[eV]

                       1     0          2.000      -0.487401          -13.262855

                       1     1          3.000      -0.175934           -4.787411


 Total Electron Density at R=0:                                         0.000104

 Guess for atomic kind: H

 Electronic structure
    Total number of core electrons                                          0.00
    Total number of valence electrons                                       1.00
    Total number of electrons                                               1.00
    Multiplicity                                                   not specified
    S      1.00


 *******************************************************************************
                  Iteration          Convergence                     Energy [au]
 *******************************************************************************
                          1        0.561388E-02                  -0.375483598877
                          2        0.103244E-03                  -0.375544603814
                          3        0.502714E-06                  -0.375544627315

 Energy components [Hartree]           Total Energy ::           -0.375544627315
                                        Band Energy ::           -0.078124458094
                                     Kinetic Energy ::            0.767739494933
                                   Potential Energy ::           -1.143284122248
                                      Virial (-V/T) ::            1.489156321634
                                        Core Energy ::           -0.455711211567
                                          XC Energy ::           -0.312975686088
                                     Coulomb Energy ::            0.393142270340
                       Total Pseudopotential Energy ::           -1.234990455135
                       Local Pseudopotential Energy ::           -1.234990455135
                    Nonlocal Pseudopotential Energy ::            0.000000000000
                                        Confinement ::            0.115397486348

 Orbital energies  State     L     Occupation   Energy[a.u.]          Energy[eV]

                       1     0          1.000      -0.078124           -2.125875


 Total Electron Density at R=0:                                         0.423080
 Re-scaling the density matrix to get the right number of electrons
                  # Electrons              Trace(P)               Scaling factor
                            8                 8.000                        1.000

 Number of electrons:                                                          8
 Number of occupied orbitals:                                                  4
 Number of molecular orbitals:                                                49

 Number of orbital functions:                                                 49
 Number of independent orbital functions:                                     49


 SCF WAVEFUNCTION OPTIMIZATION

  Step     Update method      Time    Convergence         Total energy    Change
  ------------------------------------------------------------------------------
     1 NoMix/Diag. 0.20E+00    5.6     0.55102354        -7.9179251814 -7.92E+00
     2 Broy./Diag. 0.20E+00    7.8     0.03318525        -8.2460319663 -3.28E-01
     3 Broy./Diag. 0.20E+00    8.1     0.07129426        -8.2894334113 -4.34E-02
     4 Broy./Diag. 0.20E+00    8.3     0.00461379        -8.3911436677 -1.02E-01
     5 Broy./Diag. 0.20E+00    8.4     0.00761208        -8.3554622317  3.57E-02
     6 Broy./Diag. 0.20E+00    8.6     0.00066498        -8.3453376827  1.01E-02
     7 Broy./Diag. 0.20E+00    8.9     0.00197510        -8.3419643806  3.37E-03
     8 Broy./Diag. 0.20E+00    9.2     0.00091000        -8.3415065604  4.58E-04
     9 Broy./Diag. 0.20E+00    9.4     0.00125081        -8.3425292097 -1.02E-03
    10 Broy./Diag. 0.20E+00    9.8     0.00060498        -8.3433056097 -7.76E-04
    11 Broy./Diag. 0.20E+00    9.8     0.00023730        -8.3434150564 -1.09E-04
    12 Broy./Diag. 0.20E+00    9.8     0.00029422        -8.3430219523  3.93E-04
    13 Broy./Diag. 0.20E+00    9.8     0.00009424        -8.3429134699  1.08E-04
    14 Broy./Diag. 0.20E+00    9.8     0.00015763        -8.3430786725 -1.65E-04
    15 Broy./Diag. 0.20E+00    9.7     0.00004462        -8.3431045422 -2.59E-05
    16 Broy./Diag. 0.20E+00    9.8     0.00007350        -8.3429745454  1.30E-04
    17 Broy./Diag. 0.20E+00    9.7     0.00001929        -8.3429851473 -1.06E-05
    18 Broy./Diag. 0.20E+00    9.7     0.00003142        -8.3430509107 -6.58E-05
    19 Broy./Diag. 0.20E+00    9.7     0.00001293        -8.3430454613  5.45E-06
    20 Broy./Diag. 0.20E+00    9.7     0.00001202        -8.3430174729  2.80E-05
    21 Broy./Diag. 0.20E+00    9.8     0.00000484        -8.3430076756  9.80E-06
    22 Broy./Diag. 0.20E+00    9.7     0.00001194        -8.3430157550 -8.08E-06
    23 Broy./Diag. 0.20E+00    9.7     0.00000819        -8.3430224541 -6.70E-06
    24 Broy./Diag. 0.20E+00    9.8     0.00000313        -8.3430218802  5.74E-07
    25 Broy./Diag. 0.20E+00    9.7     0.00000280        -8.3430166338  5.25E-06
    26 Broy./Diag. 0.20E+00    9.7     0.00000092        -8.3430114988  5.14E-06
    27 Broy./Diag. 0.20E+00    9.7     0.00000139        -8.3430103067  1.19E-06
    28 Broy./Diag. 0.20E+00    9.8     0.00000080        -8.3430140297 -3.72E-06
    29 Broy./Diag. 0.20E+00    9.7     0.00000052        -8.3430155079 -1.48E-06
    30 Broy./Diag. 0.20E+00    9.8     0.00000044        -8.3430144633  1.04E-06
    31 Broy./Diag. 0.20E+00    9.9     0.00000067        -8.3430140939  3.69E-07
    32 Broy./Diag. 0.20E+00   10.0     0.00000059        -8.3430145677 -4.74E-07
    33 Broy./Diag. 0.20E+00    9.8     0.00000051        -8.3430146849 -1.17E-07
    34 Broy./Diag. 0.20E+00    9.8     0.00000016        -8.3430144575  2.27E-07
    35 Broy./Diag. 0.20E+00    9.9     0.00000030        -8.3430141892  2.68E-07
    36 Broy./Diag. 0.20E+00    9.8     0.00000036        -8.3430139967  1.93E-07
    37 Broy./Diag. 0.20E+00    9.8     0.00000011        -8.3430141080 -1.11E-07
    38 Broy./Diag. 0.20E+00    9.6     0.00000008        -8.3430144217 -3.14E-07

  *** SCF run converged in    38 steps ***


  Electronic density on regular grids:         -8.0000000000        0.0000000000
  Core density on regular grids:                8.0000000000       -0.0000000000
  Total charge density on r-space grids:       -0.0000000000
  Total charge density g-space grids:          -0.0000000000

  Overlap energy of the core charge distribution:               0.00000008343254
  Self energy of the core charge distribution:                -20.63228186346155
  Core Hamiltonian energy:                                      4.98117152728624
  Hartree energy:                                              10.00436887956632
  Exchange-correlation energy:                                 -2.69627304853372

  Total energy:                                                -8.34301442171018

  outer SCF iter =    1 RMS gradient =   0.80E-07 energy =         -8.3430144217
  outer SCF loop converged in   1 iterations or   38 steps


 !-----------------------------------------------------------------------------!
                     Mulliken Population Analysis

 #  Atom  Element  Kind  Atomic population                           Net charge
       1     P        1          5.280509                             -0.280509
       2     H        2          0.906489                              0.093511
       3     H        2          0.906501                              0.093499
       4     H        2          0.906501                              0.093499
 # Total charge                              8.000000                 -0.000000

 !-----------------------------------------------------------------------------!

 !-----------------------------------------------------------------------------!
                           Hirshfeld Charges

  #Atom  Element  Kind  Ref Charge     Population                    Net charge
      1       P      1       5.000          6.468                        -1.468
      2       H      2       1.000          0.510                         0.490
      3       H      2       1.000          0.510                         0.490
      4       H      2       1.000          0.510                         0.490

  Total Charge                                                            0.001
 !-----------------------------------------------------------------------------!
  
 -------------------------------------------------------------------------------
 -                                                                             -
 -                          BANDSTRUCTURE CALCULATION                          -
 -                                                                             -
 -------------------------------------------------------------------------------
  
 Number of occupied molecular orbitals (MOs) = Number of occupied bands        4
 Number of unoccupied (= virtual) MOs = Number of unoccupied bands            45
 Number of Gaussian basis functions for MOs                                   49
  
 -------------------------------------------------------------------------------
 -                                                                             -
 -                                GW CALCULATION                               -
 -                                                                             -
 -------------------------------------------------------------------------------
  
 Input: Number of time/freq. points                                           30
 Input: ω_max for fitting Σ(iω) (eV)                                        10.0
 Input: Filter threshold for sparse tensor operations                    1.0E-07
 Input: Apply Hedin shift                                                      F
 Detected: Available memory per MPI process                             193.2 GB
 
 Input: RI-RS Tikhonov regularization                                   1.00E-08
 Input: AO grid hard cutoff radius                                        8.00 Å
 Input: MPI ranks per atom in Z_lP solve                                      -1
 Input: Keep sparsity in χ/G/W panels                                          T
 Input: GW flavour                                                          G0W0
 
 Input: RI-RS grid optimization activated                                      T
 Input: RS points per AO function                                            7.0
 Input: Cutoff radius for atomic clusters                                  3.0 Å
 Input: Maximum grid optimization iterations                                 300
 
 Input: AUTO_RI basis optimization activated:                                  T
 Input: AUTO_RI number of RI functions per AO function:                      4.0
 Input: AUTO_RI frontier orbital window:                                  5.0 eV
 Input: AUTO_RI neighbor radius:                                           3.0 Å
 
 Cutoff radius for the truncated Coulomb operator in RI metric:            6.0 Å
 Regularization parameter of RI                                          0.0E+00
 Regularization parameter of minimax grids                               1.0E-06
 
 AUTO_RI| Number of automatic RI functions for χ, ε, W:                      196
 AUTO_RI| Total RI basis optimization time:                                0.6 s
 
 SCF direct band gap (eV)                                                   6.18
 Max. SCF eigval diff. (eV)                                               158.57
 E-Range for minimax grid                                                  25.64
 Number of Padé parameters for analytic continuation:                         16
 
 RI-RS basis radii (Å):
     Kind  Elem     r_AO (Å)     r_RI (Å)
        1    P         6.7861        4.6718
        2    H        10.6225        6.7183
 
 Started RI-RS grid optimization
 RI-RS grid initial normalized error                          1.764848220360E-03
 RI-RS grid optimization completed, execution time:                       14.9 s
 Normalized 3C error:                                                    2.0E-08
 Maximum absolute 3C error:                                              8.5E-04
 Optimized points outside molecular Voronoi cells:                            62 / 343
 Total grid points used for RI-RS:                                           343
 
 RI-RS grid row-blocks of ϕ_μ(r_l)                                            11
 RI-RS grid points per block (max)                                            32
 
 Percentage of non-zero matrix elements in ϕ_μ(r_l)                     100.00 %
 
 RI-RS memory estimate per MPI process:
   Available memory per process (system)                               235.05 GB
   Required for Z_lP (dense upper bound; actual is sparser)              0.00 GB
   Required for χ, W, Σ panels (peak per panel step)                     0.00 GB
   Required for Z_lP solve peak (D_local+ϕ, worst-case atom)             0.00 GB
   Worst-case local-grid number of grid points:                              343
   Worst-case memory D_local:                                            0.00 GB
 
 Started computing Z_lP
 Computed Z_lP (MPI rank 0) for atom          1 /  4,    Execution time    0.0 s
 Computed Z_lP (MPI rank 0) for atom          2 /  4,    Execution time    0.0 s
 Computed Z_lP (MPI rank 0) for atom          3 /  4,    Execution time    0.0 s
 Computed Z_lP (MPI rank 0) for atom          4 /  4,    Execution time    0.0 s
 Computed Z_lP (all MPI ranks) for all atoms,            Execution time    0.0 s

 Memory per MPI process after computing Z_lP:
 Available memory per MPI process                              234.9 GB
 Used memory per MPI process                                     0.8 GB
 Number of batches for χ, Σ matrices                                           1
 
 Percentage of non-zero matrix elements in Z_lP                         100.00 %
 Percentage of non-zero matrix elements in G_ll', χ_ll', W_ll'          100.00 %
 Percentage of non-zero matrix elements in χ_PQ for time point 1        100.00 %
 
 Computed χ(iτ,k=0) for time point            1 / 30,    Execution time    0.0 s
 Computed χ(iτ,k=0) for time point            2 / 30,    Execution time    0.0 s
 Computed χ(iτ,k=0) for time point            3 / 30,    Execution time    0.0 s
 Computed χ(iτ,k=0) for time point            4 / 30,    Execution time    0.0 s
 Computed χ(iτ,k=0) for time point            5 / 30,    Execution time    0.0 s
 Computed χ(iτ,k=0) for time point            6 / 30,    Execution time    0.0 s
 Computed χ(iτ,k=0) for time point            7 / 30,    Execution time    0.0 s
 Computed χ(iτ,k=0) for time point            8 / 30,    Execution time    0.0 s
 Computed χ(iτ,k=0) for time point            9 / 30,    Execution time    0.0 s
 Computed χ(iτ,k=0) for time point           10 / 30,    Execution time    0.0 s
 Computed χ(iτ,k=0) for time point           11 / 30,    Execution time    0.0 s
 Computed χ(iτ,k=0) for time point           12 / 30,    Execution time    0.0 s
 Computed χ(iτ,k=0) for time point           13 / 30,    Execution time    0.0 s
 Computed χ(iτ,k=0) for time point           14 / 30,    Execution time    0.0 s
 Computed χ(iτ,k=0) for time point           15 / 30,    Execution time    0.0 s
 Computed χ(iτ,k=0) for time point           16 / 30,    Execution time    0.0 s
 Computed χ(iτ,k=0) for time point           17 / 30,    Execution time    0.0 s
 Computed χ(iτ,k=0) for time point           18 / 30,    Execution time    0.0 s
 Computed χ(iτ,k=0) for time point           19 / 30,    Execution time    0.0 s
 Computed χ(iτ,k=0) for time point           20 / 30,    Execution time    0.0 s
 Computed χ(iτ,k=0) for time point           21 / 30,    Execution time    0.0 s
 Computed χ(iτ,k=0) for time point           22 / 30,    Execution time    0.0 s
 Computed χ(iτ,k=0) for time point           23 / 30,    Execution time    0.0 s
 Computed χ(iτ,k=0) for time point           24 / 30,    Execution time    0.0 s
 Computed χ(iτ,k=0) for time point           25 / 30,    Execution time    0.0 s
 Computed χ(iτ,k=0) for time point           26 / 30,    Execution time    0.0 s
 Computed χ(iτ,k=0) for time point           27 / 30,    Execution time    0.0 s
 Computed χ(iτ,k=0) for time point           28 / 30,    Execution time    0.0 s
 Computed χ(iτ,k=0) for time point           29 / 30,    Execution time    0.0 s
 Computed χ(iτ,k=0) for time point           30 / 30,    Execution time    0.0 s
 
 Computed W(iτ),                                         Execution time    0.1 s
 
 Computed Σ^x(k=0),                                      Execution time    0.0 s
 
 Computed Σ^c(iτ) for time point              1 / 30,    Execution time    0.0 s
 Computed Σ^c(iτ) for time point              2 / 30,    Execution time    0.0 s
 Computed Σ^c(iτ) for time point              3 / 30,    Execution time    0.0 s
 Computed Σ^c(iτ) for time point              4 / 30,    Execution time    0.0 s
 Computed Σ^c(iτ) for time point              5 / 30,    Execution time    0.0 s
 Computed Σ^c(iτ) for time point              6 / 30,    Execution time    0.0 s
 Computed Σ^c(iτ) for time point              7 / 30,    Execution time    0.0 s
 Computed Σ^c(iτ) for time point              8 / 30,    Execution time    0.0 s
 Computed Σ^c(iτ) for time point              9 / 30,    Execution time    0.0 s
 Computed Σ^c(iτ) for time point             10 / 30,    Execution time    0.0 s
 Computed Σ^c(iτ) for time point             11 / 30,    Execution time    0.0 s
 Computed Σ^c(iτ) for time point             12 / 30,    Execution time    0.0 s
 Computed Σ^c(iτ) for time point             13 / 30,    Execution time    0.0 s
 Computed Σ^c(iτ) for time point             14 / 30,    Execution time    0.0 s
 Computed Σ^c(iτ) for time point             15 / 30,    Execution time    0.0 s
 Computed Σ^c(iτ) for time point             16 / 30,    Execution time    0.0 s
 Computed Σ^c(iτ) for time point             17 / 30,    Execution time    0.0 s
 Computed Σ^c(iτ) for time point             18 / 30,    Execution time    0.0 s
 Computed Σ^c(iτ) for time point             19 / 30,    Execution time    0.0 s
 Computed Σ^c(iτ) for time point             20 / 30,    Execution time    0.0 s
 Computed Σ^c(iτ) for time point             21 / 30,    Execution time    0.0 s
 Computed Σ^c(iτ) for time point             22 / 30,    Execution time    0.0 s
 Computed Σ^c(iτ) for time point             23 / 30,    Execution time    0.0 s
 Computed Σ^c(iτ) for time point             24 / 30,    Execution time    0.0 s
 Computed Σ^c(iτ) for time point             25 / 30,    Execution time    0.0 s
 Computed Σ^c(iτ) for time point             26 / 30,    Execution time    0.0 s
 Computed Σ^c(iτ) for time point             27 / 30,    Execution time    0.0 s
 Computed Σ^c(iτ) for time point             28 / 30,    Execution time    0.0 s
 Computed Σ^c(iτ) for time point             29 / 30,    Execution time    0.0 s
 Computed Σ^c(iτ) for time point             30 / 30,    Execution time    0.0 s
 
 SCF valence band maximum (eV):                                           -6.687
 SCF conduction band minimum (eV):                                        -0.502
 SCF indirect band gap (eV):                                               6.184
 SCF direct band gap (eV):                                                 6.184
 
 G0W0 valence band maximum (eV):                                          -9.918
 G0W0 conduction band minimum (eV):                                        1.328
 G0W0 indirect band gap (eV):                                             11.246
 G0W0 direct band gap (eV):                                               11.246
 
 Hartree-Fock with SCF orbitals valence band maximum (eV):               -10.365
 Hartree-Fock with SCF orbitals conduction band minimum (eV)               2.012
 Hartree-Fock with SCF orbitals indirect band gap (eV):                   12.378
 Hartree-Fock with SCF orbitals direct band gap (eV):                     12.378

 ENERGY| Total FORCE_EVAL ( QS ) energy [hartree]             -8.343014421710176

 -------------------------------------------------------------------------------
 -                                                                             -
 -                                DBCSR STATISTICS                             -
 -                                                                             -
 -------------------------------------------------------------------------------
 COUNTER                                    TOTAL       BLAS       SMM       ACC
 flops    22 x    22 x    26               729872     100.0%      0.0%      0.0%     
 flops    22 x     9 x    49               737352     100.0%      0.0%      0.0%     
 flops    22 x     9 x    26               895752     100.0%      0.0%      0.0%     
 flops     9 x    22 x    26               895752     100.0%      0.0%      0.0%     
 flops    26 x    22 x    26               922064     100.0%      0.0%      0.0%     
 flops    26 x    45 x    26              1095120     100.0%      0.0%      0.0%     
 flops    26 x     9 x    26              1095120     100.0%      0.0%      0.0%     
 flops     9 x     9 x    26              1099332     100.0%      0.0%      0.0%     
 flops    26 x    48 x    26              1168128     100.0%      0.0%      0.0%     
 flops    26 x    51 x    26              1241136     100.0%      0.0%      0.0%     
 flops    26 x    26 x    49              1258712     100.0%      0.0%      0.0%     
 flops     9 x    22 x    49              1474704     100.0%      0.0%      0.0%     
 flops    26 x    26 x    22              1784640     100.0%      0.0%      0.0%     
 flops    45 x    45 x    26              1790100     100.0%      0.0%      0.0%     
 flops    22 x    22 x    49              1802416     100.0%      0.0%      0.0%     
 flops     9 x     9 x    49              1809864     100.0%      0.0%      0.0%     
 flops    48 x    45 x    26              1909440     100.0%      0.0%      0.0%     
 flops    45 x    48 x    26              1909440     100.0%      0.0%      0.0%     
 flops    51 x    45 x    26              2028780     100.0%      0.0%      0.0%     
 flops    45 x    51 x    26              2028780     100.0%      0.0%      0.0%     
 flops    48 x    48 x    26              2036736     100.0%      0.0%      0.0%     
 flops    26 x    22 x    22              2038608     100.0%      0.0%      0.0%     
 flops    26 x    45 x    45              2106000     100.0%      0.0%      0.0%     
 flops    26 x    26 x     9              2117232     100.0%      0.0%      0.0%     
 flops    51 x    48 x    26              2164032     100.0%      0.0%      0.0%     
 flops    48 x    51 x    26              2164032     100.0%      0.0%      0.0%     
 flops    26 x    45 x    48              2246400     100.0%      0.0%      0.0%     
 flops    26 x    48 x    45              2246400     100.0%      0.0%      0.0%     
 flops    51 x    51 x    26              2299284     100.0%      0.0%      0.0%     
 flops    26 x     9 x    22              2378376     100.0%      0.0%      0.0%     
 flops    26 x    22 x     9              2378376     100.0%      0.0%      0.0%     
 flops    26 x    45 x    51              2386800     100.0%      0.0%      0.0%     
 flops    26 x    51 x    45              2386800     100.0%      0.0%      0.0%     
 flops    26 x    48 x    48              2396160     100.0%      0.0%      0.0%     
 flops    26 x    48 x    51              2545920     100.0%      0.0%      0.0%     
 flops    26 x    51 x    48              2545920     100.0%      0.0%      0.0%     
 flops    22 x    22 x    31              2610696     100.0%      0.0%      0.0%     
 flops    26 x    51 x    51              2705040     100.0%      0.0%      0.0%     
 flops    26 x     9 x     9              2918916     100.0%      0.0%      0.0%     
 flops    22 x     9 x    31              3093552     100.0%      0.0%      0.0%     
 flops    31 x    22 x    26              3191760     100.0%      0.0%      0.0%     
 flops    26 x    22 x    31              3191760     100.0%      0.0%      0.0%     
 flops     9 x    22 x    31              3204036     100.0%      0.0%      0.0%     
 flops     9 x     9 x    31              3796632     100.0%      0.0%      0.0%     
 flops    26 x     9 x    31              3830112     100.0%      0.0%      0.0%     
 flops    31 x    45 x    26              3844620     100.0%      0.0%      0.0%     
 flops    26 x    45 x    31              3844620     100.0%      0.0%      0.0%     
 flops    31 x     9 x    26              3917160     100.0%      0.0%      0.0%     
 flops    31 x    48 x    26              4178304     100.0%      0.0%      0.0%     
 flops    26 x    48 x    31              4178304     100.0%      0.0%      0.0%     
 flops    31 x    51 x    26              4439448     100.0%      0.0%      0.0%     
 flops    26 x    51 x    31              4439448     100.0%      0.0%      0.0%     
 flops    31 x    26 x    49              4502316     100.0%      0.0%      0.0%     
 flops    26 x    31 x    49              4502316     100.0%      0.0%      0.0%     
 flops    26 x    26 x   196              5299840     100.0%      0.0%      0.0%     
 flops    31 x    26 x    22              6170736     100.0%      0.0%      0.0%     
 flops    22 x    22 x    32              6288128     100.0%      0.0%      0.0%     
 flops    26 x    31 x    22              6312592     100.0%      0.0%      0.0%     
 flops    45 x    45 x    31              6403050     100.0%      0.0%      0.0%     
 flops    45 x    48 x    31              6696000     100.0%      0.0%      0.0%     
 flops    48 x    45 x    31              6829920     100.0%      0.0%      0.0%     
 flops    45 x    51 x    31              7114500     100.0%      0.0%      0.0%     
 flops    48 x    48 x    31              7142400     100.0%      0.0%      0.0%     
 flops    51 x    45 x    31              7256790     100.0%      0.0%      0.0%     
 flops    31 x    22 x    22              7291944     100.0%      0.0%      0.0%     
 flops    31 x    45 x    45              7533000     100.0%      0.0%      0.0%     
 flops    31 x    26 x     9              7573176     100.0%      0.0%      0.0%     
 flops    26 x    31 x     9              7573176     100.0%      0.0%      0.0%     
 flops    51 x    48 x    31              7588800     100.0%      0.0%      0.0%     
 flops    48 x    51 x    31              7588800     100.0%      0.0%      0.0%     
 flops    22 x     9 x    32              7603200     100.0%      0.0%      0.0%     
 flops     9 x    22 x    32              7717248     100.0%      0.0%      0.0%     
 flops    32 x    22 x    26              7834112     100.0%      0.0%      0.0%     
 flops    26 x    22 x    32              7834112     100.0%      0.0%      0.0%     
 flops    31 x    45 x    48              8035200     100.0%      0.0%      0.0%     
 flops    31 x    48 x    45              8035200     100.0%      0.0%      0.0%     
 flops    51 x    51 x    31              8063100     100.0%      0.0%      0.0%     
 flops    31 x     9 x    22              8507268     100.0%      0.0%      0.0%     
 flops    31 x    22 x     9              8507268     100.0%      0.0%      0.0%     
 flops    31 x    45 x    51              8537400     100.0%      0.0%      0.0%     
 flops    31 x    51 x    45              8537400     100.0%      0.0%      0.0%     
 flops    31 x    48 x    48              8570880     100.0%      0.0%      0.0%     
 flops    26 x    45 x    32              8910720     100.0%      0.0%      0.0%     
 flops    31 x    48 x    51              9106560     100.0%      0.0%      0.0%     
 flops    31 x    51 x    48              9106560     100.0%      0.0%      0.0%     
 flops     9 x     9 x    32              9331200     100.0%      0.0%      0.0%     
 flops    32 x     9 x    26              9374976     100.0%      0.0%      0.0%     
 flops    32 x    45 x    26              9434880     100.0%      0.0%      0.0%     
 flops    26 x     9 x    32              9464832     100.0%      0.0%      0.0%     
 flops    31 x    51 x    51              9675720     100.0%      0.0%      0.0%     
 flops    26 x    48 x    32              9744384     100.0%      0.0%      0.0%     
 flops    32 x    48 x    26             10063872     100.0%      0.0%      0.0%     
 flops    26 x    51 x    32             10353408     100.0%      0.0%      0.0%     
 flops    31 x     9 x     9             10440738     100.0%      0.0%      0.0%     
 flops    32 x    51 x    26             10692864     100.0%      0.0%      0.0%     
 flops    32 x    26 x    49             10844288     100.0%      0.0%      0.0%     
 flops    26 x    32 x    49             10844288     100.0%      0.0%      0.0%     
 flops    31 x    22 x    31             11416680     100.0%      0.0%      0.0%     
 flops    31 x    45 x    31             13405950     100.0%      0.0%      0.0%     
 flops    31 x     9 x    31             13682718     100.0%      0.0%      0.0%     
 flops    31 x    48 x    31             14853216     100.0%      0.0%      0.0%     
 flops    32 x    26 x    22             15155712     100.0%      0.0%      0.0%     
 flops    26 x    32 x    22             15375360     100.0%      0.0%      0.0%     
 flops    45 x    45 x    32             15422400     100.0%      0.0%      0.0%     
 flops    31 x    51 x    31             15781542     100.0%      0.0%      0.0%     
 flops    31 x    31 x    49             16104438     100.0%      0.0%      0.0%     
 flops    45 x    48 x    32             16312320     100.0%      0.0%      0.0%     
 flops    48 x    45 x    32             16450560     100.0%      0.0%      0.0%     
 flops    45 x    51 x    32             17331840     100.0%      0.0%      0.0%     
 flops    48 x    48 x    32             17399808     100.0%      0.0%      0.0%     
 flops    51 x    45 x    32             17478720     100.0%      0.0%      0.0%     
 flops    32 x    22 x    22             17563392     100.0%      0.0%      0.0%     
 flops    32 x    45 x    45             18144000     100.0%      0.0%      0.0%     
 flops    32 x    26 x     9             18240768     100.0%      0.0%      0.0%     
 flops    26 x    32 x     9             18240768     100.0%      0.0%      0.0%     
 flops    51 x    48 x    32             18487296     100.0%      0.0%      0.0%     
 flops    48 x    51 x    32             18487296     100.0%      0.0%      0.0%     
 flops    31 x    26 x   196             18957120     100.0%      0.0%      0.0%     
 flops    26 x    31 x   196             18957120     100.0%      0.0%      0.0%     
 flops    32 x    45 x    48             19353600     100.0%      0.0%      0.0%     
 flops    32 x    48 x    45             19353600     100.0%      0.0%      0.0%     
 flops    51 x    51 x    32             19642752     100.0%      0.0%      0.0%     
 flops    32 x     9 x    22             20490624     100.0%      0.0%      0.0%     
 flops    32 x    22 x     9             20490624     100.0%      0.0%      0.0%     
 flops    32 x    45 x    51             20563200     100.0%      0.0%      0.0%     
 flops    32 x    51 x    45             20563200     100.0%      0.0%      0.0%     
 flops    32 x    48 x    48             20643840     100.0%      0.0%      0.0%     
 flops    32 x    48 x    51             21934080     100.0%      0.0%      0.0%     
 flops    32 x    51 x    48             21934080     100.0%      0.0%      0.0%     
 flops    31 x    31 x    22             22072248     100.0%      0.0%      0.0%     
 flops    32 x    51 x    51             23304960     100.0%      0.0%      0.0%     
 flops    32 x     9 x     9             25147584     100.0%      0.0%      0.0%     
 flops    31 x    31 x     9             27088668     100.0%      0.0%      0.0%     
 flops    32 x    22 x    31             27280000     100.0%      0.0%      0.0%     
 flops    31 x    22 x    32             27541888     100.0%      0.0%      0.0%     
 flops    31 x    45 x    32             31872960     100.0%      0.0%      0.0%     
 flops    32 x     9 x    31             32783616     100.0%      0.0%      0.0%     
 flops    31 x     9 x    32             33087168     100.0%      0.0%      0.0%     
 flops    32 x    45 x    31             33122880     100.0%      0.0%      0.0%     
 flops    31 x    48 x    32             34378752     100.0%      0.0%      0.0%     
 flops    32 x    48 x    31             35997696     100.0%      0.0%      0.0%     
 flops    31 x    51 x    32             36628608     100.0%      0.0%      0.0%     
 flops    32 x    51 x    31             38045184     100.0%      0.0%      0.0%     
 flops    32 x    31 x    49             38789184     100.0%      0.0%      0.0%     
 flops    31 x    32 x    49             38789184     100.0%      0.0%      0.0%     
 flops    32 x    26 x   196             45660160     100.0%      0.0%      0.0%     
 flops    26 x    32 x   196             45660160     100.0%      0.0%      0.0%     
 flops    31 x    32 x    22             53163264     100.0%      0.0%      0.0%     
 flops    32 x    31 x    22             54123520     100.0%      0.0%      0.0%     
 flops    32 x    31 x     9             65245824     100.0%      0.0%      0.0%     
 flops    31 x    32 x     9             65245824     100.0%      0.0%      0.0%     
 flops    32 x    22 x    32             66727936     100.0%      0.0%      0.0%     
 flops    31 x    31 x   196             67808160     100.0%      0.0%      0.0%     
 flops    32 x    45 x    32             76861440     100.0%      0.0%      0.0%     
 flops    32 x     9 x    32             80842752     100.0%      0.0%      0.0%     
 flops    32 x    48 x    32             83853312     100.0%      0.0%      0.0%     
 flops    32 x    51 x    32             89303040     100.0%      0.0%      0.0%     
 flops    32 x    32 x    49             93427712     100.0%      0.0%      0.0%     
 flops    32 x    32 x    22            130572288     100.0%      0.0%      0.0%     
 flops    32 x    32 x     9            157151232     100.0%      0.0%      0.0%     
 flops    32 x    31 x   196            163322880     100.0%      0.0%      0.0%     
 flops    31 x    32 x   196            163322880     100.0%      0.0%      0.0%     
 flops    32 x    32 x   196            393379840     100.0%      0.0%      0.0%     
 flops inhomo. stacks                   717849600     100.0%      0.0%      0.0%
 flops total                         4.174008E+09     100.0%      0.0%      0.0%
 flops max/rank                      4.174008E+09     100.0%      0.0%      0.0%
 matmuls inhomo. stacks                      4965     100.0%      0.0%      0.0%
 matmuls total                              81256     100.0%      0.0%      0.0%
 number of processed stacks                 16227     100.0%      0.0%      0.0%
 average stack size                                     5.0       0.0       0.0
 marketing flops                     6.819682E+09
 -------------------------------------------------------------------------------
 # multiplications                            524
 max memory usage/rank              41.163178E+09
 # max total images/rank                        1
 # max 3D layers                                1
 # MPI messages exchanged                       0
 -------------------------------------------------------------------------------
 -                                                                             -
 -                      DBCSR MESSAGE PASSING PERFORMANCE                      -
 -                                                                             -
 -------------------------------------------------------------------------------
 ROUTINE             CALLS      AVE VOLUME [Bytes]
 MP_Bcast              164                     12.
 MP_Allreduce         2551                     16.
 MP_Alltoall          4264                  33682.
 MP_ISend             1736                    849.
 MP_IRecv             1736                    849.
 -------------------------------------------------------------------------------

 -------------------------------------------------------------------------------
 -                                                                             -
 -                                GRID STATISTICS                              -
 -                                                                             -
 -------------------------------------------------------------------------------
 LP    KERNEL             BACKEND                              COUNT     PERCENT
 2     collocate ortho    CPU                                   8073      32.13%
 2     integrate ortho    CPU                                   8073      32.13%
 3     collocate ortho    CPU                                   3510      13.97%
 3     integrate ortho    CPU                                   3510      13.97%
 4     collocate ortho    CPU                                    975       3.88%
 4     integrate ortho    CPU                                    975       3.88%
 0     collocate general  CPU                                      8       0.03%
 0     integrate general  CPU                                      4       0.02%
 -------------------------------------------------------------------------------

 -------------------------------------------------------------------------------
 -                                                                             -
 -                          OFFLOAD MEMPOOL STATISTICS                         -
 -                                                                             -
 -------------------------------------------------------------------------------
 Memory consumption                Number of allocations  Used [MiB]  Size [MiB]
 Host                                                  7         260    22200253
 -------------------------------------------------------------------------------

 MEMORY| Estimated peak process memory [MiB]                               20575

 -------------------------------------------------------------------------------
 -                                                                             -
 -                         MESSAGE PASSING PERFORMANCE                         -
 -                                                                             -
 -------------------------------------------------------------------------------

 ROUTINE             CALLS      AVE VOLUME [Bytes]
 MP_Group                6
 MP_Bcast               91                  17015.
 MP_Allreduce         2253                   1528.
 MP_Sync                48
 MP_comm_split          47
 -------------------------------------------------------------------------------


 -------------------------------------------------------------------------------
 -                                                                             -
 -                           R E F E R E N C E S                               -
 -                                                                             -
 -------------------------------------------------------------------------------
 
 CP2K version 2026.2 (Development Version), the CP2K developers group (2026).
 CP2K is freely available from https://www.cp2k.org/ .
 
 M. Iannuzzi, J. Wilhelm, F. Stein, A. Bussy, H. Elgabarty, D. Golze, A. Hehn, 
 M. Graml, S. Marek, B. Sertcan Gökmen, C. Schran, H. Forbert, R. Z. 
 Khaliullin, A. Kozhevnikov, M. Taillefumier, R. Meli, V. V. Rybkin, M. Brehm, 
 R. Schade, O. Schütt, J. V. Pototschnig, H. Mirhosseini, A. Knüpfer, D. Marx, 
 M. Krack, J. Hutter, T. D. Kühne.
 J. Phys. Chem. B 130, 1237-1310 (2026).
 The CP2K Program Package Made Simple.
 https://doi.org/10.1021/acs.jpcb.5c05851

 M. Graml, K. Zollner, D. Hernangómez-Pérez, P. E. Faria Junior, J. Wilhelm.
 J. Chem. Theory Comput. 20, 2202-2208 (2024).
 Low-scaling GW algorithm applied to twisted transition-metal dichalcogenide 
 heterobilayers.
 https://doi.org/10.1021/acs.jctc.3c01230

 T. D. Kühne, M. Iannuzzi, M. Del Ben, V. V. Rybkin, P. Seewald, F. Stein, T. 
 Laino, R. Z. Khaliullin, O. Schütt, F. Schiffmann, D. Golze, J. Wilhelm, S. 
 Chulkov, M. H. Bani-Hashemian, V. Weber, U. Borstnik, M. Taillefumier, A. S. 
 Jakobovits, A. Lazzaro, H. Pabst, T. Müller, R. Schade, M. Guidon, S. 
 Andermatt, N. Holmberg, G. K. Schenter, A. Hehn, A. Bussy, F. Belleflamme, G. 
 Tabacchi, A. Glöß, M. Lass, I. Bethune, C. J. Mundy, C. Plessl, M. Watkins, 
 J. VandeVondele, M. Krack, J. Hutter.
 J. Chem. Phys. 152, 194103 (2020).
 CP2K: An electronic structure and molecular dynamics software package - 
 Quickstep: Efficient and accurate electronic structure calculations.
 https://doi.org/10.1063/5.0007045

 O. Schuett, P. Messmer, J. Hutter, J. VandeVondele.
 Electronic Structure Calculations on Graphics Processing Units, 173-190 (2016).
 GPU-Accelerated Sparse Matrix-Matrix Multiplication for Linear Scaling Density 
 Functional Theory.
 https://doi.org/10.1002/9781118670712.ch8

 U. Borstnik, J. VandeVondele, V. Weber, J. Hutter.
 Parallel Comput. 40, 47-58 (2014).
 Sparse matrix multiplication: The distributed block-compressed sparse row 
 library.
 https://doi.org/10.1016/j.parco.2014.03.012

 J. VandeVondele, J. Hutter.
 J. Chem. Phys. 127, 114105 (2007).
 Gaussian basis sets for accurate calculations on molecular systems in gas and 
 condensed phases.
 https://doi.org/10.1063/1.2770708

 J. VandeVondele, M. Krack, F. Mohamed, M. Parrinello, T. Chassaing, J. Hutter.
 Comput. Phys. Commun. 167, 103-128 (2005).
 QUICKSTEP: Fast and accurate density functional calculations using a mixed 
 Gaussian and plane waves approach.
 https://doi.org/10.1016/j.cpc.2004.12.014

 M. Krack.
 Theor. Chem. Acc. 114, 145-152 (2005).
 Pseudopotentials for H to Kr optimized for gradient-corrected 
 exchange-correlation functionals.
 https://doi.org/10.1007/s00214-005-0655-y

 M. Frigo, S. G. Johnson.
 Proc. IEEE 93, 216-231 (2005).
 The design and implementation of FFTW3.
 https://doi.org/10.1109/JPROC.2004.840301

 C. Hartwigsen, S. Goedecker, J. Hutter.
 Phys. Rev. B 58, 3641-3662 (1998).
 Relativistic separable dual-space Gaussian pseudopotentials from H to Rn.
 https://doi.org/10.1103/PhysRevB.58.3641

 G. Lippert, J. Hutter, M. Parrinello.
 Mol. Phys. 92, 477-487 (1997).
 A hybrid Gaussian and plane wave density functional scheme.
 https://doi.org/10.1080/002689797170220

 S. Goedecker, M. Teter, J. Hutter.
 Phys. Rev. B 54, 1703-1710 (1996).
 Separable dual-space Gaussian pseudopotentials.
 https://doi.org/10.1103/PhysRevB.54.1703

 J. P. Perdew, K. Burke, M. Ernzerhof.
 Phys. Rev. Lett. 77, 3865-3868 (1996).
 Generalized gradient approximation made simple.
 https://doi.org/10.1103/PhysRevLett.77.3865

 P. E. Blöchl.
 J. Chem. Phys. 103, 7422-7428 (1995).
 Electrostatic decoupling of periodic images of plane‐wave‐expanded 
 densities and derived atomic point charges.
 https://doi.org/10.1063/1.470314

 R. H. Byrd, P. H. Lu, J. Nocedal, C. Y. Zhu.
 SIAM J. Sci. Comput. 16, 1190-1208 (1995).
 A Limited Memory Algorithm for Bound Constrained Optimization.
 https://doi.org/10.1137/0916069

 C. G. Broyden.
 Math. Comput. 19, 577-593 (1965).
 A class of methods for solving nonlinear simultaneous equations.
 https://doi.org/10.1090/S0025-5718-1965-0198670-6


 -------------------------------------------------------------------------------
 -                                                                             -
 -                                T I M I N G                                  -
 -                                                                             -
 -------------------------------------------------------------------------------
 SUBROUTINE                       CALLS  ASD         SELF TIME        TOTAL TIME
                                MAXIMUM       AVERAGE  MAXIMUM  AVERAGE  MAXIMUM
 CP2K                                 1  1.0    0.027    0.027  388.650  388.650
 qs_energies                          1  2.0    0.000    0.000  381.856  381.856
 scf_env_do_scf                       1  3.0    0.000    0.000  359.199  359.199
 scf_env_do_scf_inner_loop           38  4.0    0.014    0.014  359.199  359.199
 qs_ks_build_kohn_sham_matrix        39  7.0    0.010    0.010  215.404  215.404
 qs_ks_update_qs_env                 38  5.0    0.001    0.001  213.759  213.759
 rebuild_ks_matrix                   38  6.0    0.000    0.000  213.755  213.755
 fft_wrap_pw1pw2                    772 10.0    0.019    0.019  174.329  174.329
 fft_wrap_pw1pw2_300                460 11.4    7.762    7.762  168.647  168.647
 qs_vxc_create                       39  8.0    0.001    0.001  150.072  150.072
 xc_vxc_pw_create                    38  9.0    5.690    5.690  150.072  150.072
 fft3d_s                            773 12.0  102.972  102.972  102.982  102.982
 xc_pw_derive                       228 11.0    0.002    0.002  101.315  101.315
 gspace_mixing                       37  5.0    3.711    3.711   89.278   89.278
 xc_rho_set_and_dset_create          38 10.0    3.096    3.096   73.830   73.830
 broyden_mixing                      37  6.0   72.345   72.345   72.346   72.346
 xc_pw_divergence                    38 10.0    0.001    0.001   68.690   68.690
 qs_rho_update_rho_low               39  5.0    0.001    0.001   57.316   57.316
 calculate_rho_elec                  39  6.0    3.925    3.925   57.314   57.314
 pw_scatter_s                       423 12.4   35.199   35.199   35.199   35.199
 density_rs2pw                       39  7.0    0.015    0.015   35.096   35.096
 qs_ks_ddapc                         39  8.0    0.001    0.001   21.597   21.597
 sum_up_and_integrate                39  8.0    0.001    0.001   20.631   20.631
 pw_poisson_solve                    39  8.0    0.001    0.001   20.538   20.538
 pw_derive                          345 11.3   20.428   20.428   20.428   20.428
 integrate_v_rspace                  39  9.0    0.002    0.002   19.634   19.634
 potential_pw2rs                     39 10.0    0.140    0.140   19.454   19.454
 grid_collocate_task_list            39  7.0   18.293   18.293   18.293   18.293
 qs_energies_properties               1  3.0    0.000    0.000   18.248   18.248
 post_scf_bandstructure               1  4.0    0.000    0.000   18.248   18.248
 run_gw                               1  5.0    0.000    0.000   18.245   18.245
 xc_functional_eval                  38 11.0    0.001    0.001   17.253   17.253
 pbe_lda_eval                        38 12.0   17.253   17.253   17.253   17.253
 pw_gather_s                        349 11.6   16.058   16.058   16.058   16.058
 gw_calc_ri_rs_non_periodic           1  6.0    0.000    0.000   15.639   15.639
 pw_copy                            659 10.6   15.189   15.189   15.189   15.189
 optimize_ri_rs_grid                  1  7.0    0.000    0.000   15.129   15.129
 rirs_grid_LBFGS                      1  8.0    0.401    0.401   14.871   14.871
 evaluate_rirs_grid_cluster        1204  9.0    2.284    2.284   14.468   14.468
 pw_integral_ab_c1d_c1d_gs           78  9.5   11.526   11.526   11.526   11.526
 pw_poisson_set                      40  8.9    0.001    0.001   10.846   10.846
 pw_axpy                            434  9.0    8.443    8.443    8.443    8.443
 -------------------------------------------------------------------------------

 The number of warnings for this run is : 0
 
 -------------------------------------------------------------------------------
  **** **** ******  **  PROGRAM ENDED AT                 2026-09-18 21:20:08.661
 ***** ** ***  *** **   PROGRAM RAN ON                                  n2cn0183
 **    ****   ******    PROGRAM RAN BY                                  eprop2d1
 ***** **    ** ** **   PROGRAM PROCESS ID                                298958
  **** **  *******  **  PROGRAM STOPPED IN /scratch/hpc-prf-metdyn/eprop2d1_Jan/
                                           53_benchmark_RI_opt/144_Figure1_compl
                                           ete_initial_metdyn/runs/gw100_initial
                                           /49_PH3/dzvp_t1
