 DBCSR| CPU Multiplication driver                                           XSMM (U)
 DBCSR| Multrec recursion limit                                              512 (U)
 DBCSR| Multiplication stack size                                           1000 (D)
 DBCSR| Maximum elements for images                                    UNLIMITED (U)
 DBCSR| Multiplicative factor virtual images                                   1 (U)
 DBCSR| Use multiplication densification                                       T (D)
 DBCSR| Multiplication size stacks                                             3 (U)
 DBCSR| Use memory pool for CPU allocation                                     F (U)
 DBCSR| Number of 3D layers                                               SINGLE (U)
 DBCSR| Use MPI memory allocation                                              F (U)
 DBCSR| Use RMA algorithm                                                      F (U)
 DBCSR| Use Communication thread                                               T (U)
 DBCSR| Communication thread load                                             64 (D)
 DBCSR| MPI: My process id                                                     6
 DBCSR| MPI: Number of processes                                              17
 DBCSR| OMP: Current number of threads                                         7
 DBCSR| OMP: Max number of threads                                             7
 DBCSR| Split modifier for TAS multiplication algorithm                  1.0E+00 (U)


  **** **** ******  **  PROGRAM STARTED AT               2026-10-03 12:12:47.467
 ***** ** ***  *** **   PROGRAM STARTED ON                              n2cn0255
 **    ****   ******    PROGRAM STARTED BY                              eprop2d1
 ***** **    ** ** **   PROGRAM PROCESS ID                               1305188
  **** **  *******  **  PROGRAM STARTED IN /scratch/hpc-prf-metdyn/eprop2d1_Jan/
                                           53_benchmark_RI_opt/418_gw100_fig5_fu
                                           ll_epsfilter_1e12_20261002/calculatio
                                           ns/rc0p5/ri2_rs03/08_Na2

 CP2K| version string:                 CP2K version 2026.2 (Development Version)
 CP2K| source code revision number:                                   0671c5aa6c
 CP2K| cp2kflags: omp libint fftw3 libxc parallel scalapack openblas            
 CP2K| is freely available from                            https://www.cp2k.org/
 CP2K| Program compiled at                                   2026-09-20 09:25:26
 CP2K| Program compiled on                                              n2login5
 CP2K| Program compiled for                                               x86_64
 CP2K| Data directory path    /scratch/hpc-prf-metdyn/eprop2d1_Jan/53_benchmark_
 CP2K| Input file name                                                 input.inp
 
 eprop2d1@n2cn0255 has created rank and process                      0   1305188
 eprop2d1@n2cn0255 has created rank and process                      1   1305189
 
 eprop2d1@n2cn0255 is running                                        2 processes

 GLOBAL| Force Environment number                                              1
 GLOBAL| Basis set file name            /scratch/hpc-prf-metdyn/eprop2d1_Jan/53_
 GLOBAL| Potential file name            /scratch/hpc-prf-metdyn/eprop2d1_Jan/53_
 GLOBAL| MM Potential file name                                     MM_POTENTIAL
 GLOBAL| Coordinate file name                                      __STD_INPUT__
 GLOBAL| Method name                                                        CP2K
 GLOBAL| Project name                                             g418_a203_m008
 GLOBAL| Run type                                                         ENERGY
 GLOBAL| FFT library                                                       FFTW3
 GLOBAL| Diagonalization library                                       ScaLAPACK
 GLOBAL| Cholesky decomposition library                                ScaLAPACK
 GLOBAL| DGEMM library                                                      BLAS
 GLOBAL| Direct generalized diagonalization requested                          F
 GLOBAL| Orthonormality check for eigenvectors                          DISABLED
 GLOBAL| Matrix multiplication library                                 ScaLAPACK
 GLOBAL| All-to-all communication in single precision                          F
 GLOBAL| Grid backend                                                       AUTO
 GLOBAL| Global print level                                                  LOW
 GLOBAL| MPI I/O enabled                                                       T
 GLOBAL| Total number of message passing processes                             2
 GLOBAL| Number of distributed systems (nodes)                                 1
 GLOBAL| Number of threads for this process                                    7
 GLOBAL| This output is from process                                           0
 GLOBAL| OpenMP stack size per thread (OMP_STACKSIZE)                       512M
 GLOBAL| CPU model name                          AMD EPYC 7763 64-Core Processor

 MEMORY| system memory details [Kb]
 MEMORY|                        rank 0           min           max       average
 MEMORY| MemTotal            263897580     263897580     263897580     263897580
 MEMORY| MemFree             248325108     248325108     248334180     248329644
 MEMORY| Buffers                271104        271104        271104        271104
 MEMORY| Cached                7337020       7337020       7337020       7337020
 MEMORY| Slab                  1656304       1656304       1656304       1656304
 MEMORY| SReclaimable           295804        295804        295804        295804
 MEMORY| MemLikelyFree       256229036     256229036     256238108     256233572


 GENERATE|  Preliminary Number of Bonds generated:                             0
 GENERATE|  Achieved consistency in connectivity generation.

 *******************************************************************************
 *******************************************************************************
 **                                                                           **
 **     #####                         ##              ##                      **
 **    ##   ##            ##          ##              ##                      **
 **   ##     ##                       ##            ######                    **
 **   ##     ##  ##   ##  ##   #####  ##  ##   ####   ##    #####    #####    **
 **   ##     ##  ##   ##  ##  ##      ## ##   ##      ##   ##   ##  ##   ##   **
 **   ##  ## ##  ##   ##  ##  ##      ####     ###    ##   ######   ######    **
 **    ##  ###   ##   ##  ##  ##      ## ##      ##   ##   ##       ##        **
 **     #######   #####   ##   #####  ##  ##  ####    ##    #####   ##        **
 **           ##                                                    ##        **
 **                                                                           **
 **                                                ... make the atoms dance   **
 **                                                                           **
 **            Copyright (C) by CP2K developers group (2000-2026)             **
 **                      J. Chem. Phys. 152, 194103 (2020)                    **
 **                                                                           **
 *******************************************************************************


 TOTAL NUMBERS AND MAXIMUM NUMBERS

  Total number of            - Atomic kinds:                                   1
                             - Atoms:                                          2
                             - Shell sets:                                     2
                             - Shells:                                        16
                             - Primitive Cartesian functions:                 16
                             - Cartesian basis functions:                     38
                             - Spherical basis functions:                     36

  Maximum angular momentum of- Orbital basis functions:                        2
                             - Local part of the GTH pseudopotential:          2
                             - Non-local part of the GTH pseudopotential:      1


 SCF PARAMETERS         Density guess:                                   RESTART
                        --------------------------------------------------------
                        max_scf:                                             500
                        max_scf_history:                                       0
                        max_diis:                                              4
                        --------------------------------------------------------
                        eps_scf:                                        1.00E-08
                        eps_scf_history:                                0.00E+00
                        eps_diis:                                       0.00E+00
                        eps_eigval:                                     1.00E-05
                        --------------------------------------------------------
                        level_shift [a.u.]:                             0.000000
                        --------------------------------------------------------
                        Outer loop SCF in use 
                        No variables optimised in outer loop
                        eps_scf                                         1.00E-08
                        max_scf                                               20
                        No outer loop optimization
                        step_size                                       5.00E-01

 Extrapolation method: initial_guess

 Number of electrons:                                                         18
 Number of occupied orbitals:                                                  9
 Number of molecular orbitals:                                                 9

 Number of orbital functions:                                                 36
 Number of independent orbital functions:                                     36


 SCF WAVEFUNCTION OPTIMIZATION

  ----------------------------------- OT ---------------------------------------
  Minimizer      : DIIS                : direct inversion
                                         in the iterative subspace
                                         using   7 DIIS vectors
                                         safer DIIS on
  Preconditioner : FULL_KINETIC        : inversion of T + eS
  Lattice FFT   : OFF
  Precond_solver : DEFAULT
  stepsize       :    0.15000000                  energy_gap     :    0.20000000
  eps_taylor     :   0.10000E-15                  max_taylor     :             4
  ----------------------------------- OT ---------------------------------------

  Step     Update method      Time    Convergence         Total energy    Change
  ------------------------------------------------------------------------------
  Decoupling Energy:                                               0.0000000016
     1 OT DIIS     0.15E+00    5.8     8.9224E-09       -95.6786199216 -9.57E+01

  *** SCF run converged in     1 steps ***


  Electronic density on regular grids:        -17.9999984667        0.0000015333
  Core density on regular grids:               18.0000000000       -0.0000000000
  Total charge density on r-space grids:        0.0000015333
  Total charge density g-space grids:           0.0000015333

  Overlap energy of the core charge distribution:               0.00000000000000
  Self energy of the core charge distribution:               -253.88531259649037
  Core Hamiltonian energy:                                     70.70187087189768
  Hartree energy:                                             101.88133937048023
  Exchange-correlation energy:                                -14.37651756744686

  Total energy:                                               -95.67861992155932

  outer SCF iter =    1 RMS gradient =   0.89E-08 energy =        -95.6786199216
  outer SCF loop converged in   1 iterations or    1 steps

  
 -------------------------------------------------------------------------------
 -                                                                             -
 -                          BANDSTRUCTURE CALCULATION                          -
 -                                                                             -
 -------------------------------------------------------------------------------
  
 Number of occupied molecular orbitals (MOs) = Number of occupied bands        9
 Number of unoccupied (= virtual) MOs = Number of unoccupied bands            27
 Number of Gaussian basis functions for MOs                                   36
  
 -------------------------------------------------------------------------------
 -                                                                             -
 -                                GW CALCULATION                               -
 -                                                                             -
 -------------------------------------------------------------------------------
  
 Input: Number of time/freq. points                                           30
 Input: ω_max for fitting Σ(iω) (eV)                                        10.0
 Input: Filter threshold for sparse tensor operations                    1.0E-12
 Input: Apply Hedin shift                                                      F
 Detected: Available memory per MPI process                              70.9 GB
 
 Input: RI-RS Tikhonov regularization                                   1.00E-04
 Input: AO grid hard cutoff radius                                        8.00 Å
 Input: MPI ranks per atom in Z_lP solve                                      -1
 Input: Keep sparsity in χ/G/W panels                                          T
 Input: GW flavour                                                          G0W0
 
 Input: RI-RS grid optimization activated                                      T
 Input: RS points per AO function                                            3.0
 Input: Cutoff radius for atomic clusters                                  0.5 Å
 Input: Maximum grid optimization iterations                                 300
 
 Input: AUTO_RI basis optimization activated:                                  T
 Input: AUTO_RI number of RI functions per AO function:                      2.0
 Input: AUTO_RI frontier orbital window:                                  5.0 eV
 Input: AUTO_RI neighbor radius:                                           3.0 Å
 
 Cutoff radius for the truncated Coulomb operator in RI metric:            7.0 Å
 Regularization parameter of RI                                          0.0E+00
 Regularization parameter of minimax grids                               1.0E-06
 
 AUTO_RI| Number of automatic RI functions for χ, ε, W:                       72
 AUTO_RI| Total RI basis optimization time:                                0.5 s
  Decoupling Energy:                                               0.0000000016
 
 SCF direct band gap (eV)                                                   1.38
 Max. SCF eigval diff. (eV)                                               169.99
 E-Range for minimax grid                                                 123.46
 Number of Padé parameters for analytic continuation:                         16
 
 RI-RS basis radii (Å):
     Kind  Elem     r_AO (Å)     r_RI (Å)
        1    Na       13.7238        8.8179
 
 Started RI-RS grid optimization
 RI-RS grid initial normalized error                          2.098809502228E-01
 RI-RS grid optimization completed, execution time:                        0.1 s
 Normalized 3C error:                                                    4.2E-05
 Maximum absolute 3C error:                                              2.1E-02
 Optimized points outside molecular Voronoi cells:                             8 / 108
 Total grid points used for RI-RS:                                           108
 
 RI-RS grid row-blocks of ϕ_μ(r_l)                                             4
 RI-RS grid points per block (max)                                            32
 
 Percentage of non-zero matrix elements in ϕ_μ(r_l)                     100.00 %
 
 RI-RS memory estimate per MPI process:
   Available memory per process (system)                                81.48 GB
   Required for Z_lP (dense upper bound; actual is sparser)              0.00 GB
   Required for χ, W, Σ panels (peak per panel step)                     0.00 GB
   Required for Z_lP solve peak (D_local+ϕ, worst-case atom)             0.00 GB
   Worst-case local-grid number of grid points:                              108
   Worst-case memory D_local:                                            0.00 GB
 
 Started computing Z_lP
 Computed Z_lP (MPI rank 0) for atom          1 /  1,    Execution time    0.0 s
 Computed Z_lP (all MPI ranks) for all atoms,            Execution time    0.0 s

 Memory per MPI process after computing Z_lP:
 Available memory per MPI process                               81.5 GB
 Used memory per MPI process                                     1.6 GB
 Number of batches for χ, Σ matrices                                           1
 
 Percentage of non-zero matrix elements in Z_lP                         100.00 %
 Percentage of non-zero matrix elements in G_ll', χ_ll', W_ll'          100.00 %
 Percentage of non-zero matrix elements in χ_PQ for time point 1        100.00 %
 
 Computed χ(iτ,k=0) for time point            1 / 30,    Execution time    0.0 s
 Computed χ(iτ,k=0) for time point            2 / 30,    Execution time    0.0 s
 Computed χ(iτ,k=0) for time point            3 / 30,    Execution time    0.0 s
 Computed χ(iτ,k=0) for time point            4 / 30,    Execution time    0.0 s
 Computed χ(iτ,k=0) for time point            5 / 30,    Execution time    0.0 s
 Computed χ(iτ,k=0) for time point            6 / 30,    Execution time    0.0 s
 Computed χ(iτ,k=0) for time point            7 / 30,    Execution time    0.0 s
 Computed χ(iτ,k=0) for time point            8 / 30,    Execution time    0.0 s
 Computed χ(iτ,k=0) for time point            9 / 30,    Execution time    0.0 s
 Computed χ(iτ,k=0) for time point           10 / 30,    Execution time    0.0 s
 Computed χ(iτ,k=0) for time point           11 / 30,    Execution time    0.0 s
 Computed χ(iτ,k=0) for time point           12 / 30,    Execution time    0.0 s
 Computed χ(iτ,k=0) for time point           13 / 30,    Execution time    0.0 s
 Computed χ(iτ,k=0) for time point           14 / 30,    Execution time    0.0 s
 Computed χ(iτ,k=0) for time point           15 / 30,    Execution time    0.0 s
 Computed χ(iτ,k=0) for time point           16 / 30,    Execution time    0.0 s
 Computed χ(iτ,k=0) for time point           17 / 30,    Execution time    0.0 s
 Computed χ(iτ,k=0) for time point           18 / 30,    Execution time    0.0 s
 Computed χ(iτ,k=0) for time point           19 / 30,    Execution time    0.0 s
 Computed χ(iτ,k=0) for time point           20 / 30,    Execution time    0.0 s
 Computed χ(iτ,k=0) for time point           21 / 30,    Execution time    0.0 s
 Computed χ(iτ,k=0) for time point           22 / 30,    Execution time    0.0 s
 Computed χ(iτ,k=0) for time point           23 / 30,    Execution time    0.0 s
 Computed χ(iτ,k=0) for time point           24 / 30,    Execution time    0.0 s
 Computed χ(iτ,k=0) for time point           25 / 30,    Execution time    0.0 s
 Computed χ(iτ,k=0) for time point           26 / 30,    Execution time    0.0 s
 Computed χ(iτ,k=0) for time point           27 / 30,    Execution time    0.0 s
 Computed χ(iτ,k=0) for time point           28 / 30,    Execution time    0.0 s
 Computed χ(iτ,k=0) for time point           29 / 30,    Execution time    0.0 s
 Computed χ(iτ,k=0) for time point           30 / 30,    Execution time    0.0 s
 
 Computed W(iτ),                                         Execution time    0.0 s
 
 Computed Σ^x(k=0),                                      Execution time    0.0 s
 
 Computed Σ^c(iτ) for time point              1 / 30,    Execution time    0.0 s
 Computed Σ^c(iτ) for time point              2 / 30,    Execution time    0.0 s
 Computed Σ^c(iτ) for time point              3 / 30,    Execution time    0.0 s
 Computed Σ^c(iτ) for time point              4 / 30,    Execution time    0.0 s
 Computed Σ^c(iτ) for time point              5 / 30,    Execution time    0.0 s
 Computed Σ^c(iτ) for time point              6 / 30,    Execution time    0.0 s
 Computed Σ^c(iτ) for time point              7 / 30,    Execution time    0.0 s
 Computed Σ^c(iτ) for time point              8 / 30,    Execution time    0.0 s
 Computed Σ^c(iτ) for time point              9 / 30,    Execution time    0.0 s
 Computed Σ^c(iτ) for time point             10 / 30,    Execution time    0.0 s
 Computed Σ^c(iτ) for time point             11 / 30,    Execution time    0.0 s
 Computed Σ^c(iτ) for time point             12 / 30,    Execution time    0.0 s
 Computed Σ^c(iτ) for time point             13 / 30,    Execution time    0.0 s
 Computed Σ^c(iτ) for time point             14 / 30,    Execution time    0.0 s
 Computed Σ^c(iτ) for time point             15 / 30,    Execution time    0.0 s
 Computed Σ^c(iτ) for time point             16 / 30,    Execution time    0.0 s
 Computed Σ^c(iτ) for time point             17 / 30,    Execution time    0.0 s
 Computed Σ^c(iτ) for time point             18 / 30,    Execution time    0.0 s
 Computed Σ^c(iτ) for time point             19 / 30,    Execution time    0.0 s
 Computed Σ^c(iτ) for time point             20 / 30,    Execution time    0.0 s
 Computed Σ^c(iτ) for time point             21 / 30,    Execution time    0.0 s
 Computed Σ^c(iτ) for time point             22 / 30,    Execution time    0.0 s
 Computed Σ^c(iτ) for time point             23 / 30,    Execution time    0.0 s
 Computed Σ^c(iτ) for time point             24 / 30,    Execution time    0.0 s
 Computed Σ^c(iτ) for time point             25 / 30,    Execution time    0.0 s
 Computed Σ^c(iτ) for time point             26 / 30,    Execution time    0.0 s
 Computed Σ^c(iτ) for time point             27 / 30,    Execution time    0.0 s
 Computed Σ^c(iτ) for time point             28 / 30,    Execution time    0.0 s
 Computed Σ^c(iτ) for time point             29 / 30,    Execution time    0.0 s
 Computed Σ^c(iτ) for time point             30 / 30,    Execution time    0.0 s
 
 SCF valence band maximum (eV):                                           -3.100
 SCF conduction band minimum (eV):                                        -1.723
 SCF indirect band gap (eV):                                               1.377
 SCF direct band gap (eV):                                                 1.377
 
 G0W0 valence band maximum (eV):                                          -4.900
 G0W0 conduction band minimum (eV):                                       -0.218
 G0W0 indirect band gap (eV):                                              4.682
 G0W0 direct band gap (eV):                                                4.682
 
 Hartree-Fock with SCF orbitals valence band maximum (eV):                -4.580
 Hartree-Fock with SCF orbitals conduction band minimum (eV)               0.687
 Hartree-Fock with SCF orbitals indirect band gap (eV):                    5.267
 Hartree-Fock with SCF orbitals direct band gap (eV):                      5.267

 ENERGY| Total FORCE_EVAL ( QS ) energy [hartree]            -95.678619921559317

 -------------------------------------------------------------------------------
 -                                                                             -
 -                                DBCSR STATISTICS                             -
 -                                                                             -
 -------------------------------------------------------------------------------
 COUNTER                                    TOTAL       BLAS       SMM       ACC
 flops     9 x     9 x     9                 1458     100.0%      0.0%      0.0%     
 flops     9 x     9 x    18                17496     100.0%      0.0%      0.0%     
 flops    18 x     9 x     9                23328     100.0%      0.0%      0.0%     
 flops    18 x    18 x     9                34992     100.0%      0.0%      0.0%     
 flops    18 x     9 x    18               186624     100.0%      0.0%      0.0%     
 flops    18 x    18 x    22              4904064     100.0%      0.0%      0.0%     
 flops    22 x    18 x    22              6272640     100.0%      0.0%      0.0%     
 flops    22 x    36 x    22              6725664     100.0%      0.0%      0.0%     
 flops    22 x    22 x    36              6969600     100.0%      0.0%      0.0%     
 flops    18 x    18 x    32              7133184     100.0%      0.0%      0.0%     
 flops    32 x    18 x    22              9123840     100.0%      0.0%      0.0%     
 flops    22 x    18 x    32              9123840     100.0%      0.0%      0.0%     
 flops    22 x    36 x    32              9732096     100.0%      0.0%      0.0%     
 flops    32 x    36 x    22              9884160     100.0%      0.0%      0.0%     
 flops    32 x    22 x    36             10137600     100.0%      0.0%      0.0%     
 flops    22 x    32 x    36             10137600     100.0%      0.0%      0.0%     
 flops    36 x    36 x    22             10948608     100.0%      0.0%      0.0%     
 flops    22 x    36 x    36             11404800     100.0%      0.0%      0.0%     
 flops    22 x    18 x    18             12431232     100.0%      0.0%      0.0%     
 flops    32 x    18 x    32             13012992     100.0%      0.0%      0.0%     
 flops    32 x    36 x    32             14155776     100.0%      0.0%      0.0%     
 flops    32 x    32 x    36             14745600     100.0%      0.0%      0.0%     
 flops    22 x    22 x    18             15089184     100.0%      0.0%      0.0%     
 flops    36 x    36 x    32             15925248     100.0%      0.0%      0.0%     
 flops    32 x    36 x    36             16588800     100.0%      0.0%      0.0%     
 flops    32 x    18 x    18             18081792     100.0%      0.0%      0.0%     
 flops    32 x    22 x    18             22049280     100.0%      0.0%      0.0%     
 flops    22 x    32 x    18             22049280     100.0%      0.0%      0.0%     
 flops    32 x    32 x    18             32145408     100.0%      0.0%      0.0%     
 flops inhomo. stacks                           0       0.0%      0.0%      0.0%
 flops total                       309.036186E+06     100.0%      0.0%      0.0%
 flops max/rank                    179.528058E+06     100.0%      0.0%      0.0%
 matmuls inhomo. stacks                         0       0.0%      0.0%      0.0%
 matmuls total                               9752     100.0%      0.0%      0.0%
 number of processed stacks                  4088     100.0%      0.0%      0.0%
 average stack size                                     2.4       0.0       0.0
 marketing flops                   374.835776E+06
 -------------------------------------------------------------------------------
 # multiplications                            505
 max memory usage/rank              29.433037E+09
 # max total images/rank                        2
 # max 3D layers                                1
 # MPI messages exchanged                    1010
 MPI messages size (bytes):
  total size                        14.489928E+06
  min size                           0.000000E+00
  max size                          36.864000E+03
  average size                      14.346463E+03
 MPI breakdown and total messages size (bytes):
             size <=      128                  93                        0
       128 < size <=     8192                 247                  1167048
      8192 < size <=    32768                 616                 11332224
     32768 < size <=   131072                  54                  1990656
    131072 < size <=  4194304                   0                        0
   4194304 < size <= 16777216                   0                        0
  16777216 < size                               0                        0
 -------------------------------------------------------------------------------

 *** WARNING in dbcsr_mm.F:301 :: Using a non-square number of MPI ranks ***
 *** might lead to poor performance. Used ranks: 2 Suggested: 1 4        ***

 -------------------------------------------------------------------------------
 -                                                                             -
 -                      DBCSR MESSAGE PASSING PERFORMANCE                      -
 -                                                                             -
 -------------------------------------------------------------------------------
 ROUTINE             CALLS      AVE VOLUME [Bytes]
 MP_Bcast               30                     12.
 MP_Allreduce         2188                      9.
 MP_Alltoall          3385                   3184.
 MP_ISend             3386                   3342.
 MP_IRecv             3384                   3029.
 -------------------------------------------------------------------------------

 -------------------------------------------------------------------------------
 -                                                                             -
 -                                GRID STATISTICS                              -
 -                                                                             -
 -------------------------------------------------------------------------------
 LP    KERNEL             BACKEND                              COUNT     PERCENT
 4     collocate ortho    CPU                                    358      49.86%
 4     integrate ortho    CPU                                    358      49.86%
 0     collocate general  CPU                                      2       0.28%
 -------------------------------------------------------------------------------

 -------------------------------------------------------------------------------
 -                                                                             -
 -                          OFFLOAD MEMPOOL STATISTICS                         -
 -                                                                             -
 -------------------------------------------------------------------------------
 Memory consumption                Number of allocations  Used [MiB]  Size [MiB]
 Host                                                  6         260    22184686
 -------------------------------------------------------------------------------

 MEMORY| Estimated peak process memory [MiB]                                7287

 -------------------------------------------------------------------------------
 -                                                                             -
 -                         MESSAGE PASSING PERFORMANCE                         -
 -                                                                             -
 -------------------------------------------------------------------------------

 ROUTINE             CALLS      AVE VOLUME [Bytes]
 MP_Group                5
 MP_Bcast              203                 290208.
 MP_Allreduce         1826                   1484.
 MP_Sync                10
 MP_Alltoall            28              525935269.
 MP_SendRecv             9               42264889.
 MP_ISendRecv            8               34048000.
 MP_Wait                 8
 MP_comm_split          10
 -------------------------------------------------------------------------------


 -------------------------------------------------------------------------------
 -                                                                             -
 -                           R E F E R E N C E S                               -
 -                                                                             -
 -------------------------------------------------------------------------------
 
 CP2K version 2026.2 (Development Version), the CP2K developers group (2026).
 CP2K is freely available from https://www.cp2k.org/ .
 
 M. Iannuzzi, J. Wilhelm, F. Stein, A. Bussy, H. Elgabarty, D. Golze, A. Hehn, 
 M. Graml, S. Marek, B. Sertcan Gökmen, C. Schran, H. Forbert, R. Z. 
 Khaliullin, A. Kozhevnikov, M. Taillefumier, R. Meli, V. V. Rybkin, M. Brehm, 
 R. Schade, O. Schütt, J. V. Pototschnig, H. Mirhosseini, A. Knüpfer, D. Marx, 
 M. Krack, J. Hutter, T. D. Kühne.
 J. Phys. Chem. B 130, 1237-1310 (2026).
 The CP2K Program Package Made Simple.
 https://doi.org/10.1021/acs.jpcb.5c05851

 M. Graml, K. Zollner, D. Hernangómez-Pérez, P. E. Faria Junior, J. Wilhelm.
 J. Chem. Theory Comput. 20, 2202-2208 (2024).
 Low-scaling GW algorithm applied to twisted transition-metal dichalcogenide 
 heterobilayers.
 https://doi.org/10.1021/acs.jctc.3c01230

 T. D. Kühne, M. Iannuzzi, M. Del Ben, V. V. Rybkin, P. Seewald, F. Stein, T. 
 Laino, R. Z. Khaliullin, O. Schütt, F. Schiffmann, D. Golze, J. Wilhelm, S. 
 Chulkov, M. H. Bani-Hashemian, V. Weber, U. Borstnik, M. Taillefumier, A. S. 
 Jakobovits, A. Lazzaro, H. Pabst, T. Müller, R. Schade, M. Guidon, S. 
 Andermatt, N. Holmberg, G. K. Schenter, A. Hehn, A. Bussy, F. Belleflamme, G. 
 Tabacchi, A. Glöß, M. Lass, I. Bethune, C. J. Mundy, C. Plessl, M. Watkins, 
 J. VandeVondele, M. Krack, J. Hutter.
 J. Chem. Phys. 152, 194103 (2020).
 CP2K: An electronic structure and molecular dynamics software package - 
 Quickstep: Efficient and accurate electronic structure calculations.
 https://doi.org/10.1063/5.0007045

 O. Schuett, P. Messmer, J. Hutter, J. VandeVondele.
 Electronic Structure Calculations on Graphics Processing Units, 173-190 (2016).
 GPU-Accelerated Sparse Matrix-Matrix Multiplication for Linear Scaling Density 
 Functional Theory.
 https://doi.org/10.1002/9781118670712.ch8

 U. Borstnik, J. VandeVondele, V. Weber, J. Hutter.
 Parallel Comput. 40, 47-58 (2014).
 Sparse matrix multiplication: The distributed block-compressed sparse row 
 library.
 https://doi.org/10.1016/j.parco.2014.03.012

 J. VandeVondele, J. Hutter.
 J. Chem. Phys. 127, 114105 (2007).
 Gaussian basis sets for accurate calculations on molecular systems in gas and 
 condensed phases.
 https://doi.org/10.1063/1.2770708

 J. VandeVondele, M. Krack, F. Mohamed, M. Parrinello, T. Chassaing, J. Hutter.
 Comput. Phys. Commun. 167, 103-128 (2005).
 QUICKSTEP: Fast and accurate density functional calculations using a mixed 
 Gaussian and plane waves approach.
 https://doi.org/10.1016/j.cpc.2004.12.014

 M. Krack.
 Theor. Chem. Acc. 114, 145-152 (2005).
 Pseudopotentials for H to Kr optimized for gradient-corrected 
 exchange-correlation functionals.
 https://doi.org/10.1007/s00214-005-0655-y

 M. Frigo, S. G. Johnson.
 Proc. IEEE 93, 216-231 (2005).
 The design and implementation of FFTW3.
 https://doi.org/10.1109/JPROC.2004.840301

 J. VandeVondele, J. Hutter.
 J. Chem. Phys. 118, 4365-4369 (2003).
 An efficient orbital transformation method for electronic structure 
 calculations.
 https://doi.org/10.1063/1.1543154

 C. Hartwigsen, S. Goedecker, J. Hutter.
 Phys. Rev. B 58, 3641-3662 (1998).
 Relativistic separable dual-space Gaussian pseudopotentials from H to Rn.
 https://doi.org/10.1103/PhysRevB.58.3641

 G. Lippert, J. Hutter, M. Parrinello.
 Mol. Phys. 92, 477-487 (1997).
 A hybrid Gaussian and plane wave density functional scheme.
 https://doi.org/10.1080/002689797170220

 S. Goedecker, M. Teter, J. Hutter.
 Phys. Rev. B 54, 1703-1710 (1996).
 Separable dual-space Gaussian pseudopotentials.
 https://doi.org/10.1103/PhysRevB.54.1703

 J. P. Perdew, K. Burke, M. Ernzerhof.
 Phys. Rev. Lett. 77, 3865-3868 (1996).
 Generalized gradient approximation made simple.
 https://doi.org/10.1103/PhysRevLett.77.3865

 P. E. Blöchl.
 J. Chem. Phys. 103, 7422-7428 (1995).
 Electrostatic decoupling of periodic images of plane‐wave‐expanded 
 densities and derived atomic point charges.
 https://doi.org/10.1063/1.470314

 R. H. Byrd, P. H. Lu, J. Nocedal, C. Y. Zhu.
 SIAM J. Sci. Comput. 16, 1190-1208 (1995).
 A Limited Memory Algorithm for Bound Constrained Optimization.
 https://doi.org/10.1137/0916069


 -------------------------------------------------------------------------------
 -                                                                             -
 -                                T I M I N G                                  -
 -                                                                             -
 -------------------------------------------------------------------------------
 SUBROUTINE                       CALLS  ASD         SELF TIME        TOTAL TIME MAXRANK
                                MAXIMUM       AVERAGE  MAXIMUM  AVERAGE  MAXIMUM
 CP2K                                 1  1.0    0.005    0.005   16.072   16.072       0
 qs_energies                          1  2.0    0.000    0.000   12.795   12.795       0
 qs_ks_build_kohn_sham_matrix         2  7.5    0.003    0.003    7.472    7.473       1
 scf_env_do_scf                       1  3.0    0.000    0.000    7.328    7.328       0
 fft_wrap_pw1pw2                     28 10.0    0.001    0.001    6.601    6.603       0
 fft_wrap_pw1pw2_300                 16 11.2    0.320    0.334    6.144    6.183       0
 init_scf_loop                        1  4.0    0.000    0.000    5.755    5.755       0
 qs_ks_update_qs_env                  2  5.0    0.000    0.000    5.752    5.752       0
 rebuild_ks_matrix                    1  6.0    0.000    0.000    5.752    5.752       0
 fft3d_ps                            28 12.0    2.501    2.685    4.175    4.336       0
 qs_vxc_create                        2  8.5    0.000    0.000    3.930    3.937       0
 xc_vxc_pw_create                     1  9.0    0.089    0.095    3.930    3.937       1
 qs_rho_update_rho_low                2  5.0    0.000    0.000    3.217    3.217       0
 calculate_rho_elec                   2  6.0    0.100    0.101    3.217    3.217       0
 qs_energies_properties               1  3.0    0.000    0.000    3.132    3.132       0
 post_scf_bandstructure               1  4.0    0.000    0.000    3.132    3.132       0
 qs_init_subsys                       1  2.0    0.001    0.001    3.129    3.129       0
 run_gw                               1  5.0    0.000    0.000    3.113    3.129       1
 qs_env_setup                         1  3.0    0.000    0.000    3.127    3.128       0
 qs_env_rebuild_pw_env                2  3.5    0.000    0.000    3.127    3.128       1
 pw_env_rebuild                       1  5.0    0.000    0.000    3.127    3.128       0
 pw_grid_setup                        5  5.2    0.000    0.000    3.123    3.124       0
 pw_grid_setup_internal               5  6.2    0.042    0.042    3.123    3.124       0
 xc_pw_derive                         6 11.0    0.000    0.000    2.814    2.865       1
 pw_grid_sort                         5  7.2    2.008    2.032    2.822    2.851       0
 create_and_init_bs_env_for_gw        1  6.0    0.009    0.009    2.584    2.668       0
 density_rs2pw                        2  7.0    0.000    0.000    2.218    2.268       0
 xc_rho_set_and_dset_create           1 10.0    0.083    0.091    1.982    1.996       1
 xc_pw_divergence                     1 10.0    0.000    0.000    1.816    1.824       0
 compute_V_xc                         1  7.0    0.000    0.000    1.721    1.721       1
 init_scf_run                         1  3.0    0.000    0.000    1.674    1.674       0
 scf_env_initial_rho_setup            1  4.0    0.000    0.000    1.674    1.674       0
 scf_env_do_scf_inner_loop            1  4.0    0.000    0.000    1.572    1.572       0
 sum_up_and_integrate                 2  8.5    0.000    0.000    1.459    1.491       1
 integrate_v_rspace                   2  9.5    0.000    0.000    1.438    1.471       1
 potential_pw2rs                      2 10.5    0.006    0.007    1.427    1.461       0
 mp_alltoall_z22v                    28 14.0    0.967    1.306    0.967    1.306       1
 pw_gather_p                         14 11.2    1.040    1.167    1.040    1.167       0
 x_to_yz                             14 13.8    0.394    0.415    0.907    1.063       0
 qs_ks_ddapc                          2  8.5    0.000    0.000    1.029    1.052       0
 pw_poisson_solve                     2  8.5    0.000    0.000    0.947    0.963       0
 yz_to_x                             14 12.2    0.310    0.338    0.764    0.953       1
 grid_collocate_task_list             2  7.0    0.882    0.940    0.882    0.940       0
 sort_shells                          5  8.2    0.814    0.819    0.814    0.819       0
 pw_derive                           12 11.2    0.664    0.691    0.664    0.691       0
 transfer_rs2pw                       9  7.8    0.000    0.000    0.624    0.684       0
 qs_energies_init_hamiltonians        1  3.0    0.000    0.000    0.660    0.660       1
 qs_env_update_s_mstruct              1  4.0    0.000    0.000    0.659    0.659       1
 pw_scatter_p                        14 12.8    0.644    0.648    0.644    0.648       0
 pw_copy                             28 10.5    0.626    0.643    0.626    0.643       0
 mp_bcast_dm                          5 10.0    0.307    0.613    0.307    0.613       1
 gw_calc_ri_rs_non_periodic           1  6.0    0.000    0.000    0.529    0.598       0
 calculate_rho_core                   1  5.0    0.050    0.050    0.580    0.593       0
 pw_poisson_set                       3  8.3    0.000    0.000    0.570    0.586       1
 transfer_rs2pw_300                   3  8.3    0.378    0.444    0.519    0.549       0
 generate_auto_ri_basis               1  7.0    0.000    0.000    0.461    0.461       1
 compute_AA_optimized_RI_basis        1  8.0    0.000    0.000    0.456    0.456       1
 setup_time_and_frequency_minim       1  7.0    0.000    0.000    0.363    0.452       0
 build_minimax_time_frequency_g       1  8.0    0.000    0.000    0.363    0.451       0
 fit_l_sq_weights                     3  9.0    0.363    0.451    0.363    0.451       0
 initialize_auto_ri_integrals         2  9.0    0.222    0.444    0.445    0.445       0
 fft_wrap_pw1pw2_100                  4 10.8    0.025    0.026    0.404    0.435       0
 pw_integral_ab_c1d_c1d_gs            4 10.0    0.376    0.377    0.394    0.397       0
 cp_ddapc_apply_CD                    2  9.5    0.000    0.000    0.319    0.335       0
 optimize_ri_rs_grid                  1  7.0    0.000    0.000    0.238    0.322       0
 mp_sendrecv_dv                       9  9.8    0.187    0.319    0.187    0.319       1
 xc_functional_eval                   1 11.0    0.000    0.000    0.306    0.307       0
 pbe_lda_eval                         1 12.0    0.306    0.307    0.306    0.307       0
 transfer_pw2rs                       8 11.5    0.000    0.000    0.277    0.277       0
 pw_axpy                             25  6.6    0.253    0.263    0.253    0.263       0
 transfer_pw2rs_300                   2 12.5    0.169    0.195    0.222    0.224       0
 pw_copy_to_array                    14 11.2    0.216    0.224    0.216    0.224       0
 pw_grid_assign                       5  7.2    0.193    0.198    0.195    0.198       0
 pw_copy_from_array                  14 12.8    0.177    0.185    0.177    0.185       0
 initialize_ri_rs_grid                1  8.0    0.001    0.001    0.085    0.170       0
 compute_Sigma_c_and_QP_energie       1  7.0    0.000    0.000    0.154    0.169       0
 rirs_grid_LBFGS                      1  8.0    0.026    0.027    0.149    0.149       0
 mp_sum_d                           714  4.7    0.086    0.134    0.086    0.134       1
 compute_Sigma_c                      1  8.0    0.002    0.002    0.134    0.134       0
 create_qs_kind_set                   1  2.0    0.000    0.000    0.122    0.122       0
 read_qs_kind                         1  3.0    0.048    0.051    0.122    0.122       0
 evaluate_rirs_grid_cluster         301  9.0    0.016    0.018    0.115    0.119       0
 transfer_rs2pw_100                   2  9.0    0.049    0.052    0.086    0.114       0
 contract_grid_panels_sigma_c        30  9.0    0.101    0.102    0.111    0.111       1
 get_ddapc                            2 10.5    0.000    0.000    0.092    0.108       0
 mp_waitall_1                         8 13.5    0.069    0.093    0.069    0.093       1
 pw_grid_remap                        4  8.0    0.029    0.029    0.061    0.093       1
 cp_ddapc_init                        1  5.0    0.000    0.000    0.078    0.091       0
 cp_ddapc_create                      1  6.0    0.000    0.000    0.078    0.091       1
 pw_zero                             25  4.7    0.086    0.087    0.086    0.087       0
 get_mat_chi_Gamma_tau                1  7.0    0.000    0.001    0.080    0.080       0
 parser_read_line                 26150  4.0    0.005    0.005    0.073    0.076       0
 contract_grid_panels                31  8.0    0.064    0.065    0.072    0.072       1
 parser_read_line_low                28  5.0    0.027    0.053    0.069    0.071       0
 ddapc_eval_gfunc                     1  7.0    0.067    0.070    0.067    0.070       1
 broadcast_input_information         28  6.0    0.007    0.009    0.042    0.070       0
 mp_sum_im3                           5  9.0    0.032    0.064    0.032    0.064       1
 mp_bcast_i_src                     117  7.0    0.028    0.057    0.028    0.057       1
 pw_multiply_with                     2  9.5    0.055    0.056    0.055    0.056       1
 pw_poisson_rebuild                   2  9.5    0.042    0.054    0.042    0.054       0
 transfer_pw2rs_100                   2 12.5    0.032    0.034    0.045    0.048       1
 fft_wrap_pw1pw2_40                   4 10.8    0.003    0.003    0.044    0.048       0
 compute_W                            1  7.0    0.000    0.000    0.046    0.046       0
 pw_scale                             5  9.8    0.035    0.036    0.035    0.036       0
 rirs_cluster_gradient_coordina     301 10.0    0.033    0.033    0.033    0.033       0
 eval_bandstructure_properties        1  5.0    0.000    0.000    0.017    0.033       0
 cp_cfm_geeig                         1  6.0    0.000    0.000    0.017    0.032       1
 cp_cfm_cholesky_decompose            2  7.0    0.016    0.031    0.016    0.031       1
 compute_fm_chi_Gamma_freq           30  8.0    0.021    0.024    0.030    0.030       0
 check_for_restart_files              1  7.0    0.026    0.029    0.026    0.029       1
 rirs_cluster_gradient_products     301 10.0    0.028    0.029    0.028    0.029       0
 copy_dbcsr_to_fm                   104  9.5    0.021    0.026    0.022    0.026       1
 compute_QP_energies                  1  8.0    0.000    0.000    0.015    0.025       1
 analyt_conti_and_print               1  9.0    0.010    0.021    0.011    0.021       0
 ddapc_eval_AmI                       1  7.0    0.000    0.000    0.011    0.021       1
 mp_sum_dm                            4  8.8    0.010    0.020    0.010    0.020       1
 cp_fm_gemm                         434 10.5    0.019    0.020    0.019    0.020       1
 parallel_gemm_fm_gemm              431  9.6    0.000    0.000    0.019    0.020       0
 eval_pw_TabLR                        1  2.0    0.008    0.008    0.020    0.020       1
 build_G_ao                         121  8.5    0.002    0.003    0.019    0.020       0
 transfer_rs2pw_40                    2  9.0    0.009    0.012    0.016    0.018       0
 -------------------------------------------------------------------------------

 The number of warnings for this run is : 0
 
 -------------------------------------------------------------------------------
  **** **** ******  **  PROGRAM ENDED AT                 2026-10-03 12:13:05.202
 ***** ** ***  *** **   PROGRAM RAN ON                                  n2cn0255
 **    ****   ******    PROGRAM RAN BY                                  eprop2d1
 ***** **    ** ** **   PROGRAM PROCESS ID                               1305188
  **** **  *******  **  PROGRAM STOPPED IN /scratch/hpc-prf-metdyn/eprop2d1_Jan/
                                           53_benchmark_RI_opt/418_gw100_fig5_fu
                                           ll_epsfilter_1e12_20261002/calculatio
                                           ns/rc0p5/ri2_rs03/08_Na2
