 DBCSR| CPU Multiplication driver                                           XSMM (U)
 DBCSR| Multrec recursion limit                                              512 (U)
 DBCSR| Multiplication stack size                                           1000 (D)
 DBCSR| Maximum elements for images                                    UNLIMITED (U)
 DBCSR| Multiplicative factor virtual images                                   1 (U)
 DBCSR| Use multiplication densification                                       T (D)
 DBCSR| Multiplication size stacks                                             3 (U)
 DBCSR| Use memory pool for CPU allocation                                     F (U)
 DBCSR| Number of 3D layers                                               SINGLE (U)
 DBCSR| Use MPI memory allocation                                              F (U)
 DBCSR| Use RMA algorithm                                                      F (U)
 DBCSR| Use Communication thread                                               T (U)
 DBCSR| Communication thread load                                              0 (D)
 DBCSR| MPI: My process id                                                     3
 DBCSR| MPI: Number of processes                                               4
 DBCSR| OMP: Current number of threads                                        32
 DBCSR| OMP: Max number of threads                                            32
 DBCSR| Split modifier for TAS multiplication algorithm                  1.0E+00 (U)


  **** **** ******  **  PROGRAM STARTED AT               2026-09-16 22:18:23.817
 ***** ** ***  *** **   PROGRAM STARTED ON                              n2cn0991
 **    ****   ******    PROGRAM STARTED BY                              eprop2d1
 ***** **    ** ** **   PROGRAM PROCESS ID                                199781
  **** **  *******  **  PROGRAM STARTED IN /scratch/hpc-prf-metdyn/eprop2d1_Jan/
                                           53_benchmark_RI_opt/111_GW100_GTH_Leb
                                           edev_riao245_rc3/calculations/97_urea
                                           _riao2_r05

 CP2K| version string:                 CP2K version 2026.2 (Development Version)
 CP2K| source code revision number:                                      unknown
 CP2K| cp2kflags: omp libint fftw3 libxc parallel scalapack openblas            
 CP2K| is freely available from                            https://www.cp2k.org/
 CP2K| Program compiled at                                   2026-09-15 17:57:52
 CP2K| Program compiled on                                              n2login6
 CP2K| Program compiled for                                               x86_64
 CP2K| Data directory path    /scratch/hpc-prf-metdyn/eprop2d1_Jan/53_benchmark_
 CP2K| Input file name                                                 input.inp
 
 eprop2d1@n2cn0991 has created rank and process                      0    199781
 
 eprop2d1@n2cn0991 is running                                        1 processes

 GLOBAL| Force Environment number                                              1
 GLOBAL| Basis set file name            /scratch/hpc-prf-metdyn/eprop2d1_Jan/53_
 GLOBAL| Potential file name            /scratch/hpc-prf-metdyn/eprop2d1_Jan/53_
 GLOBAL| MM Potential file name                                     MM_POTENTIAL
 GLOBAL| Coordinate file name                                      __STD_INPUT__
 GLOBAL| Method name                                                        CP2K
 GLOBAL| Project name                               gw100_106_97_urea_a3_leb_r05
 GLOBAL| Run type                                                         ENERGY
 GLOBAL| FFT library                                                       FFTW3
 GLOBAL| Diagonalization library                                       ScaLAPACK
 GLOBAL| Cholesky decomposition library                                ScaLAPACK
 GLOBAL| DGEMM library                                                      BLAS
 GLOBAL| Direct generalized diagonalization requested                          F
 GLOBAL| Orthonormality check for eigenvectors                          DISABLED
 GLOBAL| Matrix multiplication library                                 ScaLAPACK
 GLOBAL| All-to-all communication in single precision                          F
 GLOBAL| Grid backend                                                       AUTO
 GLOBAL| Global print level                                                  LOW
 GLOBAL| MPI I/O enabled                                                       T
 GLOBAL| Total number of message passing processes                             1
 GLOBAL| Number of distributed systems (nodes)                                 1
 GLOBAL| Number of threads for this process                                   32
 GLOBAL| This output is from process                                           0
 GLOBAL| OpenMP stack size per thread (OMP_STACKSIZE)                       128M
 GLOBAL| CPU model name                          AMD EPYC 7763 64-Core Processor

 MEMORY| system memory details [Kb]
 MEMORY|                        rank 0           min           max       average
 MEMORY| MemTotal            263897612     263897612     263897612     263897612
 MEMORY| MemFree             252565772     252565772     252565772     252565772
 MEMORY| Buffers                311444        311444        311444        311444
 MEMORY| Cached                6228452       6228452       6228452       6228452
 MEMORY| Slab                  1349488       1349488       1349488       1349488
 MEMORY| SReclaimable           340984        340984        340984        340984
 MEMORY| MemLikelyFree       259446652     259446652     259446652     259446652


 GENERATE|  Preliminary Number of Bonds generated:                             0
 GENERATE|  Achieved consistency in connectivity generation.

 *******************************************************************************
 *******************************************************************************
 **                                                                           **
 **     #####                         ##              ##                      **
 **    ##   ##            ##          ##              ##                      **
 **   ##     ##                       ##            ######                    **
 **   ##     ##  ##   ##  ##   #####  ##  ##   ####   ##    #####    #####    **
 **   ##     ##  ##   ##  ##  ##      ## ##   ##      ##   ##   ##  ##   ##   **
 **   ##  ## ##  ##   ##  ##  ##      ####     ###    ##   ######   ######    **
 **    ##  ###   ##   ##  ##  ##      ## ##      ##   ##   ##       ##        **
 **     #######   #####   ##   #####  ##  ##  ####    ##    #####   ##        **
 **           ##                                                    ##        **
 **                                                                           **
 **                                                ... make the atoms dance   **
 **                                                                           **
 **            Copyright (C) by CP2K developers group (2000-2026)             **
 **                      J. Chem. Phys. 152, 194103 (2020)                    **
 **                                                                           **
 *******************************************************************************


 TOTAL NUMBERS AND MAXIMUM NUMBERS

  Total number of            - Atomic kinds:                                   4
                             - Atoms:                                          8
                             - Shell sets:                                     8
                             - Shells:                                        36
                             - Primitive Cartesian functions:                 52
                             - Cartesian basis functions:                     80
                             - Spherical basis functions:                     76

  Maximum angular momentum of- Orbital basis functions:                        2
                             - Local part of the GTH pseudopotential:          2
                             - Non-local part of the GTH pseudopotential:      0


 SCF PARAMETERS         Density guess:                                    ATOMIC
                        --------------------------------------------------------
                        max_scf:                                             500
                        max_scf_history:                                       0
                        max_diis:                                              4
                        --------------------------------------------------------
                        eps_scf:                                        1.00E-08
                        eps_scf_history:                                0.00E+00
                        eps_diis:                                       0.00E+00
                        eps_eigval:                                     1.00E-05
                        --------------------------------------------------------
                        level_shift [a.u.]:                             0.000000
                        --------------------------------------------------------
                        Outer loop SCF in use 
                        No variables optimised in outer loop
                        eps_scf                                         1.00E-08
                        max_scf                                               20
                        No outer loop optimization
                        step_size                                       5.00E-01

 Extrapolation method: initial_guess

 Number of electrons:                                                         24
 Number of occupied orbitals:                                                 12
 Number of molecular orbitals:                                                12

 Number of orbital functions:                                                 76
 Number of independent orbital functions:                                     76


 SCF WAVEFUNCTION OPTIMIZATION

  ----------------------------------- OT ---------------------------------------
  Minimizer      : DIIS                : direct inversion
                                         in the iterative subspace
                                         using   7 DIIS vectors
                                         safer DIIS on
  Preconditioner : FULL_KINETIC        : inversion of T + eS
  Lattice FFT   : OFF
  Precond_solver : DEFAULT
  stepsize       :    0.15000000                  energy_gap     :    0.20000000
  eps_taylor     :   0.10000E-15                  max_taylor     :             4
  ----------------------------------- OT ---------------------------------------

  Step     Update method      Time    Convergence         Total energy    Change
  ------------------------------------------------------------------------------
  Decoupling Energy:                                               0.0002210322
     1 OT DIIS     0.15E+00    5.5     0.09633007       -41.2342244970 -4.12E+01
  Decoupling Energy:                                               0.0000596299
     2 OT DIIS     0.15E+00    5.7     0.06338314       -42.1412009286 -9.07E-01
  Decoupling Energy:                                               0.0000333944
     3 OT DIIS     0.15E+00    5.7     0.05321662       -42.5750664944 -4.34E-01
  Decoupling Energy:                                               0.0000320919
     4 OT DIIS     0.15E+00    5.8     0.04096853       -42.9357196754 -3.61E-01
  Decoupling Energy:                                               0.0000430408
     5 OT DIIS     0.15E+00    5.8     0.03262517       -43.2645956790 -3.29E-01
  Decoupling Energy:                                               0.0000535129
     6 OT DIIS     0.15E+00    5.8     0.02664100       -43.4858091087 -2.21E-01
  Decoupling Energy:                                               0.0000641755
     7 OT DIIS     0.15E+00    5.8     0.02030571       -43.6774034195 -1.92E-01
  Decoupling Energy:                                               0.0000796455
     8 OT DIIS     0.15E+00    5.8     0.01460507       -43.8166418570 -1.39E-01
  Decoupling Energy:                                               0.0000906951
     9 OT DIIS     0.15E+00    5.8     0.01024962       -43.8895580698 -7.29E-02
  Decoupling Energy:                                               0.0000960377
    10 OT DIIS     0.15E+00    5.8     0.00703195       -43.9274982063 -3.79E-02
  Decoupling Energy:                                               0.0001020708
    11 OT DIIS     0.15E+00    5.8     0.00483936       -43.9457456168 -1.82E-02
  Decoupling Energy:                                               0.0001034071
    12 OT DIIS     0.15E+00    5.8     0.00342256       -43.9532623957 -7.52E-03
  Decoupling Energy:                                               0.0001040635
    13 OT DIIS     0.15E+00    5.8     0.00262524       -43.9563056708 -3.04E-03
  Decoupling Energy:                                               0.0001057332
    14 OT DIIS     0.15E+00    5.8     0.00203663       -43.9584121522 -2.11E-03
  Decoupling Energy:                                               0.0001070221
    15 OT DIIS     0.15E+00    5.8     0.00160007       -43.9597457502 -1.33E-03
  Decoupling Energy:                                               0.0001082146
    16 OT DIIS     0.15E+00    5.8     0.00122502       -43.9605790523 -8.33E-04
  Decoupling Energy:                                               0.0001092216
    17 OT DIIS     0.15E+00    5.8     0.00092684       -43.9611303349 -5.51E-04
  Decoupling Energy:                                               0.0001100160
    18 OT DIIS     0.15E+00    5.8     0.00067534       -43.9614873861 -3.57E-04
  Decoupling Energy:                                               0.0001104413
    19 OT DIIS     0.15E+00    5.8     0.00052774       -43.9616524133 -1.65E-04
  Decoupling Energy:                                               0.0001106662
    20 OT DIIS     0.15E+00    5.8     0.00044386       -43.9617347061 -8.23E-05
  Decoupling Energy:                                               0.0001108731
    21 OT DIIS     0.15E+00    5.8     0.00035868       -43.9618090253 -7.43E-05
  Decoupling Energy:                                               0.0001110308
    22 OT DIIS     0.15E+00    5.8     0.00029405       -43.9618541080 -4.51E-05
  Decoupling Energy:                                               0.0001111686
    23 OT DIIS     0.15E+00    5.8     0.00024502       -43.9618891628 -3.51E-05
  Decoupling Energy:                                               0.0001112920
    24 OT DIIS     0.15E+00   12.2     0.00021094       -43.9619109629 -2.18E-05
  Decoupling Energy:                                               0.0001113953
    25 OT DIIS     0.15E+00    6.1     0.00017870       -43.9619286748 -1.77E-05
  Decoupling Energy:                                               0.0001114863
    26 OT DIIS     0.15E+00    5.8     0.00015571       -43.9619413831 -1.27E-05
  Decoupling Energy:                                               0.0001115969
    27 OT DIIS     0.15E+00    5.8     0.00013147       -43.9619543493 -1.30E-05
  Decoupling Energy:                                               0.0001116849
    28 OT DIIS     0.15E+00    5.8     0.00011318       -43.9619633806 -9.03E-06
  Decoupling Energy:                                               0.0001117645
    29 OT DIIS     0.15E+00    5.8     0.00009738       -43.9619701313 -6.75E-06
  Decoupling Energy:                                               0.0001118267
    30 OT DIIS     0.15E+00    5.8     0.00008409       -43.9619749272 -4.80E-06
  Decoupling Energy:                                               0.0001118819
    31 OT DIIS     0.15E+00    5.8     0.00007163       -43.9619787213 -3.79E-06
  Decoupling Energy:                                               0.0001119174
    32 OT DIIS     0.15E+00    5.8     0.00006180       -43.9619813880 -2.67E-06
  Decoupling Energy:                                               0.0001119470
    33 OT DIIS     0.15E+00    5.8     0.00005232       -43.9619833152 -1.93E-06
  Decoupling Energy:                                               0.0001119622
    34 OT DIIS     0.15E+00    5.8     0.00004335       -43.9619847432 -1.43E-06
  Decoupling Energy:                                               0.0001119703
    35 OT DIIS     0.15E+00    5.8     0.00003597       -43.9619857270 -9.84E-07
  Decoupling Energy:                                               0.0001119712
    36 OT DIIS     0.15E+00    5.8     0.00003049       -43.9619863327 -6.06E-07
  Decoupling Energy:                                               0.0001119682
    37 OT DIIS     0.15E+00    5.8     0.00002606       -43.9619867142 -3.81E-07
  Decoupling Energy:                                               0.0001119645
    38 OT DIIS     0.15E+00    5.8     0.00002209       -43.9619869968 -2.83E-07
  Decoupling Energy:                                               0.0001119603
    39 OT DIIS     0.15E+00    5.8     0.00001896       -43.9619871650 -1.68E-07
  Decoupling Energy:                                               0.0001119578
    40 OT DIIS     0.15E+00    5.8     0.00001649       -43.9619872942 -1.29E-07
  Decoupling Energy:                                               0.0001119549
    41 OT DIIS     0.15E+00    5.8     0.00001455       -43.9619873751 -8.09E-08
  Decoupling Energy:                                               0.0001119539
    42 OT DIIS     0.15E+00    5.8     0.00001279       -43.9619874423 -6.72E-08
  Decoupling Energy:                                               0.0001119533
    43 OT DIIS     0.15E+00    5.8     0.00001152       -43.9619874909 -4.86E-08
  Decoupling Energy:                                               0.0001119535
    44 OT DIIS     0.15E+00    5.8     0.00001037       -43.9619875373 -4.64E-08
  Decoupling Energy:                                               0.0001119545
    45 OT DIIS     0.15E+00    5.8     0.00000946       -43.9619875722 -3.48E-08
  Decoupling Energy:                                               0.0001119561
    46 OT DIIS     0.15E+00    5.8     0.00000853       -43.9619876073 -3.51E-08
  Decoupling Energy:                                               0.0001119583
    47 OT DIIS     0.15E+00    5.8     0.00000774       -43.9619876344 -2.71E-08
  Decoupling Energy:                                               0.0001119611
    48 OT DIIS     0.15E+00    5.8     0.00000694       -43.9619876616 -2.72E-08
  Decoupling Energy:                                               0.0001119645
    49 OT DIIS     0.15E+00    5.8     0.00000625       -43.9619876814 -1.98E-08
  Decoupling Energy:                                               0.0001119681
    50 OT DIIS     0.15E+00    5.8     0.00000545       -43.9619877007 -1.92E-08
  Decoupling Energy:                                               0.0001119719
    51 OT DIIS     0.15E+00    5.8     0.00000474       -43.9619877154 -1.48E-08
  Decoupling Energy:                                               0.0001119756
    52 OT DIIS     0.15E+00    5.8     0.00000402       -43.9619877280 -1.25E-08
  Decoupling Energy:                                               0.0001119778
    53 OT DIIS     0.15E+00    5.8     0.00000352       -43.9619877352 -7.21E-09
  Decoupling Energy:                                               0.0001119791
    54 OT DIIS     0.15E+00    5.8     0.00000306       -43.9619877404 -5.22E-09
  Decoupling Energy:                                               0.0001119795
    55 OT DIIS     0.15E+00    5.8     0.00000268       -43.9619877438 -3.44E-09
  Decoupling Energy:                                               0.0001119790
    56 OT DIIS     0.15E+00    5.8     0.00000233       -43.9619877466 -2.81E-09
  Decoupling Energy:                                               0.0001119781
    57 OT DIIS     0.15E+00    5.8     0.00000206       -43.9619877484 -1.77E-09
  Decoupling Energy:                                               0.0001119769
    58 OT DIIS     0.15E+00    5.8     0.00000178       -43.9619877499 -1.47E-09
  Decoupling Energy:                                               0.0001119758
    59 OT DIIS     0.15E+00    5.8     0.00000158       -43.9619877509 -9.97E-10
  Decoupling Energy:                                               0.0001119748
    60 OT DIIS     0.15E+00    5.8     0.00000140       -43.9619877517 -7.97E-10
  Decoupling Energy:                                               0.0001119743
    61 OT DIIS     0.15E+00    5.8     0.00000128       -43.9619877522 -5.49E-10
  Decoupling Energy:                                               0.0001119742
    62 OT DIIS     0.15E+00    5.8     0.00000117       -43.9619877527 -4.64E-10
  Decoupling Energy:                                               0.0001119744
    63 OT DIIS     0.15E+00    5.8     0.00000108       -43.9619877531 -4.10E-10
  Decoupling Energy:                                               0.0001119749
    64 OT DIIS     0.15E+00    5.8     0.00000098       -43.9619877535 -4.07E-10
  Decoupling Energy:                                               0.0001119755
    65 OT DIIS     0.15E+00    5.8     0.00000090       -43.9619877538 -3.44E-10
  Decoupling Energy:                                               0.0001119762
    66 OT DIIS     0.15E+00    5.8     0.00000081       -43.9619877542 -3.51E-10
  Decoupling Energy:                                               0.0001119770
    67 OT DIIS     0.15E+00    5.8     0.00000072       -43.9619877545 -3.01E-10
  Decoupling Energy:                                               0.0001119776
    68 OT DIIS     0.15E+00    5.8     0.00000063       -43.9619877548 -2.61E-10
  Decoupling Energy:                                               0.0001119780
    69 OT DIIS     0.15E+00    5.8     0.00000056       -43.9619877549 -1.84E-10
  Decoupling Energy:                                               0.0001119781
    70 OT DIIS     0.15E+00    5.8     0.00000050       -43.9619877551 -1.41E-10
  Decoupling Energy:                                               0.0001119781
    71 OT DIIS     0.15E+00    5.8     0.00000044       -43.9619877552 -1.01E-10
  Decoupling Energy:                                               0.0001119779
    72 OT DIIS     0.15E+00    5.8     0.00000038       -43.9619877553 -8.03E-11
  Decoupling Energy:                                               0.0001119777
    73 OT DIIS     0.15E+00    5.8     0.00000033       -43.9619877553 -5.62E-11
  Decoupling Energy:                                               0.0001119775
    74 OT DIIS     0.15E+00    5.8     0.00000029       -43.9619877554 -4.31E-11
  Decoupling Energy:                                               0.0001119773
    75 OT DIIS     0.15E+00    5.8     0.00000025       -43.9619877554 -2.93E-11
  Decoupling Energy:                                               0.0001119772
    76 OT DIIS     0.15E+00    5.8     0.00000022       -43.9619877554 -2.03E-11
  Decoupling Energy:                                               0.0001119772
    77 OT DIIS     0.15E+00    5.8     0.00000020       -43.9619877554 -1.36E-11
  Decoupling Energy:                                               0.0001119772
    78 OT DIIS     0.15E+00    5.8     0.00000018       -43.9619877554 -1.08E-11
  Decoupling Energy:                                               0.0001119773
    79 OT DIIS     0.15E+00    5.8     0.00000017       -43.9619877554 -8.74E-12
  Decoupling Energy:                                               0.0001119774
    80 OT DIIS     0.15E+00    5.8     0.00000015       -43.9619877555 -8.04E-12
  Decoupling Energy:                                               0.0001119775
    81 OT DIIS     0.15E+00    5.8     0.00000014       -43.9619877555 -7.37E-12
  Decoupling Energy:                                               0.0001119776
    82 OT DIIS     0.15E+00    5.8     0.00000013       -43.9619877555 -6.86E-12
  Decoupling Energy:                                               0.0001119776
    83 OT DIIS     0.15E+00    5.8     0.00000011       -43.9619877555 -6.02E-12
  Decoupling Energy:                                               0.0001119777
    84 OT DIIS     0.15E+00    5.8     0.00000010       -43.9619877555 -5.44E-12
  Decoupling Energy:                                               0.0001119777
    85 OT DIIS     0.15E+00    5.8     0.00000009       -43.9619877555 -4.58E-12
  Decoupling Energy:                                               0.0001119777
    86 OT DIIS     0.15E+00    5.8     0.00000008       -43.9619877555 -3.96E-12
  Decoupling Energy:                                               0.0001119777
    87 OT DIIS     0.15E+00    5.8     0.00000007       -43.9619877555 -3.15E-12
  Decoupling Energy:                                               0.0001119777
    88 OT DIIS     0.15E+00    5.8     0.00000007       -43.9619877555 -2.71E-12
  Decoupling Energy:                                               0.0001119777
    89 OT DIIS     0.15E+00    5.8     0.00000006       -43.9619877555 -1.96E-12
  Decoupling Energy:                                               0.0001119777
    90 OT DIIS     0.15E+00    5.8     0.00000005       -43.9619877555 -1.47E-12
  Decoupling Energy:                                               0.0001119777
    91 OT DIIS     0.15E+00    5.8     0.00000004       -43.9619877555 -9.09E-13
  Decoupling Energy:                                               0.0001119777
    92 OT DIIS     0.15E+00    5.8     0.00000004       -43.9619877555 -7.39E-13
  Decoupling Energy:                                               0.0001119777
    93 OT DIIS     0.15E+00    5.8     0.00000003       -43.9619877555 -4.48E-13
  Decoupling Energy:                                               0.0001119777
    94 OT DIIS     0.15E+00    5.8     0.00000003       -43.9619877555 -3.27E-13
  Decoupling Energy:                                               0.0001119777
    95 OT DIIS     0.15E+00    5.8     0.00000003       -43.9619877555 -3.62E-13
  Decoupling Energy:                                               0.0001119777
    96 OT DIIS     0.15E+00    5.8     0.00000002       -43.9619877555 -2.56E-13
  Decoupling Energy:                                               0.0001119777
    97 OT DIIS     0.15E+00    5.8     0.00000002       -43.9619877555 -1.78E-13
  Decoupling Energy:                                               0.0001119777
    98 OT DIIS     0.15E+00    5.8     0.00000002       -43.9619877555 -1.35E-13
  Decoupling Energy:                                               0.0001119777
    99 OT DIIS     0.15E+00    5.8     0.00000002       -43.9619877555 -1.78E-13
  Decoupling Energy:                                               0.0001119777
   100 OT DIIS     0.15E+00    6.0     0.00000002       -43.9619877555 -1.78E-13
  Decoupling Energy:                                               0.0001119777
   101 OT DIIS     0.15E+00    5.8     0.00000002       -43.9619877555 -1.14E-13
  Decoupling Energy:                                               0.0001119777
   102 OT DIIS     0.15E+00    5.8     0.00000001       -43.9619877555 -1.42E-13
  Decoupling Energy:                                               0.0001119777
   103 OT DIIS     0.15E+00    5.8     0.00000001       -43.9619877555 -1.49E-13
  Decoupling Energy:                                               0.0001119777
   104 OT DIIS     0.15E+00    5.8     0.00000001       -43.9619877555 -1.63E-13
  Decoupling Energy:                                               0.0001119777
   105 OT DIIS     0.15E+00    5.8     0.00000001       -43.9619877555 -2.13E-14
  Decoupling Energy:                                               0.0001119777
   106 OT DIIS     0.15E+00    5.8     9.1004E-09       -43.9619877555 -1.35E-13

  *** SCF run converged in   106 steps ***


  Electronic density on regular grids:        -24.0000000000       -0.0000000000
  Core density on regular grids:               24.0000000000       -0.0000000000
  Total charge density on r-space grids:       -0.0000000000
  Total charge density g-space grids:          -0.0000000000

  Overlap energy of the core charge distribution:               0.00000083685395
  Self energy of the core charge distribution:               -110.20434852073244
  Core Hamiltonian energy:                                     32.86491482304477
  Hartree energy:                                              45.13814744817113
  Exchange-correlation energy:                                -11.76070234283558

  Total energy:                                               -43.96198775549818

  outer SCF iter =    1 RMS gradient =   0.91E-08 energy =        -43.9619877555
  outer SCF loop converged in   1 iterations or  106 steps

  
 -------------------------------------------------------------------------------
 -                                                                             -
 -                          BANDSTRUCTURE CALCULATION                          -
 -                                                                             -
 -------------------------------------------------------------------------------
  
 Number of occupied molecular orbitals (MOs) = Number of occupied bands       12
 Number of unoccupied (= virtual) MOs = Number of unoccupied bands            64
 Number of Gaussian basis functions for MOs                                   76
  
 -------------------------------------------------------------------------------
 -                                                                             -
 -                                GW CALCULATION                               -
 -                                                                             -
 -------------------------------------------------------------------------------
  
 Input: Number of time/freq. points                                           30
 Input: ω_max for fitting Σ(iω) (eV)                                        10.0
 Input: Filter threshold for sparse tensor operations                    1.0E-07
 Input: Apply Hedin shift                                                      F
 Input: Available memory per MPI process                                  8.0 GB
 
 Input: RI-RS Tikhonov regularization                                   1.00E-04
 Input: AO grid hard cutoff radius                                        8.00 Å
 Input: MPI ranks per atom in Z_lP solve                                      -1
 Input: Keep sparsity in χ/G/W panels                                          T
 Input: GW flavour                                                          G0W0
 
 Input: RI-RS grid optimization activated                                      T
 Input: Initial RI-RS grid                                              CHOLESKY
 Input: RS points per AO function                                         5.0000
 Input: Initial RS candidates per AO function                            30.0000
 Input: Additional Lebedev degree                                              2
 Input: Cholesky selection matrix                                        D_PRIME
 Input: Cholesky candidate domain                                      FULL_ATOM
 Input: Initial radial quadrature                                       GAPW_LOG
 Input: Cutoff radius for atomic clusters                                  3.0 Å
 Input: Maximum grid optimization iterations                                 300
 Input: L-BFGS history size                                                    7
 Input: L-BFGS relative-function factor                              0.00000E+00
 Input: L-BFGS projected-gradient tolerance                          1.00000E-09
 
 Input: AUTO_RI basis optimization activated:                                  T
 Input: AUTO_RI requested RI/AO ratio:                                       2.0
 Input: AUTO_RI frontier orbital window:                                  5.0 eV
 Input: AUTO_RI neighbor radius:                                           3.0 Å
 
 Cutoff radius for the truncated Coulomb operator in RI metric:            7.0 Å
 Regularization parameter of RI                                          0.0E+00
 Regularization parameter of minimax grids                               1.0E-06
 
 AUTO_RI| Number of automatic RI functions for χ, ε, W:                      152
 AUTO_RI| Total RI basis optimization time:                                3.1 s
  Decoupling Energy:                                               0.0001119777
 
 SCF direct band gap (eV)                                                   5.38
 Max. SCF eigval diff. (eV)                                               180.77
 E-Range for minimax grid                                                  33.58
 Number of Padé parameters for analytic continuation:                         16
 
 RI-RS basis radii (Å):
     Kind  Elem     r_AO (Å)     r_RI (Å)
        1    O         7.0817        4.4789
        2    C         8.0299        5.0785
        3    N         8.0299        5.0785
        4    H         9.5011        6.0090
 
 RI-RS initialization: atomic kind                                             1
 RI-RS initialization: Lebedev degree                                          9
 RI-RS initialization: radial shells                                          11
 RI-RS initialization: candidates per atom                                   418
 RI-RS initialization: retained points per atom                               65
 RI-RS initialization: atomic kind                                             2
 RI-RS initialization: Lebedev degree                                         11
 RI-RS initialization: radial shells                                           8
 RI-RS initialization: candidates per atom                                   400
 RI-RS initialization: retained points per atom                               65
 RI-RS initialization: atomic kind                                             3
 RI-RS initialization: Lebedev degree                                          9
 RI-RS initialization: radial shells                                          11
 RI-RS initialization: candidates per atom                                   418
 RI-RS initialization: retained points per atom                               65
 RI-RS initialization: atomic kind                                             4
 RI-RS initialization: Lebedev degree                                          7
 RI-RS initialization: radial shells                                           7
 RI-RS initialization: candidates per atom                                   182
 RI-RS initialization: retained points per atom                               30
 RI-RS initialization: largest cluster candidate count                      2382
 RI-RS initialization: most pivots in one cluster                            550
 RI-RS initialization: most stored AO values in one cluster               180766
 RI-RS initialization: wall time [s]                                       0.226
 Started RI-RS grid optimization
 RI-RS grid initial normalized error                          2.463374508949E-03
 RI-RS grid optimization completed, execution time:                       74.3 s
 Normalized 3C error:                                                    3.0E-06
 Maximum absolute 3C error:                                              1.3E-02
 Optimized points outside molecular Voronoi cells:                           125 / 380
 Total grid points used for RI-RS:                                           380
 
 RI-RS grid row-blocks of Φ_μ(r_l)                                            16
 RI-RS grid points per block (max)                                            32
 
 Percentage of non-zero matrix elements in Φ_μ(r_l)                     100.00 %
 
 RI-RS memory estimate per MPI process:
   Available memory per process (system)                               236.00 GB
   Required for Z_lP (dense upper bound; actual is sparser)              0.00 GB
   Required for χ, W, Σ panels (peak per panel step)                     0.00 GB
   Required for Z_lP solve peak (D_local+φ, worst-case atom)             0.00 GB
   Worst-case local-grid number of grid points:                              380
   Worst-case memory D_local:                                            0.00 GB
 
 Started computing Z_lP
 Computed Z_lP (MPI rank 0) for atom          1 /  8,    Execution time    0.0 s
 Computed Z_lP (MPI rank 0) for atom          2 /  8,    Execution time    0.0 s
 Computed Z_lP (MPI rank 0) for atom          3 /  8,    Execution time    0.0 s
 Computed Z_lP (MPI rank 0) for atom          4 /  8,    Execution time    0.0 s
 Computed Z_lP (MPI rank 0) for atom          5 /  8,    Execution time    0.0 s
 Computed Z_lP (MPI rank 0) for atom          6 /  8,    Execution time    0.0 s
 Computed Z_lP (MPI rank 0) for atom          7 /  8,    Execution time    0.0 s
 Computed Z_lP (MPI rank 0) for atom          8 /  8,    Execution time    0.0 s
 Computed Z_lP (all MPI ranks) for all atoms,            Execution time    0.2 s

 Number of batches for χ, Σ matrices                                           1
 
 Percentage of non-zero matrix elements in Z_lP                         100.00 %
 Percentage of non-zero matrix elements in G_ll', χ_ll', W_ll'          100.00 %
 Percentage of non-zero matrix elements in χ_PQ for time point 1        100.00 %
 
 Computed χ(iτ,k=0) for time point            1 / 30,    Execution time    0.0 s
 Computed χ(iτ,k=0) for time point            2 / 30,    Execution time    0.0 s
 Computed χ(iτ,k=0) for time point            3 / 30,    Execution time    0.0 s
 Computed χ(iτ,k=0) for time point            4 / 30,    Execution time    0.0 s
 Computed χ(iτ,k=0) for time point            5 / 30,    Execution time    0.0 s
 Computed χ(iτ,k=0) for time point            6 / 30,    Execution time    0.0 s
 Computed χ(iτ,k=0) for time point            7 / 30,    Execution time    0.0 s
 Computed χ(iτ,k=0) for time point            8 / 30,    Execution time    0.0 s
 Computed χ(iτ,k=0) for time point            9 / 30,    Execution time    0.0 s
 Computed χ(iτ,k=0) for time point           10 / 30,    Execution time    0.0 s
 Computed χ(iτ,k=0) for time point           11 / 30,    Execution time    0.0 s
 Computed χ(iτ,k=0) for time point           12 / 30,    Execution time    0.0 s
 Computed χ(iτ,k=0) for time point           13 / 30,    Execution time    0.0 s
 Computed χ(iτ,k=0) for time point           14 / 30,    Execution time    0.0 s
 Computed χ(iτ,k=0) for time point           15 / 30,    Execution time    0.0 s
 Computed χ(iτ,k=0) for time point           16 / 30,    Execution time    0.0 s
 Computed χ(iτ,k=0) for time point           17 / 30,    Execution time    0.0 s
 Computed χ(iτ,k=0) for time point           18 / 30,    Execution time    0.0 s
 Computed χ(iτ,k=0) for time point           19 / 30,    Execution time    0.0 s
 Computed χ(iτ,k=0) for time point           20 / 30,    Execution time    0.0 s
 Computed χ(iτ,k=0) for time point           21 / 30,    Execution time    0.0 s
 Computed χ(iτ,k=0) for time point           22 / 30,    Execution time    0.0 s
 Computed χ(iτ,k=0) for time point           23 / 30,    Execution time    0.0 s
 Computed χ(iτ,k=0) for time point           24 / 30,    Execution time    0.0 s
 Computed χ(iτ,k=0) for time point           25 / 30,    Execution time    0.0 s
 Computed χ(iτ,k=0) for time point           26 / 30,    Execution time    0.0 s
 Computed χ(iτ,k=0) for time point           27 / 30,    Execution time    0.0 s
 Computed χ(iτ,k=0) for time point           28 / 30,    Execution time    0.0 s
 Computed χ(iτ,k=0) for time point           29 / 30,    Execution time    0.0 s
 Computed χ(iτ,k=0) for time point           30 / 30,    Execution time    0.0 s
 
 Computed W(iτ),                                         Execution time    0.1 s
 
 Computed Σ^x(k=0),                                      Execution time    0.0 s
 
 Computed Σ^c(iτ) for time point              1 / 30,    Execution time    0.0 s
 Computed Σ^c(iτ) for time point              2 / 30,    Execution time    0.0 s
 Computed Σ^c(iτ) for time point              3 / 30,    Execution time    0.0 s
 Computed Σ^c(iτ) for time point              4 / 30,    Execution time    0.0 s
 Computed Σ^c(iτ) for time point              5 / 30,    Execution time    0.0 s
 Computed Σ^c(iτ) for time point              6 / 30,    Execution time    0.0 s
 Computed Σ^c(iτ) for time point              7 / 30,    Execution time    0.0 s
 Computed Σ^c(iτ) for time point              8 / 30,    Execution time    0.0 s
 Computed Σ^c(iτ) for time point              9 / 30,    Execution time    0.0 s
 Computed Σ^c(iτ) for time point             10 / 30,    Execution time    0.0 s
 Computed Σ^c(iτ) for time point             11 / 30,    Execution time    0.0 s
 Computed Σ^c(iτ) for time point             12 / 30,    Execution time    0.0 s
 Computed Σ^c(iτ) for time point             13 / 30,    Execution time    0.0 s
 Computed Σ^c(iτ) for time point             14 / 30,    Execution time    0.0 s
 Computed Σ^c(iτ) for time point             15 / 30,    Execution time    0.0 s
 Computed Σ^c(iτ) for time point             16 / 30,    Execution time    0.0 s
 Computed Σ^c(iτ) for time point             17 / 30,    Execution time    0.0 s
 Computed Σ^c(iτ) for time point             18 / 30,    Execution time    0.0 s
 Computed Σ^c(iτ) for time point             19 / 30,    Execution time    0.0 s
 Computed Σ^c(iτ) for time point             20 / 30,    Execution time    0.0 s
 Computed Σ^c(iτ) for time point             21 / 30,    Execution time    0.0 s
 Computed Σ^c(iτ) for time point             22 / 30,    Execution time    0.0 s
 Computed Σ^c(iτ) for time point             23 / 30,    Execution time    0.0 s
 Computed Σ^c(iτ) for time point             24 / 30,    Execution time    0.0 s
 Computed Σ^c(iτ) for time point             25 / 30,    Execution time    0.0 s
 Computed Σ^c(iτ) for time point             26 / 30,    Execution time    0.0 s
 Computed Σ^c(iτ) for time point             27 / 30,    Execution time    0.0 s
 Computed Σ^c(iτ) for time point             28 / 30,    Execution time    0.0 s
 Computed Σ^c(iτ) for time point             29 / 30,    Execution time    0.0 s
 Computed Σ^c(iτ) for time point             30 / 30,    Execution time    0.0 s
 
 SCF valence band maximum (eV):                                           -6.178
 SCF conduction band minimum (eV):                                        -0.794
 SCF indirect band gap (eV):                                               5.383
 SCF direct band gap (eV):                                                 5.383
 
 G0W0 valence band maximum (eV):                                          -8.757
 G0W0 conduction band minimum (eV):                                        1.133
 G0W0 indirect band gap (eV):                                              9.890
 G0W0 direct band gap (eV):                                                9.890
 
 Hartree-Fock with SCF orbitals valence band maximum (eV):               -11.527
 Hartree-Fock with SCF orbitals conduction band minimum (eV)               1.776
 Hartree-Fock with SCF orbitals indirect band gap (eV):                   13.303
 Hartree-Fock with SCF orbitals direct band gap (eV):                     13.303

 ENERGY| Total FORCE_EVAL ( QS ) energy [hartree]            -43.961987755498178

 -------------------------------------------------------------------------------
 -                                                                             -
 -                                DBCSR STATISTICS                             -
 -                                                                             -
 -------------------------------------------------------------------------------
 COUNTER                                    TOTAL       BLAS       SMM       ACC
 flops     1 x     1 x    15                  180     100.0%      0.0%      0.0%     
 flops     1 x     1 x    19                  912     100.0%      0.0%      0.0%     
 flops     1 x     1 x    22                 1056     100.0%      0.0%      0.0%     
 flops     1 x    15 x     1                 5220     100.0%      0.0%      0.0%     
 flops     1 x    30 x    15                 7200     100.0%      0.0%      0.0%     
 flops    30 x     1 x    15                10800     100.0%      0.0%      0.0%     
 flops     1 x    19 x     1                13338     100.0%      0.0%      0.0%     
 flops     1 x     6 x     1                15132     100.0%      0.0%      0.0%     
 flops     1 x    32 x    15                15360     100.0%      0.0%      0.0%     
 flops     1 x    22 x     1                15444     100.0%      0.0%      0.0%     
 flops    15 x    15 x     1                22050     100.0%      0.0%      0.0%     
 flops    32 x     1 x    15                23040     100.0%      0.0%      0.0%     
 flops     1 x     1 x    76                32376     100.0%      0.0%      0.0%     
 flops     1 x    13 x     1                33904     100.0%      0.0%      0.0%     
 flops     1 x    15 x    15                34200     100.0%      0.0%      0.0%     
 flops     1 x    30 x    19                36480     100.0%      0.0%      0.0%     
 flops     1 x     1 x     6                40596     100.0%      0.0%      0.0%     
 flops     1 x    30 x    22                42240     100.0%      0.0%      0.0%     
 flops    30 x     1 x    19                54720     100.0%      0.0%      0.0%     
 flops    19 x    15 x     1                55860     100.0%      0.0%      0.0%     
 flops    15 x    19 x     1                56430     100.0%      0.0%      0.0%     
 flops    30 x     1 x    22                63360     100.0%      0.0%      0.0%     
 flops    22 x    15 x     1                64680     100.0%      0.0%      0.0%     
 flops    15 x    22 x     1                64680     100.0%      0.0%      0.0%     
 flops     1 x    32 x    19                77824     100.0%      0.0%      0.0%     
 flops     1 x     1 x   152                81168     100.0%      0.0%      0.0%     
 flops     1 x    19 x    15                86640     100.0%      0.0%      0.0%     
 flops     1 x    15 x    19                86640     100.0%      0.0%      0.0%     
 flops     1 x    32 x    22                90112     100.0%      0.0%      0.0%     
 flops     1 x     1 x    13                91286     100.0%      0.0%      0.0%     
 flops     1 x    22 x    15               100320     100.0%      0.0%      0.0%     
 flops     1 x    15 x    22               100320     100.0%      0.0%      0.0%     
 flops     6 x     6 x     1               111456     100.0%      0.0%      0.0%     
 flops    32 x     1 x    19               116736     100.0%      0.0%      0.0%     
 flops    32 x     1 x    22               135168     100.0%      0.0%      0.0%     
 flops    19 x    19 x     1               142956     100.0%      0.0%      0.0%     
 flops    19 x    22 x     1               163856     100.0%      0.0%      0.0%     
 flops    22 x    19 x     1               165528     100.0%      0.0%      0.0%     
 flops    22 x    22 x     1               189728     100.0%      0.0%      0.0%     
 flops    30 x    15 x     1               213300     100.0%      0.0%      0.0%     
 flops     1 x    19 x    19               231040     100.0%      0.0%      0.0%     
 flops    13 x     6 x     1               243828     100.0%      0.0%      0.0%     
 flops     6 x    13 x     1               248820     100.0%      0.0%      0.0%     
 flops     1 x    15 x    30               251100     100.0%      0.0%      0.0%     
 flops     1 x    19 x    22               267520     100.0%      0.0%      0.0%     
 flops     1 x    22 x    19               267520     100.0%      0.0%      0.0%     
 flops     1 x    22 x    22               309760     100.0%      0.0%      0.0%     
 flops     1 x     6 x     6               353952     100.0%      0.0%      0.0%     
 flops    30 x    30 x    15               432000     100.0%      0.0%      0.0%     
 flops    32 x    15 x     1               485760     100.0%      0.0%      0.0%     
 flops     1 x    15 x    32               530880     100.0%      0.0%      0.0%     
 flops    30 x    19 x     1               542640     100.0%      0.0%      0.0%     
 flops    13 x    13 x     1               545870     100.0%      0.0%      0.0%     
 flops    30 x     6 x     1               596520     100.0%      0.0%      0.0%     
 flops    30 x    22 x     1               636240     100.0%      0.0%      0.0%     
 flops     1 x    19 x    30               637260     100.0%      0.0%      0.0%     
 flops     1 x     6 x    30               668160     100.0%      0.0%      0.0%     
 flops     1 x    22 x    30               739200     100.0%      0.0%      0.0%     
 flops     1 x    13 x     6               780624     100.0%      0.0%      0.0%     
 flops     1 x     6 x    13               784992     100.0%      0.0%      0.0%     
 flops    15 x    15 x    30               891000     100.0%      0.0%      0.0%     
 flops    32 x    30 x    15               921600     100.0%      0.0%      0.0%     
 flops    30 x    32 x    15               921600     100.0%      0.0%      0.0%     
 flops     6 x     6 x    12               924480     100.0%      0.0%      0.0%     
 flops    30 x    15 x    15              1026000     100.0%      0.0%      0.0%     
 flops    30 x     1 x    76              1130880     100.0%      0.0%      0.0%     
 flops     1 x    30 x    76              1130880     100.0%      0.0%      0.0%     
 flops    32 x    19 x     1              1240320     100.0%      0.0%      0.0%     
 flops    32 x     6 x     1              1247232     100.0%      0.0%      0.0%     
 flops    30 x    13 x     1              1321320     100.0%      0.0%      0.0%     
 flops     1 x    30 x     6              1332360     100.0%      0.0%      0.0%     
 flops     1 x    19 x    32              1353408     100.0%      0.0%      0.0%     
 flops    30 x     1 x     6              1365480     100.0%      0.0%      0.0%     
 flops     1 x     6 x    32              1422336     100.0%      0.0%      0.0%     
 flops    32 x    22 x     1              1448832     100.0%      0.0%      0.0%     
 flops     1 x    13 x    30              1463280     100.0%      0.0%      0.0%     
 flops     1 x    22 x    32              1568512     100.0%      0.0%      0.0%     
 flops    13 x     6 x    12              1602432     100.0%      0.0%      0.0%     
 flops     6 x    13 x    12              1602432     100.0%      0.0%      0.0%     
 flops     1 x    13 x    13              1710280     100.0%      0.0%      0.0%     
 flops    32 x    32 x    15              1966080     100.0%      0.0%      0.0%     
 flops    15 x    15 x    32              1987200     100.0%      0.0%      0.0%     
 flops    32 x    15 x    15              2188800     100.0%      0.0%      0.0%     
 flops    30 x    30 x    19              2188800     100.0%      0.0%      0.0%     
 flops    15 x    19 x    30              2223000     100.0%      0.0%      0.0%     
 flops    19 x    15 x    30              2257200     100.0%      0.0%      0.0%     
 flops    32 x     1 x    76              2490368     100.0%      0.0%      0.0%     
 flops     1 x    32 x    76              2490368     100.0%      0.0%      0.0%     
 flops    30 x    30 x    22              2534400     100.0%      0.0%      0.0%     
 flops    30 x     1 x   152              2590080     100.0%      0.0%      0.0%     
 flops     1 x    30 x   152              2590080     100.0%      0.0%      0.0%     
 flops    15 x    22 x    30              2593800     100.0%      0.0%      0.0%     
 flops    30 x    19 x    15              2599200     100.0%      0.0%      0.0%     
 flops    30 x    15 x    19              2599200     100.0%      0.0%      0.0%     
 flops    22 x    15 x    30              2613600     100.0%      0.0%      0.0%     
 flops    32 x    13 x     1              2766400     100.0%      0.0%      0.0%     
 flops     1 x    32 x     6              2872704     100.0%      0.0%      0.0%     
 flops     1 x    30 x    13              2950740     100.0%      0.0%      0.0%     
 flops    30 x    22 x    15              3009600     100.0%      0.0%      0.0%     
 flops    30 x    15 x    22              3009600     100.0%      0.0%      0.0%     
 flops    30 x     1 x    13              3017820     100.0%      0.0%      0.0%     
 flops    32 x     1 x     6              3022464     100.0%      0.0%      0.0%     
 flops     6 x    12 x     6              3082752     100.0%      0.0%      0.0%     
 flops     1 x    13 x    32              3148288     100.0%      0.0%      0.0%     
 flops    12 x    12 x    12              3276288     100.0%      0.0%      0.0%     
 flops     6 x    12 x    12              3656448     100.0%      0.0%      0.0%     
 flops     6 x     6 x    30              4145040     100.0%      0.0%      0.0%     
 flops    13 x    13 x    12              4339920     100.0%      0.0%      0.0%     
 flops    32 x    30 x    19              4669440     100.0%      0.0%      0.0%     
 flops    30 x    32 x    19              4669440     100.0%      0.0%      0.0%     
 flops     6 x    12 x    76              4684032     100.0%      0.0%      0.0%     
 flops    15 x    19 x    32              4961280     100.0%      0.0%      0.0%     
 flops    19 x    15 x    32              5034240     100.0%      0.0%      0.0%     
 flops    32 x    30 x    22              5406720     100.0%      0.0%      0.0%     
 flops    30 x    32 x    22              5406720     100.0%      0.0%      0.0%     
 flops    32 x    19 x    15              5544960     100.0%      0.0%      0.0%     
 flops    32 x    15 x    19              5544960     100.0%      0.0%      0.0%     
 flops    32 x     1 x   152              5544960     100.0%      0.0%      0.0%     
 flops     1 x    32 x   152              5554688     100.0%      0.0%      0.0%     
 flops    19 x    19 x    30              5631600     100.0%      0.0%      0.0%     
 flops    15 x    22 x    32              5744640     100.0%      0.0%      0.0%     
 flops    22 x    15 x    32              5829120     100.0%      0.0%      0.0%     
 flops     1 x    32 x    13              6372288     100.0%      0.0%      0.0%     
 flops    32 x    22 x    15              6420480     100.0%      0.0%      0.0%     
 flops    32 x    15 x    22              6420480     100.0%      0.0%      0.0%     
 flops    22 x    19 x    30              6520800     100.0%      0.0%      0.0%     
 flops    19 x    22 x    30              6570960     100.0%      0.0%      0.0%     
 flops    32 x     1 x    13              6628544     100.0%      0.0%      0.0%     
 flops    13 x    12 x     6              6679296     100.0%      0.0%      0.0%     
 flops     6 x    12 x    13              6679296     100.0%      0.0%      0.0%     
 flops    30 x    19 x    19              6931200     100.0%      0.0%      0.0%     
 flops    22 x    22 x    30              7608480     100.0%      0.0%      0.0%     
 flops    13 x    12 x    12              7922304     100.0%      0.0%      0.0%     
 flops    30 x    19 x    22              8025600     100.0%      0.0%      0.0%     
 flops    30 x    22 x    19              8025600     100.0%      0.0%      0.0%     
 flops    30 x    15 x    30              8046000     100.0%      0.0%      0.0%     
 flops     6 x     6 x    32              8727552     100.0%      0.0%      0.0%     
 flops    13 x     6 x    30              8985600     100.0%      0.0%      0.0%     
 flops     6 x    13 x    30              9041760     100.0%      0.0%      0.0%     
 flops    12 x    12 x    76              9258624     100.0%      0.0%      0.0%     
 flops    30 x    22 x    22              9292800     100.0%      0.0%      0.0%     
 flops    32 x    32 x    19              9961472     100.0%      0.0%      0.0%     
 flops    13 x    12 x    76             10148736     100.0%      0.0%      0.0%     
 flops    30 x     6 x     6             10972800     100.0%      0.0%      0.0%     
 flops    32 x    32 x    22             11534336     100.0%      0.0%      0.0%     
 flops    19 x    19 x    32             12568576     100.0%      0.0%      0.0%     
 flops    13 x    12 x    13             14471808     100.0%      0.0%      0.0%     
 flops    22 x    19 x    32             14553088     100.0%      0.0%      0.0%     
 flops    19 x    22 x    32             14553088     100.0%      0.0%      0.0%     
 flops    32 x    19 x    19             14786560     100.0%      0.0%      0.0%     
 flops    22 x    22 x    32             16850944     100.0%      0.0%      0.0%     
 flops    32 x    19 x    22             17121280     100.0%      0.0%      0.0%     
 flops    32 x    22 x    19             17121280     100.0%      0.0%      0.0%     
 flops    30 x    15 x    32             17193600     100.0%      0.0%      0.0%     
 flops    32 x    15 x    30             17481600     100.0%      0.0%      0.0%     
 flops    13 x     6 x    32             18909696     100.0%      0.0%      0.0%     
 flops     6 x    13 x    32             19089408     100.0%      0.0%      0.0%     
 flops    13 x    13 x    30             19590480     100.0%      0.0%      0.0%     
 flops    32 x    22 x    22             19824640     100.0%      0.0%      0.0%     
 flops    30 x    19 x    30             20554200     100.0%      0.0%      0.0%     
 flops    30 x     6 x    30             22356000     100.0%      0.0%      0.0%     
 flops    32 x     6 x     6             23445504     100.0%      0.0%      0.0%     
 flops    30 x    22 x    30             23878800     100.0%      0.0%      0.0%     
 flops    30 x    13 x     6             24223680     100.0%      0.0%      0.0%     
 flops    30 x     6 x    13             24261120     100.0%      0.0%      0.0%     
 flops    30 x    30 x    76             35020800     100.0%      0.0%      0.0%     
 flops    32 x    15 x    32             37539840     100.0%      0.0%      0.0%     
 flops    13 x    13 x    32             41360384     100.0%      0.0%      0.0%     
 flops    30 x    30 x     6             43243200     100.0%      0.0%      0.0%     
 flops    30 x    19 x    32             43703040     100.0%      0.0%      0.0%     
 flops    32 x    19 x    30             44323200     100.0%      0.0%      0.0%     
 flops    32 x     6 x    30             46920960     100.0%      0.0%      0.0%     
 flops    30 x     6 x    32             47646720     100.0%      0.0%      0.0%     
 flops    30 x    13 x    30             48789000     100.0%      0.0%      0.0%     
 flops    30 x    22 x    32             50772480     100.0%      0.0%      0.0%     
 flops    32 x    22 x    30             51532800     100.0%      0.0%      0.0%     
 flops    32 x     6 x    13             51757056     100.0%      0.0%      0.0%     
 flops    32 x    13 x     6             51757056     100.0%      0.0%      0.0%     
 flops    30 x    13 x    13             52646880     100.0%      0.0%      0.0%     
 flops    32 x    30 x    76             74711040     100.0%      0.0%      0.0%     
 flops    30 x    32 x    76             74711040     100.0%      0.0%      0.0%     
 flops    30 x    30 x   152             78796800     100.0%      0.0%      0.0%     
 flops    30 x    32 x     6             93288960     100.0%      0.0%      0.0%     
 flops    30 x    30 x    13             95191200     100.0%      0.0%      0.0%     
 flops    32 x    19 x    32             95217664     100.0%      0.0%      0.0%     
 flops    32 x    30 x     6             95477760     100.0%      0.0%      0.0%     
 flops    32 x     6 x    32            100184064     100.0%      0.0%      0.0%     
 flops    32 x    13 x    30            102410880     100.0%      0.0%      0.0%     
 flops    30 x    13 x    32            104357760     100.0%      0.0%      0.0%     
 flops    32 x    22 x    32            110206976     100.0%      0.0%      0.0%     
 flops    32 x    13 x    13            112313344     100.0%      0.0%      0.0%     
 flops    32 x    32 x    76            159383552     100.0%      0.0%      0.0%     
 flops    32 x    30 x   152            168099840     100.0%      0.0%      0.0%     
 flops    30 x    32 x   152            168099840     100.0%      0.0%      0.0%     
 flops    32 x    32 x     6            204472320     100.0%      0.0%      0.0%     
 flops    30 x    32 x    13            205570560     100.0%      0.0%      0.0%     
 flops    32 x    30 x    13            207168000     100.0%      0.0%      0.0%     
 flops    32 x    13 x    32            220446720     100.0%      0.0%      0.0%     
 flops    32 x    32 x   152            358612992     100.0%      0.0%      0.0%     
 flops    32 x    32 x    13            443662336     100.0%      0.0%      0.0%     
 flops inhomo. stacks                  1350393088     100.0%      0.0%      0.0%
 flops total                         6.019678E+09     100.0%      0.0%      0.0%
 flops max/rank                      6.019678E+09     100.0%      0.0%      0.0%
 matmuls inhomo. stacks                     36898     100.0%      0.0%      0.0%
 matmuls total                             407861     100.0%      0.0%      0.0%
 number of processed stacks                 36301     100.0%      0.0%      0.0%
 average stack size                                    11.2       0.0       0.0
 marketing flops                     8.627212E+09
 -------------------------------------------------------------------------------
 # multiplications                           2824
 max memory usage/rank              37.283705E+09
 # max total images/rank                        1
 # max 3D layers                                1
 # MPI messages exchanged                       0
 -------------------------------------------------------------------------------
 -                                                                             -
 -                      DBCSR MESSAGE PASSING PERFORMANCE                      -
 -                                                                             -
 -------------------------------------------------------------------------------
 ROUTINE             CALLS      AVE VOLUME [Bytes]
 MP_Bcast              201                     12.
 MP_Allreduce        13673                     10.
 MP_Alltoall         10965                  10079.
 MP_ISend            10956                    514.
 MP_IRecv            10956                    514.
 -------------------------------------------------------------------------------

 -------------------------------------------------------------------------------
 -                                                                             -
 -                                GRID STATISTICS                              -
 -                                                                             -
 -------------------------------------------------------------------------------
 LP    KERNEL             BACKEND                              COUNT     PERCENT
 3     collocate ortho    CPU                                  67838      21.86%
 3     integrate ortho    CPU                                  67838      21.86%
 2     collocate ortho    CPU                                  49755      16.03%
 2     integrate ortho    CPU                                  49755      16.03%
 4     collocate ortho    CPU                                  37557      12.10%
 4     integrate ortho    CPU                                  37557      12.10%
 0     collocate general  CPU                                      8       0.00%
 -------------------------------------------------------------------------------

 -------------------------------------------------------------------------------
 -                                                                             -
 -                          OFFLOAD MEMPOOL STATISTICS                         -
 -                                                                             -
 -------------------------------------------------------------------------------
 Memory consumption                Number of allocations  Used [MiB]  Size [MiB]
 Host                                                  6         260    21386440
 -------------------------------------------------------------------------------

 MEMORY| Estimated peak process memory [MiB]                               15371

 -------------------------------------------------------------------------------
 -                                                                             -
 -                         MESSAGE PASSING PERFORMANCE                         -
 -                                                                             -
 -------------------------------------------------------------------------------

 ROUTINE             CALLS      AVE VOLUME [Bytes]
 MP_Group                5
 MP_Bcast             2900                    999.
 MP_Allreduce        10398                    483.
 MP_Sync               121
 MP_comm_split         118
 -------------------------------------------------------------------------------


 -------------------------------------------------------------------------------
 -                                                                             -
 -                           R E F E R E N C E S                               -
 -                                                                             -
 -------------------------------------------------------------------------------
 
 CP2K version 2026.2 (Development Version), the CP2K developers group (2026).
 CP2K is freely available from https://www.cp2k.org/ .
 
 M. Iannuzzi, J. Wilhelm, F. Stein, A. Bussy, H. Elgabarty, D. Golze, A. Hehn, 
 M. Graml, S. Marek, B. Sertcan Gökmen, C. Schran, H. Forbert, R. Z. 
 Khaliullin, A. Kozhevnikov, M. Taillefumier, R. Meli, V. V. Rybkin, M. Brehm, 
 R. Schade, O. Schütt, J. V. Pototschnig, H. Mirhosseini, A. Knüpfer, D. Marx, 
 M. Krack, J. Hutter, T. D. Kühne.
 J. Phys. Chem. B 130, 1237-1310 (2026).
 The CP2K Program Package Made Simple.
 https://doi.org/10.1021/acs.jpcb.5c05851

 M. Graml, K. Zollner, D. Hernangómez-Pérez, P. E. Faria Junior, J. Wilhelm.
 J. Chem. Theory Comput. 20, 2202-2208 (2024).
 Low-scaling GW algorithm applied to twisted transition-metal dichalcogenide 
 heterobilayers.
 https://doi.org/10.1021/acs.jctc.3c01230

 T. D. Kühne, M. Iannuzzi, M. Del Ben, V. V. Rybkin, P. Seewald, F. Stein, T. 
 Laino, R. Z. Khaliullin, O. Schütt, F. Schiffmann, D. Golze, J. Wilhelm, S. 
 Chulkov, M. H. Bani-Hashemian, V. Weber, U. Borstnik, M. Taillefumier, A. S. 
 Jakobovits, A. Lazzaro, H. Pabst, T. Müller, R. Schade, M. Guidon, S. 
 Andermatt, N. Holmberg, G. K. Schenter, A. Hehn, A. Bussy, F. Belleflamme, G. 
 Tabacchi, A. Glöß, M. Lass, I. Bethune, C. J. Mundy, C. Plessl, M. Watkins, 
 J. VandeVondele, M. Krack, J. Hutter.
 J. Chem. Phys. 152, 194103 (2020).
 CP2K: An electronic structure and molecular dynamics software package - 
 Quickstep: Efficient and accurate electronic structure calculations.
 https://doi.org/10.1063/5.0007045

 O. Schuett, P. Messmer, J. Hutter, J. VandeVondele.
 Electronic Structure Calculations on Graphics Processing Units, 173-190 (2016).
 GPU-Accelerated Sparse Matrix-Matrix Multiplication for Linear Scaling Density 
 Functional Theory.
 https://doi.org/10.1002/9781118670712.ch8

 U. Borstnik, J. VandeVondele, V. Weber, J. Hutter.
 Parallel Comput. 40, 47-58 (2014).
 Sparse matrix multiplication: The distributed block-compressed sparse row 
 library.
 https://doi.org/10.1016/j.parco.2014.03.012

 J. VandeVondele, J. Hutter.
 J. Chem. Phys. 127, 114105 (2007).
 Gaussian basis sets for accurate calculations on molecular systems in gas and 
 condensed phases.
 https://doi.org/10.1063/1.2770708

 J. VandeVondele, M. Krack, F. Mohamed, M. Parrinello, T. Chassaing, J. Hutter.
 Comput. Phys. Commun. 167, 103-128 (2005).
 QUICKSTEP: Fast and accurate density functional calculations using a mixed 
 Gaussian and plane waves approach.
 https://doi.org/10.1016/j.cpc.2004.12.014

 M. Krack.
 Theor. Chem. Acc. 114, 145-152 (2005).
 Pseudopotentials for H to Kr optimized for gradient-corrected 
 exchange-correlation functionals.
 https://doi.org/10.1007/s00214-005-0655-y

 M. Frigo, S. G. Johnson.
 Proc. IEEE 93, 216-231 (2005).
 The design and implementation of FFTW3.
 https://doi.org/10.1109/JPROC.2004.840301

 J. VandeVondele, J. Hutter.
 J. Chem. Phys. 118, 4365-4369 (2003).
 An efficient orbital transformation method for electronic structure 
 calculations.
 https://doi.org/10.1063/1.1543154

 C. Hartwigsen, S. Goedecker, J. Hutter.
 Phys. Rev. B 58, 3641-3662 (1998).
 Relativistic separable dual-space Gaussian pseudopotentials from H to Rn.
 https://doi.org/10.1103/PhysRevB.58.3641

 G. Lippert, J. Hutter, M. Parrinello.
 Mol. Phys. 92, 477-487 (1997).
 A hybrid Gaussian and plane wave density functional scheme.
 https://doi.org/10.1080/002689797170220

 S. Goedecker, M. Teter, J. Hutter.
 Phys. Rev. B 54, 1703-1710 (1996).
 Separable dual-space Gaussian pseudopotentials.
 https://doi.org/10.1103/PhysRevB.54.1703

 J. P. Perdew, K. Burke, M. Ernzerhof.
 Phys. Rev. Lett. 77, 3865-3868 (1996).
 Generalized gradient approximation made simple.
 https://doi.org/10.1103/PhysRevLett.77.3865

 P. E. Blöchl.
 J. Chem. Phys. 103, 7422-7428 (1995).
 Electrostatic decoupling of periodic images of plane‐wave‐expanded 
 densities and derived atomic point charges.
 https://doi.org/10.1063/1.470314

 R. H. Byrd, P. H. Lu, J. Nocedal, C. Y. Zhu.
 SIAM J. Sci. Comput. 16, 1190-1208 (1995).
 A Limited Memory Algorithm for Bound Constrained Optimization.
 https://doi.org/10.1137/0916069


 -------------------------------------------------------------------------------
 -                                                                             -
 -                                T I M I N G                                  -
 -                                                                             -
 -------------------------------------------------------------------------------
 SUBROUTINE                       CALLS  ASD         SELF TIME        TOTAL TIME MAXRANK
                                MAXIMUM       AVERAGE  MAXIMUM  AVERAGE  MAXIMUM
 CP2K                                 1  1.0    0.021    0.021  720.877  720.877       0
 qs_energies                          1  2.0    0.002    0.002  705.324  705.324       0
 scf_env_do_scf                       1  3.0    0.000    0.000  622.515  622.515       0
 scf_env_do_scf_inner_loop          106  4.0    0.197    0.197  617.046  617.046       0
 qs_ks_build_kohn_sham_matrix       107  7.0    0.217    0.217  477.225  477.225       0
 qs_ks_update_qs_env                107  5.0    0.001    0.001  475.915  475.915       0
 rebuild_ks_matrix                  106  6.0    0.000    0.000  475.905  475.905       0
 fft_wrap_pw1pw2                   1813 10.3    0.037    0.037  387.942  387.942       0
 fft_wrap_pw1pw2_300               1171 11.8   22.118   22.118  376.228  376.228       0
 qs_vxc_create                      107  8.0    0.006    0.006  333.500  333.500       0
 xc_vxc_pw_create                   106  9.0   17.640   17.640  333.493  333.493       0
 xc_pw_derive                       636 11.0    0.004    0.004  233.631  233.631       0
 fft3d_s                           1814 12.3  216.757  216.757  216.784  216.784       0
 xc_pw_divergence                   106 10.0    0.003    0.003  158.269  158.269       0
 xc_rho_set_and_dset_create         106 10.0    8.910    8.910  151.622  151.622       0
 qs_rho_update_rho_low              107  5.0    0.002    0.002  142.576  142.576       0
 calculate_rho_elec                 107  6.0   10.723   10.723  142.574  142.574       0
 pw_scatter_s                       959 12.8   81.114   81.114   81.114   81.114       0
 density_rs2pw                      107  7.0    0.005    0.005   81.033   81.033       0
 qs_energies_properties               1  3.0    0.000    0.000   80.378   80.378       0
 post_scf_bandstructure               1  4.0    0.000    0.000   80.378   80.378       0
 gw                                   1  5.0    0.000    0.000   80.337   80.337       0
 gw_calc_non_periodic_ri_rs           1  6.0    0.000    0.000   75.518   75.518       0
 ri_rs_grid_assembler                 1  7.0    0.001    0.001   74.481   74.481       0
 optimize_ri_rs_grid                  1  8.0    0.000    0.000   74.254   74.254       0
 rirs_grid_LBFGS                      1  9.0    1.100    1.100   70.749   70.749       0
 evaluate_rirs_grid_cluster        2408 10.0    8.553    8.553   69.648   69.648       0
 qs_ks_ddapc                        107  8.0    0.002    0.002   52.394   52.394       0
 grid_collocate_task_list           107  7.0   50.819   50.819   50.819   50.819       0
 sum_up_and_integrate               107  8.0    0.264    0.264   48.459   48.459       0
 integrate_v_rspace                 107  9.0    0.030    0.030   45.949   45.949       0
 potential_pw2rs                    107 10.0    0.414    0.414   45.375   45.375       0
 pw_poisson_solve                   107  8.0    0.002    0.002   39.142   39.142       0
 pw_gather_s                        854 11.9   36.347   36.347   36.347   36.347       0
 pw_derive                          957 11.3   35.248   35.248   35.248   35.248       0
 pw_integral_ab_c1d_c1d_gs          214  9.5   31.957   31.957   31.957   31.957       0
 pw_copy                           1708 10.6   25.389   25.389   25.389   25.389       0
 rirs_cluster_gradient_coordina    2408 11.0   19.201   19.201   19.201   19.201       0
 rirs_cluster_AO_products          2408 11.0   18.886   18.886   18.886   18.886       0
 xc_functional_eval                 106 11.0    0.001    0.001   18.741   18.741       0
 pbe_lda_eval                       106 12.0   18.739   18.739   18.739   18.739       0
 cp_ddapc_apply_CD                  107  9.0    0.008    0.008   18.615   18.615       0
 pw_poisson_set                     108  9.0    0.002    0.002   17.166   17.166       0
 pw_copy_from_array                 959 12.8   15.367   15.367   15.367   15.367       0
 pw_copy_to_array                   854 11.9   15.056   15.056   15.056   15.056       0
 pw_axpy                           1075  9.2   13.721   13.721   13.721   13.721       0
 qs_init_subsys                       1  2.0    0.087    0.087   11.739   11.739       0
 rirs_cluster_gradient_products    2408 11.0   10.436   10.436   10.436   10.436       0
 fft_wrap_pw1pw2_100                214 10.5    1.018    1.018   10.353   10.353       0
 qs_env_setup                         1  3.0    0.000    0.000    8.953    8.953       0
 qs_env_rebuild_pw_env                2  3.5    0.920    0.920    8.953    8.953       0
 pw_env_rebuild                       1  5.0    0.498    0.498    8.033    8.033       0
 pw_grid_setup                        5  5.2    0.887    0.887    7.352    7.352       0
 rirs_cluster_residual             2408 11.0    7.008    7.008    7.008    7.008       0
 pw_grid_setup_internal               5  6.2    0.077    0.077    6.465    6.465       0
 pw_grid_sort                         5  7.2    4.701    4.701    6.069    6.069       0
 pw_zero                            550 10.1    5.870    5.870    5.870    5.870       0
 init_scf_loop                        1  4.0    0.006    0.006    5.468    5.468       0
 create_and_init_bs_env_for_gw        1  6.0    0.012    0.012    4.819    4.819       0
 qs_scf_new_mos                     106  5.0    0.001    0.001    4.157    4.157       0
 qs_scf_loop_do_ot                  106  6.0    0.005    0.005    4.157    4.157       0
 pw_scale                           425  9.8    3.901    3.901    3.901    3.901       0
 ot_scf_mini                        106  7.0    0.155    0.155    3.515    3.515       0
 rirs_grid_build_clusters             1  9.0    2.481    2.481    3.504    3.504       0
 generate_auto_ri_basis               1  7.0    0.000    0.000    3.113    3.113       0
 rirs_cluster_D_ll                 2408 11.0    2.852    2.852    2.852    2.852       0
 create_qs_kind_set                   1  2.0    0.000    0.000    2.827    2.827       0
 read_qs_kind                         4  3.0    0.939    0.939    2.827    2.827       0
 rirs_cluster_d_lP                 2408 11.0    2.711    2.711    2.711    2.711       0
 xc_pw_smooth                       106 10.0    0.001    0.001    2.545    2.545       0
 transfer_rs2pw                     429  8.0    0.008    0.008    2.432    2.432       0
 ot_mini                            106  8.0    0.006    0.006    2.413    2.413       0
 pw_multiply_with                   107  9.0    2.285    2.285    2.285    2.285       0
 get_ddapc                          107 10.0    0.002    0.002    2.105    2.105       0
 transfer_pw2rs                     428 11.0    0.004    0.004    2.059    2.059       0
 transfer_rs2pw_300                 108  9.0    1.962    1.962    1.962    1.962       0
 parser_read_line                 57897  4.0    0.009    0.009    1.887    1.887       0
 parser_read_line_low                65  5.0    1.878    1.878    1.878    1.878       0
 init_scf_run                         1  3.0    0.005    0.005    1.784    1.784       0
 scf_env_initial_rho_setup            1  4.0    0.001    0.001    1.779    1.779       0
 transfer_pw2rs_300                 107 12.0    1.652    1.652    1.652    1.652       0
 compute_M_PQ_AB                   1344 11.0    0.002    0.002    1.643    1.643       0
 compute_M_PQ                      1344 12.0    0.002    0.002    1.641    1.641       0
 int_operators_r12_ab_os           1344 13.0    0.001    0.001    1.639    1.639       0
 int_operator_ab_os_low            1344 14.0    0.713    0.713    1.638    1.638       0
 compute_M_pq_inv_and_V_pq            1  8.0    0.000    0.000    1.597    1.597       0
 compute_contracted_RI_matrix         2  9.0    0.001    0.001    1.593    1.593       0
 compute_optimized_RI_matrix_bl      72 10.0    0.055    0.055    1.590    1.590       0
 sort_shells                          5  8.2    1.368    1.368    1.368    1.368       0
 compute_V_xc                         1  7.0    0.000    0.000    1.321    1.321       0
 qs_ot_get_derivative               106  9.0    0.279    0.279    1.272    1.272       0
 compute_AB_optimized_RI_basis        1  8.0    0.000    0.000    1.259    1.259       0
 compute_AB_optimized_RI_basis_       1  9.0    0.000    0.000    1.259    1.259       0
 abc_contract_xsmm                50334 10.1    1.154    1.154    1.154    1.154       0
 ot_diis_step                       106  9.0    0.199    0.199    1.133    1.133       0
 compute_max_radius                   1  6.0    1.094    1.094    1.094    1.094       0
 compute_B_PQ_AB                     21 10.0    0.285    0.285    1.077    1.077       0
 prepare_preconditioner               1  5.0    0.000    0.000    1.022    1.022       0
 make_preconditioner                  1  6.0    0.760    0.760    1.022    1.022       0
 scf_c_read_parameters                1  3.0    1.017    1.017    1.017    1.017       0
 fft_wrap_pw1pw2_40                 214 10.5    0.085    0.085    1.011    1.011       0
 qs_ot_get_derivative_diag          105 10.0    0.971    0.971    0.990    0.990       0
 apply_preconditioner_dbcsr         107 10.0    0.838    0.838    0.929    0.929       0
 write_qs_particle_coordinates        1  3.0    0.915    0.915    0.915    0.915       0
 qs_ot_get_p                        107  8.0    0.258    0.258    0.759    0.759       0
 write_particle_distances             1  3.0    0.757    0.757    0.757    0.757       0
 -------------------------------------------------------------------------------

 The number of warnings for this run is : 0
 
 -------------------------------------------------------------------------------
  **** **** ******  **  PROGRAM ENDED AT                 2026-09-16 22:31:01.737
 ***** ** ***  *** **   PROGRAM RAN ON                                  n2cn0991
 **    ****   ******    PROGRAM RAN BY                                  eprop2d1
 ***** **    ** ** **   PROGRAM PROCESS ID                                199781
  **** **  *******  **  PROGRAM STOPPED IN /scratch/hpc-prf-metdyn/eprop2d1_Jan/
                                           53_benchmark_RI_opt/111_GW100_GTH_Leb
                                           edev_riao245_rc3/calculations/97_urea
                                           _riao2_r05
