 DBCSR| CPU Multiplication driver                                           XSMM (U)
 DBCSR| Multrec recursion limit                                              512 (U)
 DBCSR| Multiplication stack size                                           1000 (D)
 DBCSR| Maximum elements for images                                    UNLIMITED (U)
 DBCSR| Multiplicative factor virtual images                                   1 (U)
 DBCSR| Use multiplication densification                                       T (D)
 DBCSR| Multiplication size stacks                                             3 (U)
 DBCSR| Use memory pool for CPU allocation                                     F (U)
 DBCSR| Number of 3D layers                                               SINGLE (U)
 DBCSR| Use MPI memory allocation                                              F (U)
 DBCSR| Use RMA algorithm                                                      F (U)
 DBCSR| Use Communication thread                                               T (U)
 DBCSR| Communication thread load                                             30 (D)
 DBCSR| MPI: My process id                                                     0
 DBCSR| MPI: Number of processes                                               8
 DBCSR| OMP: Current number of threads                                        16
 DBCSR| OMP: Max number of threads                                            16
 DBCSR| Split modifier for TAS multiplication algorithm                  1.0E+00 (U)


  **** **** ******  **  PROGRAM STARTED AT               2026-09-17 10:37:22.931
 ***** ** ***  *** **   PROGRAM STARTED ON                              n2cn1022
 **    ****   ******    PROGRAM STARTED BY                              eprop2d1
 ***** **    ** ** **   PROGRAM PROCESS ID                                363990
  **** **  *******  **  PROGRAM STARTED IN /scratch/hpc-prf-metdyn/eprop2d1_Jan/
                                           53_benchmark_RI_opt/109_GW100_GTH_Leb
                                           edev_riao3_rc3/calculations/90_C6H5NH
                                           2_r07

 CP2K| version string:                 CP2K version 2026.2 (Development Version)
 CP2K| source code revision number:                                      unknown
 CP2K| cp2kflags: omp libint fftw3 libxc parallel scalapack openblas            
 CP2K| is freely available from                            https://www.cp2k.org/
 CP2K| Program compiled at                                   2026-09-15 17:57:52
 CP2K| Program compiled on                                              n2login6
 CP2K| Program compiled for                                               x86_64
 CP2K| Data directory path    /scratch/hpc-prf-metdyn/eprop2d1_Jan/53_benchmark_
 CP2K| Input file name        /scratch/hpc-prf-metdyn/eprop2d1_Jan/53_benchmark_
 
 eprop2d1@n2cn1022 has created rank and process                      0    363990
 eprop2d1@n2cn1022 has created rank and process                      1    363991
 eprop2d1@n2cn1022 has created rank and process                      2    363992
 eprop2d1@n2cn1022 has created rank and process                      3    363993
 eprop2d1@n2cn1022 has created rank and process                      4    363994
 eprop2d1@n2cn1022 has created rank and process                      5    363995
 eprop2d1@n2cn1022 has created rank and process                      6    363996
 eprop2d1@n2cn1022 has created rank and process                      7    363997
 
 eprop2d1@n2cn1022 is running                                        8 processes

 GLOBAL| Force Environment number                                              1
 GLOBAL| Basis set file name            /scratch/hpc-prf-metdyn/eprop2d1_Jan/53_
 GLOBAL| Potential file name            /scratch/hpc-prf-metdyn/eprop2d1_Jan/53_
 GLOBAL| MM Potential file name                                     MM_POTENTIAL
 GLOBAL| Coordinate file name                                      __STD_INPUT__
 GLOBAL| Method name                                                        CP2K
 GLOBAL| Project name                            gw100_106_90_C6H5NH2_a3_leb_r07
 GLOBAL| Run type                                                         ENERGY
 GLOBAL| FFT library                                                       FFTW3
 GLOBAL| Diagonalization library                                       ScaLAPACK
 GLOBAL| Cholesky decomposition library                                ScaLAPACK
 GLOBAL| DGEMM library                                                      BLAS
 GLOBAL| Direct generalized diagonalization requested                          F
 GLOBAL| Orthonormality check for eigenvectors                          DISABLED
 GLOBAL| Matrix multiplication library                                 ScaLAPACK
 GLOBAL| All-to-all communication in single precision                          F
 GLOBAL| Grid backend                                                       AUTO
 GLOBAL| Global print level                                                  LOW
 GLOBAL| MPI I/O enabled                                                       T
 GLOBAL| Total number of message passing processes                             8
 GLOBAL| Number of distributed systems (nodes)                                 1
 GLOBAL| Number of threads for this process                                   16
 GLOBAL| This output is from process                                           0
 GLOBAL| OpenMP stack size per thread (OMP_STACKSIZE)                       128M
 GLOBAL| CPU model name                          AMD EPYC 7763 64-Core Processor

 MEMORY| system memory details [Kb]
 MEMORY|                        rank 0           min           max       average
 MEMORY| MemTotal            263897576     263897576     263897576     263897576
 MEMORY| MemFree             251015280     251015280     251015280     251015280
 MEMORY| Buffers                296980        296980        296980        296980
 MEMORY| Cached                6622356       6622356       6622356       6622356
 MEMORY| Slab                  1487592       1487592       1487592       1487592
 MEMORY| SReclaimable           291240        291240        291240        291240
 MEMORY| MemLikelyFree       258225856     258225856     258225856     258225856


 GENERATE|  Preliminary Number of Bonds generated:                             0
 GENERATE|  Achieved consistency in connectivity generation.

 *******************************************************************************
 *******************************************************************************
 **                                                                           **
 **     #####                         ##              ##                      **
 **    ##   ##            ##          ##              ##                      **
 **   ##     ##                       ##            ######                    **
 **   ##     ##  ##   ##  ##   #####  ##  ##   ####   ##    #####    #####    **
 **   ##     ##  ##   ##  ##  ##      ## ##   ##      ##   ##   ##  ##   ##   **
 **   ##  ## ##  ##   ##  ##  ##      ####     ###    ##   ######   ######    **
 **    ##  ###   ##   ##  ##  ##      ## ##      ##   ##   ##       ##        **
 **     #######   #####   ##   #####  ##  ##  ####    ##    #####   ##        **
 **           ##                                                    ##        **
 **                                                                           **
 **                                                ... make the atoms dance   **
 **                                                                           **
 **            Copyright (C) by CP2K developers group (2000-2026)             **
 **                      J. Chem. Phys. 152, 194103 (2020)                    **
 **                                                                           **
 *******************************************************************************


 TOTAL NUMBERS AND MAXIMUM NUMBERS

  Total number of            - Atomic kinds:                                   3
                             - Atoms:                                         14
                             - Shell sets:                                    14
                             - Shells:                                        63
                             - Primitive Cartesian functions:                 91
                             - Cartesian basis functions:                    140
                             - Spherical basis functions:                    133

  Maximum angular momentum of- Orbital basis functions:                        2
                             - Local part of the GTH pseudopotential:          2
                             - Non-local part of the GTH pseudopotential:      0


 SCF PARAMETERS         Density guess:                                   RESTART
                        --------------------------------------------------------
                        max_scf:                                             500
                        max_scf_history:                                       0
                        max_diis:                                              4
                        --------------------------------------------------------
                        eps_scf:                                        1.00E-08
                        eps_scf_history:                                0.00E+00
                        eps_diis:                                       0.00E+00
                        eps_eigval:                                     1.00E-05
                        --------------------------------------------------------
                        level_shift [a.u.]:                             0.000000
                        --------------------------------------------------------
                        Outer loop SCF in use 
                        No variables optimised in outer loop
                        eps_scf                                         1.00E-08
                        max_scf                                               20
                        No outer loop optimization
                        step_size                                       5.00E-01

 Extrapolation method: initial_guess

 Number of electrons:                                                         36
 Number of occupied orbitals:                                                 18
 Number of molecular orbitals:                                                18

 Number of orbital functions:                                                133
 Number of independent orbital functions:                                    133


 SCF WAVEFUNCTION OPTIMIZATION

  ----------------------------------- OT ---------------------------------------
  Minimizer      : DIIS                : direct inversion
                                         in the iterative subspace
                                         using   7 DIIS vectors
                                         safer DIIS on
  Preconditioner : FULL_KINETIC        : inversion of T + eS
  Lattice FFT   : OFF
  Precond_solver : DEFAULT
  stepsize       :    0.15000000                  energy_gap     :    0.20000000
  eps_taylor     :   0.10000E-15                  max_taylor     :             4
  ----------------------------------- OT ---------------------------------------

  Step     Update method      Time    Convergence         Total energy    Change
  ------------------------------------------------------------------------------
  Decoupling Energy:                                               0.0000123217
     1 OT DIIS     0.15E+00    1.7     0.00000002       -48.1982946136 -4.82E+01
  Decoupling Energy:                                               0.0000123217
     2 OT DIIS     0.15E+00    1.9     0.00000002       -48.1982946136 -2.34E-13
  Decoupling Energy:                                               0.0000123217
     3 OT DIIS     0.15E+00    1.9     0.00000001       -48.1982946136 -2.06E-13
  Decoupling Energy:                                               0.0000123216
     4 OT DIIS     0.15E+00    1.9     9.1866E-09       -48.1982946136 -8.53E-14

  *** SCF run converged in     4 steps ***


  Electronic density on regular grids:        -36.0000000000        0.0000000000
  Core density on regular grids:               36.0000000000       -0.0000000000
  Total charge density on r-space grids:       -0.0000000000
  Total charge density g-space grids:          -0.0000000000

  Overlap energy of the core charge distribution:               0.00000355397473
  Self energy of the core charge distribution:               -114.73398411242242
  Core Hamiltonian energy:                                     36.00505640801066
  Hartree energy:                                              46.02066865402382
  Exchange-correlation energy:                                -15.49003911721848

  Total energy:                                               -48.19829461363169

  outer SCF iter =    1 RMS gradient =   0.92E-08 energy =        -48.1982946136
  outer SCF loop converged in   1 iterations or    4 steps

  
 -------------------------------------------------------------------------------
 -                                                                             -
 -                          BANDSTRUCTURE CALCULATION                          -
 -                                                                             -
 -------------------------------------------------------------------------------
  
 Number of occupied molecular orbitals (MOs) = Number of occupied bands       18
 Number of unoccupied (= virtual) MOs = Number of unoccupied bands           115
 Number of Gaussian basis functions for MOs                                  133
  
 -------------------------------------------------------------------------------
 -                                                                             -
 -                                GW CALCULATION                               -
 -                                                                             -
 -------------------------------------------------------------------------------
  
 Input: Number of time/freq. points                                           30
 Input: ω_max for fitting Σ(iω) (eV)                                        10.0
 Input: Filter threshold for sparse tensor operations                    1.0E-07
 Input: Apply Hedin shift                                                      F
 Input: Available memory per MPI process                                  2.0 GB
 
 Input: RI-RS Tikhonov regularization                                   1.00E-04
 Input: AO grid hard cutoff radius                                        8.00 Å
 Input: MPI ranks per atom in Z_lP solve                                      -1
 Input: Keep sparsity in χ/G/W panels                                          T
 Input: GW flavour                                                          G0W0
 
 Input: RI-RS grid optimization activated                                      T
 Input: Initial RI-RS grid                                              CHOLESKY
 Input: RS points per AO function                                         7.0000
 Input: Initial RS candidates per AO function                            30.0000
 Input: Additional Lebedev degree                                              2
 Input: Cholesky selection matrix                                        D_PRIME
 Input: Cholesky candidate domain                                      FULL_ATOM
 Input: Initial radial quadrature                                       GAPW_LOG
 Input: Cutoff radius for atomic clusters                                  3.0 Å
 Input: Maximum grid optimization iterations                                 300
 Input: L-BFGS history size                                                    7
 Input: L-BFGS relative-function factor                              0.00000E+00
 Input: L-BFGS projected-gradient tolerance                          1.00000E-09
 
 Input: AUTO_RI basis optimization activated:                                  T
 Input: AUTO_RI requested RI/AO ratio:                                       3.0
 Input: AUTO_RI frontier orbital window:                                  5.0 eV
 Input: AUTO_RI neighbor radius:                                           3.0 Å
 
 Cutoff radius for the truncated Coulomb operator in RI metric:            7.0 Å
 Regularization parameter of RI                                          0.0E+00
 Regularization parameter of minimax grids                               1.0E-06
 
 AUTO_RI| Number of automatic RI functions for χ, ε, W:                      399
 AUTO_RI| Total RI basis optimization time:                                3.0 s
  Decoupling Energy:                                               0.0000123216
 
 SCF direct band gap (eV)                                                   3.92
 Max. SCF eigval diff. (eV)                                               233.75
 E-Range for minimax grid                                                  59.70
 Number of Padé parameters for analytic continuation:                         16
 
 RI-RS basis radii (Å):
     Kind  Elem     r_AO (Å)     r_RI (Å)
        1    C         8.0299        5.0785
        2    H         9.5011        6.0090
        3    N         8.0299        5.0785
 
 RI-RS initialization: atomic kind                                             1
 RI-RS initialization: Lebedev degree                                         11
 RI-RS initialization: radial shells                                           8
 RI-RS initialization: candidates per atom                                   400
 RI-RS initialization: retained points per atom                               91
 RI-RS initialization: atomic kind                                             2
 RI-RS initialization: Lebedev degree                                          7
 RI-RS initialization: radial shells                                           7
 RI-RS initialization: candidates per atom                                   182
 RI-RS initialization: retained points per atom                               42
 RI-RS initialization: atomic kind                                             3
 RI-RS initialization: Lebedev degree                                          9
 RI-RS initialization: radial shells                                          11
 RI-RS initialization: candidates per atom                                   418
 RI-RS initialization: retained points per atom                               91
 RI-RS initialization: largest cluster candidate count                      3546
 RI-RS initialization: most pivots in one cluster                           1168
 RI-RS initialization: most stored AO values in one cluster               405635
 RI-RS initialization: wall time [s]                                       0.326
 Started RI-RS grid optimization
 RI-RS grid initial normalized error                          7.903335135880E-04
 RI-RS grid optimization completed, execution time:                      101.9 s
 Normalized 3C error:                                                    1.9E-07
 Maximum absolute 3C error:                                              3.4E-03
 Optimized points outside molecular Voronoi cells:                           366 / 931
 Total grid points used for RI-RS:                                           931
 
 RI-RS grid row-blocks of Φ_μ(r_l)                                            35
 RI-RS grid points per block (max)                                            32
 
 Percentage of non-zero matrix elements in Φ_μ(r_l)                     100.00 %
 
 RI-RS memory estimate per MPI process:
   Available memory per process (system)                                32.36 GB
   Required for Z_lP (dense upper bound; actual is sparser)              0.00 GB
   Required for χ, W, Σ panels (peak per panel step)                     0.00 GB
   Required for Z_lP solve peak (D_local+φ, worst-case atom)             0.01 GB
   Worst-case local-grid number of grid points:                              931
   Worst-case memory D_local:                                            0.01 GB
 
 Started computing Z_lP
 Computed Z_lP (MPI rank 0) for atom          1 /  2,    Execution time    0.1 s
 Computed Z_lP (MPI rank 0) for atom          2 /  2,    Execution time    0.0 s
 Computed Z_lP (all MPI ranks) for all atoms,            Execution time    0.1 s

 Number of batches for χ, Σ matrices                                           1
 
 Percentage of non-zero matrix elements in Z_lP                         100.00 %
 Percentage of non-zero matrix elements in G_ll', χ_ll', W_ll'          100.00 %
 Percentage of non-zero matrix elements in χ_PQ for time point 1        100.00 %
 
 Computed χ(iτ,k=0) for time point            1 / 30,    Execution time    0.0 s
 Computed χ(iτ,k=0) for time point            2 / 30,    Execution time    0.0 s
 Computed χ(iτ,k=0) for time point            3 / 30,    Execution time    0.0 s
 Computed χ(iτ,k=0) for time point            4 / 30,    Execution time    0.0 s
 Computed χ(iτ,k=0) for time point            5 / 30,    Execution time    0.0 s
 Computed χ(iτ,k=0) for time point            6 / 30,    Execution time    0.0 s
 Computed χ(iτ,k=0) for time point            7 / 30,    Execution time    0.0 s
 Computed χ(iτ,k=0) for time point            8 / 30,    Execution time    0.0 s
 Computed χ(iτ,k=0) for time point            9 / 30,    Execution time    0.0 s
 Computed χ(iτ,k=0) for time point           10 / 30,    Execution time    0.0 s
 Computed χ(iτ,k=0) for time point           11 / 30,    Execution time    0.0 s
 Computed χ(iτ,k=0) for time point           12 / 30,    Execution time    0.0 s
 Computed χ(iτ,k=0) for time point           13 / 30,    Execution time    0.0 s
 Computed χ(iτ,k=0) for time point           14 / 30,    Execution time    0.0 s
 Computed χ(iτ,k=0) for time point           15 / 30,    Execution time    0.0 s
 Computed χ(iτ,k=0) for time point           16 / 30,    Execution time    0.0 s
 Computed χ(iτ,k=0) for time point           17 / 30,    Execution time    0.0 s
 Computed χ(iτ,k=0) for time point           18 / 30,    Execution time    0.0 s
 Computed χ(iτ,k=0) for time point           19 / 30,    Execution time    0.0 s
 Computed χ(iτ,k=0) for time point           20 / 30,    Execution time    0.0 s
 Computed χ(iτ,k=0) for time point           21 / 30,    Execution time    0.0 s
 Computed χ(iτ,k=0) for time point           22 / 30,    Execution time    0.0 s
 Computed χ(iτ,k=0) for time point           23 / 30,    Execution time    0.0 s
 Computed χ(iτ,k=0) for time point           24 / 30,    Execution time    0.0 s
 Computed χ(iτ,k=0) for time point           25 / 30,    Execution time    0.0 s
 Computed χ(iτ,k=0) for time point           26 / 30,    Execution time    0.0 s
 Computed χ(iτ,k=0) for time point           27 / 30,    Execution time    0.0 s
 Computed χ(iτ,k=0) for time point           28 / 30,    Execution time    0.0 s
 Computed χ(iτ,k=0) for time point           29 / 30,    Execution time    0.0 s
 Computed χ(iτ,k=0) for time point           30 / 30,    Execution time    0.0 s
 
 Computed W(iτ),                                         Execution time    0.3 s
 
 Computed Σ^x(k=0),                                      Execution time    0.0 s
 
 Computed Σ^c(iτ) for time point              1 / 30,    Execution time    0.0 s
 Computed Σ^c(iτ) for time point              2 / 30,    Execution time    0.0 s
 Computed Σ^c(iτ) for time point              3 / 30,    Execution time    0.0 s
 Computed Σ^c(iτ) for time point              4 / 30,    Execution time    0.0 s
 Computed Σ^c(iτ) for time point              5 / 30,    Execution time    0.0 s
 Computed Σ^c(iτ) for time point              6 / 30,    Execution time    0.0 s
 Computed Σ^c(iτ) for time point              7 / 30,    Execution time    0.0 s
 Computed Σ^c(iτ) for time point              8 / 30,    Execution time    0.0 s
 Computed Σ^c(iτ) for time point              9 / 30,    Execution time    0.0 s
 Computed Σ^c(iτ) for time point             10 / 30,    Execution time    0.0 s
 Computed Σ^c(iτ) for time point             11 / 30,    Execution time    0.0 s
 Computed Σ^c(iτ) for time point             12 / 30,    Execution time    0.0 s
 Computed Σ^c(iτ) for time point             13 / 30,    Execution time    0.0 s
 Computed Σ^c(iτ) for time point             14 / 30,    Execution time    0.0 s
 Computed Σ^c(iτ) for time point             15 / 30,    Execution time    0.0 s
 Computed Σ^c(iτ) for time point             16 / 30,    Execution time    0.0 s
 Computed Σ^c(iτ) for time point             17 / 30,    Execution time    0.0 s
 Computed Σ^c(iτ) for time point             18 / 30,    Execution time    0.0 s
 Computed Σ^c(iτ) for time point             19 / 30,    Execution time    0.0 s
 Computed Σ^c(iτ) for time point             20 / 30,    Execution time    0.0 s
 Computed Σ^c(iτ) for time point             21 / 30,    Execution time    0.0 s
 Computed Σ^c(iτ) for time point             22 / 30,    Execution time    0.0 s
 Computed Σ^c(iτ) for time point             23 / 30,    Execution time    0.0 s
 Computed Σ^c(iτ) for time point             24 / 30,    Execution time    0.0 s
 Computed Σ^c(iτ) for time point             25 / 30,    Execution time    0.0 s
 Computed Σ^c(iτ) for time point             26 / 30,    Execution time    0.0 s
 Computed Σ^c(iτ) for time point             27 / 30,    Execution time    0.0 s
 Computed Σ^c(iτ) for time point             28 / 30,    Execution time    0.0 s
 Computed Σ^c(iτ) for time point             29 / 30,    Execution time    0.0 s
 Computed Σ^c(iτ) for time point             30 / 30,    Execution time    0.0 s

 *** WARNING in post_scf_bandstructure_utils.F:3164 :: G0W0 reorders the   ***
 *** empty levels: the SCF conduction band minimum (SCF LUMO) is level 19, ***
 *** whereas the G0W0 conduction band minimum (G0W0 LUMO) is level 21. The ***
 *** SCF and G0W0 band edges printed below therefore belong to different   ***
 *** orbitals; see the eigenvalues in the file bandstructure_SCF_and_G0W0. ***

 
 SCF valence band maximum (eV):                                           -5.022
 SCF conduction band minimum (eV):                                        -1.107
 SCF indirect band gap (eV):                                               3.915
 SCF direct band gap (eV):                                                 3.915
 
 G0W0 valence band maximum (eV):                                          -6.934
 G0W0 conduction band minimum (eV):                                        1.413
 G0W0 indirect band gap (eV):                                              8.347
 G0W0 direct band gap (eV):                                                8.347
 
 Hartree-Fock with SCF orbitals valence band maximum (eV):                -8.005
 Hartree-Fock with SCF orbitals conduction band minimum (eV)               2.279
 Hartree-Fock with SCF orbitals indirect band gap (eV):                   10.284
 Hartree-Fock with SCF orbitals direct band gap (eV):                     10.284

 ENERGY| Total FORCE_EVAL ( QS ) energy [hartree]            -48.198294613631688

 -------------------------------------------------------------------------------
 -                                                                             -
 -                                DBCSR STATISTICS                             -
 -                                                                             -
 -------------------------------------------------------------------------------
 COUNTER                                    TOTAL       BLAS       SMM       ACC
 flops    18 x    18 x    18                46656       0.0%    100.0%      0.0%     
 flops     6 x     6 x    18               181440       0.0%    100.0%      0.0%     
 flops     6 x    18 x    31               234360       0.0%    100.0%      0.0%     
 flops     6 x    18 x    38               287280       0.0%    100.0%      0.0%     
 flops    18 x    18 x    31               301320       0.0%    100.0%      0.0%     
 flops     6 x    13 x    18               336960       0.0%    100.0%      0.0%     
 flops    13 x     6 x    18               351000       0.0%    100.0%      0.0%     
 flops    18 x    18 x    38               369360       0.0%    100.0%      0.0%     
 flops     6 x    18 x    32               483840       0.0%    100.0%      0.0%     
 flops    13 x    18 x    31               507780       0.0%    100.0%      0.0%     
 flops     6 x    18 x    18               517104       0.0%    100.0%      0.0%     
 flops    18 x    18 x    32               622080       0.0%    100.0%      0.0%     
 flops    13 x    18 x    38               622440       0.0%    100.0%      0.0%     
 flops     6 x    18 x     6               762048       0.0%    100.0%      0.0%     
 flops    13 x    13 x    18               851760       0.0%    100.0%      0.0%     
 flops    13 x    18 x    32              1048320       0.0%    100.0%      0.0%     
 flops    13 x    18 x    18              1120392       0.0%    100.0%      0.0%     
 flops    24 x    24 x    10              1451520       0.0%    100.0%      0.0%     
 flops    13 x    18 x     6              1651104       0.0%    100.0%      0.0%     
 flops     6 x    18 x    13              1651104       0.0%    100.0%      0.0%     
 flops    24 x    28 x    10              1706880       0.0%    100.0%      0.0%     
 flops    24 x    27 x    10              3240000       0.0%    100.0%      0.0%     
 flops    24 x    29 x    10              3563520       0.0%    100.0%      0.0%     
 flops    13 x    18 x    13              3577392       0.0%    100.0%      0.0%     
 flops    31 x    24 x    10              3749760       0.0%    100.0%      0.0%     
 flops    24 x    31 x    10              3749760       0.0%    100.0%      0.0%     
 flops    24 x    32 x    10              3870720       0.0%    100.0%      0.0%     
 flops    24 x    24 x    27              4167936       0.0%    100.0%      0.0%     
 flops    10 x    24 x    10              4392000       0.0%    100.0%      0.0%     
 flops    31 x    28 x    10              4409440       0.0%    100.0%      0.0%     
 flops    24 x    26 x    10              4704960       0.0%    100.0%      0.0%     
 flops    26 x    24 x    10              4717440       0.0%    100.0%      0.0%     
 flops    24 x    28 x    27              4862592       0.0%    100.0%      0.0%     
 flops    10 x    10 x    25              4975000       0.0%    100.0%      0.0%     
 flops    10 x    28 x    10              5101600       0.0%    100.0%      0.0%     
 flops    26 x    28 x    10              5547360       0.0%    100.0%      0.0%     
 flops    10 x    24 x    26              5765760       0.0%    100.0%      0.0%     
 flops    10 x    10 x    32              6368000       0.0%    100.0%      0.0%     
 flops    10 x    28 x    26              6726720       0.0%    100.0%      0.0%     
 flops    10 x    24 x    31              6874560       0.0%    100.0%      0.0%     
 flops     6 x     6 x    10              7439760       0.0%    100.0%      0.0%     
 flops    10 x    28 x    31              8020320       0.0%    100.0%      0.0%     
 flops    31 x    27 x    10              8370000       0.0%    100.0%      0.0%     
 flops    27 x    32 x    10              8709120       0.0%    100.0%      0.0%     
 flops    31 x    29 x    10              9205760       0.0%    100.0%      0.0%     
 flops    24 x    27 x    27              9342864       0.0%    100.0%      0.0%     
 flops    31 x    31 x    10              9686880       0.0%    100.0%      0.0%     
 flops    10 x    27 x    10              9855000       0.0%    100.0%      0.0%     
 flops    31 x    32 x    10              9999360       0.0%    100.0%      0.0%     
 flops    24 x    29 x    27             10072512       0.0%    100.0%      0.0%     
 flops    32 x    32 x    10             10321920       0.0%    100.0%      0.0%     
 flops    26 x    27 x    10             10530000       0.0%    100.0%      0.0%     
 flops    10 x    29 x    10             10608200       0.0%    100.0%      0.0%     
 flops    24 x    31 x    27             10726992       0.0%    100.0%      0.0%     
 flops    31 x    24 x    27             10767168       0.0%    100.0%      0.0%     
 flops    24 x    32 x    27             11031552       0.0%    100.0%      0.0%     
 flops    26 x    29 x    10             11581440       0.0%    100.0%      0.0%     
 flops    31 x    26 x    10             12154480       0.0%    100.0%      0.0%     
 flops    26 x    31 x    10             12186720       0.0%    100.0%      0.0%     
 flops    10 x     6 x    10             12326400       0.0%    100.0%      0.0%     
 flops    31 x    28 x    27             12561696       0.0%    100.0%      0.0%     
 flops    26 x    32 x    10             12579840       0.0%    100.0%      0.0%     
 flops    10 x    27 x    26             12972960       0.0%    100.0%      0.0%     
 flops    24 x    26 x    27             13478400       0.0%    100.0%      0.0%     
 flops    26 x    24 x    27             13545792       0.0%    100.0%      0.0%     
 flops    27 x    10 x    25             13878000       0.0%    100.0%      0.0%     
 flops    10 x    27 x    25             13878000       0.0%    100.0%      0.0%     
 flops    10 x    29 x    26             13933920       0.0%    100.0%      0.0%     
 flops    10 x    26 x    10             14227200       0.0%    100.0%      0.0%     
 flops    24 x    24 x    32             14671872       0.0%    100.0%      0.0%     
 flops    10 x    10 x    38             15124000       0.0%    100.0%      0.0%     
 flops    26 x    26 x    10             15291120       0.0%    100.0%      0.0%     
 flops    10 x    27 x    31             15467760       0.0%    100.0%      0.0%     
 flops    27 x    24 x    26             15567552       0.0%    100.0%      0.0%     
 flops    27 x    24 x    10             15759360       0.0%    100.0%      0.0%     
 flops    26 x    28 x    27             15803424       0.0%    100.0%      0.0%     
 flops    13 x     6 x    10             16206840       0.0%    100.0%      0.0%     
 flops     6 x    13 x    10             16514160       0.0%    100.0%      0.0%     
 flops    10 x    29 x    31             16613520       0.0%    100.0%      0.0%     
 flops    10 x    24 x    27             16679520       0.0%    100.0%      0.0%     
 flops    10 x    31 x    10             16994200       0.0%    100.0%      0.0%     
 flops    24 x    28 x    32             17246208       0.0%    100.0%      0.0%     
 flops    27 x    10 x    32             17763840       0.0%    100.0%      0.0%     
 flops    10 x    10 x    84             18076800       0.0%    100.0%      0.0%     
 flops    27 x    28 x    26             18162144       0.0%    100.0%      0.0%     
 flops    10 x    10 x    85             18292000       0.0%    100.0%      0.0%     
 flops    27 x    28 x    10             18416160       0.0%    100.0%      0.0%     
 flops    27 x    24 x    31             18561312       0.0%    100.0%      0.0%     
 flops    10 x    26 x    26             18738720       0.0%    100.0%      0.0%     
 flops    10 x    28 x    27             19489680       0.0%    100.0%      0.0%     
 flops    10 x     6 x     6             20716560       0.0%    100.0%      0.0%     
 flops     6 x     6 x    27             20810520       0.0%    100.0%      0.0%     
 flops    27 x    28 x    31             21654864       0.0%    100.0%      0.0%     
 flops    10 x    26 x    31             22342320       0.0%    100.0%      0.0%     
 flops    10 x    31 x    26             22342320       0.0%    100.0%      0.0%     
 flops    10 x    10 x   112             24102400       0.0%    100.0%      0.0%     
 flops    31 x    27 x    27             24135732       0.0%    100.0%      0.0%     
 flops    27 x    32 x    27             24820992       0.0%    100.0%      0.0%     
 flops    10 x    10 x     6             25509600       0.0%    100.0%      0.0%     
 flops    31 x    29 x    27             26020656       0.0%    100.0%      0.0%     
 flops    10 x    31 x    31             26638920       0.0%    100.0%      0.0%     
 flops    10 x    13 x    10             26899600       0.0%    100.0%      0.0%     
 flops    31 x    31 x    27             27711396       0.0%    100.0%      0.0%     
 flops    31 x    32 x    27             28498176       0.0%    100.0%      0.0%     
 flops    32 x    32 x    27             29417472       0.0%    100.0%      0.0%     
 flops    26 x    27 x    27             30364308       0.0%    100.0%      0.0%     
 flops    26 x    29 x    27             32735664       0.0%    100.0%      0.0%     
 flops    24 x    27 x    32             32970240       0.0%    100.0%      0.0%     
 flops    27 x     6 x    10             34301880       0.0%    100.0%      0.0%     
 flops    31 x    26 x    27             34819200       0.0%    100.0%      0.0%     
 flops    26 x    31 x    27             34862724       0.0%    100.0%      0.0%     
 flops    27 x    27 x    26             35026992       0.0%    100.0%      0.0%     
 flops    27 x    27 x    10             35429400       0.0%    100.0%      0.0%     
 flops    24 x    29 x    32             35546112       0.0%    100.0%      0.0%     
 flops    10 x     6 x    27             35776080       0.0%    100.0%      0.0%     
 flops    26 x    32 x    27             35852544       0.0%    100.0%      0.0%     
 flops    13 x    13 x    10             35956440       0.0%    100.0%      0.0%     
 flops    27 x    27 x    25             37507050       0.0%    100.0%      0.0%     
 flops    10 x    27 x    27             37616400       0.0%    100.0%      0.0%     
 flops    27 x    29 x    26             37621584       0.0%    100.0%      0.0%     
 flops    24 x    31 x    32             37664256       0.0%    100.0%      0.0%     
 flops    31 x    24 x    32             37902336       0.0%    100.0%      0.0%     
 flops    27 x    29 x    10             38273040       0.0%    100.0%      0.0%     
 flops    24 x    32 x    32             38780928       0.0%    100.0%      0.0%     
 flops    10 x    29 x    27             40308840       0.0%    100.0%      0.0%     
 flops    27 x    27 x    31             41762952       0.0%    100.0%      0.0%     
 flops    27 x    10 x    38             42189120       0.0%    100.0%      0.0%     
 flops    10 x    27 x    38             42189120       0.0%    100.0%      0.0%     
 flops    26 x    26 x    27             43804800       0.0%    100.0%      0.0%     
 flops    31 x    28 x    32             44552704       0.0%    100.0%      0.0%     
 flops    10 x    24 x    32             44697600       0.0%    100.0%      0.0%     
 flops    27 x    29 x    31             44856504       0.0%    100.0%      0.0%     
 flops    13 x     6 x    27             45102096       0.0%    100.0%      0.0%     
 flops    10 x    13 x     6             46096440       0.0%    100.0%      0.0%     
 flops    10 x     6 x    13             46190040       0.0%    100.0%      0.0%     
 flops     6 x    13 x    27             47385000       0.0%    100.0%      0.0%     
 flops    24 x    26 x    32             47603712       0.0%    100.0%      0.0%     
 flops    26 x    24 x    32             47683584       0.0%    100.0%      0.0%     
 flops    32 x    24 x    10             47861760       0.0%    100.0%      0.0%     
 flops    27 x    10 x    84             48898080       0.0%    100.0%      0.0%     
 flops    10 x    27 x    84             48898080       0.0%    100.0%      0.0%     
 flops    32 x    10 x    25             49120000       0.0%    100.0%      0.0%     
 flops    10 x    32 x    25             49120000       0.0%    100.0%      0.0%     
 flops    27 x    10 x    85             49480200       0.0%    100.0%      0.0%     
 flops    10 x    27 x    85             49480200       0.0%    100.0%      0.0%     
 flops    27 x    26 x    26             50594544       0.0%    100.0%      0.0%     
 flops    27 x    26 x    10             51246000       0.0%    100.0%      0.0%     
 flops    10 x    28 x    32             52236800       0.0%    100.0%      0.0%     
 flops    10 x    26 x    27             54250560       0.0%    100.0%      0.0%     
 flops    32 x    24 x    26             55351296       0.0%    100.0%      0.0%     
 flops    32 x    28 x    10             55802880       0.0%    100.0%      0.0%     
 flops    27 x    24 x    27             56022192       0.0%    100.0%      0.0%     
 flops    26 x    28 x    32             56050176       0.0%    100.0%      0.0%     
 flops    27 x     6 x     6             56805624       0.0%    100.0%      0.0%     
 flops    27 x    31 x    10             56899260       0.0%    100.0%      0.0%     
 flops    10 x    10 x    13             56927000       0.0%    100.0%      0.0%     
 flops    27 x    26 x    31             60324264       0.0%    100.0%      0.0%     
 flops    27 x    31 x    26             60324264       0.0%    100.0%      0.0%     
 flops    32 x    10 x    32             62873600       0.0%    100.0%      0.0%     
 flops    10 x    32 x    32             62873600       0.0%    100.0%      0.0%     
 flops    32 x    28 x    26             64576512       0.0%    100.0%      0.0%     
 flops    10 x    31 x    27             64599660       0.0%    100.0%      0.0%     
 flops    27 x    10 x   112             65197440       0.0%    100.0%      0.0%     
 flops    10 x    27 x   112             65197440       0.0%    100.0%      0.0%     
 flops    27 x    28 x    27             65400048       0.0%    100.0%      0.0%     
 flops    32 x    24 x    31             65995776       0.0%    100.0%      0.0%     
 flops    10 x    27 x     6             70039080       0.0%    100.0%      0.0%     
 flops    27 x    10 x     6             71639640       0.0%    100.0%      0.0%     
 flops    27 x    31 x    31             71925084       0.0%    100.0%      0.0%     
 flops     6 x     6 x    32             74237184       0.0%    100.0%      0.0%     
 flops    27 x    13 x    10             74784060       0.0%    100.0%      0.0%     
 flops    32 x    28 x    31             76995072       0.0%    100.0%      0.0%     
 flops    10 x    13 x    27             79220700       0.0%    100.0%      0.0%     
 flops    31 x    27 x    32             85173120       0.0%    100.0%      0.0%     
 flops    31 x    29 x    32             91827456       0.0%    100.0%      0.0%     
 flops    31 x    31 x    32             97299328       0.0%    100.0%      0.0%     
 flops    27 x     6 x    27             99578484       0.0%    100.0%      0.0%     
 flops    31 x    32 x    32            100184064       0.0%    100.0%      0.0%     
 flops    10 x    13 x    13            102282180       0.0%    100.0%      0.0%     
 flops    13 x    13 x    27            102694878       0.0%    100.0%      0.0%     
 flops    26 x    27 x    32            107153280       0.0%    100.0%      0.0%     
 flops    32 x    27 x    10            107568000       0.0%    100.0%      0.0%     
 flops    10 x    29 x    32            108112000       0.0%    100.0%      0.0%     
 flops    27 x    27 x    38            114021432       0.0%    100.0%      0.0%     
 flops    26 x    29 x    32            115524864       0.0%    100.0%      0.0%     
 flops    32 x    29 x    10            115851520       0.0%    100.0%      0.0%     
 flops    10 x    27 x    32            118368000       0.0%    100.0%      0.0%     
 flops    32 x     6 x    10            122181120       0.0%    100.0%      0.0%     
 flops    26 x    31 x    32            122408832       0.0%    100.0%      0.0%     
 flops    31 x    26 x    32            122976256       0.0%    100.0%      0.0%     
 flops    32 x    27 x    26            124540416       0.0%    100.0%      0.0%     
 flops    26 x    32 x    32            126038016       0.0%    100.0%      0.0%     
 flops    27 x    27 x    27            126049932       0.0%    100.0%      0.0%     
 flops    27 x     6 x    13            126178884       0.0%    100.0%      0.0%     
 flops    27 x    13 x     6            126178884       0.0%    100.0%      0.0%     
 flops    10 x     6 x    32            126766080       0.0%    100.0%      0.0%     
 flops    27 x    27 x    84            132024816       0.0%    100.0%      0.0%     
 flops    32 x    27 x    25            133358400       0.0%    100.0%      0.0%     
 flops    27 x    32 x    25            133358400       0.0%    100.0%      0.0%     
 flops    27 x    27 x    85            133596540       0.0%    100.0%      0.0%     
 flops    32 x    29 x    26            133765632       0.0%    100.0%      0.0%     
 flops    27 x    29 x    27            135471528       0.0%    100.0%      0.0%     
 flops    10 x    26 x    32            145450240       0.0%    100.0%      0.0%     
 flops    32 x    27 x    31            148490496       0.0%    100.0%      0.0%     
 flops    32 x    10 x    38            149324800       0.0%    100.0%      0.0%     
 flops    10 x    32 x    38            149324800       0.0%    100.0%      0.0%     
 flops    26 x    26 x    32            154712064       0.0%    100.0%      0.0%     
 flops    32 x    26 x    10            155650560       0.0%    100.0%      0.0%     
 flops    10 x    27 x    13            156054600       0.0%    100.0%      0.0%     
 flops    27 x    24 x    32            158796288       0.0%    100.0%      0.0%     
 flops    32 x    29 x    31            159489792       0.0%    100.0%      0.0%     
 flops    27 x    10 x    13            159740100       0.0%    100.0%      0.0%     
 flops    13 x     6 x    32            161056896       0.0%    100.0%      0.0%     
 flops     6 x    13 x    32            167261952       0.0%    100.0%      0.0%     
 flops    10 x    31 x    32            173223040       0.0%    100.0%      0.0%     
 flops    32 x    10 x    84            173859840       0.0%    100.0%      0.0%     
 flops    10 x    32 x    84            173859840       0.0%    100.0%      0.0%     
 flops    32 x    24 x    27            175468032       0.0%    100.0%      0.0%     
 flops    32 x    10 x    85            175929600       0.0%    100.0%      0.0%     
 flops    10 x    32 x    85            175929600       0.0%    100.0%      0.0%     
 flops    27 x    27 x   112            176033088       0.0%    100.0%      0.0%     
 flops    32 x    26 x    26            179891712       0.0%    100.0%      0.0%     
 flops    32 x    31 x    10            180345600       0.0%    100.0%      0.0%     
 flops    27 x    26 x    27            181996308       0.0%    100.0%      0.0%     
 flops    27 x    28 x    32            185504256       0.0%    100.0%      0.0%     
 flops    27 x    27 x     6            197153676       0.0%    100.0%      0.0%     
 flops    32 x     6 x     6            201307392       0.0%    100.0%      0.0%     
 flops    32 x    28 x    27            204857856       0.0%    100.0%      0.0%     
 flops    27 x    31 x    27            204972930       0.0%    100.0%      0.0%     
 flops    32 x    26 x    31            214486272       0.0%    100.0%      0.0%     
 flops    32 x    31 x    26            214486272       0.0%    100.0%      0.0%     
 flops    27 x    13 x    27            220719330       0.0%    100.0%      0.0%     
 flops    32 x    10 x   112            231813120       0.0%    100.0%      0.0%     
 flops    10 x    32 x   112            231813120       0.0%    100.0%      0.0%     
 flops    10 x    32 x     6            248206080       0.0%    100.0%      0.0%     
 flops    32 x    10 x     6            253113600       0.0%    100.0%      0.0%     
 flops    32 x    31 x    31            255733632       0.0%    100.0%      0.0%     
 flops    27 x    32 x    32            257955840       0.0%    100.0%      0.0%     
 flops    32 x    13 x    10            266864000       0.0%    100.0%      0.0%     
 flops    27 x    13 x    13            278388630       0.0%    100.0%      0.0%     
 flops    10 x    13 x    32            279335680       0.0%    100.0%      0.0%     
 flops    27 x     6 x    32            352273536       0.0%    100.0%      0.0%     
 flops    32 x     6 x    27            354170880       0.0%    100.0%      0.0%     
 flops    13 x    13 x    32            362876800       0.0%    100.0%      0.0%     
 flops    27 x    29 x    32            384058368       0.0%    100.0%      0.0%     
 flops    32 x    27 x    27            395176320       0.0%    100.0%      0.0%     
 flops    27 x    27 x    32            405347328       0.0%    100.0%      0.0%     
 flops    32 x    27 x    38            405409536       0.0%    100.0%      0.0%     
 flops    27 x    32 x    38            405409536       0.0%    100.0%      0.0%     
 flops    32 x    29 x    27            424147968       0.0%    100.0%      0.0%     
 flops    27 x    27 x    13            440585730       0.0%    100.0%      0.0%     
 flops    32 x    13 x     6            447238272       0.0%    100.0%      0.0%     
 flops    32 x     6 x    13            447747456       0.0%    100.0%      0.0%     
 flops    32 x    27 x    84            469421568       0.0%    100.0%      0.0%     
 flops    27 x    32 x    84            469421568       0.0%    100.0%      0.0%     
 flops    32 x    32 x    25            473958400       0.0%    100.0%      0.0%     
 flops    32 x    27 x    85            475009920       0.0%    100.0%      0.0%     
 flops    27 x    32 x    85            475009920       0.0%    100.0%      0.0%     
 flops    32 x    24 x    32            482426880       0.0%    100.0%      0.0%     
 flops    27 x    26 x    32            515728512       0.0%    100.0%      0.0%     
 flops    10 x    32 x    13            553080320       0.0%    100.0%      0.0%     
 flops    32 x    28 x    32            563232768       0.0%    100.0%      0.0%     
 flops    32 x    10 x    13            563630080       0.0%    100.0%      0.0%     
 flops    32 x    26 x    27            570495744       0.0%    100.0%      0.0%     
 flops    27 x    31 x    32            572213376       0.0%    100.0%      0.0%     
 flops    32 x    27 x   112            625895424       0.0%    100.0%      0.0%     
 flops    27 x    32 x   112            625895424       0.0%    100.0%      0.0%     
 flops    32 x    31 x    27            665421696       0.0%    100.0%      0.0%     
 flops    32 x    27 x     6            695765376       0.0%    100.0%      0.0%     
 flops    27 x    32 x     6            698336640       0.0%    100.0%      0.0%     
 flops    32 x    32 x    32            710082560       0.0%    100.0%      0.0%     
 flops    27 x    13 x    32            777142080       0.0%    100.0%      0.0%     
 flops    32 x    13 x    27            785903040       0.0%    100.0%      0.0%     
 flops    32 x    13 x    13            988290368       0.0%    100.0%      0.0%     
 flops    32 x    29 x    32           1166399488       0.0%    100.0%      0.0%     
 flops    32 x     6 x    32           1254604800       0.0%    100.0%      0.0%     
 flops    32 x    27 x    32           1256988672       0.0%    100.0%      0.0%     
 flops    32 x    32 x    38           1440833536       0.0%    100.0%      0.0%     
 flops    32 x    27 x    13           1553655168       0.0%    100.0%      0.0%     
 flops    27 x    32 x    13           1559900160       0.0%    100.0%      0.0%     
 flops    32 x    26 x    32           1568632832       0.0%    100.0%      0.0%     
 flops    32 x    32 x    84           1669054464       0.0%    100.0%      0.0%     
 flops    32 x    32 x    85           1688924160       0.0%    100.0%      0.0%     
 flops    32 x    31 x    32           1817026560       0.0%    100.0%      0.0%     
 flops    32 x    32 x   112           2225405952       0.0%    100.0%      0.0%     
 flops    32 x    32 x     6           2465378304       0.0%    100.0%      0.0%     
 flops    32 x    13 x    32           2767884288       0.0%    100.0%      0.0%     
 flops    32 x    32 x    13           5500704768       0.0%    100.0%      0.0%     
 flops inhomo. stacks                 17467695168     100.0%      0.0%      0.0%
 flops total                        78.514226E+09      22.2%     77.8%      0.0%
 flops max/rank                     11.673452E+09      23.7%     76.3%      0.0%
 matmuls inhomo. stacks                    196838     100.0%      0.0%      0.0%
 matmuls total                            3337603       5.9%     94.1%      0.0%
 number of processed stacks                622817       2.3%     97.7%      0.0%
 average stack size                                    13.6       5.2       0.0
 marketing flops                   108.247835E+09
 -------------------------------------------------------------------------------
 # multiplications                            547
 max memory usage/rank              28.703113E+09
 # max total images/rank                        2
 # max 3D layers                                1
 # MPI messages exchanged                   21880
 MPI messages size (bytes):
  total size                         3.412705E+09
  min size                           0.000000E+00
  max size                           1.038336E+06
  average size                     155.973719E+03
 MPI breakdown and total messages size (bytes):
             size <=      128                4353                        0
       128 < size <=     8192                1095                  6745720
      8192 < size <=    32768                1267                 16464216
     32768 < size <=   131072                8788                813098584
    131072 < size <=  4194304                6377               2576395512
   4194304 < size <= 16777216                   0                        0
  16777216 < size                               0                        0
 -------------------------------------------------------------------------------

 *** WARNING in dbcsr_mm.F:301 :: Using a non-square number of MPI ranks ***
 *** might lead to poor performance. Used ranks: 8 Suggested: 9 16       ***

 -------------------------------------------------------------------------------
 -                                                                             -
 -                      DBCSR MESSAGE PASSING PERFORMANCE                      -
 -                                                                             -
 -------------------------------------------------------------------------------
 ROUTINE             CALLS      AVE VOLUME [Bytes]
 MP_Bcast              289                     12.
 MP_Allreduce         2895                     20.
 MP_Alltoall          3511                  14465.
 MP_ISend             9942                  45824.
 MP_IRecv             9264                  47822.
 -------------------------------------------------------------------------------

 -------------------------------------------------------------------------------
 -                                                                             -
 -                                GRID STATISTICS                              -
 -                                                                             -
 -------------------------------------------------------------------------------
 LP    KERNEL             BACKEND                              COUNT     PERCENT
 3     collocate ortho    CPU                                   1390      24.54%
 3     integrate ortho    CPU                                   1390      24.54%
 4     collocate ortho    CPU                                    815      14.39%
 4     integrate ortho    CPU                                    815      14.39%
 2     collocate ortho    CPU                                    620      10.95%
 2     integrate ortho    CPU                                    620      10.95%
 0     collocate general  CPU                                     14       0.25%
 -------------------------------------------------------------------------------

 -------------------------------------------------------------------------------
 -                                                                             -
 -                          OFFLOAD MEMPOOL STATISTICS                         -
 -                                                                             -
 -------------------------------------------------------------------------------
 Memory consumption                Number of allocations  Used [MiB]  Size [MiB]
 Host                                                  6         135    22286705
 -------------------------------------------------------------------------------

 MEMORY| Estimated peak process memory [MiB]                                4196

 -------------------------------------------------------------------------------
 -                                                                             -
 -                         MESSAGE PASSING PERFORMANCE                         -
 -                                                                             -
 -------------------------------------------------------------------------------

 ROUTINE             CALLS      AVE VOLUME [Bytes]
 MP_Group                5
 MP_Bcast              382                 241873.
 MP_Allreduce         2007                   7446.
 MP_Sync                10
 MP_Alltoall           103              184621395.
 MP_SendRecv            70                 995072.
 MP_ISendRecv           70                 995072.
 MP_Wait               385
 MP_comm_split           7
 MP_ISend              252                5391695.
 MP_IRecv              252                5391695.
 -------------------------------------------------------------------------------


 -------------------------------------------------------------------------------
 -                                                                             -
 -                           R E F E R E N C E S                               -
 -                                                                             -
 -------------------------------------------------------------------------------
 
 CP2K version 2026.2 (Development Version), the CP2K developers group (2026).
 CP2K is freely available from https://www.cp2k.org/ .
 
 M. Iannuzzi, J. Wilhelm, F. Stein, A. Bussy, H. Elgabarty, D. Golze, A. Hehn, 
 M. Graml, S. Marek, B. Sertcan Gökmen, C. Schran, H. Forbert, R. Z. 
 Khaliullin, A. Kozhevnikov, M. Taillefumier, R. Meli, V. V. Rybkin, M. Brehm, 
 R. Schade, O. Schütt, J. V. Pototschnig, H. Mirhosseini, A. Knüpfer, D. Marx, 
 M. Krack, J. Hutter, T. D. Kühne.
 J. Phys. Chem. B 130, 1237-1310 (2026).
 The CP2K Program Package Made Simple.
 https://doi.org/10.1021/acs.jpcb.5c05851

 M. Graml, K. Zollner, D. Hernangómez-Pérez, P. E. Faria Junior, J. Wilhelm.
 J. Chem. Theory Comput. 20, 2202-2208 (2024).
 Low-scaling GW algorithm applied to twisted transition-metal dichalcogenide 
 heterobilayers.
 https://doi.org/10.1021/acs.jctc.3c01230

 T. D. Kühne, M. Iannuzzi, M. Del Ben, V. V. Rybkin, P. Seewald, F. Stein, T. 
 Laino, R. Z. Khaliullin, O. Schütt, F. Schiffmann, D. Golze, J. Wilhelm, S. 
 Chulkov, M. H. Bani-Hashemian, V. Weber, U. Borstnik, M. Taillefumier, A. S. 
 Jakobovits, A. Lazzaro, H. Pabst, T. Müller, R. Schade, M. Guidon, S. 
 Andermatt, N. Holmberg, G. K. Schenter, A. Hehn, A. Bussy, F. Belleflamme, G. 
 Tabacchi, A. Glöß, M. Lass, I. Bethune, C. J. Mundy, C. Plessl, M. Watkins, 
 J. VandeVondele, M. Krack, J. Hutter.
 J. Chem. Phys. 152, 194103 (2020).
 CP2K: An electronic structure and molecular dynamics software package - 
 Quickstep: Efficient and accurate electronic structure calculations.
 https://doi.org/10.1063/5.0007045

 O. Schuett, P. Messmer, J. Hutter, J. VandeVondele.
 Electronic Structure Calculations on Graphics Processing Units, 173-190 (2016).
 GPU-Accelerated Sparse Matrix-Matrix Multiplication for Linear Scaling Density 
 Functional Theory.
 https://doi.org/10.1002/9781118670712.ch8

 U. Borstnik, J. VandeVondele, V. Weber, J. Hutter.
 Parallel Comput. 40, 47-58 (2014).
 Sparse matrix multiplication: The distributed block-compressed sparse row 
 library.
 https://doi.org/10.1016/j.parco.2014.03.012

 J. VandeVondele, J. Hutter.
 J. Chem. Phys. 127, 114105 (2007).
 Gaussian basis sets for accurate calculations on molecular systems in gas and 
 condensed phases.
 https://doi.org/10.1063/1.2770708

 J. VandeVondele, M. Krack, F. Mohamed, M. Parrinello, T. Chassaing, J. Hutter.
 Comput. Phys. Commun. 167, 103-128 (2005).
 QUICKSTEP: Fast and accurate density functional calculations using a mixed 
 Gaussian and plane waves approach.
 https://doi.org/10.1016/j.cpc.2004.12.014

 M. Krack.
 Theor. Chem. Acc. 114, 145-152 (2005).
 Pseudopotentials for H to Kr optimized for gradient-corrected 
 exchange-correlation functionals.
 https://doi.org/10.1007/s00214-005-0655-y

 M. Frigo, S. G. Johnson.
 Proc. IEEE 93, 216-231 (2005).
 The design and implementation of FFTW3.
 https://doi.org/10.1109/JPROC.2004.840301

 J. VandeVondele, J. Hutter.
 J. Chem. Phys. 118, 4365-4369 (2003).
 An efficient orbital transformation method for electronic structure 
 calculations.
 https://doi.org/10.1063/1.1543154

 C. Hartwigsen, S. Goedecker, J. Hutter.
 Phys. Rev. B 58, 3641-3662 (1998).
 Relativistic separable dual-space Gaussian pseudopotentials from H to Rn.
 https://doi.org/10.1103/PhysRevB.58.3641

 G. Lippert, J. Hutter, M. Parrinello.
 Mol. Phys. 92, 477-487 (1997).
 A hybrid Gaussian and plane wave density functional scheme.
 https://doi.org/10.1080/002689797170220

 S. Goedecker, M. Teter, J. Hutter.
 Phys. Rev. B 54, 1703-1710 (1996).
 Separable dual-space Gaussian pseudopotentials.
 https://doi.org/10.1103/PhysRevB.54.1703

 J. P. Perdew, K. Burke, M. Ernzerhof.
 Phys. Rev. Lett. 77, 3865-3868 (1996).
 Generalized gradient approximation made simple.
 https://doi.org/10.1103/PhysRevLett.77.3865

 P. E. Blöchl.
 J. Chem. Phys. 103, 7422-7428 (1995).
 Electrostatic decoupling of periodic images of plane‐wave‐expanded 
 densities and derived atomic point charges.
 https://doi.org/10.1063/1.470314

 R. H. Byrd, P. H. Lu, J. Nocedal, C. Y. Zhu.
 SIAM J. Sci. Comput. 16, 1190-1208 (1995).
 A Limited Memory Algorithm for Bound Constrained Optimization.
 https://doi.org/10.1137/0916069


 -------------------------------------------------------------------------------
 -                                                                             -
 -                                T I M I N G                                  -
 -                                                                             -
 -------------------------------------------------------------------------------
 SUBROUTINE                       CALLS  ASD         SELF TIME        TOTAL TIME MAXRANK
                                MAXIMUM       AVERAGE  MAXIMUM  AVERAGE  MAXIMUM
 CP2K                                 1  1.0    0.088    0.088  119.540  119.540       0
 qs_energies                          1  2.0    0.246    0.246  118.044  118.044       5
 qs_energies_properties               1  3.0    0.011    0.011  107.930  107.930       5
 post_scf_bandstructure               1  4.0    0.002    0.002  107.919  107.919       3
 gw                                   1  5.0    0.000    0.000  107.803  107.819       4
 gw_calc_non_periodic_ri_rs           1  6.0    0.000    0.000  103.483  103.499       5
 ri_rs_grid_assembler                 1  7.0    0.001    0.001  102.249  102.249       4
 optimize_ri_rs_grid                  1  8.0    0.000    0.000  101.922  101.922       0
 rirs_grid_LBFGS                      1  9.0    0.893    1.191   99.798  101.547       3
 evaluate_rirs_grid_cluster         602 10.0    6.254    9.320   62.132   97.382       3
 mp_sum_d                           815  5.3   36.780   92.115   36.780   92.115       6
 rirs_cluster_gradient_coordina     602 11.0   16.854   27.953   16.854   27.953       3
 rirs_cluster_gradient_products     602 11.0   14.104   21.660   14.104   21.660       3
 rirs_cluster_AO_products           602 11.0    9.447   13.639    9.447   13.639       1
 rirs_cluster_residual              602 11.0    7.383   12.501    7.383   12.501       3
 scf_env_do_scf                       1  3.0    0.007    0.007    8.445    8.445       4
 rirs_cluster_d_lP                  602 11.0    4.155    7.565    4.155    7.565       3
 scf_env_do_scf_inner_loop            4  4.0    0.003    0.004    6.736    6.817       0
 rirs_cluster_D_ll                  602 11.0    3.935    6.234    3.935    6.234       3
 qs_ks_build_kohn_sham_matrix         5  7.2    0.039    0.040    6.121    6.121       0
 qs_ks_update_qs_env                  5  5.0    0.000    0.000    5.674    5.674       4
 rebuild_ks_matrix                    4  6.0    0.000    0.000    5.672    5.673       7
 fft_wrap_pw1pw2                     79 10.2    0.002    0.002    4.814    5.005       2
 fft_wrap_pw1pw2_300                 49 11.6    0.263    0.268    4.635    4.826       0
 create_and_init_bs_env_for_gw        1  6.0    0.022    0.025    4.320    4.320       1
 qs_vxc_create                        5  8.2    0.004    0.004    3.753    3.755       7
 xc_vxc_pw_create                     4  9.0    0.126    0.130    3.749    3.751       7
 fft3d_ps                            79 12.2    2.018    2.043    3.386    3.573       3
 rirs_grid_build_clusters             1  9.0    1.470    2.294    2.123    3.324       3
 generate_auto_ri_basis               1  7.0    0.001    0.001    3.046    3.046       6
 qs_rho_update_rho_low                5  5.0    0.000    0.000    3.002    3.030       6
 calculate_rho_elec                   5  6.0    0.108    0.109    3.002    3.030       0
 xc_pw_derive                        24 11.0    0.000    0.000    2.677    2.870       4
 xc_pw_divergence                     4 10.0    0.000    0.000    1.822    2.011       5
 xc_rho_set_and_dset_create           4 10.0    0.091    0.092    1.762    1.889       4
 init_scf_loop                        1  4.0    0.024    0.024    1.621    1.621       2
 density_rs2pw                        5  7.0    0.000    0.000    1.370    1.374       4
 compute_M_pq_inv_and_V_pq            1  8.0    0.000    0.000    1.366    1.367       3
 compute_contracted_RI_matrix         2  9.0    0.007    0.007    1.336    1.337       5
 compute_M_PQ_AB                    866 11.0    0.001    0.001    1.258    1.334       1
 compute_M_PQ                       866 12.0    0.001    0.002    1.256    1.332       0
 int_operators_r12_ab_os            866 13.0    0.024    0.024    1.255    1.331       0
 compute_optimized_RI_matrix_bl      28 10.0    0.058    0.064    1.256    1.326       0
 grid_collocate_task_list             5  7.0    1.308    1.312    1.308    1.312       6
 int_operator_ab_os_low             866 14.0    0.512    0.541    1.231    1.307       0
 abc_contract_xsmm                37300 10.1    0.709    1.108    0.709    1.108       3
 mp_alltoall_z22v                    79 14.2    0.840    1.044    0.840    1.044       0
 qs_init_subsys                       1  2.0    0.021    0.021    1.021    1.021       5
 qs_env_setup                         1  3.0    0.005    0.005    0.986    0.986       7
 sum_up_and_integrate                 5  8.2    0.000    0.000    0.975    0.976       3
 qs_env_rebuild_pw_env                2  3.5    0.000    0.000    0.972    0.972       4
 pw_env_rebuild                       1  5.0    0.013    0.013    0.972    0.972       5
 integrate_v_rspace                   5  9.2    0.000    0.000    0.954    0.955       6
 pw_grid_setup                        5  5.2    0.002    0.002    0.954    0.954       6
 pw_grid_setup_internal               5  6.2    0.018    0.019    0.952    0.952       0
 potential_pw2rs                      5 10.2    0.003    0.004    0.930    0.931       7
 yz_to_x                             38 12.6    0.254    0.256    0.677    0.869       1
 compute_AB_optimized_RI_basis        1  8.0    0.046    0.046    0.860    0.860       3
 pw_grid_sort                         5  7.2    0.563    0.565    0.832    0.838       4
 compute_AA_optimized_RI_basis        1  8.0    0.221    0.221    0.818    0.819       3
 compute_AB_optimized_RI_basis_       1  9.0    0.000    0.000    0.799    0.813       4
 qs_ks_ddapc                          5  8.2    0.001    0.001    0.702    0.704       1
 x_to_yz                             41 13.8    0.257    0.262    0.675    0.690       6
 init_scf_run                         1  3.0    0.007    0.007    0.681    0.682       2
 scf_env_initial_rho_setup            1  4.0    0.003    0.004    0.673    0.673       0
 dbcsr_multiply_generic             547  9.6    0.013    0.013    0.610    0.617       1
 mp_bcast_dm                         68  9.4    0.396    0.597    0.396    0.597       6
 pw_poisson_solve                     5  8.2    0.006    0.007    0.574    0.575       3
 compute_B_PQ_AB                      6 10.0    0.102    0.136    0.418    0.571       3
 setup_time_and_frequency_minim       1  7.0    0.008    0.010    0.560    0.563       0
 mp_sum_dm                          100 10.9    0.318    0.512    0.318    0.512       7
 compute_Sigma_c_and_QP_energie       1  7.0    0.000    0.000    0.474    0.490       4
 pw_scatter_p                        41 12.8    0.445    0.451    0.445    0.451       1
 compute_Sigma_c                      1  8.0    0.000    0.001    0.450    0.450       0
 pw_derive                           39 11.3    0.449    0.450    0.449    0.450       5
 compute_V_xc                         1  7.0    0.001    0.001    0.450    0.450       0
 cp_fm_get_submatrix                 96 10.0    0.048    0.048    0.310    0.439       1
 operator2                       525552 15.0    0.409    0.438    0.409    0.438       1
 xc_functional_eval                   4 11.0    0.001    0.001    0.281    0.408       0
 pbe_lda_eval                         4 12.0    0.280    0.406    0.280    0.406       4
 pw_gather_p                         38 11.6    0.397    0.404    0.397    0.404       2
 pw_copy                             76 10.5    0.393    0.395    0.393    0.395       5
 contract_grid_panels_sigma_c        30  9.0    0.001    0.001    0.389    0.389       0
 transfer_rs2pw                      21  7.9    0.000    0.000    0.378    0.382       1
 qs_energies_init_hamiltonians        1  3.0    0.006    0.006    0.376    0.376       1
 transfer_pw2rs                      20 11.2    0.000    0.000    0.365    0.365       1
 scf_post_calculation_gpw             1  3.0    0.057    0.057    0.339    0.339       2
 pw_integral_ab_c1d_c1d_gs           10  9.7    0.331    0.335    0.337    0.338       0
 ab_contract                     527230 15.0    0.311    0.334    0.311    0.334       1
 copy_dbcsr_to_fm                   104  9.5    0.001    0.001    0.194    0.332       5
 build_grid_cache                     1  8.0    0.001    0.001    0.327    0.327       1
 initialize_cholesky_rirs_grids       1  9.0    0.189    0.321    0.326    0.326       3
 mp_waitany                         252 11.4    0.308    0.320    0.308    0.320       2
 compute_W                            1  7.0    0.000    0.000    0.314    0.315       4
 initialize_auto_ri_integrals         2  9.0    0.037    0.299    0.300    0.301       0
 mp_alltoall_i22                    375 11.4    0.161    0.300    0.161    0.300       6
 dbcsr_desymmetrize_deep            104 10.5    0.002    0.002    0.160    0.298       7
 contract_B_PQ                       28 11.9    0.191    0.279    0.204    0.297       3
 multiply_cannon                    547 10.6    0.027    0.028    0.287    0.296       1
 transfer_rs2pw_300                   6  8.7    0.154    0.158    0.287    0.293       5
 qs_env_update_s_mstruct              1  4.0    0.001    0.001    0.290    0.290       6
 pw_poisson_set                       6  8.7    0.000    0.001    0.285    0.286       0
 get_mat_chi_Gamma_tau                1  7.0    0.000    0.000    0.279    0.279       0
 sort_shells                          5  8.2    0.269    0.273    0.269    0.273       4
 transfer_pw2rs_300                   5 12.2    0.124    0.127    0.260    0.264       0
 contract_grid_panels                31  8.0    0.001    0.001    0.256    0.262       6
 create_qs_kind_set                   1  2.0    0.010    0.010    0.242    0.243       1
 mp_alltoall_d11v                  1135 11.7    0.211    0.243    0.211    0.243       7
 rs_scatter_matrices                  5  7.0    0.012    0.013    0.210    0.238       0
 read_qs_kind                         3  3.0    0.081    0.087    0.233    0.233       0
 calculate_rho_core                   1  5.0    0.031    0.031    0.232    0.233       4
 cp_ddapc_apply_CD                    5  9.2    0.005    0.005    0.225    0.226       0
 qs_scf_print_scf_summary             1  5.0    0.028    0.225    0.028    0.225       0
 cp_fm_gemm                         434 10.5    0.212    0.221    0.212    0.221       2
 parallel_gemm_fm_gemm              431  9.6    0.000    0.000    0.211    0.220       4
 multiply_cannon_loop               547 11.6    0.015    0.015    0.211    0.217       5
 get_rpa_minimax_coeff_larger_g       1  8.0    0.207    0.210    0.207    0.210       0
 compute_B_PQ_transition             14 10.9    0.011    0.085    0.113    0.207       0
 pw_axpy                             55  8.1    0.201    0.205    0.201    0.205       2
 make_m2s                          1094 10.6    0.006    0.006    0.195    0.201       5
 compute_fm_W_freq                   30  8.0    0.000    0.000    0.197    0.199       1
 write_available_results              1  4.0    0.031    0.031    0.198    0.198       6
 write_mo_set_to_restart              4  5.0    0.005    0.036    0.117    0.198       0
 write_mo_set_low                     1  6.0    0.000    0.000    0.112    0.190       3
 pw_copy_to_array                    38 11.6    0.185    0.188    0.185    0.188       0
 make_images                       1094 11.6    0.036    0.038    0.171    0.177       5
 compute_B_PQ_AA                     14  9.0    0.002    0.014    0.168    0.173       0
 mp_sum_root_rm                      14 10.0    0.150    0.172    0.150    0.172       6
 read_gw_input_parameters             1  7.0    0.000    0.000    0.167    0.167       4
 write_mo_free_results                1  5.0    0.005    0.006    0.164    0.164       6
 qs_scf_post_transport                1  6.0    0.156    0.156    0.156    0.156       6
 parser_read_line                 38276  4.0    0.007    0.007    0.152    0.155       2
 check_gw_input                       1  8.0    0.154    0.154    0.154    0.154       2
 compute_Z_lP                         1  7.0    0.000    0.000    0.151    0.152       4
 compute_Z_lP_auto_ri                 1  8.0    0.000    0.000    0.151    0.152       4
 cp_fm_write_unformatted              1  7.0    0.056    0.149    0.075    0.149       3
 mp_recv_dv                           3  8.0    0.019    0.149    0.019    0.149       0
 parser_read_line_low                44  5.0    0.008    0.046    0.145    0.149       0
 compute_B_PQ_exchange               14 10.9    0.000    0.000    0.102    0.148       1
 broadcast_input_information         44  6.0    0.010    0.029    0.138    0.147       0
 fft_wrap_pw1pw2_100                 10 10.6    0.008    0.008    0.134    0.138       0
 multiply_cannon_multrec           2188 12.6    0.121    0.132    0.124    0.135       7
 pw_copy_from_array                  41 12.8    0.125    0.127    0.125    0.127       4
 get_l_sq_wghts_cos_tf_t_to_w         1  8.0    0.120    0.121    0.120    0.121       4
 -------------------------------------------------------------------------------

 The number of warnings for this run is : 2
 
 -------------------------------------------------------------------------------
  **** **** ******  **  PROGRAM ENDED AT                 2026-09-17 10:39:30.859
 ***** ** ***  *** **   PROGRAM RAN ON                                  n2cn1022
 **    ****   ******    PROGRAM RAN BY                                  eprop2d1
 ***** **    ** ** **   PROGRAM PROCESS ID                                363990
  **** **  *******  **  PROGRAM STOPPED IN /scratch/hpc-prf-metdyn/eprop2d1_Jan/
                                           53_benchmark_RI_opt/109_GW100_GTH_Leb
                                           edev_riao3_rc3/calculations/90_C6H5NH
                                           2_r07
