 DBCSR| CPU Multiplication driver                                           XSMM (U)
 DBCSR| Multrec recursion limit                                              512 (U)
 DBCSR| Multiplication stack size                                           1000 (D)
 DBCSR| Maximum elements for images                                    UNLIMITED (U)
 DBCSR| Multiplicative factor virtual images                                   1 (U)
 DBCSR| Use multiplication densification                                       T (D)
 DBCSR| Multiplication size stacks                                             3 (U)
 DBCSR| Use memory pool for CPU allocation                                     F (U)
 DBCSR| Number of 3D layers                                               SINGLE (U)
 DBCSR| Use MPI memory allocation                                              F (U)
 DBCSR| Use RMA algorithm                                                      F (U)
 DBCSR| Use Communication thread                                               T (U)
 DBCSR| Communication thread load                                             57 (D)
 DBCSR| MPI: My process id                                                     4
 DBCSR| MPI: Number of processes                                              13
 DBCSR| OMP: Current number of threads                                         9
 DBCSR| OMP: Max number of threads                                             9
 DBCSR| Split modifier for TAS multiplication algorithm                  1.0E+00 (U)


  **** **** ******  **  PROGRAM STARTED AT               2026-10-03 12:15:30.664
 ***** ** ***  *** **   PROGRAM STARTED ON                              n2cn0370
 **    ****   ******    PROGRAM STARTED BY                              eprop2d1
 ***** **    ** ** **   PROGRAM PROCESS ID                               1054351
  **** **  *******  **  PROGRAM STARTED IN /scratch/hpc-prf-metdyn/eprop2d1_Jan/
                                           53_benchmark_RI_opt/418_gw100_fig5_fu
                                           ll_epsfilter_1e12_20261002/calculatio
                                           ns/rc3p0/ri3_rs09/64_AlI3

 CP2K| version string:                 CP2K version 2026.2 (Development Version)
 CP2K| source code revision number:                                   0671c5aa6c
 CP2K| cp2kflags: omp libint fftw3 libxc parallel scalapack openblas            
 CP2K| is freely available from                            https://www.cp2k.org/
 CP2K| Program compiled at                                   2026-09-20 09:25:26
 CP2K| Program compiled on                                              n2login5
 CP2K| Program compiled for                                               x86_64
 CP2K| Data directory path    /scratch/hpc-prf-metdyn/eprop2d1_Jan/53_benchmark_
 CP2K| Input file name                                                 input.inp
 
 eprop2d1@n2cn0370 has created rank and process                      0   1054351
 eprop2d1@n2cn0370 has created rank and process                      1   1054352
 eprop2d1@n2cn0370 has created rank and process                      2   1054353
 eprop2d1@n2cn0370 has created rank and process                      3   1054354
 
 eprop2d1@n2cn0370 is running                                        4 processes

 GLOBAL| Force Environment number                                              1
 GLOBAL| Basis set file name            /scratch/hpc-prf-metdyn/eprop2d1_Jan/53_
 GLOBAL| Potential file name            /scratch/hpc-prf-metdyn/eprop2d1_Jan/53_
 GLOBAL| MM Potential file name                                     MM_POTENTIAL
 GLOBAL| Coordinate file name                                      __STD_INPUT__
 GLOBAL| Method name                                                        CP2K
 GLOBAL| Project name                                             g418_c309_m064
 GLOBAL| Run type                                                         ENERGY
 GLOBAL| FFT library                                                       FFTW3
 GLOBAL| Diagonalization library                                       ScaLAPACK
 GLOBAL| Cholesky decomposition library                                ScaLAPACK
 GLOBAL| DGEMM library                                                      BLAS
 GLOBAL| Direct generalized diagonalization requested                          F
 GLOBAL| Orthonormality check for eigenvectors                          DISABLED
 GLOBAL| Matrix multiplication library                                 ScaLAPACK
 GLOBAL| All-to-all communication in single precision                          F
 GLOBAL| Grid backend                                                       AUTO
 GLOBAL| Global print level                                                  LOW
 GLOBAL| MPI I/O enabled                                                       T
 GLOBAL| Total number of message passing processes                             4
 GLOBAL| Number of distributed systems (nodes)                                 1
 GLOBAL| Number of threads for this process                                    9
 GLOBAL| This output is from process                                           0
 GLOBAL| OpenMP stack size per thread (OMP_STACKSIZE)                       512M
 GLOBAL| CPU model name                          AMD EPYC 7763 64-Core Processor

 MEMORY| system memory details [Kb]
 MEMORY|                        rank 0           min           max       average
 MEMORY| MemTotal            263897616     263897616     263897616     263897616
 MEMORY| MemFree             233768636     233768636     233768636     233768636
 MEMORY| Buffers                104840        104840        104840        104840
 MEMORY| Cached               10674816      10674816      10674816      10674816
 MEMORY| Slab                  2306340       2306340       2306340       2306340
 MEMORY| SReclaimable           676812        676812        676812        676812
 MEMORY| MemLikelyFree       245225104     245225104     245225104     245225104


 GENERATE|  Preliminary Number of Bonds generated:                             0
 GENERATE|  Achieved consistency in connectivity generation.

 *******************************************************************************
 *******************************************************************************
 **                                                                           **
 **     #####                         ##              ##                      **
 **    ##   ##            ##          ##              ##                      **
 **   ##     ##                       ##            ######                    **
 **   ##     ##  ##   ##  ##   #####  ##  ##   ####   ##    #####    #####    **
 **   ##     ##  ##   ##  ##  ##      ## ##   ##      ##   ##   ##  ##   ##   **
 **   ##  ## ##  ##   ##  ##  ##      ####     ###    ##   ######   ######    **
 **    ##  ###   ##   ##  ##  ##      ## ##      ##   ##   ##       ##        **
 **     #######   #####   ##   #####  ##  ##  ####    ##    #####   ##        **
 **           ##                                                    ##        **
 **                                                                           **
 **                                                ... make the atoms dance   **
 **                                                                           **
 **            Copyright (C) by CP2K developers group (2000-2026)             **
 **                      J. Chem. Phys. 152, 194103 (2020)                    **
 **                                                                           **
 *******************************************************************************


 TOTAL NUMBERS AND MAXIMUM NUMBERS

  Total number of            - Atomic kinds:                                   2
                             - Atoms:                                          4
                             - Shell sets:                                     4
                             - Shells:                                        36
                             - Primitive Cartesian functions:                 26
                             - Cartesian basis functions:                    136
                             - Spherical basis functions:                    116

  Maximum angular momentum of- Orbital basis functions:                        3
                             - Local part of the GTH pseudopotential:          0
                             - Non-local part of the GTH pseudopotential:      4


 SCF PARAMETERS         Density guess:                                   RESTART
                        --------------------------------------------------------
                        max_scf:                                             500
                        max_scf_history:                                       0
                        max_diis:                                              4
                        --------------------------------------------------------
                        eps_scf:                                        1.00E-08
                        eps_scf_history:                                0.00E+00
                        eps_diis:                                       0.00E+00
                        eps_eigval:                                     1.00E-05
                        --------------------------------------------------------
                        level_shift [a.u.]:                             0.000000
                        --------------------------------------------------------
                        Outer loop SCF in use 
                        No variables optimised in outer loop
                        eps_scf                                         1.00E-08
                        max_scf                                               20
                        No outer loop optimization
                        step_size                                       5.00E-01

 Extrapolation method: initial_guess

 Number of electrons:                                                         24
 Number of occupied orbitals:                                                 12
 Number of molecular orbitals:                                                12

 Number of orbital functions:                                                116
 Number of independent orbital functions:                                    116


 SCF WAVEFUNCTION OPTIMIZATION

  ----------------------------------- OT ---------------------------------------
  Minimizer      : DIIS                : direct inversion
                                         in the iterative subspace
                                         using   7 DIIS vectors
                                         safer DIIS on
  Preconditioner : FULL_KINETIC        : inversion of T + eS
  Lattice FFT   : OFF
  Precond_solver : DEFAULT
  stepsize       :    0.15000000                  energy_gap     :    0.20000000
  eps_taylor     :   0.10000E-15                  max_taylor     :             4
  ----------------------------------- OT ---------------------------------------

  Step     Update method      Time    Convergence         Total energy    Change
  ------------------------------------------------------------------------------
  Decoupling Energy:                                              -0.0000022143
     1 OT DIIS     0.15E+00    3.2     0.00000001       -36.5594752594 -3.66E+01
  Decoupling Energy:                                              -0.0000022143
     2 OT DIIS     0.15E+00    4.2     8.4729E-09       -36.5594752594 -2.84E-14

  *** SCF run converged in     2 steps ***


  Electronic density on regular grids:        -24.0000000000        0.0000000000
  Core density on regular grids:               23.9999999999       -0.0000000001
  Total charge density on r-space grids:       -0.0000000001
  Total charge density g-space grids:          -0.0000000001

  Overlap energy of the core charge distribution:               0.00000000129648
  Self energy of the core charge distribution:                -79.69177867612058
  Core Hamiltonian energy:                                     15.88746707501120
  Hartree energy:                                              34.76122426879657
  Exchange-correlation energy:                                 -7.51638792840135

  Total energy:                                               -36.55947525941768

  outer SCF iter =    1 RMS gradient =   0.85E-08 energy =        -36.5594752594
  outer SCF loop converged in   1 iterations or    2 steps

  
 -------------------------------------------------------------------------------
 -                                                                             -
 -                          BANDSTRUCTURE CALCULATION                          -
 -                                                                             -
 -------------------------------------------------------------------------------
  
 Number of occupied molecular orbitals (MOs) = Number of occupied bands       12
 Number of unoccupied (= virtual) MOs = Number of unoccupied bands           104
 Number of Gaussian basis functions for MOs                                  116
  
 -------------------------------------------------------------------------------
 -                                                                             -
 -                                GW CALCULATION                               -
 -                                                                             -
 -------------------------------------------------------------------------------
  
 Input: Number of time/freq. points                                           30
 Input: ω_max for fitting Σ(iω) (eV)                                        10.0
 Input: Filter threshold for sparse tensor operations                    1.0E-12
 Input: Apply Hedin shift                                                      F
 Detected: Available memory per MPI process                              49.2 GB
 
 Input: RI-RS Tikhonov regularization                                   1.00E-04
 Input: AO grid hard cutoff radius                                        8.00 Å
 Input: MPI ranks per atom in Z_lP solve                                      -1
 Input: Keep sparsity in χ/G/W panels                                          T
 Input: GW flavour                                                          G0W0
 
 Input: RI-RS grid optimization activated                                      T
 Input: RS points per AO function                                            9.0
 Input: Cutoff radius for atomic clusters                                  3.0 Å
 Input: Maximum grid optimization iterations                                 300
 
 Input: AUTO_RI basis optimization activated:                                  T
 Input: AUTO_RI number of RI functions per AO function:                      3.0
 Input: AUTO_RI frontier orbital window:                                  5.0 eV
 Input: AUTO_RI neighbor radius:                                           3.0 Å
 
 Cutoff radius for the truncated Coulomb operator in RI metric:            7.0 Å
 Regularization parameter of RI                                          0.0E+00
 Regularization parameter of minimax grids                               1.0E-06
 
 AUTO_RI| Number of automatic RI functions for χ, ε, W:                      348
 AUTO_RI| Total RI basis optimization time:                                0.7 s
  Decoupling Energy:                                              -0.0000022143
 
 SCF direct band gap (eV)                                                   3.82
 Max. SCF eigval diff. (eV)                                               124.21
 E-Range for minimax grid                                                  32.50
 Number of Padé parameters for analytic continuation:                         16
 
 RI-RS basis radii (Å):
     Kind  Elem     r_AO (Å)     r_RI (Å)
        1    Al        9.9428        7.1492
        2    I        12.4398        8.3031
 
 Started RI-RS grid optimization
 RI-RS grid initial normalized error                          1.211340105448E-03
 RI-RS grid optimization completed, execution time:                       31.6 s
 Normalized 3C error:                                                    2.3E-08
 Maximum absolute 3C error:                                              7.7E-04
 Optimized points outside molecular Voronoi cells:                           105 / 1044
 Total grid points used for RI-RS:                                          1044
 
 RI-RS grid row-blocks of ϕ_μ(r_l)                                            36
 RI-RS grid points per block (max)                                            32
 
 Percentage of non-zero matrix elements in ϕ_μ(r_l)                     100.00 %
 
 RI-RS memory estimate per MPI process:
   Available memory per process (system)                                62.24 GB
   Required for Z_lP (dense upper bound; actual is sparser)              0.00 GB
   Required for χ, W, Σ panels (peak per panel step)                     0.01 GB
   Required for Z_lP solve peak (D_local+ϕ, worst-case atom)             0.02 GB
   Worst-case local-grid number of grid points:                             1044
   Worst-case memory D_local:                                            0.01 GB
 
 Started computing Z_lP
 Computed Z_lP (MPI rank 0) for atom          1 /  1,    Execution time    0.1 s
 Computed Z_lP (all MPI ranks) for all atoms,            Execution time    0.2 s

 Memory per MPI process after computing Z_lP:
 Available memory per MPI process                               62.3 GB
 Used memory per MPI process                                     1.6 GB
 Number of batches for χ, Σ matrices                                           1
 
 Percentage of non-zero matrix elements in Z_lP                         100.00 %
 Percentage of non-zero matrix elements in G_ll', χ_ll', W_ll'          100.00 %
 Percentage of non-zero matrix elements in χ_PQ for time point 1        100.00 %
 
 Computed χ(iτ,k=0) for time point            1 / 30,    Execution time    0.0 s
 Computed χ(iτ,k=0) for time point            2 / 30,    Execution time    0.0 s
 Computed χ(iτ,k=0) for time point            3 / 30,    Execution time    0.0 s
 Computed χ(iτ,k=0) for time point            4 / 30,    Execution time    0.0 s
 Computed χ(iτ,k=0) for time point            5 / 30,    Execution time    0.0 s
 Computed χ(iτ,k=0) for time point            6 / 30,    Execution time    0.0 s
 Computed χ(iτ,k=0) for time point            7 / 30,    Execution time    0.0 s
 Computed χ(iτ,k=0) for time point            8 / 30,    Execution time    0.0 s
 Computed χ(iτ,k=0) for time point            9 / 30,    Execution time    0.0 s
 Computed χ(iτ,k=0) for time point           10 / 30,    Execution time    0.0 s
 Computed χ(iτ,k=0) for time point           11 / 30,    Execution time    0.0 s
 Computed χ(iτ,k=0) for time point           12 / 30,    Execution time    0.0 s
 Computed χ(iτ,k=0) for time point           13 / 30,    Execution time    0.0 s
 Computed χ(iτ,k=0) for time point           14 / 30,    Execution time    0.0 s
 Computed χ(iτ,k=0) for time point           15 / 30,    Execution time    0.0 s
 Computed χ(iτ,k=0) for time point           16 / 30,    Execution time    0.0 s
 Computed χ(iτ,k=0) for time point           17 / 30,    Execution time    0.0 s
 Computed χ(iτ,k=0) for time point           18 / 30,    Execution time    0.0 s
 Computed χ(iτ,k=0) for time point           19 / 30,    Execution time    0.0 s
 Computed χ(iτ,k=0) for time point           20 / 30,    Execution time    0.0 s
 Computed χ(iτ,k=0) for time point           21 / 30,    Execution time    0.0 s
 Computed χ(iτ,k=0) for time point           22 / 30,    Execution time    0.0 s
 Computed χ(iτ,k=0) for time point           23 / 30,    Execution time    0.0 s
 Computed χ(iτ,k=0) for time point           24 / 30,    Execution time    0.0 s
 Computed χ(iτ,k=0) for time point           25 / 30,    Execution time    0.0 s
 Computed χ(iτ,k=0) for time point           26 / 30,    Execution time    0.0 s
 Computed χ(iτ,k=0) for time point           27 / 30,    Execution time    0.0 s
 Computed χ(iτ,k=0) for time point           28 / 30,    Execution time    0.0 s
 Computed χ(iτ,k=0) for time point           29 / 30,    Execution time    0.0 s
 Computed χ(iτ,k=0) for time point           30 / 30,    Execution time    0.0 s
 
 Computed W(iτ),                                         Execution time    0.3 s
 
 Computed Σ^x(k=0),                                      Execution time    0.0 s
 
 Computed Σ^c(iτ) for time point              1 / 30,    Execution time    0.0 s
 Computed Σ^c(iτ) for time point              2 / 30,    Execution time    0.0 s
 Computed Σ^c(iτ) for time point              3 / 30,    Execution time    0.0 s
 Computed Σ^c(iτ) for time point              4 / 30,    Execution time    0.0 s
 Computed Σ^c(iτ) for time point              5 / 30,    Execution time    0.0 s
 Computed Σ^c(iτ) for time point              6 / 30,    Execution time    0.0 s
 Computed Σ^c(iτ) for time point              7 / 30,    Execution time    0.0 s
 Computed Σ^c(iτ) for time point              8 / 30,    Execution time    0.0 s
 Computed Σ^c(iτ) for time point              9 / 30,    Execution time    0.0 s
 Computed Σ^c(iτ) for time point             10 / 30,    Execution time    0.0 s
 Computed Σ^c(iτ) for time point             11 / 30,    Execution time    0.0 s
 Computed Σ^c(iτ) for time point             12 / 30,    Execution time    0.0 s
 Computed Σ^c(iτ) for time point             13 / 30,    Execution time    0.0 s
 Computed Σ^c(iτ) for time point             14 / 30,    Execution time    0.0 s
 Computed Σ^c(iτ) for time point             15 / 30,    Execution time    0.0 s
 Computed Σ^c(iτ) for time point             16 / 30,    Execution time    0.0 s
 Computed Σ^c(iτ) for time point             17 / 30,    Execution time    0.0 s
 Computed Σ^c(iτ) for time point             18 / 30,    Execution time    0.0 s
 Computed Σ^c(iτ) for time point             19 / 30,    Execution time    0.0 s
 Computed Σ^c(iτ) for time point             20 / 30,    Execution time    0.0 s
 Computed Σ^c(iτ) for time point             21 / 30,    Execution time    0.0 s
 Computed Σ^c(iτ) for time point             22 / 30,    Execution time    0.0 s
 Computed Σ^c(iτ) for time point             23 / 30,    Execution time    0.0 s
 Computed Σ^c(iτ) for time point             24 / 30,    Execution time    0.0 s
 Computed Σ^c(iτ) for time point             25 / 30,    Execution time    0.0 s
 Computed Σ^c(iτ) for time point             26 / 30,    Execution time    0.0 s
 Computed Σ^c(iτ) for time point             27 / 30,    Execution time    0.0 s
 Computed Σ^c(iτ) for time point             28 / 30,    Execution time    0.0 s
 Computed Σ^c(iτ) for time point             29 / 30,    Execution time    0.0 s
 Computed Σ^c(iτ) for time point             30 / 30,    Execution time    0.0 s
 
 SCF valence band maximum (eV):                                           -6.584
 SCF conduction band minimum (eV):                                        -2.762
 SCF indirect band gap (eV):                                               3.822
 SCF direct band gap (eV):                                                 3.822
 
 G0W0 valence band maximum (eV):                                          -8.841
 G0W0 conduction band minimum (eV):                                       -0.466
 G0W0 indirect band gap (eV):                                              8.375
 G0W0 direct band gap (eV):                                                8.375
 
 Hartree-Fock with SCF orbitals valence band maximum (eV):                -9.821
 Hartree-Fock with SCF orbitals conduction band minimum (eV)               1.270
 Hartree-Fock with SCF orbitals indirect band gap (eV):                   11.091
 Hartree-Fock with SCF orbitals direct band gap (eV):                     11.091

 ENERGY| Total FORCE_EVAL ( QS ) energy [hartree]            -36.559475259417681

 -------------------------------------------------------------------------------
 -                                                                             -
 -                                DBCSR STATISTICS                             -
 -                                                                             -
 -------------------------------------------------------------------------------
 COUNTER                                    TOTAL       BLAS       SMM       ACC
 flops    12 x    12 x    12                 6912     100.0%      0.0%      0.0%     
 flops     5 x     5 x    70                42000     100.0%      0.0%      0.0%     
 flops     5 x     5 x    87                69600     100.0%      0.0%      0.0%     
 flops     5 x     5 x    95                76000     100.0%      0.0%      0.0%     
 flops    12 x    12 x    58               233856     100.0%      0.0%      0.0%     
 flops    29 x    12 x    12               300672     100.0%      0.0%      0.0%     
 flops    29 x    29 x    12               605520     100.0%      0.0%      0.0%     
 flops    29 x    12 x    58               968832     100.0%      0.0%      0.0%     
 flops     5 x    70 x     5              1057000     100.0%      0.0%      0.0%     
 flops     5 x    87 x     5              1313700     100.0%      0.0%      0.0%     
 flops     5 x    95 x     5              1429750     100.0%      0.0%      0.0%     
 flops     5 x    96 x     5              1444800     100.0%      0.0%      0.0%     
 flops     5 x     5 x    58              1983600     100.0%      0.0%      0.0%     
 flops     5 x    32 x    70              2150400     100.0%      0.0%      0.0%     
 flops    29 x    12 x    29              2583552     100.0%      0.0%      0.0%     
 flops     5 x     5 x   165              2640000     100.0%      0.0%      0.0%     
 flops    32 x     5 x    70              2867200     100.0%      0.0%      0.0%     
 flops     5 x     5 x   183              2928000     100.0%      0.0%      0.0%     
 flops     5 x    29 x     5              3142150     100.0%      0.0%      0.0%     
 flops    32 x     5 x    87              3563520     100.0%      0.0%      0.0%     
 flops     5 x    32 x    87              3563520     100.0%      0.0%      0.0%     
 flops    70 x    70 x     5              3675000     100.0%      0.0%      0.0%     
 flops    32 x     5 x    95              3891200     100.0%      0.0%      0.0%     
 flops     5 x    32 x    95              3891200     100.0%      0.0%      0.0%     
 flops     5 x    70 x    70              4116000     100.0%      0.0%      0.0%     
 flops    87 x    70 x     5              4567500     100.0%      0.0%      0.0%     
 flops    70 x    87 x     5              4567500     100.0%      0.0%      0.0%     
 flops    70 x    95 x     5              4987500     100.0%      0.0%      0.0%     
 flops    95 x    70 x     5              4987500     100.0%      0.0%      0.0%     
 flops    70 x    96 x     5              5040000     100.0%      0.0%      0.0%     
 flops    96 x    70 x     5              5040000     100.0%      0.0%      0.0%     
 flops     5 x    87 x    70              5115600     100.0%      0.0%      0.0%     
 flops     5 x    70 x    87              5115600     100.0%      0.0%      0.0%     
 flops     5 x    70 x    95              5586000     100.0%      0.0%      0.0%     
 flops     5 x    95 x    70              5586000     100.0%      0.0%      0.0%     
 flops     5 x    96 x    70              5644800     100.0%      0.0%      0.0%     
 flops    87 x    87 x     5              5676750     100.0%      0.0%      0.0%     
 flops     5 x     5 x    29              6133500     100.0%      0.0%      0.0%     
 flops    87 x    95 x     5              6198750     100.0%      0.0%      0.0%     
 flops    95 x    87 x     5              6198750     100.0%      0.0%      0.0%     
 flops    87 x    96 x     5              6264000     100.0%      0.0%      0.0%     
 flops    96 x    87 x     5              6264000     100.0%      0.0%      0.0%     
 flops     5 x    87 x    87              6357960     100.0%      0.0%      0.0%     
 flops    95 x    95 x     5              6768750     100.0%      0.0%      0.0%     
 flops    96 x    95 x     5              6840000     100.0%      0.0%      0.0%     
 flops    95 x    96 x     5              6840000     100.0%      0.0%      0.0%     
 flops    96 x    96 x     5              6912000     100.0%      0.0%      0.0%     
 flops     5 x    87 x    95              6942600     100.0%      0.0%      0.0%     
 flops     5 x    95 x    87              6942600     100.0%      0.0%      0.0%     
 flops     5 x    96 x    87              7015680     100.0%      0.0%      0.0%     
 flops     5 x    95 x    95              7581000     100.0%      0.0%      0.0%     
 flops     5 x    96 x    95              7660800     100.0%      0.0%      0.0%     
 flops    29 x    29 x     5             18670200     100.0%      0.0%      0.0%     
 flops     5 x    29 x    29             47836080     100.0%      0.0%      0.0%     
 flops    32 x    70 x     5             55014400     100.0%      0.0%      0.0%     
 flops     5 x    70 x    32             55126400     100.0%      0.0%      0.0%     
 flops    32 x    87 x     5             68347200     100.0%      0.0%      0.0%     
 flops     5 x    87 x    32             68625600     100.0%      0.0%      0.0%     
 flops    32 x    95 x     5             74115200     100.0%      0.0%      0.0%     
 flops     5 x    95 x    32             74875200     100.0%      0.0%      0.0%     
 flops    32 x    96 x     5             75141120     100.0%      0.0%      0.0%     
 flops     5 x    96 x    32             75724800     100.0%      0.0%      0.0%     
 flops    32 x     5 x    58            103119360     100.0%      0.0%      0.0%     
 flops     5 x    32 x    58            103119360     100.0%      0.0%      0.0%     
 flops    32 x     5 x   165            135168000     100.0%      0.0%      0.0%     
 flops     5 x    32 x   165            135168000     100.0%      0.0%      0.0%     
 flops    32 x    32 x    70            146800640     100.0%      0.0%      0.0%     
 flops    32 x     5 x   183            149913600     100.0%      0.0%      0.0%     
 flops     5 x    32 x   183            149913600     100.0%      0.0%      0.0%     
 flops    32 x    29 x     5            163894080     100.0%      0.0%      0.0%     
 flops     5 x    29 x    32            165926400     100.0%      0.0%      0.0%     
 flops    32 x    32 x    87            182452224     100.0%      0.0%      0.0%     
 flops    70 x    70 x    32            190668800     100.0%      0.0%      0.0%     
 flops    32 x    32 x    95            199229440     100.0%      0.0%      0.0%     
 flops    32 x    70 x    70            210739200     100.0%      0.0%      0.0%     
 flops    87 x    70 x    32            236974080     100.0%      0.0%      0.0%     
 flops    70 x    87 x    32            236974080     100.0%      0.0%      0.0%     
 flops    70 x    95 x    32            258764800     100.0%      0.0%      0.0%     
 flops    95 x    70 x    32            258764800     100.0%      0.0%      0.0%     
 flops    70 x    96 x    32            261488640     100.0%      0.0%      0.0%     
 flops    96 x    70 x    32            261488640     100.0%      0.0%      0.0%     
 flops    32 x    87 x    70            261918720     100.0%      0.0%      0.0%     
 flops    32 x    70 x    87            261918720     100.0%      0.0%      0.0%     
 flops    32 x    70 x    95            286003200     100.0%      0.0%      0.0%     
 flops    32 x    95 x    70            286003200     100.0%      0.0%      0.0%     
 flops    32 x    96 x    70            289013760     100.0%      0.0%      0.0%     
 flops    87 x    87 x    32            294524928     100.0%      0.0%      0.0%     
 flops     5 x    32 x    29            316262400     100.0%      0.0%      0.0%     
 flops    32 x     5 x    29            318304000     100.0%      0.0%      0.0%     
 flops    87 x    95 x    32            321607680     100.0%      0.0%      0.0%     
 flops    95 x    87 x    32            321607680     100.0%      0.0%      0.0%     
 flops    87 x    96 x    32            324993024     100.0%      0.0%      0.0%     
 flops    96 x    87 x    32            324993024     100.0%      0.0%      0.0%     
 flops    32 x    87 x    87            325527552     100.0%      0.0%      0.0%     
 flops    95 x    95 x    32            351180800     100.0%      0.0%      0.0%     
 flops    96 x    95 x    32            354877440     100.0%      0.0%      0.0%     
 flops    95 x    96 x    32            354877440     100.0%      0.0%      0.0%     
 flops    32 x    87 x    95            355461120     100.0%      0.0%      0.0%     
 flops    32 x    95 x    87            355461120     100.0%      0.0%      0.0%     
 flops    96 x    96 x    32            358612992     100.0%      0.0%      0.0%     
 flops    32 x    96 x    87            359202816     100.0%      0.0%      0.0%     
 flops    32 x    95 x    95            388147200     100.0%      0.0%      0.0%     
 flops    32 x    96 x    95            392232960     100.0%      0.0%      0.0%     
 flops    29 x    29 x    32            964526080     100.0%      0.0%      0.0%     
 flops    32 x    29 x    29           2449207296     100.0%      0.0%      0.0%     
 flops    32 x    70 x    32           2924113920     100.0%      0.0%      0.0%     
 flops    32 x    87 x    32           3636215808     100.0%      0.0%      0.0%     
 flops    32 x    95 x    32           3969996800     100.0%      0.0%      0.0%     
 flops    32 x    96 x    32           4016308224     100.0%      0.0%      0.0%     
 flops    32 x    32 x    58           5351931904     100.0%      0.0%      0.0%     
 flops    32 x    32 x   165           6920601600     100.0%      0.0%      0.0%     
 flops    32 x    32 x   183           7675576320     100.0%      0.0%      0.0%     
 flops    32 x    29 x    32           8540450816     100.0%      0.0%      0.0%     
 flops    32 x    32 x    29          16299065344     100.0%      0.0%      0.0%     
 flops inhomo. stacks                  2029142016     100.0%      0.0%      0.0%
 flops total                        76.355291E+09     100.0%      0.0%      0.0%
 flops max/rank                     19.581142E+09     100.0%      0.0%      0.0%
 matmuls inhomo. stacks                      4320     100.0%      0.0%      0.0%
 matmuls total                             839471     100.0%      0.0%      0.0%
 number of processed stacks                 49272     100.0%      0.0%      0.0%
 average stack size                                    17.0       0.0       0.0
 marketing flops                   112.839082E+09
 -------------------------------------------------------------------------------
 # multiplications                           4152
 max memory usage/rank              25.589834E+09
 # max total images/rank                        1
 # max 3D layers                                1
 # MPI messages exchanged                    4152
 MPI messages size (bytes):
  total size                         1.559150E+09
  min size                           0.000000E+00
  max size                           2.179872E+06
  average size                     375.517750E+03
 MPI breakdown and total messages size (bytes):
             size <=      128                 707                        0
       128 < size <=     8192                  93                   460416
      8192 < size <=    32768                 400                 10751344
     32768 < size <=   131072                   0                        0
    131072 < size <=  4194304                2952               1547937856
   4194304 < size <= 16777216                   0                        0
  16777216 < size                               0                        0
 -------------------------------------------------------------------------------
 -                                                                             -
 -                      DBCSR MESSAGE PASSING PERFORMANCE                      -
 -                                                                             -
 -------------------------------------------------------------------------------
 ROUTINE             CALLS      AVE VOLUME [Bytes]
 MP_Bcast              115                     12.
 MP_Allreduce         2414                     19.
 MP_Alltoall          3427                  29286.
 MP_ISend             4754                  98146.
 MP_IRecv             4754                  97051.
 -------------------------------------------------------------------------------

 -------------------------------------------------------------------------------
 -                                                                             -
 -                                GRID STATISTICS                              -
 -                                                                             -
 -------------------------------------------------------------------------------
 LP    KERNEL             BACKEND                              COUNT     PERCENT
 6     collocate ortho    CPU                                  10176      49.69%
 6     integrate ortho    CPU                                  10176      49.69%
 0     collocate general  CPU                                    128       0.62%
 -------------------------------------------------------------------------------

 -------------------------------------------------------------------------------
 -                                                                             -
 -                          OFFLOAD MEMPOOL STATISTICS                         -
 -                                                                             -
 -------------------------------------------------------------------------------
 Memory consumption                Number of allocations  Used [MiB]  Size [MiB]
 Host                                                  6         176    22094889
 -------------------------------------------------------------------------------

 MEMORY| Estimated peak process memory [MiB]                                4864

 -------------------------------------------------------------------------------
 -                                                                             -
 -                         MESSAGE PASSING PERFORMANCE                         -
 -                                                                             -
 -------------------------------------------------------------------------------

 ROUTINE             CALLS      AVE VOLUME [Bytes]
 MP_Group                5
 MP_Bcast              875                 324047.
 MP_Allreduce          874                   9373.
 MP_Sync                10
 MP_Alltoall            63              235838550.
 MP_SendRecv            27                4871808.
 MP_ISendRecv           27                4871808.
 MP_Wait                83
 MP_comm_split          10
 MP_ISend               42               21026133.
 MP_IRecv               42               21026133.
 -------------------------------------------------------------------------------


 -------------------------------------------------------------------------------
 -                                                                             -
 -                           R E F E R E N C E S                               -
 -                                                                             -
 -------------------------------------------------------------------------------
 
 CP2K version 2026.2 (Development Version), the CP2K developers group (2026).
 CP2K is freely available from https://www.cp2k.org/ .
 
 M. Iannuzzi, J. Wilhelm, F. Stein, A. Bussy, H. Elgabarty, D. Golze, A. Hehn, 
 M. Graml, S. Marek, B. Sertcan Gökmen, C. Schran, H. Forbert, R. Z. 
 Khaliullin, A. Kozhevnikov, M. Taillefumier, R. Meli, V. V. Rybkin, M. Brehm, 
 R. Schade, O. Schütt, J. V. Pototschnig, H. Mirhosseini, A. Knüpfer, D. Marx, 
 M. Krack, J. Hutter, T. D. Kühne.
 J. Phys. Chem. B 130, 1237-1310 (2026).
 The CP2K Program Package Made Simple.
 https://doi.org/10.1021/acs.jpcb.5c05851

 M. Graml, K. Zollner, D. Hernangómez-Pérez, P. E. Faria Junior, J. Wilhelm.
 J. Chem. Theory Comput. 20, 2202-2208 (2024).
 Low-scaling GW algorithm applied to twisted transition-metal dichalcogenide 
 heterobilayers.
 https://doi.org/10.1021/acs.jctc.3c01230

 T. D. Kühne, M. Iannuzzi, M. Del Ben, V. V. Rybkin, P. Seewald, F. Stein, T. 
 Laino, R. Z. Khaliullin, O. Schütt, F. Schiffmann, D. Golze, J. Wilhelm, S. 
 Chulkov, M. H. Bani-Hashemian, V. Weber, U. Borstnik, M. Taillefumier, A. S. 
 Jakobovits, A. Lazzaro, H. Pabst, T. Müller, R. Schade, M. Guidon, S. 
 Andermatt, N. Holmberg, G. K. Schenter, A. Hehn, A. Bussy, F. Belleflamme, G. 
 Tabacchi, A. Glöß, M. Lass, I. Bethune, C. J. Mundy, C. Plessl, M. Watkins, 
 J. VandeVondele, M. Krack, J. Hutter.
 J. Chem. Phys. 152, 194103 (2020).
 CP2K: An electronic structure and molecular dynamics software package - 
 Quickstep: Efficient and accurate electronic structure calculations.
 https://doi.org/10.1063/5.0007045

 O. Schuett, P. Messmer, J. Hutter, J. VandeVondele.
 Electronic Structure Calculations on Graphics Processing Units, 173-190 (2016).
 GPU-Accelerated Sparse Matrix-Matrix Multiplication for Linear Scaling Density 
 Functional Theory.
 https://doi.org/10.1002/9781118670712.ch8

 U. Borstnik, J. VandeVondele, V. Weber, J. Hutter.
 Parallel Comput. 40, 47-58 (2014).
 Sparse matrix multiplication: The distributed block-compressed sparse row 
 library.
 https://doi.org/10.1016/j.parco.2014.03.012

 J. VandeVondele, J. Hutter.
 J. Chem. Phys. 127, 114105 (2007).
 Gaussian basis sets for accurate calculations on molecular systems in gas and 
 condensed phases.
 https://doi.org/10.1063/1.2770708

 J. VandeVondele, M. Krack, F. Mohamed, M. Parrinello, T. Chassaing, J. Hutter.
 Comput. Phys. Commun. 167, 103-128 (2005).
 QUICKSTEP: Fast and accurate density functional calculations using a mixed 
 Gaussian and plane waves approach.
 https://doi.org/10.1016/j.cpc.2004.12.014

 M. Krack.
 Theor. Chem. Acc. 114, 145-152 (2005).
 Pseudopotentials for H to Kr optimized for gradient-corrected 
 exchange-correlation functionals.
 https://doi.org/10.1007/s00214-005-0655-y

 M. Frigo, S. G. Johnson.
 Proc. IEEE 93, 216-231 (2005).
 The design and implementation of FFTW3.
 https://doi.org/10.1109/JPROC.2004.840301

 J. VandeVondele, J. Hutter.
 J. Chem. Phys. 118, 4365-4369 (2003).
 An efficient orbital transformation method for electronic structure 
 calculations.
 https://doi.org/10.1063/1.1543154

 C. Hartwigsen, S. Goedecker, J. Hutter.
 Phys. Rev. B 58, 3641-3662 (1998).
 Relativistic separable dual-space Gaussian pseudopotentials from H to Rn.
 https://doi.org/10.1103/PhysRevB.58.3641

 G. Lippert, J. Hutter, M. Parrinello.
 Mol. Phys. 92, 477-487 (1997).
 A hybrid Gaussian and plane wave density functional scheme.
 https://doi.org/10.1080/002689797170220

 S. Goedecker, M. Teter, J. Hutter.
 Phys. Rev. B 54, 1703-1710 (1996).
 Separable dual-space Gaussian pseudopotentials.
 https://doi.org/10.1103/PhysRevB.54.1703

 J. P. Perdew, K. Burke, M. Ernzerhof.
 Phys. Rev. Lett. 77, 3865-3868 (1996).
 Generalized gradient approximation made simple.
 https://doi.org/10.1103/PhysRevLett.77.3865

 P. E. Blöchl.
 J. Chem. Phys. 103, 7422-7428 (1995).
 Electrostatic decoupling of periodic images of plane‐wave‐expanded 
 densities and derived atomic point charges.
 https://doi.org/10.1063/1.470314

 R. H. Byrd, P. H. Lu, J. Nocedal, C. Y. Zhu.
 SIAM J. Sci. Comput. 16, 1190-1208 (1995).
 A Limited Memory Algorithm for Bound Constrained Optimization.
 https://doi.org/10.1137/0916069


 -------------------------------------------------------------------------------
 -                                                                             -
 -                                T I M I N G                                  -
 -                                                                             -
 -------------------------------------------------------------------------------
 SUBROUTINE                       CALLS  ASD         SELF TIME        TOTAL TIME MAXRANK
                                MAXIMUM       AVERAGE  MAXIMUM  AVERAGE  MAXIMUM
 CP2K                                 1  1.0    0.008    0.018   49.625   49.625       0
 qs_energies                          1  2.0    0.000    0.000   46.543   46.543       1
 qs_energies_properties               1  3.0    0.000    0.000   36.860   36.860       2
 post_scf_bandstructure               1  4.0    0.000    0.000   36.860   36.860       0
 run_gw                               1  5.0    0.000    0.000   36.839   36.848       1
 gw_calc_ri_rs_non_periodic           1  6.0    0.000    0.000   34.717   34.923       1
 optimize_ri_rs_grid                  1  7.0    0.000    0.000   33.299   33.508       0
 rirs_grid_LBFGS                      1  8.0    0.407    0.753   32.609   32.956       0
 evaluate_rirs_grid_cluster         104  9.0    1.171    2.636   10.687   30.810       0
 mp_sum_d                           545  3.3   21.632   29.168   21.632   29.168       1
 rirs_cluster_gradient_coordina     104 10.0    3.170    9.109    3.170    9.109       0
 rirs_cluster_gradient_products     104 10.0    2.724    8.373    2.724    8.373       0
 scf_env_do_scf                       1  3.0    0.000    0.000    8.302    8.302       0
 qs_ks_build_kohn_sham_matrix         3  7.3    0.003    0.004    7.330    7.330       1
 fft_wrap_pw1pw2                     45 10.1    0.001    0.002    6.550    6.776       2
 fft_wrap_pw1pw2_300                 27 11.4    0.329    0.364    6.265    6.523       1
 qs_ks_update_qs_env                  3  5.0    0.000    0.000    6.360    6.360       3
 rebuild_ks_matrix                    2  6.0    0.000    0.000    6.360    6.360       2
 scf_env_do_scf_inner_loop            2  4.0    0.000    0.000    5.111    5.111       0
 fft3d_ps                            45 12.1    2.615    2.958    4.795    5.040       1
 rirs_cluster_D_ll                  104 10.0    1.584    4.697    1.584    4.697       0
 qs_vxc_create                        3  8.3    0.000    0.000    4.357    4.379       1
 xc_vxc_pw_create                     2  9.0    0.097    0.105    4.357    4.379       3
 xc_pw_derive                        12 11.0    0.000    0.000    3.228    3.390       1
 init_scf_loop                        1  4.0    0.000    0.000    3.190    3.190       2
 qs_rho_update_rho_low                3  5.0    0.000    0.000    2.912    2.912       1
 calculate_rho_elec                   3  6.0    0.092    0.093    2.912    2.912       2
 qs_init_subsys                       1  2.0    0.001    0.001    2.591    2.594       3
 qs_env_setup                         1  3.0    0.000    0.000    2.590    2.592       1
 qs_env_rebuild_pw_env                2  3.5    0.000    0.000    2.590    2.591       0
 pw_env_rebuild                       1  5.0    0.000    0.000    2.590    2.591       1
 pw_grid_setup                        5  5.2    0.000    0.000    2.581    2.583       3
 pw_grid_setup_internal               5  6.2    0.026    0.029    2.581    2.583       3
 pw_grid_sort                         5  7.2    1.041    1.579    1.549    2.354       3
 xc_pw_divergence                     2 10.0    0.000    0.000    2.126    2.304       1
 create_and_init_bs_env_for_gw        1  6.0    0.005    0.006    2.123    2.244       1
 xc_rho_set_and_dset_create           2 10.0    0.072    0.091    2.081    2.222       3
 rirs_cluster_residual              104 10.0    0.728    2.108    0.728    2.108       0
 rirs_cluster_AO_products           104 10.0    0.662    2.092    0.662    2.092       0
 density_rs2pw                        3  7.0    0.000    0.000    1.937    2.038       1
 mp_alltoall_z22v                    45 14.1    1.231    1.847    1.231    1.847       2
 rirs_cluster_d_lP                  104 10.0    0.647    1.796    0.647    1.796       0
 rirs_grid_build_clusters             1  8.0    0.308    0.945    0.511    1.551       0
 x_to_yz                             23 13.8    0.583    0.681    1.136    1.396       1
 sum_up_and_integrate                 3  8.3    0.000    0.000    1.233    1.248       1
 integrate_v_rspace                   3  9.3    0.000    0.000    1.211    1.228       2
 yz_to_x                             22 12.5    0.362    0.431    1.040    1.223       3
 potential_pw2rs                      3 10.3    0.004    0.005    1.187    1.204       1
 pw_grid_remap                        4  8.0    0.024    0.047    0.867    1.160       3
 mp_sum_im3                           5  9.0    0.843    1.144    0.843    1.144       2
 qs_ks_ddapc                          3  8.3    0.000    0.000    0.948    1.000       2
 init_scf_run                         1  3.0    0.000    0.000    0.996    0.996       0
 scf_env_initial_rho_setup            1  4.0    0.000    0.000    0.996    0.996       0
 compute_V_xc                         1  7.0    0.000    0.000    0.971    0.971       1
 grid_collocate_task_list             3  7.0    0.858    0.921    0.858    0.921       2
 sort_shells                          5  8.2    0.508    0.774    0.508    0.774       3
 pw_poisson_solve                     3  8.3    0.000    0.000    0.685    0.727       2
 generate_auto_ri_basis               1  7.0    0.000    0.000    0.715    0.715       0
 abc_contract_xsmm                 1768  9.5    0.301    0.712    0.301    0.712       0
 pw_gather_p                         22 11.5    0.570    0.657    0.570    0.657       1
 pw_scatter_p                        23 12.8    0.519    0.601    0.519    0.601       1
 compute_Sigma_c_and_QP_energie       1  7.0    0.000    0.000    0.567    0.576       1
 compute_Sigma_c                      1  8.0    0.003    0.003    0.548    0.548       0
 pw_derive                           21 11.3    0.509    0.540    0.509    0.540       1
 setup_time_and_frequency_minim       1  7.0    0.000    0.000    0.403    0.523       0
 build_minimax_time_frequency_g       1  8.0    0.000    0.000    0.403    0.523       3
 fit_l_sq_weights                     3  9.0    0.403    0.523    0.403    0.523       2
 transfer_rs2pw                      13  7.8    0.000    0.000    0.433    0.516       2
 pw_copy                             44 10.5    0.471    0.503    0.471    0.503       2
 contract_grid_panels_sigma_c        30  9.0    0.435    0.437    0.497    0.498       0
 mp_sum_dm                           10 10.1    0.137    0.498    0.137    0.498       3
 compute_AB_optimized_RI_basis        1  8.0    0.000    0.000    0.492    0.492       0
 compute_AB_optimized_RI_basis_       1  9.0    0.000    0.000    0.368    0.492       1
 compute_B_PQ_AB                      1 10.0    0.074    0.099    0.353    0.471       2
 create_qs_kind_set                   1  2.0    0.000    0.000    0.457    0.460       1
 read_qs_kind                         2  3.0    0.235    0.257    0.457    0.460       3
 xc_functional_eval                   2 11.0    0.000    0.000    0.271    0.433       0
 pbe_lda_eval                         2 12.0    0.271    0.433    0.271    0.433       2
 transfer_rs2pw_300                   4  8.5    0.122    0.129    0.351    0.427       3
 pw_poisson_set                       4  8.5    0.000    0.000    0.371    0.413       2
 initialize_ri_rs_grid                1  8.0    0.080    0.200    0.179    0.388       0
 qs_energies_init_hamiltonians        1  3.0    0.000    0.000    0.385    0.385       2
 mp_waitany                          42 11.1    0.311    0.385    0.311    0.385       0
 qs_env_update_s_mstruct              1  4.0    0.000    0.000    0.382    0.382       0
 mp_bcast_dm                         10  9.7    0.099    0.358    0.099    0.358       3
 transfer_pw2rs                      12 11.3    0.000    0.000    0.355    0.355       2
 calculate_rho_core                   1  5.0    0.032    0.035    0.339    0.348       1
 pw_integral_ab_c1d_c1d_gs            6  9.8    0.299    0.307    0.323    0.334       3
 get_mat_chi_Gamma_tau                1  7.0    0.000    0.001    0.330    0.330       0
 compute_W                            1  7.0    0.000    0.000    0.325    0.325       0
 contract_grid_panels                31  8.0    0.280    0.290    0.316    0.325       3
 fft_wrap_pw1pw2_100                  6 10.7    0.011    0.014    0.233    0.310       1
 contract_B_PQ                        6 11.6    0.212    0.280    0.229    0.302       2
 cp_ddapc_apply_CD                    3  9.3    0.000    0.000    0.248    0.284       0
 transfer_pw2rs_300                   3 12.3    0.113    0.129    0.265    0.272       3
 parser_read_line                135417  4.0    0.022    0.024    0.222    0.234       3
 parallel_gemm_fm_gemm              431  9.6    0.000    0.000    0.223    0.226       2
 cp_fm_gemm                         434 10.5    0.222    0.226    0.222    0.226       2
 pw_axpy                             35  7.3    0.206    0.225    0.206    0.225       3
 parser_read_line_low               138  5.0    0.037    0.129    0.199    0.212       0
 broadcast_input_information        138  6.0    0.047    0.091    0.162    0.205       2
 compute_fm_W_freq                   30  8.0    0.000    0.000    0.200    0.202       3
 pw_copy_to_array                    22 11.5    0.185    0.195    0.185    0.195       3
 compute_Z_lP                         1  7.0    0.000    0.000    0.173    0.173       0
 compute_Z_lP_auto_ri                 1  8.0    0.000    0.000    0.173    0.173       3
 compute_B_PQ_transition              3 10.6    0.000    0.000    0.118    0.156       0
 compute_B_PQ_exchange                3 10.6    0.000    0.000    0.111    0.147       2
 compute_d_lp_auto_ri_batch           1  9.0    0.000    0.000    0.137    0.144       0
 compute_d_lp_auto_ri_atom            1 10.0    0.044    0.062    0.137    0.144       0
 pw_grid_assign                       5  7.2    0.110    0.143    0.128    0.143       3
 pw_copy_from_array                  23 12.8    0.136    0.142    0.136    0.142       3
 get_ddapc                            3 10.3    0.000    0.000    0.086    0.122       2
 compute_M_pq_inv_and_V_pq            1  8.0    0.000    0.000    0.111    0.111       1
 compute_AA_optimized_RI_basis        1  8.0    0.000    0.000    0.111    0.111       3
 mp_waitall_1                        41 12.6    0.089    0.104    0.089    0.104       2
 mp_bcast_i_src                     557  7.0    0.052    0.101    0.052    0.101       1
 mp_bcast_am_src                    138  7.0    0.063    0.099    0.063    0.099       3
 pw_zero                             30  5.6    0.077    0.091    0.077    0.091       1
 compute_contracted_RI_matrix         2  9.0    0.000    0.000    0.090    0.090       3
 transfer_pw2rs_100                   3 12.3    0.033    0.037    0.074    0.089       3
 compute_optimized_RI_matrix_bl       6 10.0    0.012    0.016    0.065    0.088       0
 compute_M_PQ_AB                     40 11.0    0.000    0.000    0.059    0.079       1
 compute_M_PQ                        40 12.0    0.000    0.000    0.059    0.079       0
 int_operators_r12_ab_os             40 13.0    0.000    0.000    0.059    0.079       0
 int_operator_ab_os_low              40 14.0    0.022    0.029    0.059    0.079       0
 copy_dbcsr_to_fm                   104  9.5    0.060    0.069    0.063    0.072       3
 transfer_rs2pw_100                   3  9.0    0.033    0.035    0.064    0.069       3
 compute_B_PQ_AA                      4  9.0    0.000    0.000    0.052    0.068       3
 mp_sum_root_rm                       4 10.0    0.040    0.056    0.040    0.056       3
 build_3c_integral_block_auto_r      24 11.0    0.047    0.056    0.047    0.056       3
 build_3c_integral_block_auto_r      24 11.0    0.000    0.000    0.046    0.054       1
 compute_fm_chi_Gamma_freq           30  8.0    0.027    0.028    0.050    0.054       2
 build_G_ao                         121  8.5    0.004    0.004    0.049    0.053       2
 -------------------------------------------------------------------------------

 The number of warnings for this run is : 2
 
 -------------------------------------------------------------------------------
  **** **** ******  **  PROGRAM ENDED AT                 2026-10-03 12:16:20.323
 ***** ** ***  *** **   PROGRAM RAN ON                                  n2cn0370
 **    ****   ******    PROGRAM RAN BY                                  eprop2d1
 ***** **    ** ** **   PROGRAM PROCESS ID                               1054351
  **** **  *******  **  PROGRAM STOPPED IN /scratch/hpc-prf-metdyn/eprop2d1_Jan/
                                           53_benchmark_RI_opt/418_gw100_fig5_fu
                                           ll_epsfilter_1e12_20261002/calculatio
                                           ns/rc3p0/ri3_rs09/64_AlI3
