 DBCSR| CPU Multiplication driver                                           XSMM (U)
 DBCSR| Multrec recursion limit                                              512 (U)
 DBCSR| Multiplication stack size                                           1000 (D)
 DBCSR| Maximum elements for images                                    UNLIMITED (U)
 DBCSR| Multiplicative factor virtual images                                   1 (U)
 DBCSR| Use multiplication densification                                       T (D)
 DBCSR| Multiplication size stacks                                             3 (U)
 DBCSR| Use memory pool for CPU allocation                                     F (U)
 DBCSR| Number of 3D layers                                               SINGLE (U)
 DBCSR| Use MPI memory allocation                                              F (U)
 DBCSR| Use RMA algorithm                                                      F (U)
 DBCSR| Use Communication thread                                               T (U)
 DBCSR| Communication thread load                                              0 (D)
 DBCSR| MPI: My process id                                                     1
 DBCSR| MPI: Number of processes                                               2
 DBCSR| OMP: Current number of threads                                        64
 DBCSR| OMP: Max number of threads                                            64
 DBCSR| Split modifier for TAS multiplication algorithm                  1.0E+00 (U)


  **** **** ******  **  PROGRAM STARTED AT               2026-09-17 02:42:44.428
 ***** ** ***  *** **   PROGRAM STARTED ON                              n2cn0814
 **    ****   ******    PROGRAM STARTED BY                              eprop2d1
 ***** **    ** ** **   PROGRAM PROCESS ID                                338528
  **** **  *******  **  PROGRAM STARTED IN /scratch/hpc-prf-metdyn/eprop2d1_Jan/
                                           53_benchmark_RI_opt/106_GW100_GTH_RIR
                                           S_riao5_7_c7/extensions/lebedev_riao2
                                           /calculations/26_C4/leb_r08

 CP2K| version string:                 CP2K version 2026.2 (Development Version)
 CP2K| source code revision number:                                      unknown
 CP2K| cp2kflags: omp libint fftw3 libxc parallel scalapack openblas            
 CP2K| is freely available from                            https://www.cp2k.org/
 CP2K| Program compiled at                                   2026-09-15 17:57:52
 CP2K| Program compiled on                                              n2login6
 CP2K| Program compiled for                                               x86_64
 CP2K| Data directory path    /scratch/hpc-prf-metdyn/eprop2d1_Jan/53_benchmark_
 CP2K| Input file name                                                 input.inp
 
 eprop2d1@n2cn0814 has created rank and process                      0    338528
 
 eprop2d1@n2cn0814 is running                                        1 processes

 GLOBAL| Force Environment number                                              1
 GLOBAL| Basis set file name            /scratch/hpc-prf-metdyn/eprop2d1_Jan/53_
 GLOBAL| Potential file name            /scratch/hpc-prf-metdyn/eprop2d1_Jan/53_
 GLOBAL| MM Potential file name                                     MM_POTENTIAL
 GLOBAL| Coordinate file name                                      __STD_INPUT__
 GLOBAL| Method name                                                        CP2K
 GLOBAL| Project name                                 gw100_106_26_C4_a2_leb_r08
 GLOBAL| Run type                                                         ENERGY
 GLOBAL| FFT library                                                       FFTW3
 GLOBAL| Diagonalization library                                       ScaLAPACK
 GLOBAL| Cholesky decomposition library                                ScaLAPACK
 GLOBAL| DGEMM library                                                      BLAS
 GLOBAL| Direct generalized diagonalization requested                          F
 GLOBAL| Orthonormality check for eigenvectors                          DISABLED
 GLOBAL| Matrix multiplication library                                 ScaLAPACK
 GLOBAL| All-to-all communication in single precision                          F
 GLOBAL| Grid backend                                                       AUTO
 GLOBAL| Global print level                                                  LOW
 GLOBAL| MPI I/O enabled                                                       T
 GLOBAL| Total number of message passing processes                             1
 GLOBAL| Number of distributed systems (nodes)                                 1
 GLOBAL| Number of threads for this process                                   64
 GLOBAL| This output is from process                                           0
 GLOBAL| OpenMP stack size per thread (OMP_STACKSIZE)                       128M
 GLOBAL| CPU model name                          AMD EPYC 7763 64-Core Processor

 MEMORY| system memory details [Kb]
 MEMORY|                        rank 0           min           max       average
 MEMORY| MemTotal            263897564     263897564     263897564     263897564
 MEMORY| MemFree             252498996     252498996     252498996     252498996
 MEMORY| Buffers                339680        339680        339680        339680
 MEMORY| Cached                6669360       6669360       6669360       6669360
 MEMORY| Slab                  1423364       1423364       1423364       1423364
 MEMORY| SReclaimable           293968        293968        293968        293968
 MEMORY| MemLikelyFree       259802004     259802004     259802004     259802004


 GENERATE|  Preliminary Number of Bonds generated:                             0
 GENERATE|  Achieved consistency in connectivity generation.

 *******************************************************************************
 *******************************************************************************
 **                                                                           **
 **     #####                         ##              ##                      **
 **    ##   ##            ##          ##              ##                      **
 **   ##     ##                       ##            ######                    **
 **   ##     ##  ##   ##  ##   #####  ##  ##   ####   ##    #####    #####    **
 **   ##     ##  ##   ##  ##  ##      ## ##   ##      ##   ##   ##  ##   ##   **
 **   ##  ## ##  ##   ##  ##  ##      ####     ###    ##   ######   ######    **
 **    ##  ###   ##   ##  ##  ##      ## ##      ##   ##   ##       ##        **
 **     #######   #####   ##   #####  ##  ##  ####    ##    #####   ##        **
 **           ##                                                    ##        **
 **                                                                           **
 **                                                ... make the atoms dance   **
 **                                                                           **
 **            Copyright (C) by CP2K developers group (2000-2026)             **
 **                      J. Chem. Phys. 152, 194103 (2020)                    **
 **                                                                           **
 *******************************************************************************


 TOTAL NUMBERS AND MAXIMUM NUMBERS

  Total number of            - Atomic kinds:                                   1
                             - Atoms:                                          4
                             - Shell sets:                                     4
                             - Shells:                                        20
                             - Primitive Cartesian functions:                 24
                             - Cartesian basis functions:                     56
                             - Spherical basis functions:                     52

  Maximum angular momentum of- Orbital basis functions:                        2
                             - Local part of the GTH pseudopotential:          2
                             - Non-local part of the GTH pseudopotential:      0


 SCF PARAMETERS         Density guess:                                    ATOMIC
                        --------------------------------------------------------
                        max_scf:                                             500
                        max_scf_history:                                       0
                        max_diis:                                              4
                        --------------------------------------------------------
                        eps_scf:                                        1.00E-08
                        eps_scf_history:                                0.00E+00
                        eps_diis:                                       0.00E+00
                        eps_eigval:                                     1.00E-05
                        --------------------------------------------------------
                        level_shift [a.u.]:                             0.000000
                        --------------------------------------------------------
                        Outer loop SCF in use 
                        No variables optimised in outer loop
                        eps_scf                                         1.00E-08
                        max_scf                                               20
                        No outer loop optimization
                        step_size                                       5.00E-01

 Extrapolation method: initial_guess

 Number of electrons:                                                         16
 Number of occupied orbitals:                                                  8
 Number of molecular orbitals:                                                 8

 Number of orbital functions:                                                 52
 Number of independent orbital functions:                                     52


 SCF WAVEFUNCTION OPTIMIZATION

  ----------------------------------- OT ---------------------------------------
  Minimizer      : DIIS                : direct inversion
                                         in the iterative subspace
                                         using   7 DIIS vectors
                                         safer DIIS on
  Preconditioner : FULL_KINETIC        : inversion of T + eS
  Lattice FFT   : OFF
  Precond_solver : DEFAULT
  stepsize       :    0.15000000                  energy_gap     :    0.20000000
  eps_taylor     :   0.10000E-15                  max_taylor     :             4
  ----------------------------------- OT ---------------------------------------

  Step     Update method      Time    Convergence         Total energy    Change
  ------------------------------------------------------------------------------
  Decoupling Energy:                                               0.0002070169
     1 OT DIIS     0.15E+00    4.0     0.14775948       -20.1109857791 -2.01E+01
  Decoupling Energy:                                               0.0000841564
     2 OT DIIS     0.15E+00    5.3     0.07869646       -20.9975082779 -8.87E-01
  Decoupling Energy:                                               0.0000480473
     3 OT DIIS     0.15E+00    5.2     0.05736710       -21.3285873254 -3.31E-01
  Decoupling Energy:                                               0.0000294097
     4 OT DIIS     0.15E+00    5.2     0.04091358       -21.6062799663 -2.78E-01
  Decoupling Energy:                                               0.0000290919
     5 OT DIIS     0.15E+00    5.2     0.03104719       -21.7771849634 -1.71E-01
  Decoupling Energy:                                               0.0000312152
     6 OT DIIS     0.15E+00    5.3     0.02207895       -21.9191079282 -1.42E-01
  Decoupling Energy:                                               0.0000360163
     7 OT DIIS     0.15E+00    5.3     0.01555247       -22.0069894743 -8.79E-02
  Decoupling Energy:                                               0.0000388959
     8 OT DIIS     0.15E+00    5.3     0.01175420       -22.0517323215 -4.47E-02
  Decoupling Energy:                                               0.0000389159
     9 OT DIIS     0.15E+00    5.3     0.00944841       -22.0783865681 -2.67E-02
  Decoupling Energy:                                               0.0000355001
    10 OT DIIS     0.15E+00    5.2     0.00799765       -22.0988618352 -2.05E-02
  Decoupling Energy:                                               0.0000311759
    11 OT DIIS     0.15E+00    5.3     0.00694449       -22.1135385925 -1.47E-02
  Decoupling Energy:                                               0.0000229038
    12 OT DIIS     0.15E+00    5.3     0.00566867       -22.1318486130 -1.83E-02
  Decoupling Energy:                                               0.0000179577
    13 OT DIIS     0.15E+00    5.3     0.00482802       -22.1427497594 -1.09E-02
  Decoupling Energy:                                               0.0000156071
    14 OT DIIS     0.15E+00    5.3     0.00414455       -22.1502384374 -7.49E-03
  Decoupling Energy:                                               0.0000117543
    15 OT DIIS     0.15E+00    5.3     0.00361749       -22.1561038325 -5.87E-03
  Decoupling Energy:                                               0.0000115368
    16 OT DIIS     0.15E+00    5.3     0.00323348       -22.1599531436 -3.85E-03
  Decoupling Energy:                                               0.0000092166
    17 OT DIIS     0.15E+00    5.2     0.00282300       -22.1638435103 -3.89E-03
  Decoupling Energy:                                               0.0000085322
    18 OT DIIS     0.15E+00    5.2     0.00254423       -22.1668468304 -3.00E-03
  Decoupling Energy:                                               0.0000073007
    19 OT DIIS     0.15E+00    5.3     0.00228604       -22.1692003325 -2.35E-03
  Decoupling Energy:                                               0.0000057393
    20 OT DIIS     0.15E+00    5.3     0.00195551       -22.1716117901 -2.41E-03
  Decoupling Energy:                                               0.0000056208
    21 OT DIIS     0.15E+00    5.3     0.00179152       -22.1729538544 -1.34E-03
  Decoupling Energy:                                               0.0000045785
    22 OT DIIS     0.15E+00    5.2     0.00159359       -22.1740672545 -1.11E-03
  Decoupling Energy:                                               0.0000046642
    23 OT DIIS     0.15E+00    5.3     0.00144937       -22.1750030157 -9.36E-04
  Decoupling Energy:                                               0.0000037761
    24 OT DIIS     0.15E+00    5.2     0.00127675       -22.1758507416 -8.48E-04
  Decoupling Energy:                                               0.0000035877
    25 OT DIIS     0.15E+00    5.3     0.00111993       -22.1766398584 -7.89E-04
  Decoupling Energy:                                               0.0000031965
    26 OT DIIS     0.15E+00    5.3     0.00102255       -22.1772297034 -5.90E-04
  Decoupling Energy:                                               0.0000031104
    27 OT DIIS     0.15E+00    5.3     0.00097396       -22.1775625546 -3.33E-04
  Decoupling Energy:                                               0.0000030491
    28 OT DIIS     0.15E+00    5.3     0.00094498       -22.1778438056 -2.81E-04
  Decoupling Energy:                                               0.0000029766
    29 OT DIIS     0.15E+00    5.3     0.00093422       -22.1780201412 -1.76E-04
  Decoupling Energy:                                               0.0000029667
    30 OT DIIS     0.15E+00    5.3     0.00093042       -22.1782090826 -1.89E-04
  Decoupling Energy:                                               0.0000029258
    31 OT DIIS     0.15E+00    5.2     0.00092973       -22.1782733165 -6.42E-05
  Decoupling Energy:                                               0.0000029142
    32 OT SD       0.15E+00    5.3     0.00093025       -22.1783072477 -3.39E-05
  Decoupling Energy:                                               0.0000029143
    33 OT SD       0.15E+00    5.3     0.00093240       -22.1783613028 -5.41E-05
  Decoupling Energy:                                               0.0000029112
    34 OT SD       0.15E+00    5.3     0.00093518       -22.1784156283 -5.43E-05
  Decoupling Energy:                                               0.0000029070
    35 OT SD       0.15E+00    5.3     0.00093847       -22.1784702932 -5.47E-05
  Decoupling Energy:                                               0.0000029021
    36 OT SD       0.15E+00    5.2     0.00094222       -22.1785253568 -5.51E-05
  Decoupling Energy:                                               0.0000028968
    37 OT SD       0.15E+00    5.3     0.00094638       -22.1785808734 -5.55E-05
  Decoupling Energy:                                               0.0000028912
    38 OT SD       0.15E+00    5.2     0.00095094       -22.1786368934 -5.60E-05
  Decoupling Energy:                                               0.0000028853
    39 OT SD       0.15E+00    5.3     0.00095586       -22.1786934646 -5.66E-05
  Decoupling Energy:                                               0.0000028792
    40 OT SD       0.15E+00    5.3     0.00096113       -22.1787506327 -5.72E-05
  Decoupling Energy:                                               0.0000028731
    41 OT SD       0.15E+00    5.2     0.00096674       -22.1788084422 -5.78E-05
  Decoupling Energy:                                               0.0000028668
    42 OT SD       0.15E+00    5.3     0.00097266       -22.1788669362 -5.85E-05
  Decoupling Energy:                                               0.0000028604
    43 OT SD       0.15E+00    5.3     0.00097888       -22.1789261572 -5.92E-05
  Decoupling Energy:                                               0.0000028539
    44 OT SD       0.15E+00    5.3     0.00098541       -22.1789861470 -6.00E-05
  Decoupling Energy:                                               0.0000028474
    45 OT SD       0.15E+00    5.2     0.00099223       -22.1790469474 -6.08E-05
  Decoupling Energy:                                               0.0000028409
    46 OT SD       0.15E+00    5.3     0.00099934       -22.1791085996 -6.17E-05
  Decoupling Energy:                                               0.0000028344
    47 OT SD       0.15E+00    5.3     0.00100672       -22.1791711452 -6.25E-05
  Decoupling Energy:                                               0.0000028279
    48 OT SD       0.15E+00    5.3     0.00101438       -22.1792346257 -6.35E-05
  Decoupling Energy:                                               0.0000028214
    49 OT SD       0.15E+00    5.3     0.00102231       -22.1792990827 -6.45E-05
  Decoupling Energy:                                               0.0000028150
    50 OT SD       0.15E+00    5.3     0.00103051       -22.1793645584 -6.55E-05
  Decoupling Energy:                                               0.0000028086
    51 OT SD       0.15E+00    5.3     0.00103898       -22.1794310950 -6.65E-05
  Decoupling Energy:                                               0.0000028022
    52 OT SD       0.15E+00    5.3     0.00104770       -22.1794987355 -6.76E-05
  Decoupling Energy:                                               0.0000027959
    53 OT SD       0.15E+00    5.3     0.00105669       -22.1795675230 -6.88E-05
  Decoupling Energy:                                               0.0000027896
    54 OT SD       0.15E+00    5.3     0.00106593       -22.1796375014 -7.00E-05
  Decoupling Energy:                                               0.0000027834
    55 OT SD       0.15E+00    5.2     0.00107543       -22.1797087151 -7.12E-05
  Decoupling Energy:                                               0.0000027773
    56 OT SD       0.15E+00    5.3     0.00108518       -22.1797812091 -7.25E-05
  Decoupling Energy:                                               0.0000027713
    57 OT SD       0.15E+00    5.3     0.00109518       -22.1798550291 -7.38E-05
  Decoupling Energy:                                               0.0000027654
    58 OT SD       0.15E+00    5.6     0.00110543       -22.1799302215 -7.52E-05
  Decoupling Energy:                                               0.0000027595
 Singular DIIS matrix
    59 OT SD       0.15E+00    5.3     0.00111593       -22.1800068333 -7.66E-05
  Decoupling Energy:                                               0.0000027537
    60 OT SD       0.15E+00    5.3     0.00112667       -22.1800849125 -7.81E-05
  Decoupling Energy:                                               0.0000027480
    61 OT SD       0.15E+00    5.3     0.00113766       -22.1801645077 -7.96E-05
  Decoupling Energy:                                               0.0000027424
    62 OT SD       0.15E+00    5.3     0.00114890       -22.1802456683 -8.12E-05
  Decoupling Energy:                                               0.0000027370
    63 OT SD       0.15E+00    5.2     0.00116038       -22.1803284448 -8.28E-05
  Decoupling Energy:                                               0.0000027316
    64 OT SD       0.15E+00    5.3     0.00117210       -22.1804128884 -8.44E-05
  Decoupling Energy:                                               0.0000027263
    65 OT SD       0.15E+00    5.3     0.00118406       -22.1804990512 -8.62E-05
  Decoupling Energy:                                               0.0000027211
    66 OT SD       0.15E+00    5.2     0.00119627       -22.1805869861 -8.79E-05
  Decoupling Energy:                                               0.0000027160
    67 OT SD       0.15E+00    5.3     0.00120871       -22.1806767473 -8.98E-05
  Decoupling Energy:                                               0.0000027110
    68 OT SD       0.15E+00    5.2     0.00122139       -22.1807683898 -9.16E-05
  Decoupling Energy:                                               0.0000027061
    69 OT SD       0.15E+00    5.2     0.00123431       -22.1808619694 -9.36E-05
  Decoupling Energy:                                               0.0000027013
    70 OT SD       0.15E+00    5.2     0.00124747       -22.1809575434 -9.56E-05
  Decoupling Energy:                                               0.0000026966
    71 OT SD       0.15E+00    5.3     0.00126087       -22.1810551696 -9.76E-05
  Decoupling Energy:                                               0.0000026920
    72 OT SD       0.15E+00    5.3     0.00127450       -22.1811549074 -9.97E-05
  Decoupling Energy:                                               0.0000026875
    73 OT SD       0.15E+00    5.3     0.00128837       -22.1812568169 -1.02E-04
  Decoupling Energy:                                               0.0000026831
    74 OT SD       0.15E+00    5.3     0.00130247       -22.1813609596 -1.04E-04
  Decoupling Energy:                                               0.0000026789
    75 OT SD       0.15E+00    5.3     0.00131680       -22.1814673979 -1.06E-04
  Decoupling Energy:                                               0.0000026747
    76 OT SD       0.15E+00    5.3     0.00133138       -22.1815761955 -1.09E-04
  Decoupling Energy:                                               0.0000026706
    77 OT SD       0.15E+00    5.3     0.00134618       -22.1816874174 -1.11E-04
  Decoupling Energy:                                               0.0000026666
    78 OT SD       0.15E+00    5.3     0.00136122       -22.1818011295 -1.14E-04
  Decoupling Energy:                                               0.0000026627
    79 OT SD       0.15E+00    5.2     0.00137649       -22.1819173992 -1.16E-04
  Decoupling Energy:                                               0.0000026589
    80 OT SD       0.15E+00    5.2     0.00139199       -22.1820362950 -1.19E-04
  Decoupling Energy:                                               0.0000026552
    81 OT SD       0.15E+00    5.3     0.00140773       -22.1821578868 -1.22E-04
  Decoupling Energy:                                               0.0000026517
    82 OT SD       0.15E+00    5.2     0.00142370       -22.1822822456 -1.24E-04
  Decoupling Energy:                                               0.0000026481
    83 OT SD       0.15E+00    5.3     0.00143990       -22.1824094438 -1.27E-04
  Decoupling Energy:                                               0.0000026447
    84 OT SD       0.15E+00    5.2     0.00145633       -22.1825395552 -1.30E-04
  Decoupling Energy:                                               0.0000026414
    85 OT SD       0.15E+00    5.2     0.00147299       -22.1826726547 -1.33E-04
  Decoupling Energy:                                               0.0000026382
    86 OT SD       0.15E+00    5.2     0.00148988       -22.1828088188 -1.36E-04
  Decoupling Energy:                                               0.0000026350
    87 OT SD       0.15E+00    5.3     0.00150700       -22.1829481252 -1.39E-04
  Decoupling Energy:                                               0.0000026320
    88 OT SD       0.15E+00    5.3     0.00152435       -22.1830906531 -1.43E-04
  Decoupling Energy:                                               0.0000026290
    89 OT SD       0.15E+00    5.3     0.00154192       -22.1832364830 -1.46E-04
  Decoupling Energy:                                               0.0000026261
    90 OT SD       0.15E+00    5.2     0.00155973       -22.1833856969 -1.49E-04
  Decoupling Energy:                                               0.0000026233
    91 OT SD       0.15E+00    5.3     0.00157776       -22.1835383779 -1.53E-04
  Decoupling Energy:                                               0.0000026205
    92 OT SD       0.15E+00    5.3     0.00159602       -22.1836946110 -1.56E-04
  Decoupling Energy:                                               0.0000026179
    93 OT SD       0.15E+00    5.3     0.00161451       -22.1838544823 -1.60E-04
  Decoupling Energy:                                               0.0000026153
    94 OT SD       0.15E+00    5.2     0.00163323       -22.1840180795 -1.64E-04
  Decoupling Energy:                                               0.0000026127
    95 OT SD       0.15E+00    5.3     0.00165217       -22.1841854916 -1.67E-04
  Decoupling Energy:                                               0.0000026103
    96 OT SD       0.15E+00    5.3     0.00167133       -22.1843568091 -1.71E-04
  Decoupling Energy:                                               0.0000026079
    97 OT SD       0.15E+00    5.3     0.00169072       -22.1845321240 -1.75E-04
  Decoupling Energy:                                               0.0000026055
    98 OT SD       0.15E+00    5.2     0.00171033       -22.1847115298 -1.79E-04
  Decoupling Energy:                                               0.0000026032
    99 OT SD       0.15E+00    5.2     0.00173016       -22.1848951212 -1.84E-04
  Decoupling Energy:                                               0.0000026010
   100 OT SD       0.15E+00    6.3     0.00175021       -22.1850829946 -1.88E-04
  Decoupling Energy:                                               0.0000025988
   101 OT SD       0.15E+00    5.2     0.00177049       -22.1852752478 -1.92E-04
  Decoupling Energy:                                               0.0000025967
   102 OT SD       0.15E+00    5.3     0.00179098       -22.1854719799 -1.97E-04
  Decoupling Energy:                                               0.0000025946
   103 OT SD       0.15E+00    5.2     0.00181169       -22.1856732916 -2.01E-04
  Decoupling Energy:                                               0.0000025925
   104 OT SD       0.15E+00    5.3     0.00183262       -22.1858792847 -2.06E-04
  Decoupling Energy:                                               0.0000025905
   105 OT SD       0.15E+00    5.3     0.00185376       -22.1860900628 -2.11E-04
  Decoupling Energy:                                               0.0000025885
   106 OT SD       0.15E+00    5.2     0.00187512       -22.1863057306 -2.16E-04
  Decoupling Energy:                                               0.0000025866
   107 OT SD       0.15E+00    5.3     0.00189668       -22.1865263942 -2.21E-04
  Decoupling Energy:                                               0.0000025846
   108 OT SD       0.15E+00    5.2     0.00191846       -22.1867521611 -2.26E-04
  Decoupling Energy:                                               0.0000025827
 Singular DIIS matrix
   109 OT SD       0.15E+00    5.2     0.00194045       -22.1869831400 -2.31E-04
  Decoupling Energy:                                               0.0000025808
   110 OT SD       0.15E+00    5.2     0.00196264       -22.1872194411 -2.36E-04
  Decoupling Energy:                                               0.0000025789
   111 OT SD       0.15E+00    5.3     0.00198504       -22.1874611754 -2.42E-04
  Decoupling Energy:                                               0.0000025770
   112 OT SD       0.15E+00    5.3     0.00200764       -22.1877084557 -2.47E-04
  Decoupling Energy:                                               0.0000025751
   113 OT SD       0.15E+00    5.3     0.00203044       -22.1879613953 -2.53E-04
  Decoupling Energy:                                               0.0000025732
   114 OT SD       0.15E+00    5.2     0.00205344       -22.1882201092 -2.59E-04
  Decoupling Energy:                                               0.0000025712
   115 OT SD       0.15E+00    5.3     0.00207664       -22.1884847131 -2.65E-04
  Decoupling Energy:                                               0.0000025693
   116 OT SD       0.15E+00    5.8     0.00210002       -22.1887553239 -2.71E-04
  Decoupling Energy:                                               0.0000025673
   117 OT SD       0.15E+00    5.4     0.00212360       -22.1890320592 -2.77E-04
  Decoupling Energy:                                               0.0000025652
   118 OT SD       0.15E+00    5.3     0.00214736       -22.1893150378 -2.83E-04
  Decoupling Energy:                                               0.0000025632
   119 OT SD       0.15E+00    5.2     0.00217131       -22.1896043792 -2.89E-04
  Decoupling Energy:                                               0.0000025610
   120 OT SD       0.15E+00    5.3     0.00219543       -22.1899002036 -2.96E-04
  Decoupling Energy:                                               0.0000025588
   121 OT SD       0.15E+00    5.3     0.00221973       -22.1902026318 -3.02E-04
  Decoupling Energy:                                               0.0000025566
   122 OT SD       0.15E+00    5.3     0.00224421       -22.1905117853 -3.09E-04
  Decoupling Energy:                                               0.0000025543
   123 OT DIIS     0.15E+00    5.3     0.00226885       -22.1908277861 -3.16E-04
  Decoupling Energy:                                               0.0000176426
   124 OT SD       0.15E+00    5.3     0.01335503       -22.1919848279 -1.16E-03
  Decoupling Energy:                                               0.0000079109
   125 OT SD       0.15E+00    5.3     0.00797788       -22.2004608728 -8.48E-03
  Decoupling Energy:                                               0.0000057259
   126 OT SD       0.15E+00    5.3     0.00619950       -22.2039214303 -3.46E-03
  Decoupling Energy:                                               0.0000048245
   127 OT SD       0.15E+00    5.3     0.00538413       -22.2061412809 -2.22E-03
  Decoupling Energy:                                               0.0000043335
   128 OT SD       0.15E+00    5.3     0.00494419       -22.2078677859 -1.73E-03
  Decoupling Energy:                                               0.0000040063
   129 OT SD       0.15E+00    5.2     0.00468030       -22.2093482747 -1.48E-03
  Decoupling Energy:                                               0.0000037653
   130 OT DIIS     0.15E+00    5.2     0.00450947       -22.2106878973 -1.34E-03
  Decoupling Energy:                                               0.0000024798
   131 OT DIIS     0.15E+00    5.2     0.00404654       -22.2207379440 -1.01E-02
  Decoupling Energy:                                               0.0000032279
   132 OT SD       0.15E+00    5.3     0.00422662       -22.2268938557 -6.16E-03
  Decoupling Energy:                                               0.0000025934
   133 OT SD       0.15E+00    5.2     0.00412099       -22.2279873286 -1.09E-03
  Decoupling Energy:                                               0.0000023801
   134 OT SD       0.15E+00    5.2     0.00410080       -22.2290437767 -1.06E-03
  Decoupling Energy:                                               0.0000022537
   135 OT DIIS     0.15E+00    5.2     0.00409213       -22.2300917808 -1.05E-03
  Decoupling Energy:                                               0.0000038213
   136 OT SD       0.15E+00    5.3     0.00482811       -22.2361265284 -6.03E-03
  Decoupling Energy:                                               0.0000025892
   137 OT SD       0.15E+00    5.3     0.00445581       -22.2374984144 -1.37E-03
  Decoupling Energy:                                               0.0000022051
   138 OT SD       0.15E+00    5.2     0.00437139       -22.2387232749 -1.22E-03
  Decoupling Energy:                                               0.0000019900
   139 OT SD       0.15E+00    5.2     0.00432386       -22.2399085186 -1.19E-03
  Decoupling Energy:                                               0.0000018360
   140 OT SD       0.15E+00    5.3     0.00428909       -22.2410701235 -1.16E-03
  Decoupling Energy:                                               0.0000017099
   141 OT SD       0.15E+00    5.2     0.00426063       -22.2422140526 -1.14E-03
  Decoupling Energy:                                               0.0000015997
   142 OT DIIS     0.15E+00    5.3     0.00423590       -22.2433433763 -1.13E-03
  Decoupling Energy:                                               0.0000000121
   143 OT DIIS     0.15E+00    5.3     0.00385075       -22.2648784071 -2.15E-02
  Decoupling Energy:                                               0.0000000536
   144 OT SD       0.15E+00    5.2     0.00382533       -22.2761107071 -1.12E-02
  Decoupling Energy:                                              -0.0000003570
   145 OT DIIS     0.15E+00    5.3     0.00362707       -22.2769938119 -8.83E-04
  Decoupling Energy:                                              -0.0000022405
   146 OT SD       0.15E+00    5.2     0.00342653       -22.2940512476 -1.71E-02
  Decoupling Energy:                                              -0.0000021628
   147 OT SD       0.15E+00    5.2     0.00277015       -22.2946879592 -6.37E-04
  Decoupling Energy:                                              -0.0000021321
   148 OT DIIS     0.15E+00    5.3     0.00261247       -22.2951502921 -4.62E-04
  Decoupling Energy:                                               0.0000036014
   149 OT DIIS     0.15E+00    5.3     0.00805290       -22.2886506238  6.50E-03
  Decoupling Energy:                                              -0.0000026546
   150 OT DIIS     0.15E+00    5.3     0.00184795       -22.3062876536 -1.76E-02
  Decoupling Energy:                                              -0.0000026819
   151 OT DIIS     0.15E+00    5.3     0.00165144       -22.3064501684 -1.63E-04
  Decoupling Energy:                                              -0.0000027427
   152 OT DIIS     0.15E+00    5.3     0.00146324       -22.3080306508 -1.58E-03
  Decoupling Energy:                                              -0.0000028024
   153 OT DIIS     0.15E+00    5.3     0.00120722       -22.3092939069 -1.26E-03
  Decoupling Energy:                                              -0.0000028183
   154 OT DIIS     0.15E+00    5.2     0.00115626       -22.3098671496 -5.73E-04
  Decoupling Energy:                                              -0.0000027151
   155 OT DIIS     0.15E+00    5.3     0.00147328       -22.3105971433 -7.30E-04
  Decoupling Energy:                                              -0.0000028439
   156 OT DIIS     0.15E+00    5.3     0.00066093       -22.3107596403 -1.62E-04
  Decoupling Energy:                                              -0.0000028352
   157 OT DIIS     0.15E+00    5.2     0.00055531       -22.3109667422 -2.07E-04
  Decoupling Energy:                                              -0.0000028520
   158 OT DIIS     0.15E+00    5.2     0.00041186       -22.3111314460 -1.65E-04
  Decoupling Energy:                                              -0.0000028539
   159 OT DIIS     0.15E+00    5.2     0.00035016       -22.3111868452 -5.54E-05
  Decoupling Energy:                                              -0.0000028530
   160 OT DIIS     0.15E+00    5.3     0.00028717       -22.3112322609 -4.54E-05
  Decoupling Energy:                                              -0.0000028519
   161 OT DIIS     0.15E+00    5.2     0.00023941       -22.3112606156 -2.84E-05
  Decoupling Energy:                                              -0.0000028513
   162 OT DIIS     0.15E+00    5.2     0.00018478       -22.3112893004 -2.87E-05
  Decoupling Energy:                                              -0.0000028525
   163 OT DIIS     0.15E+00    5.3     0.00014439       -22.3113069059 -1.76E-05
  Decoupling Energy:                                              -0.0000028516
   164 OT DIIS     0.15E+00    5.2     0.00012275       -22.3113147034 -7.80E-06
  Decoupling Energy:                                              -0.0000028492
   165 OT DIIS     0.15E+00    5.3     0.00010427       -22.3113207621 -6.06E-06
  Decoupling Energy:                                              -0.0000028470
   166 OT DIIS     0.15E+00    5.2     0.00009203       -22.3113248556 -4.09E-06
  Decoupling Energy:                                              -0.0000028457
   167 OT DIIS     0.15E+00    5.2     0.00008254       -22.3113282628 -3.41E-06
  Decoupling Energy:                                              -0.0000028455
   168 OT DIIS     0.15E+00    5.3     0.00007612       -22.3113306804 -2.42E-06
  Decoupling Energy:                                              -0.0000028453
   169 OT DIIS     0.15E+00    5.2     0.00007122       -22.3113328568 -2.18E-06
  Decoupling Energy:                                              -0.0000028450
   170 OT DIIS     0.15E+00    5.3     0.00006814       -22.3113345153 -1.66E-06
  Decoupling Energy:                                              -0.0000028446
   171 OT DIIS     0.15E+00    5.3     0.00006493       -22.3113363891 -1.87E-06
  Decoupling Energy:                                              -0.0000028445
   172 OT DIIS     0.15E+00    5.3     0.00006189       -22.3113382682 -1.88E-06
  Decoupling Energy:                                              -0.0000028446
   173 OT DIIS     0.15E+00    5.3     0.00005883       -22.3113403151 -2.05E-06
  Decoupling Energy:                                              -0.0000028447
   174 OT DIIS     0.15E+00    5.3     0.00005626       -22.3113420857 -1.77E-06
  Decoupling Energy:                                              -0.0000028446
   175 OT DIIS     0.15E+00    5.3     0.00005331       -22.3113440459 -1.96E-06
  Decoupling Energy:                                              -0.0000028441
   176 OT DIIS     0.15E+00    5.3     0.00005000       -22.3113460874 -2.04E-06
  Decoupling Energy:                                              -0.0000028437
   177 OT DIIS     0.15E+00    5.3     0.00004716       -22.3113478532 -1.77E-06
  Decoupling Energy:                                              -0.0000028433
   178 OT DIIS     0.15E+00    5.3     0.00004458       -22.3113493631 -1.51E-06
  Decoupling Energy:                                              -0.0000028429
   179 OT DIIS     0.15E+00    5.3     0.00004141       -22.3113509853 -1.62E-06
  Decoupling Energy:                                              -0.0000028426
   180 OT DIIS     0.15E+00    5.2     0.00003815       -22.3113524288 -1.44E-06
  Decoupling Energy:                                              -0.0000028423
   181 OT DIIS     0.15E+00    5.3     0.00003547       -22.3113535334 -1.10E-06
  Decoupling Energy:                                              -0.0000028420
   182 OT DIIS     0.15E+00    5.3     0.00003322       -22.3113543394 -8.06E-07
  Decoupling Energy:                                              -0.0000028417
   183 OT DIIS     0.15E+00    5.2     0.00003085       -22.3113550578 -7.18E-07
  Decoupling Energy:                                              -0.0000028416
   184 OT DIIS     0.15E+00    5.3     0.00002817       -22.3113557244 -6.67E-07
  Decoupling Energy:                                              -0.0000028415
   185 OT DIIS     0.15E+00    5.3     0.00002603       -22.3113562264 -5.02E-07
  Decoupling Energy:                                              -0.0000028414
   186 OT DIIS     0.15E+00    5.2     0.00002421       -22.3113566127 -3.86E-07
  Decoupling Energy:                                              -0.0000028412
   187 OT DIIS     0.15E+00    5.3     0.00002249       -22.3113569325 -3.20E-07
  Decoupling Energy:                                              -0.0000028410
   188 OT DIIS     0.15E+00    5.3     0.00002111       -22.3113571539 -2.21E-07
  Decoupling Energy:                                              -0.0000028409
   189 OT DIIS     0.15E+00    5.3     0.00002022       -22.3113572955 -1.42E-07
  Decoupling Energy:                                              -0.0000028409
   190 OT DIIS     0.15E+00    5.3     0.00001948       -22.3113574064 -1.11E-07
  Decoupling Energy:                                              -0.0000028408
   191 OT DIIS     0.15E+00    5.3     0.00001870       -22.3113575217 -1.15E-07
  Decoupling Energy:                                              -0.0000028407
   192 OT DIIS     0.15E+00    5.2     0.00001777       -22.3113576594 -1.38E-07
  Decoupling Energy:                                              -0.0000028406
   193 OT DIIS     0.15E+00    5.2     0.00001699       -22.3113577820 -1.23E-07
  Decoupling Energy:                                              -0.0000028406
   194 OT DIIS     0.15E+00    5.2     0.00001628       -22.3113578996 -1.18E-07
  Decoupling Energy:                                              -0.0000028406
   195 OT DIIS     0.15E+00    5.3     0.00001569       -22.3113580052 -1.06E-07
  Decoupling Energy:                                              -0.0000028406
   196 OT DIIS     0.15E+00    5.3     0.00001517       -22.3113581000 -9.47E-08
  Decoupling Energy:                                              -0.0000028405
   197 OT DIIS     0.15E+00    5.3     0.00001475       -22.3113581794 -7.94E-08
  Decoupling Energy:                                              -0.0000028405
   198 OT DIIS     0.15E+00    5.3     0.00001427       -22.3113582703 -9.09E-08
  Decoupling Energy:                                              -0.0000028404
   199 OT DIIS     0.15E+00    5.3     0.00001369       -22.3113583758 -1.06E-07
  Decoupling Energy:                                              -0.0000028404
   200 OT DIIS     0.15E+00    5.2     0.00001290       -22.3113585133 -1.37E-07
  Decoupling Energy:                                              -0.0000028403
   201 OT DIIS     0.15E+00    5.2     0.00001215       -22.3113586342 -1.21E-07
  Decoupling Energy:                                              -0.0000028402
   202 OT DIIS     0.15E+00    5.3     0.00001139       -22.3113587514 -1.17E-07
  Decoupling Energy:                                              -0.0000028400
   203 OT DIIS     0.15E+00    5.3     0.00001066       -22.3113588530 -1.02E-07
  Decoupling Energy:                                              -0.0000028399
   204 OT DIIS     0.15E+00    5.2     0.00000998       -22.3113589366 -8.36E-08
  Decoupling Energy:                                              -0.0000028399
   205 OT DIIS     0.15E+00    5.2     0.00000943       -22.3113589952 -5.87E-08
  Decoupling Energy:                                              -0.0000028398
   206 OT DIIS     0.15E+00    5.3     0.00000890       -22.3113590440 -4.88E-08
  Decoupling Energy:                                              -0.0000028397
   207 OT DIIS     0.15E+00    5.3     0.00000841       -22.3113590830 -3.90E-08
  Decoupling Energy:                                              -0.0000028397
   208 OT DIIS     0.15E+00    5.3     0.00000787       -22.3113591198 -3.68E-08
  Decoupling Energy:                                              -0.0000028397
   209 OT DIIS     0.15E+00    5.3     0.00000740       -22.3113591488 -2.90E-08
  Decoupling Energy:                                              -0.0000028397
   210 OT DIIS     0.15E+00    5.2     0.00000695       -22.3113591749 -2.61E-08
  Decoupling Energy:                                              -0.0000028397
   211 OT DIIS     0.15E+00    5.2     0.00000657       -22.3113591964 -2.15E-08
  Decoupling Energy:                                              -0.0000028397
   212 OT DIIS     0.15E+00    5.3     0.00000625       -22.3113592128 -1.64E-08
  Decoupling Energy:                                              -0.0000028397
   213 OT DIIS     0.15E+00    5.2     0.00000602       -22.3113592238 -1.10E-08
  Decoupling Energy:                                              -0.0000028397
   214 OT DIIS     0.15E+00    5.3     0.00000585       -22.3113592324 -8.61E-09
  Decoupling Energy:                                              -0.0000028397
   215 OT DIIS     0.15E+00    5.3     0.00000570       -22.3113592401 -7.78E-09
  Decoupling Energy:                                              -0.0000028397
   216 OT DIIS     0.15E+00    5.2     0.00000552       -22.3113592500 -9.81E-09
  Decoupling Energy:                                              -0.0000028397
   217 OT DIIS     0.15E+00    5.2     0.00000533       -22.3113592608 -1.08E-08
  Decoupling Energy:                                              -0.0000028396
   218 OT DIIS     0.15E+00    5.2     0.00000514       -22.3113592727 -1.19E-08
  Decoupling Energy:                                              -0.0000028396
   219 OT DIIS     0.15E+00    5.3     0.00000496       -22.3113592848 -1.21E-08
  Decoupling Energy:                                              -0.0000028396
   220 OT DIIS     0.15E+00    5.2     0.00000479       -22.3113592961 -1.13E-08
  Decoupling Energy:                                              -0.0000028395
   221 OT DIIS     0.15E+00    5.3     0.00000464       -22.3113593061 -1.00E-08
  Decoupling Energy:                                              -0.0000028395
   222 OT DIIS     0.15E+00    5.2     0.00000447       -22.3113593166 -1.05E-08
  Decoupling Energy:                                              -0.0000028395
   223 OT DIIS     0.15E+00    5.3     0.00000428       -22.3113593283 -1.17E-08
  Decoupling Energy:                                              -0.0000028394
   224 OT DIIS     0.15E+00    5.2     0.00000402       -22.3113593418 -1.34E-08
  Decoupling Energy:                                              -0.0000028394
   225 OT DIIS     0.15E+00    5.3     0.00000376       -22.3113593541 -1.23E-08
  Decoupling Energy:                                              -0.0000028394
   226 OT DIIS     0.15E+00    5.2     0.00000353       -22.3113593645 -1.03E-08
  Decoupling Energy:                                              -0.0000028394
   227 OT DIIS     0.15E+00    5.3     0.00000333       -22.3113593725 -8.06E-09
  Decoupling Energy:                                              -0.0000028394
   228 OT DIIS     0.15E+00    5.2     0.00000315       -22.3113593788 -6.25E-09
  Decoupling Energy:                                              -0.0000028394
   229 OT DIIS     0.15E+00    5.3     0.00000298       -22.3113593838 -5.01E-09
  Decoupling Energy:                                              -0.0000028394
   230 OT DIIS     0.15E+00    5.3     0.00000281       -22.3113593882 -4.40E-09
  Decoupling Energy:                                              -0.0000028394
   231 OT DIIS     0.15E+00    5.3     0.00000264       -22.3113593919 -3.75E-09
  Decoupling Energy:                                              -0.0000028394
   232 OT DIIS     0.15E+00    5.2     0.00000249       -22.3113593950 -3.11E-09
  Decoupling Energy:                                              -0.0000028394
   233 OT DIIS     0.15E+00    5.2     0.00000236       -22.3113593973 -2.22E-09
  Decoupling Energy:                                              -0.0000028394
   234 OT DIIS     0.15E+00    5.2     0.00000227       -22.3113593990 -1.70E-09
  Decoupling Energy:                                              -0.0000028393
   235 OT DIIS     0.15E+00    5.2     0.00000219       -22.3113594003 -1.37E-09
  Decoupling Energy:                                              -0.0000028393
   236 OT DIIS     0.15E+00    5.3     0.00000213       -22.3113594016 -1.25E-09
  Decoupling Energy:                                              -0.0000028393
   237 OT DIIS     0.15E+00    5.2     0.00000207       -22.3113594028 -1.23E-09
  Decoupling Energy:                                              -0.0000028393
   238 OT DIIS     0.15E+00    5.3     0.00000201       -22.3113594040 -1.22E-09
  Decoupling Energy:                                              -0.0000028393
   239 OT DIIS     0.15E+00    5.3     0.00000195       -22.3113594053 -1.23E-09
  Decoupling Energy:                                              -0.0000028393
   240 OT DIIS     0.15E+00    5.2     0.00000190       -22.3113594066 -1.31E-09
  Decoupling Energy:                                              -0.0000028393
   241 OT DIIS     0.15E+00    5.2     0.00000184       -22.3113594079 -1.36E-09
  Decoupling Energy:                                              -0.0000028393
   242 OT DIIS     0.15E+00    5.2     0.00000178       -22.3113594094 -1.44E-09
  Decoupling Energy:                                              -0.0000028393
   243 OT DIIS     0.15E+00    5.3     0.00000172       -22.3113594109 -1.52E-09
  Decoupling Energy:                                              -0.0000028393
   244 OT DIIS     0.15E+00    5.3     0.00000165       -22.3113594125 -1.59E-09
  Decoupling Energy:                                              -0.0000028393
   245 OT DIIS     0.15E+00    5.3     0.00000158       -22.3113594141 -1.57E-09
  Decoupling Energy:                                              -0.0000028393
   246 OT DIIS     0.15E+00    5.2     0.00000150       -22.3113594157 -1.59E-09
  Decoupling Energy:                                              -0.0000028393
   247 OT DIIS     0.15E+00    5.2     0.00000142       -22.3113594172 -1.53E-09
  Decoupling Energy:                                              -0.0000028392
   248 OT DIIS     0.15E+00    5.3     0.00000134       -22.3113594186 -1.39E-09
  Decoupling Energy:                                              -0.0000028392
   249 OT DIIS     0.15E+00    5.2     0.00000125       -22.3113594198 -1.23E-09
  Decoupling Energy:                                              -0.0000028392
   250 OT DIIS     0.15E+00    5.2     0.00000117       -22.3113594209 -1.04E-09
  Decoupling Energy:                                              -0.0000028392
   251 OT DIIS     0.15E+00    5.3     0.00000111       -22.3113594216 -7.69E-10
  Decoupling Energy:                                              -0.0000028392
   252 OT DIIS     0.15E+00    5.3     0.00000105       -22.3113594222 -5.63E-10
  Decoupling Energy:                                              -0.0000028392
   253 OT DIIS     0.15E+00    5.3     0.00000099       -22.3113594226 -4.38E-10
  Decoupling Energy:                                              -0.0000028392
   254 OT DIIS     0.15E+00    5.2     0.00000095       -22.3113594230 -3.49E-10
  Decoupling Energy:                                              -0.0000028392
   255 OT DIIS     0.15E+00    5.3     0.00000091       -22.3113594232 -2.75E-10
  Decoupling Energy:                                              -0.0000028392
   256 OT DIIS     0.15E+00    5.3     0.00000088       -22.3113594235 -2.36E-10
  Decoupling Energy:                                              -0.0000028392
   257 OT DIIS     0.15E+00    5.2     0.00000085       -22.3113594237 -2.15E-10
  Decoupling Energy:                                              -0.0000028392
   258 OT DIIS     0.15E+00    5.2     0.00000082       -22.3113594239 -1.95E-10
  Decoupling Energy:                                              -0.0000028392
   259 OT DIIS     0.15E+00    5.3     0.00000080       -22.3113594241 -1.68E-10
  Decoupling Energy:                                              -0.0000028392
   260 OT DIIS     0.15E+00    5.3     0.00000077       -22.3113594242 -1.63E-10
  Decoupling Energy:                                              -0.0000028392
   261 OT DIIS     0.15E+00    5.3     0.00000075       -22.3113594244 -1.71E-10
  Decoupling Energy:                                              -0.0000028392
   262 OT DIIS     0.15E+00    5.2     0.00000073       -22.3113594246 -1.88E-10
  Decoupling Energy:                                              -0.0000028392
   263 OT DIIS     0.15E+00    5.3     0.00000071       -22.3113594248 -1.94E-10
  Decoupling Energy:                                              -0.0000028392
   264 OT DIIS     0.15E+00    5.3     0.00000069       -22.3113594250 -2.12E-10
  Decoupling Energy:                                              -0.0000028392
   265 OT DIIS     0.15E+00    5.3     0.00000067       -22.3113594252 -2.37E-10
  Decoupling Energy:                                              -0.0000028392
   266 OT DIIS     0.15E+00    5.2     0.00000064       -22.3113594255 -2.49E-10
  Decoupling Energy:                                              -0.0000028392
   267 OT DIIS     0.15E+00    5.3     0.00000062       -22.3113594257 -2.39E-10
  Decoupling Energy:                                              -0.0000028392
   268 OT DIIS     0.15E+00    5.2     0.00000059       -22.3113594260 -2.41E-10
  Decoupling Energy:                                              -0.0000028392
   269 OT DIIS     0.15E+00    5.3     0.00000055       -22.3113594262 -2.30E-10
  Decoupling Energy:                                              -0.0000028392
   270 OT DIIS     0.15E+00    5.2     0.00000052       -22.3113594264 -2.07E-10
  Decoupling Energy:                                              -0.0000028392
   271 OT DIIS     0.15E+00    5.2     0.00000049       -22.3113594266 -1.68E-10
  Decoupling Energy:                                              -0.0000028392
   272 OT DIIS     0.15E+00    5.3     0.00000047       -22.3113594267 -1.31E-10
  Decoupling Energy:                                              -0.0000028392
   273 OT DIIS     0.15E+00    5.3     0.00000044       -22.3113594268 -1.07E-10
  Decoupling Energy:                                              -0.0000028392
   274 OT DIIS     0.15E+00    5.2     0.00000042       -22.3113594269 -9.00E-11
  Decoupling Energy:                                              -0.0000028392
   275 OT DIIS     0.15E+00    5.3     0.00000040       -22.3113594270 -7.20E-11
  Decoupling Energy:                                              -0.0000028392
   276 OT DIIS     0.15E+00    5.2     0.00000038       -22.3113594270 -5.99E-11
  Decoupling Energy:                                              -0.0000028392
   277 OT DIIS     0.15E+00    5.3     0.00000036       -22.3113594271 -4.88E-11
  Decoupling Energy:                                              -0.0000028392
   278 OT DIIS     0.15E+00    5.3     0.00000035       -22.3113594271 -3.88E-11
  Decoupling Energy:                                              -0.0000028392
   279 OT DIIS     0.15E+00    5.2     0.00000034       -22.3113594271 -2.91E-11
  Decoupling Energy:                                              -0.0000028392
   280 OT DIIS     0.15E+00    5.3     0.00000033       -22.3113594272 -2.48E-11
  Decoupling Energy:                                              -0.0000028392
   281 OT DIIS     0.15E+00    5.3     0.00000032       -22.3113594272 -2.60E-11
  Decoupling Energy:                                              -0.0000028392
   282 OT DIIS     0.15E+00    5.2     0.00000031       -22.3113594272 -2.67E-11
  Decoupling Energy:                                              -0.0000028392
   283 OT DIIS     0.15E+00    5.3     0.00000030       -22.3113594272 -2.91E-11
  Decoupling Energy:                                              -0.0000028392
   284 OT DIIS     0.15E+00    5.2     0.00000029       -22.3113594273 -3.30E-11
  Decoupling Energy:                                              -0.0000028392
   285 OT DIIS     0.15E+00    5.3     0.00000028       -22.3113594273 -3.39E-11
  Decoupling Energy:                                              -0.0000028392
   286 OT DIIS     0.15E+00    5.3     0.00000028       -22.3113594273 -3.52E-11
  Decoupling Energy:                                              -0.0000028392
   287 OT DIIS     0.15E+00    5.3     0.00000027       -22.3113594274 -3.70E-11
  Decoupling Energy:                                              -0.0000028392
   288 OT DIIS     0.15E+00    5.8     0.00000026       -22.3113594274 -3.80E-11
  Decoupling Energy:                                              -0.0000028392
   289 OT DIIS     0.15E+00    5.4     0.00000024       -22.3113594275 -3.96E-11
  Decoupling Energy:                                              -0.0000028392
   290 OT DIIS     0.15E+00    5.2     0.00000023       -22.3113594275 -3.72E-11
  Decoupling Energy:                                              -0.0000028392
   291 OT DIIS     0.15E+00    5.2     0.00000022       -22.3113594275 -3.48E-11
  Decoupling Energy:                                              -0.0000028392
   292 OT DIIS     0.15E+00    5.3     0.00000021       -22.3113594276 -3.06E-11
  Decoupling Energy:                                              -0.0000028392
   293 OT DIIS     0.15E+00    5.3     0.00000020       -22.3113594276 -2.66E-11
  Decoupling Energy:                                              -0.0000028392
   294 OT DIIS     0.15E+00    5.3     0.00000018       -22.3113594276 -2.23E-11
  Decoupling Energy:                                              -0.0000028392
   295 OT DIIS     0.15E+00    5.3     0.00000017       -22.3113594276 -1.81E-11
  Decoupling Energy:                                              -0.0000028392
   296 OT DIIS     0.15E+00    5.2     0.00000016       -22.3113594276 -1.39E-11
  Decoupling Energy:                                              -0.0000028392
   297 OT DIIS     0.15E+00    5.3     0.00000016       -22.3113594277 -1.04E-11
  Decoupling Energy:                                              -0.0000028392
   298 OT DIIS     0.15E+00    5.3     0.00000015       -22.3113594277 -7.73E-12
  Decoupling Energy:                                              -0.0000028392
   299 OT DIIS     0.15E+00    5.3     0.00000014       -22.3113594277 -6.20E-12
  Decoupling Energy:                                              -0.0000028392
   300 OT DIIS     0.15E+00    5.3     0.00000014       -22.3113594277 -5.32E-12
  Decoupling Energy:                                              -0.0000028392
   301 OT DIIS     0.15E+00    5.3     0.00000014       -22.3113594277 -5.14E-12
  Decoupling Energy:                                              -0.0000028392
   302 OT DIIS     0.15E+00    5.3     0.00000013       -22.3113594277 -4.81E-12
  Decoupling Energy:                                              -0.0000028392
   303 OT DIIS     0.15E+00    5.3     0.00000013       -22.3113594277 -4.54E-12
  Decoupling Energy:                                              -0.0000028392
   304 OT DIIS     0.15E+00    5.3     0.00000012       -22.3113594277 -4.47E-12
  Decoupling Energy:                                              -0.0000028392
   305 OT DIIS     0.15E+00    5.3     0.00000012       -22.3113594277 -4.61E-12
  Decoupling Energy:                                              -0.0000028392
   306 OT DIIS     0.15E+00    5.2     0.00000012       -22.3113594277 -4.92E-12
  Decoupling Energy:                                              -0.0000028392
   307 OT DIIS     0.15E+00    5.3     0.00000012       -22.3113594277 -5.56E-12
  Decoupling Energy:                                              -0.0000028392
   308 OT DIIS     0.15E+00    5.2     0.00000011       -22.3113594277 -6.36E-12
  Decoupling Energy:                                              -0.0000028392
   309 OT DIIS     0.15E+00    5.3     0.00000011       -22.3113594277 -6.64E-12
  Decoupling Energy:                                              -0.0000028392
   310 OT DIIS     0.15E+00    5.3     0.00000010       -22.3113594277 -6.36E-12
  Decoupling Energy:                                              -0.0000028392
   311 OT DIIS     0.15E+00    5.3     0.00000010       -22.3113594277 -6.34E-12
  Decoupling Energy:                                              -0.0000028392
   312 OT DIIS     0.15E+00    5.3     0.00000009       -22.3113594277 -6.10E-12
  Decoupling Energy:                                              -0.0000028392
   313 OT DIIS     0.15E+00    5.3     0.00000009       -22.3113594277 -5.73E-12
  Decoupling Energy:                                              -0.0000028392
   314 OT DIIS     0.15E+00    5.3     0.00000008       -22.3113594277 -5.12E-12
  Decoupling Energy:                                              -0.0000028392
   315 OT DIIS     0.15E+00    5.3     0.00000008       -22.3113594278 -4.25E-12
  Decoupling Energy:                                              -0.0000028392
   316 OT DIIS     0.15E+00    5.3     0.00000007       -22.3113594278 -3.35E-12
  Decoupling Energy:                                              -0.0000028392
   317 OT DIIS     0.15E+00    5.2     0.00000007       -22.3113594278 -2.47E-12
  Decoupling Energy:                                              -0.0000028392
   318 OT DIIS     0.15E+00    5.3     0.00000007       -22.3113594278 -1.88E-12
  Decoupling Energy:                                              -0.0000028391
   319 OT DIIS     0.15E+00    5.3     0.00000006       -22.3113594278 -1.55E-12
  Decoupling Energy:                                              -0.0000028391
   320 OT DIIS     0.15E+00    5.3     0.00000006       -22.3113594278 -1.32E-12
  Decoupling Energy:                                              -0.0000028391
   321 OT DIIS     0.15E+00    5.2     0.00000006       -22.3113594278 -1.15E-12
  Decoupling Energy:                                              -0.0000028391
   322 OT DIIS     0.15E+00    5.3     0.00000006       -22.3113594278 -9.45E-13
  Decoupling Energy:                                              -0.0000028391
   323 OT DIIS     0.15E+00    5.3     0.00000006       -22.3113594278 -7.74E-13
  Decoupling Energy:                                              -0.0000028391
   324 OT DIIS     0.15E+00    5.3     0.00000005       -22.3113594278 -7.64E-13
  Decoupling Energy:                                              -0.0000028391
   325 OT DIIS     0.15E+00    5.3     0.00000005       -22.3113594278 -7.00E-13
  Decoupling Energy:                                              -0.0000028391
   326 OT DIIS     0.15E+00    5.3     0.00000005       -22.3113594278 -7.32E-13
  Decoupling Energy:                                              -0.0000028391
   327 OT DIIS     0.15E+00    5.3     0.00000005       -22.3113594278 -8.70E-13
  Decoupling Energy:                                              -0.0000028391
   328 OT DIIS     0.15E+00    5.3     0.00000005       -22.3113594278 -9.91E-13
  Decoupling Energy:                                              -0.0000028391
   329 OT DIIS     0.15E+00    5.2     0.00000005       -22.3113594278 -1.14E-12
  Decoupling Energy:                                              -0.0000028391
   330 OT DIIS     0.15E+00    5.2     0.00000005       -22.3113594278 -1.10E-12
  Decoupling Energy:                                              -0.0000028391
   331 OT DIIS     0.15E+00    5.3     0.00000004       -22.3113594278 -1.10E-12
  Decoupling Energy:                                              -0.0000028391
   332 OT DIIS     0.15E+00    5.3     0.00000004       -22.3113594278 -1.19E-12
  Decoupling Energy:                                              -0.0000028391
   333 OT DIIS     0.15E+00    5.3     0.00000004       -22.3113594278 -1.12E-12
  Decoupling Energy:                                              -0.0000028391
   334 OT DIIS     0.15E+00    5.2     0.00000004       -22.3113594278 -1.05E-12
  Decoupling Energy:                                              -0.0000028391
   335 OT DIIS     0.15E+00    5.3     0.00000004       -22.3113594278 -9.45E-13
  Decoupling Energy:                                              -0.0000028391
   336 OT DIIS     0.15E+00    5.3     0.00000003       -22.3113594278 -8.49E-13
  Decoupling Energy:                                              -0.0000028391
   337 OT DIIS     0.15E+00    5.3     0.00000003       -22.3113594278 -6.96E-13
  Decoupling Energy:                                              -0.0000028391
   338 OT DIIS     0.15E+00    5.2     0.00000003       -22.3113594278 -5.12E-13
  Decoupling Energy:                                              -0.0000028391
   339 OT DIIS     0.15E+00    5.3     0.00000003       -22.3113594278 -4.65E-13
  Decoupling Energy:                                              -0.0000028391
   340 OT DIIS     0.15E+00    5.3     0.00000003       -22.3113594278 -3.55E-13
  Decoupling Energy:                                              -0.0000028391
   341 OT DIIS     0.15E+00    5.3     0.00000003       -22.3113594278 -2.49E-13
  Decoupling Energy:                                              -0.0000028391
   342 OT DIIS     0.15E+00    5.3     0.00000003       -22.3113594278 -2.45E-13
  Decoupling Energy:                                              -0.0000028391
   343 OT DIIS     0.15E+00    5.3     0.00000002       -22.3113594278 -1.63E-13
  Decoupling Energy:                                              -0.0000028391
   344 OT DIIS     0.15E+00    5.2     0.00000002       -22.3113594278 -1.46E-13
  Decoupling Energy:                                              -0.0000028391
   345 OT DIIS     0.15E+00    5.3     0.00000002       -22.3113594278 -1.88E-13
  Decoupling Energy:                                              -0.0000028391
   346 OT DIIS     0.15E+00    5.3     0.00000002       -22.3113594278 -1.46E-13
  Decoupling Energy:                                              -0.0000028391
   347 OT DIIS     0.15E+00    5.2     0.00000002       -22.3113594278 -1.63E-13
  Decoupling Energy:                                              -0.0000028391
   348 OT DIIS     0.15E+00    5.3     0.00000002       -22.3113594278 -1.53E-13
  Decoupling Energy:                                              -0.0000028391
   349 OT DIIS     0.15E+00    5.3     0.00000002       -22.3113594278 -1.99E-13
  Decoupling Energy:                                              -0.0000028391
   350 OT DIIS     0.15E+00    5.3     0.00000002       -22.3113594278 -1.95E-13
  Decoupling Energy:                                              -0.0000028391
   351 OT DIIS     0.15E+00    5.3     0.00000002       -22.3113594278 -1.67E-13
  Decoupling Energy:                                              -0.0000028391
   352 OT DIIS     0.15E+00    5.3     0.00000002       -22.3113594278 -2.63E-13
  Decoupling Energy:                                              -0.0000028391
   353 OT DIIS     0.15E+00    5.2     0.00000002       -22.3113594278 -2.42E-13
  Decoupling Energy:                                              -0.0000028391
   354 OT DIIS     0.15E+00    5.2     0.00000002       -22.3113594278 -2.56E-13
  Decoupling Energy:                                              -0.0000028391
   355 OT DIIS     0.15E+00    5.3     0.00000002       -22.3113594278 -2.77E-13
  Decoupling Energy:                                              -0.0000028391
   356 OT DIIS     0.15E+00    5.3     0.00000002       -22.3113594278 -2.06E-13
  Decoupling Energy:                                              -0.0000028391
   357 OT DIIS     0.15E+00    5.2     0.00000001       -22.3113594278 -1.85E-13
  Decoupling Energy:                                              -0.0000028391
   358 OT DIIS     0.15E+00    5.3     0.00000001       -22.3113594278 -1.71E-13
  Decoupling Energy:                                              -0.0000028391
   359 OT DIIS     0.15E+00    5.2     0.00000001       -22.3113594278 -1.17E-13
  Decoupling Energy:                                              -0.0000028391
   360 OT DIIS     0.15E+00    5.2     0.00000001       -22.3113594278 -1.46E-13
  Decoupling Energy:                                              -0.0000028391
   361 OT DIIS     0.15E+00    5.3     0.00000001       -22.3113594278 -8.53E-14
  Decoupling Energy:                                              -0.0000028391
   362 OT DIIS     0.15E+00    5.3     0.00000001       -22.3113594278 -7.46E-14
  Decoupling Energy:                                              -0.0000028391
   363 OT DIIS     0.15E+00    5.3     0.00000001       -22.3113594278 -6.04E-14
  Decoupling Energy:                                              -0.0000028391
   364 OT DIIS     0.15E+00    5.3     0.00000001       -22.3113594278 -5.33E-14
  Decoupling Energy:                                              -0.0000028391
   365 OT DIIS     0.15E+00    5.3     0.00000001       -22.3113594278 -5.33E-14
  Decoupling Energy:                                              -0.0000028391
   366 OT DIIS     0.15E+00    5.3     9.7547E-09       -22.3113594278 -2.84E-14

  *** SCF run converged in   366 steps ***


  Electronic density on regular grids:        -16.0000001097       -0.0000001097
  Core density on regular grids:               16.0000000000       -0.0000000000
  Total charge density on r-space grids:       -0.0000001097
  Total charge density g-space grids:          -0.0000001097

  Overlap energy of the core charge distribution:               0.00000048963826
  Self energy of the core charge distribution:                -53.34003170706085
  Core Hamiltonian energy:                                     15.77112538528398
  Hartree energy:                                              21.85740656925579
  Exchange-correlation energy:                                 -6.59986016490355

  Total energy:                                               -22.31135942778637

  outer SCF iter =    1 RMS gradient =   0.98E-08 energy =        -22.3113594278
  outer SCF loop converged in   1 iterations or  366 steps

  
 -------------------------------------------------------------------------------
 -                                                                             -
 -                          BANDSTRUCTURE CALCULATION                          -
 -                                                                             -
 -------------------------------------------------------------------------------
  
 Number of occupied molecular orbitals (MOs) = Number of occupied bands        8
 Number of unoccupied (= virtual) MOs = Number of unoccupied bands            44
 Number of Gaussian basis functions for MOs                                   52
  
 -------------------------------------------------------------------------------
 -                                                                             -
 -                                GW CALCULATION                               -
 -                                                                             -
 -------------------------------------------------------------------------------
  
 Input: Number of time/freq. points                                           30
 Input: ω_max for fitting Σ(iω) (eV)                                        10.0
 Input: Filter threshold for sparse tensor operations                    1.0E-07
 Input: Apply Hedin shift                                                      F
 Input: Available memory per MPI process                                  8.0 GB
 
 Input: RI-RS Tikhonov regularization                                   1.00E-04
 Input: AO grid hard cutoff radius                                        8.00 Å
 Input: MPI ranks per atom in Z_lP solve                                      -1
 Input: Keep sparsity in χ/G/W panels                                          T
 Input: GW flavour                                                          G0W0
 
 Input: RI-RS grid optimization activated                                      T
 Input: Initial RI-RS grid                                              CHOLESKY
 Input: RS points per AO function                                         8.0000
 Input: Initial RS candidates per AO function                            30.0000
 Input: Additional Lebedev degree                                              2
 Input: Cholesky selection matrix                                        D_PRIME
 Input: Cholesky candidate domain                                      FULL_ATOM
 Input: Initial radial quadrature                                       GAPW_LOG
 Input: Cutoff radius for atomic clusters                                  5.0 Å
 Input: Maximum grid optimization iterations                                 300
 Input: L-BFGS history size                                                    7
 Input: L-BFGS relative-function factor                              0.00000E+00
 Input: L-BFGS projected-gradient tolerance                          1.00000E-09
 
 Input: AUTO_RI basis optimization activated:                                  T
 Input: AUTO_RI requested RI/AO ratio:                                       2.0
 Input: AUTO_RI frontier orbital window:                                  5.0 eV
 Input: AUTO_RI neighbor radius:                                           3.0 Å
 
 Cutoff radius for the truncated Coulomb operator in RI metric:            7.0 Å
 Regularization parameter of RI                                          0.0E+00
 Regularization parameter of minimax grids                               1.0E-06
 
 AUTO_RI| Number of automatic RI functions for χ, ε, W:                      104
 AUTO_RI| Total RI basis optimization time:                                1.9 s
  Decoupling Energy:                                              -0.0000028391
 
 SCF direct band gap (eV)                                                   1.06
 Max. SCF eigval diff. (eV)                                               168.61
 E-Range for minimax grid                                                 158.90
 Number of Padé parameters for analytic continuation:                         16
 
 RI-RS basis radii (Å):
     Kind  Elem     r_AO (Å)     r_RI (Å)
        1    C         8.0299        5.0785
 
 RI-RS initialization: atomic kind                                             1
 RI-RS initialization: Lebedev degree                                         11
 RI-RS initialization: radial shells                                           8
 RI-RS initialization: candidates per atom                                   400
 RI-RS initialization: retained points per atom                              104
 RI-RS initialization: largest cluster candidate count                      1600
 RI-RS initialization: most pivots in one cluster                            442
 RI-RS initialization: most stored AO values in one cluster                83200
 RI-RS initialization: wall time [s]                                       0.122
 Started RI-RS grid optimization
 RI-RS grid initial normalized error                          7.741533591837E-06
 RI-RS grid optimization completed, execution time:                       28.6 s
 Normalized 3C error:                                                    3.5E-08
 Maximum absolute 3C error:                                              4.5E-04
 Optimized points outside molecular Voronoi cells:                            16 / 416
 Total grid points used for RI-RS:                                           416
 
 RI-RS grid row-blocks of Φ_μ(r_l)                                            16
 RI-RS grid points per block (max)                                            32
 
 Percentage of non-zero matrix elements in Φ_μ(r_l)                     100.00 %
 
 RI-RS memory estimate per MPI process:
   Available memory per process (system)                               265.47 GB
   Required for Z_lP (dense upper bound; actual is sparser)              0.00 GB
   Required for χ, W, Σ panels (peak per panel step)                     0.00 GB
   Required for Z_lP solve peak (D_local+φ, worst-case atom)             0.01 GB
   Worst-case local-grid number of grid points:                              416
   Worst-case memory D_local:                                            0.00 GB
 
 Started computing Z_lP
 Computed Z_lP (MPI rank 0) for atom          1 /  4,    Execution time    0.0 s
 Computed Z_lP (MPI rank 0) for atom          2 /  4,    Execution time    0.0 s
 Computed Z_lP (MPI rank 0) for atom          3 /  4,    Execution time    0.0 s
 Computed Z_lP (MPI rank 0) for atom          4 /  4,    Execution time    0.0 s
 Computed Z_lP (all MPI ranks) for all atoms,            Execution time    0.1 s

 Number of batches for χ, Σ matrices                                           1
 
 Percentage of non-zero matrix elements in Z_lP                         100.00 %
 Percentage of non-zero matrix elements in G_ll', χ_ll', W_ll'          100.00 %
 Percentage of non-zero matrix elements in χ_PQ for time point 1        100.00 %
 
 Computed χ(iτ,k=0) for time point            1 / 30,    Execution time    0.0 s
 Computed χ(iτ,k=0) for time point            2 / 30,    Execution time    0.0 s
 Computed χ(iτ,k=0) for time point            3 / 30,    Execution time    0.0 s
 Computed χ(iτ,k=0) for time point            4 / 30,    Execution time    0.0 s
 Computed χ(iτ,k=0) for time point            5 / 30,    Execution time    0.0 s
 Computed χ(iτ,k=0) for time point            6 / 30,    Execution time    0.0 s
 Computed χ(iτ,k=0) for time point            7 / 30,    Execution time    0.0 s
 Computed χ(iτ,k=0) for time point            8 / 30,    Execution time    0.0 s
 Computed χ(iτ,k=0) for time point            9 / 30,    Execution time    0.0 s
 Computed χ(iτ,k=0) for time point           10 / 30,    Execution time    0.0 s
 Computed χ(iτ,k=0) for time point           11 / 30,    Execution time    0.0 s
 Computed χ(iτ,k=0) for time point           12 / 30,    Execution time    0.0 s
 Computed χ(iτ,k=0) for time point           13 / 30,    Execution time    0.0 s
 Computed χ(iτ,k=0) for time point           14 / 30,    Execution time    0.0 s
 Computed χ(iτ,k=0) for time point           15 / 30,    Execution time    0.0 s
 Computed χ(iτ,k=0) for time point           16 / 30,    Execution time    0.0 s
 Computed χ(iτ,k=0) for time point           17 / 30,    Execution time    0.0 s
 Computed χ(iτ,k=0) for time point           18 / 30,    Execution time    0.0 s
 Computed χ(iτ,k=0) for time point           19 / 30,    Execution time    0.0 s
 Computed χ(iτ,k=0) for time point           20 / 30,    Execution time    0.0 s
 Computed χ(iτ,k=0) for time point           21 / 30,    Execution time    0.0 s
 Computed χ(iτ,k=0) for time point           22 / 30,    Execution time    0.0 s
 Computed χ(iτ,k=0) for time point           23 / 30,    Execution time    0.0 s
 Computed χ(iτ,k=0) for time point           24 / 30,    Execution time    0.0 s
 Computed χ(iτ,k=0) for time point           25 / 30,    Execution time    0.0 s
 Computed χ(iτ,k=0) for time point           26 / 30,    Execution time    0.0 s
 Computed χ(iτ,k=0) for time point           27 / 30,    Execution time    0.0 s
 Computed χ(iτ,k=0) for time point           28 / 30,    Execution time    0.0 s
 Computed χ(iτ,k=0) for time point           29 / 30,    Execution time    0.0 s
 Computed χ(iτ,k=0) for time point           30 / 30,    Execution time    0.0 s
 
 Computed W(iτ),                                         Execution time    0.2 s
 
 Computed Σ^x(k=0),                                      Execution time    0.0 s
 
 Computed Σ^c(iτ) for time point              1 / 30,    Execution time    0.0 s
 Computed Σ^c(iτ) for time point              2 / 30,    Execution time    0.0 s
 Computed Σ^c(iτ) for time point              3 / 30,    Execution time    0.0 s
 Computed Σ^c(iτ) for time point              4 / 30,    Execution time    0.0 s
 Computed Σ^c(iτ) for time point              5 / 30,    Execution time    0.0 s
 Computed Σ^c(iτ) for time point              6 / 30,    Execution time    0.0 s
 Computed Σ^c(iτ) for time point              7 / 30,    Execution time    0.0 s
 Computed Σ^c(iτ) for time point              8 / 30,    Execution time    0.0 s
 Computed Σ^c(iτ) for time point              9 / 30,    Execution time    0.0 s
 Computed Σ^c(iτ) for time point             10 / 30,    Execution time    0.0 s
 Computed Σ^c(iτ) for time point             11 / 30,    Execution time    0.0 s
 Computed Σ^c(iτ) for time point             12 / 30,    Execution time    0.0 s
 Computed Σ^c(iτ) for time point             13 / 30,    Execution time    0.0 s
 Computed Σ^c(iτ) for time point             14 / 30,    Execution time    0.0 s
 Computed Σ^c(iτ) for time point             15 / 30,    Execution time    0.0 s
 Computed Σ^c(iτ) for time point             16 / 30,    Execution time    0.0 s
 Computed Σ^c(iτ) for time point             17 / 30,    Execution time    0.0 s
 Computed Σ^c(iτ) for time point             18 / 30,    Execution time    0.0 s
 Computed Σ^c(iτ) for time point             19 / 30,    Execution time    0.0 s
 Computed Σ^c(iτ) for time point             20 / 30,    Execution time    0.0 s
 Computed Σ^c(iτ) for time point             21 / 30,    Execution time    0.0 s
 Computed Σ^c(iτ) for time point             22 / 30,    Execution time    0.0 s
 Computed Σ^c(iτ) for time point             23 / 30,    Execution time    0.0 s
 Computed Σ^c(iτ) for time point             24 / 30,    Execution time    0.0 s
 Computed Σ^c(iτ) for time point             25 / 30,    Execution time    0.0 s
 Computed Σ^c(iτ) for time point             26 / 30,    Execution time    0.0 s
 Computed Σ^c(iτ) for time point             27 / 30,    Execution time    0.0 s
 Computed Σ^c(iτ) for time point             28 / 30,    Execution time    0.0 s
 Computed Σ^c(iτ) for time point             29 / 30,    Execution time    0.0 s
 Computed Σ^c(iτ) for time point             30 / 30,    Execution time    0.0 s
 
 SCF valence band maximum (eV):                                           -7.296
 SCF conduction band minimum (eV):                                        -6.235
 SCF indirect band gap (eV):                                               1.061
 SCF direct band gap (eV):                                                 1.061
 
 G0W0 valence band maximum (eV):                                         -10.024
 G0W0 conduction band minimum (eV):                                       -2.382
 G0W0 indirect band gap (eV):                                              7.642
 G0W0 direct band gap (eV):                                                7.642
 
 Hartree-Fock with SCF orbitals valence band maximum (eV):               -11.262
 Hartree-Fock with SCF orbitals conduction band minimum (eV)              -0.183
 Hartree-Fock with SCF orbitals indirect band gap (eV):                   11.079
 Hartree-Fock with SCF orbitals direct band gap (eV):                     11.079

 ENERGY| Total FORCE_EVAL ( QS ) energy [hartree]            -22.311359427786371

 -------------------------------------------------------------------------------
 -                                                                             -
 -                                DBCSR STATISTICS                             -
 -                                                                             -
 -------------------------------------------------------------------------------
 COUNTER                                    TOTAL       BLAS       SMM       ACC
 flops    20 x    20 x     8               563200     100.0%      0.0%      0.0%     
 flops     8 x    20 x    20               640000     100.0%      0.0%      0.0%     
 flops    25 x    20 x     8               704000     100.0%      0.0%      0.0%     
 flops    20 x    25 x     8               704000     100.0%      0.0%      0.0%     
 flops    20 x    29 x     8               798080     100.0%      0.0%      0.0%     
 flops     8 x    20 x    25               800000     100.0%      0.0%      0.0%     
 flops     8 x    25 x    20               800000     100.0%      0.0%      0.0%     
 flops    29 x    20 x     8               816640     100.0%      0.0%      0.0%     
 flops    25 x    25 x     8               880000     100.0%      0.0%      0.0%     
 flops     8 x    20 x    29               928000     100.0%      0.0%      0.0%     
 flops     8 x    29 x    20               928000     100.0%      0.0%      0.0%     
 flops     8 x    20 x     8               970240     100.0%      0.0%      0.0%     
 flops    25 x    29 x     8               997600     100.0%      0.0%      0.0%     
 flops     8 x    25 x    25              1000000     100.0%      0.0%      0.0%     
 flops    29 x    25 x     8              1020800     100.0%      0.0%      0.0%     
 flops    29 x    29 x     8              1157216     100.0%      0.0%      0.0%     
 flops     8 x    25 x    29              1160000     100.0%      0.0%      0.0%     
 flops     8 x    29 x    25              1160000     100.0%      0.0%      0.0%     
 flops     8 x    25 x     8              1209600     100.0%      0.0%      0.0%     
 flops     8 x    29 x    29              1345600     100.0%      0.0%      0.0%     
 flops     8 x    29 x     8              1410560     100.0%      0.0%      0.0%     
 flops     8 x     8 x     8              3366912     100.0%      0.0%      0.0%     
 flops     8 x    13 x     8              4006912     100.0%      0.0%      0.0%     
 flops     8 x     8 x   104              5324800     100.0%      0.0%      0.0%     
 flops    20 x    20 x    32              6912000     100.0%      0.0%      0.0%     
 flops    32 x    20 x    20              7680000     100.0%      0.0%      0.0%     
 flops     8 x     8 x    13              8150272     100.0%      0.0%      0.0%     
 flops    25 x    20 x    32              8640000     100.0%      0.0%      0.0%     
 flops    20 x    25 x    32              8640000     100.0%      0.0%      0.0%     
 flops    32 x    20 x    25              9600000     100.0%      0.0%      0.0%     
 flops    32 x    25 x    20              9600000     100.0%      0.0%      0.0%     
 flops    20 x    29 x    32              9836800     100.0%      0.0%      0.0%     
 flops    29 x    20 x    32             10022400     100.0%      0.0%      0.0%     
 flops    25 x    25 x    32             10800000     100.0%      0.0%      0.0%     
 flops    32 x    20 x    29             11136000     100.0%      0.0%      0.0%     
 flops    32 x    29 x    20             11136000     100.0%      0.0%      0.0%     
 flops    32 x    20 x     8             11724800     100.0%      0.0%      0.0%     
 flops    32 x    25 x    25             12000000     100.0%      0.0%      0.0%     
 flops     8 x    20 x    32             12093440     100.0%      0.0%      0.0%     
 flops    13 x     8 x     8             12173824     100.0%      0.0%      0.0%     
 flops     8 x     8 x    52             12293632     100.0%      0.0%      0.0%     
 flops    25 x    29 x    32             12296000     100.0%      0.0%      0.0%     
 flops    29 x    25 x    32             12528000     100.0%      0.0%      0.0%     
 flops    32 x    25 x    29             13920000     100.0%      0.0%      0.0%     
 flops    32 x    29 x    25             13920000     100.0%      0.0%      0.0%     
 flops    29 x    29 x    32             14263360     100.0%      0.0%      0.0%     
 flops    32 x    25 x     8             14707200     100.0%      0.0%      0.0%     
 flops     8 x    25 x    32             15078400     100.0%      0.0%      0.0%     
 flops    13 x     8 x    52             15877888     100.0%      0.0%      0.0%     
 flops    32 x    29 x    29             16147200     100.0%      0.0%      0.0%     
 flops    13 x    13 x     8             16348384     100.0%      0.0%      0.0%     
 flops    32 x    29 x     8             17075200     100.0%      0.0%      0.0%     
 flops     8 x    29 x    32             17550336     100.0%      0.0%      0.0%     
 flops     8 x    13 x    13             17803136     100.0%      0.0%      0.0%     
 flops    32 x     8 x    52             30670848     100.0%      0.0%      0.0%     
 flops     8 x    32 x    52             30670848     100.0%      0.0%      0.0%     
 flops    13 x     8 x    13             32707584     100.0%      0.0%      0.0%     
 flops    32 x    13 x     8             49580544     100.0%      0.0%      0.0%     
 flops     8 x    13 x    32             50485760     100.0%      0.0%      0.0%     
 flops    32 x     8 x   104             63897600     100.0%      0.0%      0.0%     
 flops     8 x    32 x   104             63897600     100.0%      0.0%      0.0%     
 flops    13 x    13 x    32             79649024     100.0%      0.0%      0.0%     
 flops     8 x    32 x    13             97883136     100.0%      0.0%      0.0%     
 flops    32 x     8 x    13             99447296     100.0%      0.0%      0.0%     
 flops    32 x    20 x    32            145858560     100.0%      0.0%      0.0%     
 flops    32 x    25 x    32            182579200     100.0%      0.0%      0.0%     
 flops    32 x    29 x    32            212088832     100.0%      0.0%      0.0%     
 flops    32 x    13 x    13            213897216     100.0%      0.0%      0.0%     
 flops    32 x    32 x    52            368050176     100.0%      0.0%      0.0%     
 flops    32 x    13 x    32            621377536     100.0%      0.0%      0.0%     
 flops    32 x    32 x   104            766771200     100.0%      0.0%      0.0%     
 flops    32 x    32 x    13           1198585856     100.0%      0.0%      0.0%     
 flops inhomo. stacks                   690589440     100.0%      0.0%      0.0%
 flops total                         5.401335E+09     100.0%      0.0%      0.0%
 flops max/rank                      5.401335E+09     100.0%      0.0%      0.0%
 matmuls inhomo. stacks                     11571     100.0%      0.0%      0.0%
 matmuls total                             235482     100.0%      0.0%      0.0%
 number of processed stacks                 32733     100.0%      0.0%      0.0%
 average stack size                                     7.2       0.0       0.0
 marketing flops                     6.519471E+09
 -------------------------------------------------------------------------------
 # multiplications                           8557
 max memory usage/rank              47.273689E+09
 # max total images/rank                        1
 # max 3D layers                                1
 # MPI messages exchanged                       0
 -------------------------------------------------------------------------------
 -                                                                             -
 -                      DBCSR MESSAGE PASSING PERFORMANCE                      -
 -                                                                             -
 -------------------------------------------------------------------------------
 ROUTINE             CALLS      AVE VOLUME [Bytes]
 MP_Bcast               73                     12.
 MP_Allreduce        41031                      9.
 MP_Alltoall         29594                   1900.
 MP_ISend            34056                    138.
 MP_IRecv            34056                    138.
 -------------------------------------------------------------------------------

 -------------------------------------------------------------------------------
 -                                                                             -
 -                                GRID STATISTICS                              -
 -                                                                             -
 -------------------------------------------------------------------------------
 LP    KERNEL             BACKEND                              COUNT     PERCENT
 4     collocate ortho    CPU                                 131019      50.00%
 4     integrate ortho    CPU                                 131019      50.00%
 0     collocate general  CPU                                      4       0.00%
 -------------------------------------------------------------------------------

 -------------------------------------------------------------------------------
 -                                                                             -
 -                          OFFLOAD MEMPOOL STATISTICS                         -
 -                                                                             -
 -------------------------------------------------------------------------------
 Memory consumption                Number of allocations  Used [MiB]  Size [MiB]
 Host                                                  6         260    22065400
 -------------------------------------------------------------------------------

 MEMORY| Estimated peak process memory [MiB]                               21966

 -------------------------------------------------------------------------------
 -                                                                             -
 -                         MESSAGE PASSING PERFORMANCE                         -
 -                                                                             -
 -------------------------------------------------------------------------------

 ROUTINE             CALLS      AVE VOLUME [Bytes]
 MP_Group                5
 MP_Bcast             6984                    742.
 MP_Allreduce        24154                    197.
 MP_Sync               394
 MP_comm_split         391
 -------------------------------------------------------------------------------


 -------------------------------------------------------------------------------
 -                                                                             -
 -                           R E F E R E N C E S                               -
 -                                                                             -
 -------------------------------------------------------------------------------
 
 CP2K version 2026.2 (Development Version), the CP2K developers group (2026).
 CP2K is freely available from https://www.cp2k.org/ .
 
 M. Iannuzzi, J. Wilhelm, F. Stein, A. Bussy, H. Elgabarty, D. Golze, A. Hehn, 
 M. Graml, S. Marek, B. Sertcan Gökmen, C. Schran, H. Forbert, R. Z. 
 Khaliullin, A. Kozhevnikov, M. Taillefumier, R. Meli, V. V. Rybkin, M. Brehm, 
 R. Schade, O. Schütt, J. V. Pototschnig, H. Mirhosseini, A. Knüpfer, D. Marx, 
 M. Krack, J. Hutter, T. D. Kühne.
 J. Phys. Chem. B 130, 1237-1310 (2026).
 The CP2K Program Package Made Simple.
 https://doi.org/10.1021/acs.jpcb.5c05851

 M. Graml, K. Zollner, D. Hernangómez-Pérez, P. E. Faria Junior, J. Wilhelm.
 J. Chem. Theory Comput. 20, 2202-2208 (2024).
 Low-scaling GW algorithm applied to twisted transition-metal dichalcogenide 
 heterobilayers.
 https://doi.org/10.1021/acs.jctc.3c01230

 T. D. Kühne, M. Iannuzzi, M. Del Ben, V. V. Rybkin, P. Seewald, F. Stein, T. 
 Laino, R. Z. Khaliullin, O. Schütt, F. Schiffmann, D. Golze, J. Wilhelm, S. 
 Chulkov, M. H. Bani-Hashemian, V. Weber, U. Borstnik, M. Taillefumier, A. S. 
 Jakobovits, A. Lazzaro, H. Pabst, T. Müller, R. Schade, M. Guidon, S. 
 Andermatt, N. Holmberg, G. K. Schenter, A. Hehn, A. Bussy, F. Belleflamme, G. 
 Tabacchi, A. Glöß, M. Lass, I. Bethune, C. J. Mundy, C. Plessl, M. Watkins, 
 J. VandeVondele, M. Krack, J. Hutter.
 J. Chem. Phys. 152, 194103 (2020).
 CP2K: An electronic structure and molecular dynamics software package - 
 Quickstep: Efficient and accurate electronic structure calculations.
 https://doi.org/10.1063/5.0007045

 O. Schuett, P. Messmer, J. Hutter, J. VandeVondele.
 Electronic Structure Calculations on Graphics Processing Units, 173-190 (2016).
 GPU-Accelerated Sparse Matrix-Matrix Multiplication for Linear Scaling Density 
 Functional Theory.
 https://doi.org/10.1002/9781118670712.ch8

 U. Borstnik, J. VandeVondele, V. Weber, J. Hutter.
 Parallel Comput. 40, 47-58 (2014).
 Sparse matrix multiplication: The distributed block-compressed sparse row 
 library.
 https://doi.org/10.1016/j.parco.2014.03.012

 J. VandeVondele, J. Hutter.
 J. Chem. Phys. 127, 114105 (2007).
 Gaussian basis sets for accurate calculations on molecular systems in gas and 
 condensed phases.
 https://doi.org/10.1063/1.2770708

 J. VandeVondele, M. Krack, F. Mohamed, M. Parrinello, T. Chassaing, J. Hutter.
 Comput. Phys. Commun. 167, 103-128 (2005).
 QUICKSTEP: Fast and accurate density functional calculations using a mixed 
 Gaussian and plane waves approach.
 https://doi.org/10.1016/j.cpc.2004.12.014

 M. Krack.
 Theor. Chem. Acc. 114, 145-152 (2005).
 Pseudopotentials for H to Kr optimized for gradient-corrected 
 exchange-correlation functionals.
 https://doi.org/10.1007/s00214-005-0655-y

 M. Frigo, S. G. Johnson.
 Proc. IEEE 93, 216-231 (2005).
 The design and implementation of FFTW3.
 https://doi.org/10.1109/JPROC.2004.840301

 J. VandeVondele, J. Hutter.
 J. Chem. Phys. 118, 4365-4369 (2003).
 An efficient orbital transformation method for electronic structure 
 calculations.
 https://doi.org/10.1063/1.1543154

 C. Hartwigsen, S. Goedecker, J. Hutter.
 Phys. Rev. B 58, 3641-3662 (1998).
 Relativistic separable dual-space Gaussian pseudopotentials from H to Rn.
 https://doi.org/10.1103/PhysRevB.58.3641

 G. Lippert, J. Hutter, M. Parrinello.
 Mol. Phys. 92, 477-487 (1997).
 A hybrid Gaussian and plane wave density functional scheme.
 https://doi.org/10.1080/002689797170220

 S. Goedecker, M. Teter, J. Hutter.
 Phys. Rev. B 54, 1703-1710 (1996).
 Separable dual-space Gaussian pseudopotentials.
 https://doi.org/10.1103/PhysRevB.54.1703

 J. P. Perdew, K. Burke, M. Ernzerhof.
 Phys. Rev. Lett. 77, 3865-3868 (1996).
 Generalized gradient approximation made simple.
 https://doi.org/10.1103/PhysRevLett.77.3865

 P. E. Blöchl.
 J. Chem. Phys. 103, 7422-7428 (1995).
 Electrostatic decoupling of periodic images of plane‐wave‐expanded 
 densities and derived atomic point charges.
 https://doi.org/10.1063/1.470314

 R. H. Byrd, P. H. Lu, J. Nocedal, C. Y. Zhu.
 SIAM J. Sci. Comput. 16, 1190-1208 (1995).
 A Limited Memory Algorithm for Bound Constrained Optimization.
 https://doi.org/10.1137/0916069


 -------------------------------------------------------------------------------
 -                                                                             -
 -                                T I M I N G                                  -
 -                                                                             -
 -------------------------------------------------------------------------------
 SUBROUTINE                       CALLS  ASD         SELF TIME        TOTAL TIME MAXRANK
                                MAXIMUM       AVERAGE  MAXIMUM  AVERAGE  MAXIMUM
 CP2K                                 1  1.0    0.120    0.120 1970.078 1970.078       0
 qs_energies                          1  2.0    0.040    0.040 1962.875 1962.875       0
 scf_env_do_scf                       1  3.0    0.018    0.018 1926.298 1926.298       0
 scf_env_do_scf_inner_loop          366  4.0    1.203    1.203 1922.321 1922.321       0
 qs_ks_build_kohn_sham_matrix       367  7.0    0.862    0.862 1442.638 1442.638       0
 qs_ks_update_qs_env                367  5.0    0.007    0.007 1441.510 1441.510       0
 rebuild_ks_matrix                  366  6.0    0.004    0.004 1441.473 1441.473       0
 fft_wrap_pw1pw2                   6233 10.4    0.109    0.109 1233.823 1233.823       0
 fft_wrap_pw1pw2_300               4031 11.8   77.052   77.052 1194.617 1194.617       0
 qs_vxc_create                      367  8.0    0.023    0.023 1009.744 1009.744       0
 xc_vxc_pw_create                   366  9.0   53.079   53.079 1009.722 1009.722       0
 xc_pw_derive                      2196 11.0    0.030    0.030  727.494  727.494       0
 fft3d_s                           6234 12.3  662.630  662.630  662.665  662.665       0
 xc_pw_divergence                   366 10.0    0.009    0.009  485.688  485.688       0
 qs_rho_update_rho_low              367  5.0    0.013    0.013  467.282  467.282       0
 calculate_rho_elec                 367  6.0   36.778   36.778  467.269  467.269       0
 xc_rho_set_and_dset_create         366 10.0   32.389   32.389  454.241  454.241       0
 pw_scatter_s                      3299 12.8  266.622  266.622  266.622  266.622       0
 density_rs2pw                      367  7.0    0.024    0.024  253.238  253.238       0
 grid_collocate_task_list           367  7.0  177.253  177.253  177.253  177.253       0
 qs_ks_ddapc                        367  8.0    0.017    0.017  164.092  164.092       0
 sum_up_and_integrate               367  8.0    0.024    0.024  153.618  153.618       0
 integrate_v_rspace                 367  9.0    0.102    0.102  146.981  146.981       0
 potential_pw2rs                    367 10.0    1.527    1.527  145.215  145.215       0
 pw_gather_s                       2934 11.9  119.034  119.034  119.034  119.034       0
 pw_integral_ab_c1d_c1d_gs          734  9.5  112.557  112.557  112.557  112.557       0
 pw_poisson_solve                   367  8.0    0.019    0.019  108.165  108.165       0
 pw_derive                         3297 11.3   87.916   87.916   87.916   87.916       0
 cp_ddapc_apply_CD                  367  9.0    0.024    0.024   59.123   59.123       0
 pw_copy                           5868 10.6   56.959   56.959   56.959   56.959       0
 pw_copy_from_array                3299 12.8   52.998   52.998   52.998   52.998       0
 pw_copy_to_array                  2934 11.9   50.223   50.223   50.223   50.223       0
 pw_poisson_set                     368  9.0    0.016    0.016   38.043   38.043       0
 xc_functional_eval                 366 11.0    0.051    0.051   37.060   37.060       0
 pbe_lda_eval                       366 12.0   37.009   37.009   37.009   37.009       0
 fft_wrap_pw1pw2_100                734 10.5    4.814    4.814   34.593   34.593       0
 qs_energies_properties               1  3.0    0.002    0.002   34.288   34.288       0
 post_scf_bandstructure               1  4.0    0.002    0.002   34.286   34.286       0
 gw                                   1  5.0    0.001    0.001   34.199   34.199       0
 gw_calc_non_periodic_ri_rs           1  6.0    0.002    0.002   30.186   30.186       0
 pw_axpy                           3675  9.3   29.332   29.332   29.332   29.332       0
 ri_rs_grid_assembler                 1  7.0    0.010    0.010   28.753   28.753       0
 optimize_ri_rs_grid                  1  8.0    0.000    0.000   28.621   28.621       0
 rirs_grid_LBFGS                      1  9.0    0.571    0.571   27.467   27.467       0
 evaluate_rirs_grid_cluster        1204 10.0    4.921    4.921   26.895   26.895       0
 qs_scf_new_mos                     366  5.0    0.004    0.004   17.038   17.038       0
 qs_scf_loop_do_ot                  366  6.0    0.019    0.019   17.034   17.034       0
 ot_scf_mini                        366  7.0    0.390    0.390   16.381   16.381       0
 pw_zero                           1850 10.3   15.594   15.594   15.594   15.594       0
 pw_scale                          1465  9.8   11.788   11.788   11.788   11.788       0
 ot_mini                            366  8.0    0.023    0.023   11.244   11.244       0
 rirs_cluster_gradient_coordina    1204 11.0    9.584    9.584    9.584    9.584       0
 qs_ot_get_derivative               366  9.0    2.024    2.024    9.045    9.045       0
 qs_ot_get_derivative_diag          365 10.0    6.893    6.893    7.011    7.011       0
 transfer_rs2pw                    1469  8.0    0.026    0.026    6.933    6.933       0
 qs_init_subsys                       1  2.0    0.022    0.022    6.838    6.838       0
 qs_env_setup                         1  3.0    0.002    0.002    6.793    6.793       0
 qs_env_rebuild_pw_env                2  3.5    0.003    0.003    6.785    6.785       0
 pw_env_rebuild                       1  5.0    0.216    0.216    6.783    6.783       0
 transfer_pw2rs                    1468 11.0    0.019    0.019    6.481    6.481       0
 pw_grid_setup                        5  5.2    0.002    0.002    6.448    6.448       0
 pw_grid_setup_internal               5  6.2    0.082    0.082    6.446    6.446       0
 pw_multiply_with                   367  9.0    6.222    6.222    6.222    6.222       0
 pw_grid_sort                         5  7.2    4.694    4.694    6.061    6.061       0
 xc_pw_smooth                       366 10.0    0.001    0.001    5.742    5.742       0
 transfer_rs2pw_300                 368  9.0    5.455    5.455    5.455    5.455       0
 transfer_pw2rs_300                 367 12.0    5.281    5.281    5.281    5.281       0
 create_and_init_bs_env_for_gw        1  6.0    0.041    0.041    4.011    4.011       0
 init_scf_loop                        1  4.0    0.016    0.016    3.958    3.958       0
 rirs_cluster_gradient_products    1204 11.0    3.938    3.938    3.938    3.938       0
 get_ddapc                          367 10.0    0.018    0.018    3.523    3.523       0
 rirs_cluster_AO_products          1204 11.0    3.456    3.456    3.456    3.456       0
 qs_ot_get_p                        367  8.0    0.658    0.658    3.406    3.406       0
 fft_wrap_pw1pw2_40                 734 10.5    0.265    0.265    3.324    3.324       0
 rirs_cluster_residual             1204 11.0    2.286    2.286    2.286    2.286       0
 ot_diis_step                       366  9.0    1.506    1.506    2.157    2.157       0
 qs_ot_p2m_diag                     366  9.0    1.380    1.380    1.982    1.982       0
 -------------------------------------------------------------------------------

 The number of warnings for this run is : 0
 
 -------------------------------------------------------------------------------
  **** **** ******  **  PROGRAM ENDED AT                 2026-09-17 03:15:37.079
 ***** ** ***  *** **   PROGRAM RAN ON                                  n2cn0814
 **    ****   ******    PROGRAM RAN BY                                  eprop2d1
 ***** **    ** ** **   PROGRAM PROCESS ID                                338528
  **** **  *******  **  PROGRAM STOPPED IN /scratch/hpc-prf-metdyn/eprop2d1_Jan/
                                           53_benchmark_RI_opt/106_GW100_GTH_RIR
                                           S_riao5_7_c7/extensions/lebedev_riao2
                                           /calculations/26_C4/leb_r08
