 DBCSR| CPU Multiplication driver                                           XSMM (U)
 DBCSR| Multrec recursion limit                                              512 (U)
 DBCSR| Multiplication stack size                                           1000 (D)
 DBCSR| Maximum elements for images                                    UNLIMITED (U)
 DBCSR| Multiplicative factor virtual images                                   1 (U)
 DBCSR| Use multiplication densification                                       T (D)
 DBCSR| Multiplication size stacks                                             3 (U)
 DBCSR| Use memory pool for CPU allocation                                     F (U)
 DBCSR| Number of 3D layers                                               SINGLE (U)
 DBCSR| Use MPI memory allocation                                              F (U)
 DBCSR| Use RMA algorithm                                                      F (U)
 DBCSR| Use Communication thread                                               T (U)
 DBCSR| Communication thread load                                             53 (D)
 DBCSR| MPI: My process id                                                     0
 DBCSR| MPI: Number of processes                                               5
 DBCSR| OMP: Current number of threads                                        10
 DBCSR| OMP: Max number of threads                                            10
 DBCSR| Split modifier for TAS multiplication algorithm                  1.0E+00 (U)


  **** **** ******  **  PROGRAM STARTED AT               2026-10-03 19:13:12.351
 ***** ** ***  *** **   PROGRAM STARTED ON                              n2cn0247
 **    ****   ******    PROGRAM STARTED BY                              eprop2d1
 ***** **    ** ** **   PROGRAM PROCESS ID                               1178165
  **** **  *******  **  PROGRAM STARTED IN /scratch/hpc-prf-metdyn/eprop2d1_Jan/
                                           53_benchmark_RI_opt/418_gw100_fig5_fu
                                           ll_epsfilter_1e12_20261002/calculatio
                                           ns/rc3p0/ri4_rs10/40_GeH4

 CP2K| version string:                 CP2K version 2026.2 (Development Version)
 CP2K| source code revision number:                                   0671c5aa6c
 CP2K| cp2kflags: omp libint fftw3 libxc parallel scalapack openblas            
 CP2K| is freely available from                            https://www.cp2k.org/
 CP2K| Program compiled at                                   2026-09-20 09:25:26
 CP2K| Program compiled on                                              n2login5
 CP2K| Program compiled for                                               x86_64
 CP2K| Data directory path    /scratch/hpc-prf-metdyn/eprop2d1_Jan/53_benchmark_
 CP2K| Input file name        /scratch/hpc-prf-metdyn/eprop2d1_Jan/53_benchmark_
 
 eprop2d1@n2cn0247 has created rank and process                      0   1178165
 eprop2d1@n2cn0247 has created rank and process                      1   1178166
 eprop2d1@n2cn0247 has created rank and process                      2   1178167
 eprop2d1@n2cn0247 has created rank and process                      3   1178168
 eprop2d1@n2cn0247 has created rank and process                      4   1178169
 
 eprop2d1@n2cn0247 is running                                        5 processes

 GLOBAL| Force Environment number                                              1
 GLOBAL| Basis set file name            /scratch/hpc-prf-metdyn/eprop2d1_Jan/53_
 GLOBAL| Potential file name            /scratch/hpc-prf-metdyn/eprop2d1_Jan/53_
 GLOBAL| MM Potential file name                                     MM_POTENTIAL
 GLOBAL| Coordinate file name                                      __STD_INPUT__
 GLOBAL| Method name                                                        CP2K
 GLOBAL| Project name                                             g418_c410_m040
 GLOBAL| Run type                                                         ENERGY
 GLOBAL| FFT library                                                       FFTW3
 GLOBAL| Diagonalization library                                       ScaLAPACK
 GLOBAL| Cholesky decomposition library                                ScaLAPACK
 GLOBAL| DGEMM library                                                      BLAS
 GLOBAL| Direct generalized diagonalization requested                          F
 GLOBAL| Orthonormality check for eigenvectors                          DISABLED
 GLOBAL| Matrix multiplication library                                 ScaLAPACK
 GLOBAL| All-to-all communication in single precision                          F
 GLOBAL| Grid backend                                                       AUTO
 GLOBAL| Global print level                                                  LOW
 GLOBAL| MPI I/O enabled                                                       T
 GLOBAL| Total number of message passing processes                             5
 GLOBAL| Number of distributed systems (nodes)                                 1
 GLOBAL| Number of threads for this process                                   10
 GLOBAL| This output is from process                                           0
 GLOBAL| OpenMP stack size per thread (OMP_STACKSIZE)                       512M
 GLOBAL| CPU model name                          AMD EPYC 7763 64-Core Processor

 MEMORY| system memory details [Kb]
 MEMORY|                        rank 0           min           max       average
 MEMORY| MemTotal            263897612     263897612     263897612     263897612
 MEMORY| MemFree             250588968     250588968     250588968     250588968
 MEMORY| Buffers                254620        254620        254620        254620
 MEMORY| Cached                7903100       7903100       7903100       7903100
 MEMORY| Slab                  1560408       1560408       1560408       1560408
 MEMORY| SReclaimable           281052        281052        281052        281052
 MEMORY| MemLikelyFree       259027740     259027740     259027740     259027740


 GENERATE|  Preliminary Number of Bonds generated:                             0
 GENERATE|  Achieved consistency in connectivity generation.

 *******************************************************************************
 *******************************************************************************
 **                                                                           **
 **     #####                         ##              ##                      **
 **    ##   ##            ##          ##              ##                      **
 **   ##     ##                       ##            ######                    **
 **   ##     ##  ##   ##  ##   #####  ##  ##   ####   ##    #####    #####    **
 **   ##     ##  ##   ##  ##  ##      ## ##   ##      ##   ##   ##  ##   ##   **
 **   ##  ## ##  ##   ##  ##  ##      ####     ###    ##   ######   ######    **
 **    ##  ###   ##   ##  ##  ##      ## ##      ##   ##   ##       ##        **
 **     #######   #####   ##   #####  ##  ##  ####    ##    #####   ##        **
 **           ##                                                    ##        **
 **                                                                           **
 **                                                ... make the atoms dance   **
 **                                                                           **
 **            Copyright (C) by CP2K developers group (2000-2026)             **
 **                      J. Chem. Phys. 152, 194103 (2020)                    **
 **                                                                           **
 *******************************************************************************


 TOTAL NUMBERS AND MAXIMUM NUMBERS

  Total number of            - Atomic kinds:                                   2
                             - Atoms:                                          5
                             - Shell sets:                                     5
                             - Shells:                                        29
                             - Primitive Cartesian functions:                 29
                             - Cartesian basis functions:                     70
                             - Spherical basis functions:                     65

  Maximum angular momentum of- Orbital basis functions:                        3
                             - Local part of the GTH pseudopotential:          2
                             - Non-local part of the GTH pseudopotential:      4


 SCF PARAMETERS         Density guess:                                   RESTART
                        --------------------------------------------------------
                        max_scf:                                             500
                        max_scf_history:                                       0
                        max_diis:                                              4
                        --------------------------------------------------------
                        eps_scf:                                        1.00E-08
                        eps_scf_history:                                0.00E+00
                        eps_diis:                                       0.00E+00
                        eps_eigval:                                     1.00E-05
                        --------------------------------------------------------
                        level_shift [a.u.]:                             0.000000
                        --------------------------------------------------------
                        Outer loop SCF in use 
                        No variables optimised in outer loop
                        eps_scf                                         1.00E-08
                        max_scf                                               20
                        No outer loop optimization
                        step_size                                       5.00E-01

 Extrapolation method: initial_guess

 Number of electrons:                                                          8
 Number of occupied orbitals:                                                  4
 Number of molecular orbitals:                                                 4

 Number of orbital functions:                                                 65
 Number of independent orbital functions:                                     65


 SCF WAVEFUNCTION OPTIMIZATION

  ----------------------------------- OT ---------------------------------------
  Minimizer      : DIIS                : direct inversion
                                         in the iterative subspace
                                         using   7 DIIS vectors
                                         safer DIIS on
  Preconditioner : FULL_KINETIC        : inversion of T + eS
  Lattice FFT   : OFF
  Precond_solver : DEFAULT
  stepsize       :    0.15000000                  energy_gap     :    0.20000000
  eps_taylor     :   0.10000E-15                  max_taylor     :             4
  ----------------------------------- OT ---------------------------------------

  Step     Update method      Time    Convergence         Total energy    Change
  ------------------------------------------------------------------------------
  Decoupling Energy:                                              -0.0000000915
     1 OT DIIS     0.15E+00    2.1     5.8861E-09        -6.2415198030 -6.24E+00

  *** SCF run converged in     1 steps ***


  Electronic density on regular grids:         -8.0000000000        0.0000000000
  Core density on regular grids:                8.0000000000       -0.0000000000
  Total charge density on r-space grids:       -0.0000000000
  Total charge density g-space grids:          -0.0000000000

  Overlap energy of the core charge distribution:               0.00000310550383
  Self energy of the core charge distribution:                -14.00026003618506
  Core Hamiltonian energy:                                      3.86932157036468
  Hartree energy:                                               6.41387525258902
  Exchange-correlation energy:                                 -2.52445969529705

  Total energy:                                                -6.24151980302459

  outer SCF iter =    1 RMS gradient =   0.59E-08 energy =         -6.2415198030
  outer SCF loop converged in   1 iterations or    1 steps

  
 -------------------------------------------------------------------------------
 -                                                                             -
 -                          BANDSTRUCTURE CALCULATION                          -
 -                                                                             -
 -------------------------------------------------------------------------------
  
 Number of occupied molecular orbitals (MOs) = Number of occupied bands        4
 Number of unoccupied (= virtual) MOs = Number of unoccupied bands            61
 Number of Gaussian basis functions for MOs                                   65
  
 -------------------------------------------------------------------------------
 -                                                                             -
 -                                GW CALCULATION                               -
 -                                                                             -
 -------------------------------------------------------------------------------
  
 Input: Number of time/freq. points                                           30
 Input: ω_max for fitting Σ(iω) (eV)                                        10.0
 Input: Filter threshold for sparse tensor operations                    1.0E-12
 Input: Apply Hedin shift                                                      F
 Detected: Available memory per MPI process                              43.4 GB
 
 Input: RI-RS Tikhonov regularization                                   1.00E-04
 Input: AO grid hard cutoff radius                                        8.00 Å
 Input: MPI ranks per atom in Z_lP solve                                      -1
 Input: Keep sparsity in χ/G/W panels                                          T
 Input: GW flavour                                                          G0W0
 
 Input: RI-RS grid optimization activated                                      T
 Input: RS points per AO function                                           10.0
 Input: Cutoff radius for atomic clusters                                  3.0 Å
 Input: Maximum grid optimization iterations                                 300
 
 Input: AUTO_RI basis optimization activated:                                  T
 Input: AUTO_RI number of RI functions per AO function:                      4.0
 Input: AUTO_RI frontier orbital window:                                  5.0 eV
 Input: AUTO_RI neighbor radius:                                           3.0 Å
 
 Cutoff radius for the truncated Coulomb operator in RI metric:            7.0 Å
 Regularization parameter of RI                                          0.0E+00
 Regularization parameter of minimax grids                               1.0E-06
 
 AUTO_RI| Number of automatic RI functions for χ, ε, W:                      260
 AUTO_RI| Total RI basis optimization time:                                0.7 s
  Decoupling Energy:                                              -0.0000000915
 
 SCF direct band gap (eV)                                                   7.76
 Max. SCF eigval diff. (eV)                                               171.37
 E-Range for minimax grid                                                  22.07
 Number of Padé parameters for analytic continuation:                         16
 
 RI-RS basis radii (Å):
     Kind  Elem     r_AO (Å)     r_RI (Å)
        1    Ge        8.3589        6.1194
        2    H        13.9082        8.7963
 
 Started RI-RS grid optimization
 RI-RS grid initial normalized error                          7.389190846761E-04
 RI-RS grid optimization completed, execution time:                       22.4 s
 Normalized 3C error:                                                    6.9E-09
 Maximum absolute 3C error:                                              4.5E-04
 Optimized points outside molecular Voronoi cells:                            95 / 650
 Total grid points used for RI-RS:                                           650
 
 RI-RS grid row-blocks of ϕ_μ(r_l)                                            22
 RI-RS grid points per block (max)                                            32
 
 Percentage of non-zero matrix elements in ϕ_μ(r_l)                     100.00 %
 
 RI-RS memory estimate per MPI process:
   Available memory per process (system)                                52.40 GB
   Required for Z_lP (dense upper bound; actual is sparser)              0.00 GB
   Required for χ, W, Σ panels (peak per panel step)                     0.00 GB
   Required for Z_lP solve peak (D_local+ϕ, worst-case atom)             0.01 GB
   Worst-case local-grid number of grid points:                              650
   Worst-case memory D_local:                                            0.00 GB
 
 Started computing Z_lP
 Computed Z_lP (MPI rank 0) for atom          1 /  1,    Execution time    0.0 s
 Computed Z_lP (all MPI ranks) for all atoms,            Execution time    0.1 s

 Memory per MPI process after computing Z_lP:
 Available memory per MPI process                               52.4 GB
 Used memory per MPI process                                     0.9 GB
 Number of batches for χ, Σ matrices                                           1
 
 Percentage of non-zero matrix elements in Z_lP                         100.00 %
 Percentage of non-zero matrix elements in G_ll', χ_ll', W_ll'          100.00 %
 Percentage of non-zero matrix elements in χ_PQ for time point 1        100.00 %
 
 Computed χ(iτ,k=0) for time point            1 / 30,    Execution time    0.0 s
 Computed χ(iτ,k=0) for time point            2 / 30,    Execution time    0.0 s
 Computed χ(iτ,k=0) for time point            3 / 30,    Execution time    0.0 s
 Computed χ(iτ,k=0) for time point            4 / 30,    Execution time    0.0 s
 Computed χ(iτ,k=0) for time point            5 / 30,    Execution time    0.0 s
 Computed χ(iτ,k=0) for time point            6 / 30,    Execution time    0.0 s
 Computed χ(iτ,k=0) for time point            7 / 30,    Execution time    0.0 s
 Computed χ(iτ,k=0) for time point            8 / 30,    Execution time    0.0 s
 Computed χ(iτ,k=0) for time point            9 / 30,    Execution time    0.0 s
 Computed χ(iτ,k=0) for time point           10 / 30,    Execution time    0.0 s
 Computed χ(iτ,k=0) for time point           11 / 30,    Execution time    0.0 s
 Computed χ(iτ,k=0) for time point           12 / 30,    Execution time    0.0 s
 Computed χ(iτ,k=0) for time point           13 / 30,    Execution time    0.0 s
 Computed χ(iτ,k=0) for time point           14 / 30,    Execution time    0.0 s
 Computed χ(iτ,k=0) for time point           15 / 30,    Execution time    0.0 s
 Computed χ(iτ,k=0) for time point           16 / 30,    Execution time    0.0 s
 Computed χ(iτ,k=0) for time point           17 / 30,    Execution time    0.0 s
 Computed χ(iτ,k=0) for time point           18 / 30,    Execution time    0.0 s
 Computed χ(iτ,k=0) for time point           19 / 30,    Execution time    0.0 s
 Computed χ(iτ,k=0) for time point           20 / 30,    Execution time    0.0 s
 Computed χ(iτ,k=0) for time point           21 / 30,    Execution time    0.0 s
 Computed χ(iτ,k=0) for time point           22 / 30,    Execution time    0.0 s
 Computed χ(iτ,k=0) for time point           23 / 30,    Execution time    0.0 s
 Computed χ(iτ,k=0) for time point           24 / 30,    Execution time    0.0 s
 Computed χ(iτ,k=0) for time point           25 / 30,    Execution time    0.0 s
 Computed χ(iτ,k=0) for time point           26 / 30,    Execution time    0.0 s
 Computed χ(iτ,k=0) for time point           27 / 30,    Execution time    0.0 s
 Computed χ(iτ,k=0) for time point           28 / 30,    Execution time    0.0 s
 Computed χ(iτ,k=0) for time point           29 / 30,    Execution time    0.0 s
 Computed χ(iτ,k=0) for time point           30 / 30,    Execution time    0.0 s
 
 Computed W(iτ),                                         Execution time    0.2 s
 
 Computed Σ^x(k=0),                                      Execution time    0.0 s
 
 Computed Σ^c(iτ) for time point              1 / 30,    Execution time    0.0 s
 Computed Σ^c(iτ) for time point              2 / 30,    Execution time    0.0 s
 Computed Σ^c(iτ) for time point              3 / 30,    Execution time    0.0 s
 Computed Σ^c(iτ) for time point              4 / 30,    Execution time    0.0 s
 Computed Σ^c(iτ) for time point              5 / 30,    Execution time    0.0 s
 Computed Σ^c(iτ) for time point              6 / 30,    Execution time    0.0 s
 Computed Σ^c(iτ) for time point              7 / 30,    Execution time    0.0 s
 Computed Σ^c(iτ) for time point              8 / 30,    Execution time    0.0 s
 Computed Σ^c(iτ) for time point              9 / 30,    Execution time    0.0 s
 Computed Σ^c(iτ) for time point             10 / 30,    Execution time    0.0 s
 Computed Σ^c(iτ) for time point             11 / 30,    Execution time    0.0 s
 Computed Σ^c(iτ) for time point             12 / 30,    Execution time    0.0 s
 Computed Σ^c(iτ) for time point             13 / 30,    Execution time    0.0 s
 Computed Σ^c(iτ) for time point             14 / 30,    Execution time    0.0 s
 Computed Σ^c(iτ) for time point             15 / 30,    Execution time    0.0 s
 Computed Σ^c(iτ) for time point             16 / 30,    Execution time    0.0 s
 Computed Σ^c(iτ) for time point             17 / 30,    Execution time    0.0 s
 Computed Σ^c(iτ) for time point             18 / 30,    Execution time    0.0 s
 Computed Σ^c(iτ) for time point             19 / 30,    Execution time    0.0 s
 Computed Σ^c(iτ) for time point             20 / 30,    Execution time    0.0 s
 Computed Σ^c(iτ) for time point             21 / 30,    Execution time    0.0 s
 Computed Σ^c(iτ) for time point             22 / 30,    Execution time    0.0 s
 Computed Σ^c(iτ) for time point             23 / 30,    Execution time    0.0 s
 Computed Σ^c(iτ) for time point             24 / 30,    Execution time    0.0 s
 Computed Σ^c(iτ) for time point             25 / 30,    Execution time    0.0 s
 Computed Σ^c(iτ) for time point             26 / 30,    Execution time    0.0 s
 Computed Σ^c(iτ) for time point             27 / 30,    Execution time    0.0 s
 Computed Σ^c(iτ) for time point             28 / 30,    Execution time    0.0 s
 Computed Σ^c(iτ) for time point             29 / 30,    Execution time    0.0 s
 Computed Σ^c(iτ) for time point             30 / 30,    Execution time    0.0 s
 
 SCF valence band maximum (eV):                                           -8.343
 SCF conduction band minimum (eV):                                        -0.580
 SCF indirect band gap (eV):                                               7.763
 SCF direct band gap (eV):                                                 7.763
 
 G0W0 valence band maximum (eV):                                         -11.840
 G0W0 conduction band minimum (eV):                                        1.430
 G0W0 indirect band gap (eV):                                             13.270
 G0W0 direct band gap (eV):                                               13.270
 
 Hartree-Fock with SCF orbitals valence band maximum (eV):               -12.574
 Hartree-Fock with SCF orbitals conduction band minimum (eV)               2.213
 Hartree-Fock with SCF orbitals indirect band gap (eV):                   14.786
 Hartree-Fock with SCF orbitals direct band gap (eV):                     14.786

 ENERGY| Total FORCE_EVAL ( QS ) energy [hartree]             -6.241519803024588

 -------------------------------------------------------------------------------
 -                                                                             -
 -                                DBCSR STATISTICS                             -
 -                                                                             -
 -------------------------------------------------------------------------------
 COUNTER                                    TOTAL       BLAS       SMM       ACC
 flops     4 x     4 x     4                  128       0.0%    100.0%      0.0%     
 flops     4 x     4 x    29                 2784       0.0%    100.0%      0.0%     
 flops     4 x     4 x     9                 3456       0.0%    100.0%      0.0%     
 flops    29 x     4 x     4                 3712       0.0%    100.0%      0.0%     
 flops     9 x     4 x     4                 4608       0.0%    100.0%      0.0%     
 flops     2 x    44 x     2                 5280       0.0%    100.0%      0.0%     
 flops     2 x    29 x     2                 6264       0.0%    100.0%      0.0%     
 flops     2 x     2 x    44                 6336       0.0%    100.0%      0.0%     
 flops     2 x    51 x     2                 6528       0.0%    100.0%      0.0%     
 flops     2 x    53 x     2                 6784       0.0%    100.0%      0.0%     
 flops     2 x    54 x     2                 6912       0.0%    100.0%      0.0%     
 flops     2 x     2 x    51                 7344       0.0%    100.0%      0.0%     
 flops     2 x    58 x     2                 7424       0.0%    100.0%      0.0%     
 flops     2 x     9 x     2                 7488       0.0%    100.0%      0.0%     
 flops     2 x     2 x    53                 7632       0.0%    100.0%      0.0%     
 flops     9 x    29 x     4                 8352       0.0%    100.0%      0.0%     
 flops    29 x     9 x     4                 8352       0.0%    100.0%      0.0%     
 flops     9 x     9 x     4                12960       0.0%    100.0%      0.0%     
 flops    29 x    29 x     4                13456       0.0%    100.0%      0.0%     
 flops     2 x     2 x    29                18792       0.0%    100.0%      0.0%     
 flops     2 x     2 x     9                23328       0.0%    100.0%      0.0%     
 flops    29 x     4 x    29                53824       0.0%    100.0%      0.0%     
 flops    29 x     4 x     9                66816       0.0%    100.0%      0.0%     
 flops     9 x     4 x    29                66816       0.0%    100.0%      0.0%     
 flops     9 x     4 x     9                82944       0.0%    100.0%      0.0%     
 flops    29 x    29 x     2                97556       0.0%    100.0%      0.0%     
 flops     9 x    29 x     2               121104       0.0%    100.0%      0.0%     
 flops    29 x     9 x     2               121104       0.0%    100.0%      0.0%     
 flops    44 x    44 x     2               131648       0.0%    100.0%      0.0%     
 flops     2 x    44 x    44               147136       0.0%    100.0%      0.0%     
 flops     9 x     9 x     2               150336       0.0%    100.0%      0.0%     
 flops    44 x    51 x     2               152592       0.0%    100.0%      0.0%     
 flops    51 x    44 x     2               152592       0.0%    100.0%      0.0%     
 flops    53 x    44 x     2               158576       0.0%    100.0%      0.0%     
 flops    44 x    53 x     2               158576       0.0%    100.0%      0.0%     
 flops    44 x    54 x     2               161568       0.0%    100.0%      0.0%     
 flops     2 x    51 x    44               170544       0.0%    100.0%      0.0%     
 flops     2 x    44 x    51               170544       0.0%    100.0%      0.0%     
 flops    44 x    58 x     2               173536       0.0%    100.0%      0.0%     
 flops    51 x    51 x     2               176868       0.0%    100.0%      0.0%     
 flops     2 x    53 x    44               177232       0.0%    100.0%      0.0%     
 flops     2 x    44 x    53               177232       0.0%    100.0%      0.0%     
 flops     2 x    54 x    44               180576       0.0%    100.0%      0.0%     
 flops    53 x    51 x     2               183804       0.0%    100.0%      0.0%     
 flops    51 x    53 x     2               183804       0.0%    100.0%      0.0%     
 flops    51 x    54 x     2               187272       0.0%    100.0%      0.0%     
 flops    53 x    53 x     2               191012       0.0%    100.0%      0.0%     
 flops     2 x    58 x    44               193952       0.0%    100.0%      0.0%     
 flops    53 x    54 x     2               194616       0.0%    100.0%      0.0%     
 flops     2 x    51 x    51               197676       0.0%    100.0%      0.0%     
 flops    51 x    58 x     2               201144       0.0%    100.0%      0.0%     
 flops     2 x    53 x    51               205428       0.0%    100.0%      0.0%     
 flops     2 x    51 x    53               205428       0.0%    100.0%      0.0%     
 flops    53 x    58 x     2               209032       0.0%    100.0%      0.0%     
 flops     2 x    54 x    51               209304       0.0%    100.0%      0.0%     
 flops     2 x    53 x    53               213484       0.0%    100.0%      0.0%     
 flops     2 x    54 x    53               217512       0.0%    100.0%      0.0%     
 flops     2 x    58 x    51               224808       0.0%    100.0%      0.0%     
 flops     2 x    58 x    53               233624       0.0%    100.0%      0.0%     
 flops     2 x    29 x    29               285940       0.0%    100.0%      0.0%     
 flops    26 x    44 x     2               297440       0.0%    100.0%      0.0%     
 flops     2 x    26 x    44               329472       0.0%    100.0%      0.0%     
 flops     2 x    44 x    26               329472       0.0%    100.0%      0.0%     
 flops    26 x     2 x    44               347776       0.0%    100.0%      0.0%     
 flops     2 x    29 x     9               354960       0.0%    100.0%      0.0%     
 flops     2 x     9 x    29               354960       0.0%    100.0%      0.0%     
 flops    26 x    51 x     2               355368       0.0%    100.0%      0.0%     
 flops    26 x    53 x     2               369304       0.0%    100.0%      0.0%     
 flops     2 x    29 x    26               370968       0.0%    100.0%      0.0%     
 flops    26 x    29 x     2               370968       0.0%    100.0%      0.0%     
 flops    26 x    54 x     2               376272       0.0%    100.0%      0.0%     
 flops     2 x    26 x    51               381888       0.0%    100.0%      0.0%     
 flops     2 x    51 x    26               381888       0.0%    100.0%      0.0%     
 flops     2 x    26 x    53               396864       0.0%    100.0%      0.0%     
 flops     2 x    53 x    26               396864       0.0%    100.0%      0.0%     
 flops    26 x     2 x    51               403104       0.0%    100.0%      0.0%     
 flops     2 x    54 x    26               404352       0.0%    100.0%      0.0%     
 flops    26 x    58 x     2               410176       0.0%    100.0%      0.0%     
 flops    26 x     2 x    53               418912       0.0%    100.0%      0.0%     
 flops     2 x    58 x    26               434304       0.0%    100.0%      0.0%     
 flops     2 x     9 x     9               440640       0.0%    100.0%      0.0%     
 flops    26 x     9 x     2               451152       0.0%    100.0%      0.0%     
 flops     2 x     9 x    26               453024       0.0%    100.0%      0.0%     
 flops     2 x    26 x    29               977184       0.0%    100.0%      0.0%     
 flops    26 x     2 x    29              1013376       0.0%    100.0%      0.0%     
 flops     2 x    26 x     9              1213056       0.0%    100.0%      0.0%     
 flops    26 x     2 x     9              1257984       0.0%    100.0%      0.0%     
 flops    32 x    44 x     2              1605120       0.0%    100.0%      0.0%     
 flops     2 x    44 x    32              1717760       0.0%    100.0%      0.0%     
 flops     2 x    32 x    44              1723392       0.0%    100.0%      0.0%     
 flops    32 x     2 x    44              1819136       0.0%    100.0%      0.0%     
 flops    32 x    51 x     2              1880064       0.0%    100.0%      0.0%     
 flops    32 x    29 x     2              1933952       0.0%    100.0%      0.0%     
 flops    32 x    53 x     2              1947008       0.0%    100.0%      0.0%     
 flops     2 x    29 x    32              1952512       0.0%    100.0%      0.0%     
 flops    32 x    54 x     2              1990656       0.0%    100.0%      0.0%     
 flops     2 x    51 x    32              1991040       0.0%    100.0%      0.0%     
 flops     2 x    32 x    51              1997568       0.0%    100.0%      0.0%     
 flops     2 x    53 x    32              2069120       0.0%    100.0%      0.0%     
 flops     2 x    32 x    53              2075904       0.0%    100.0%      0.0%     
 flops     2 x    54 x    32              2108160       0.0%    100.0%      0.0%     
 flops    32 x     2 x    51              2108544       0.0%    100.0%      0.0%     
 flops    32 x    58 x     2              2145536       0.0%    100.0%      0.0%     
 flops    32 x     2 x    53              2191232       0.0%    100.0%      0.0%     
 flops     2 x    58 x    32              2264320       0.0%    100.0%      0.0%     
 flops    32 x     9 x     2              2313216       0.0%    100.0%      0.0%     
 flops     2 x     9 x    32              2385792       0.0%    100.0%      0.0%     
 flops     2 x    32 x    29              5111424       0.0%    100.0%      0.0%     
 flops    32 x     2 x    29              5300736       0.0%    100.0%      0.0%     
 flops    29 x    29 x    26              5772624       0.0%    100.0%      0.0%     
 flops     2 x    32 x     9              6345216       0.0%    100.0%      0.0%     
 flops    32 x     2 x     9              6580224       0.0%    100.0%      0.0%     
 flops     9 x    29 x    26              7166016       0.0%    100.0%      0.0%     
 flops    29 x     9 x    26              7166016       0.0%    100.0%      0.0%     
 flops    44 x    44 x    26              7248384       0.0%    100.0%      0.0%     
 flops    26 x    44 x    44              7651072       0.0%    100.0%      0.0%     
 flops    44 x    51 x    26              8401536       0.0%    100.0%      0.0%     
 flops    51 x    44 x    26              8401536       0.0%    100.0%      0.0%     
 flops    53 x    44 x    26              8731008       0.0%    100.0%      0.0%     
 flops    44 x    53 x    26              8731008       0.0%    100.0%      0.0%     
 flops    26 x    51 x    44              8868288       0.0%    100.0%      0.0%     
 flops    26 x    44 x    51              8868288       0.0%    100.0%      0.0%     
 flops     9 x     9 x    26              8895744       0.0%    100.0%      0.0%     
 flops    44 x    54 x    26              8895744       0.0%    100.0%      0.0%     
 flops    26 x    53 x    44              9216064       0.0%    100.0%      0.0%     
 flops    26 x    44 x    53              9216064       0.0%    100.0%      0.0%     
 flops    26 x    54 x    44              9389952       0.0%    100.0%      0.0%     
 flops    44 x    58 x    26              9554688       0.0%    100.0%      0.0%     
 flops    51 x    51 x    26              9738144       0.0%    100.0%      0.0%     
 flops    26 x    58 x    44             10085504       0.0%    100.0%      0.0%     
 flops    53 x    51 x    26             10120032       0.0%    100.0%      0.0%     
 flops    51 x    53 x    26             10120032       0.0%    100.0%      0.0%     
 flops    26 x    51 x    51             10279152       0.0%    100.0%      0.0%     
 flops    51 x    54 x    26             10310976       0.0%    100.0%      0.0%     
 flops    53 x    53 x    26             10516896       0.0%    100.0%      0.0%     
 flops    26 x    53 x    51             10682256       0.0%    100.0%      0.0%     
 flops    26 x    51 x    53             10682256       0.0%    100.0%      0.0%     
 flops    53 x    54 x    26             10715328       0.0%    100.0%      0.0%     
 flops    26 x    54 x    51             10883808       0.0%    100.0%      0.0%     
 flops    51 x    58 x    26             11074752       0.0%    100.0%      0.0%     
 flops    26 x    53 x    53             11101168       0.0%    100.0%      0.0%     
 flops    26 x    54 x    53             11310624       0.0%    100.0%      0.0%     
 flops    53 x    58 x    26             11509056       0.0%    100.0%      0.0%     
 flops    26 x    58 x    51             11690016       0.0%    100.0%      0.0%     
 flops    26 x    58 x    53             12148448       0.0%    100.0%      0.0%     
 flops    26 x    29 x    29             14868880       0.0%    100.0%      0.0%     
 flops    26 x    26 x    44             18084352       0.0%    100.0%      0.0%     
 flops    26 x    44 x    26             18084352       0.0%    100.0%      0.0%     
 flops    26 x    29 x     9             18457920       0.0%    100.0%      0.0%     
 flops    26 x     9 x    29             18457920       0.0%    100.0%      0.0%     
 flops    26 x    26 x    51             20961408       0.0%    100.0%      0.0%     
 flops    26 x    51 x    26             20961408       0.0%    100.0%      0.0%     
 flops    26 x    29 x    26             21485984       0.0%    100.0%      0.0%     
 flops    26 x    26 x    53             21783424       0.0%    100.0%      0.0%     
 flops    26 x    53 x    26             21783424       0.0%    100.0%      0.0%     
 flops    26 x    54 x    26             22194432       0.0%    100.0%      0.0%     
 flops    26 x     9 x     9             22913280       0.0%    100.0%      0.0%     
 flops    26 x    58 x    26             23838464       0.0%    100.0%      0.0%     
 flops    26 x     9 x    26             25966512       0.0%    100.0%      0.0%     
 flops    29 x    29 x    32             30195264       0.0%    100.0%      0.0%     
 flops     9 x    29 x    32             37483776       0.0%    100.0%      0.0%     
 flops    29 x     9 x    32             37483776       0.0%    100.0%      0.0%     
 flops    44 x    44 x    32             37914624       0.0%    100.0%      0.0%     
 flops    32 x    44 x    44             40020992       0.0%    100.0%      0.0%     
 flops    44 x    51 x    32             43946496       0.0%    100.0%      0.0%     
 flops    51 x    44 x    32             43946496       0.0%    100.0%      0.0%     
 flops    53 x    44 x    32             45669888       0.0%    100.0%      0.0%     
 flops    44 x    53 x    32             45669888       0.0%    100.0%      0.0%     
 flops    32 x    51 x    44             46387968       0.0%    100.0%      0.0%     
 flops    32 x    44 x    51             46387968       0.0%    100.0%      0.0%     
 flops     9 x     9 x    32             46531584       0.0%    100.0%      0.0%     
 flops    44 x    54 x    32             46531584       0.0%    100.0%      0.0%     
 flops    32 x    53 x    44             48207104       0.0%    100.0%      0.0%     
 flops    32 x    44 x    53             48207104       0.0%    100.0%      0.0%     
 flops    32 x    54 x    44             49116672       0.0%    100.0%      0.0%     
 flops    44 x    58 x    32             49978368       0.0%    100.0%      0.0%     
 flops    51 x    51 x    32             50937984       0.0%    100.0%      0.0%     
 flops    32 x    58 x    44             52754944       0.0%    100.0%      0.0%     
 flops    53 x    51 x    32             52935552       0.0%    100.0%      0.0%     
 flops    51 x    53 x    32             52935552       0.0%    100.0%      0.0%     
 flops    26 x    26 x    29             53322880       0.0%    100.0%      0.0%     
 flops    32 x    51 x    51             53767872       0.0%    100.0%      0.0%     
 flops    51 x    54 x    32             53934336       0.0%    100.0%      0.0%     
 flops    53 x    53 x    32             55011456       0.0%    100.0%      0.0%     
 flops    32 x    53 x    51             55876416       0.0%    100.0%      0.0%     
 flops    32 x    51 x    53             55876416       0.0%    100.0%      0.0%     
 flops    53 x    54 x    32             56049408       0.0%    100.0%      0.0%     
 flops    32 x    54 x    51             56930688       0.0%    100.0%      0.0%     
 flops    51 x    58 x    32             57929472       0.0%    100.0%      0.0%     
 flops    32 x    53 x    53             58067648       0.0%    100.0%      0.0%     
 flops    32 x    54 x    53             59163264       0.0%    100.0%      0.0%     
 flops    53 x    58 x    32             60201216       0.0%    100.0%      0.0%     
 flops    32 x    58 x    51             61147776       0.0%    100.0%      0.0%     
 flops    32 x    58 x    53             63545728       0.0%    100.0%      0.0%     
 flops    26 x    26 x     9             66193920       0.0%    100.0%      0.0%     
 flops    32 x    29 x    29             77775680       0.0%    100.0%      0.0%     
 flops    26 x    44 x    32             93936128       0.0%    100.0%      0.0%     
 flops    32 x    26 x    44             94595072       0.0%    100.0%      0.0%     
 flops    26 x    32 x    44             94595072       0.0%    100.0%      0.0%     
 flops    32 x    44 x    26             94595072       0.0%    100.0%      0.0%     
 flops    32 x    29 x     9             96549120       0.0%    100.0%      0.0%     
 flops    32 x     9 x    29             96549120       0.0%    100.0%      0.0%     
 flops    26 x    51 x    32            108795648       0.0%    100.0%      0.0%     
 flops    32 x    26 x    51            109644288       0.0%    100.0%      0.0%     
 flops    26 x    32 x    51            109644288       0.0%    100.0%      0.0%     
 flops    32 x    51 x    26            109644288       0.0%    100.0%      0.0%     
 flops    32 x    29 x    26            110216704       0.0%    100.0%      0.0%     
 flops    26 x    29 x    32            110940544       0.0%    100.0%      0.0%     
 flops    26 x    53 x    32            113062144       0.0%    100.0%      0.0%     
 flops    32 x    26 x    53            113944064       0.0%    100.0%      0.0%     
 flops    26 x    32 x    53            113944064       0.0%    100.0%      0.0%     
 flops    32 x    53 x    26            113944064       0.0%    100.0%      0.0%     
 flops    26 x    54 x    32            115195392       0.0%    100.0%      0.0%     
 flops    32 x    54 x    26            116093952       0.0%    100.0%      0.0%     
 flops    32 x     9 x     9            119854080       0.0%    100.0%      0.0%     
 flops    26 x    58 x    32            123921408       0.0%    100.0%      0.0%     
 flops    32 x    58 x    26            124693504       0.0%    100.0%      0.0%     
 flops    32 x     9 x    26            135083520       0.0%    100.0%      0.0%     
 flops    26 x     9 x    32            135263232       0.0%    100.0%      0.0%     
 flops    32 x    26 x    29            278919680       0.0%    100.0%      0.0%     
 flops    26 x    32 x    29            278919680       0.0%    100.0%      0.0%     
 flops    32 x    26 x     9            346245120       0.0%    100.0%      0.0%     
 flops    26 x    32 x     9            346245120       0.0%    100.0%      0.0%     
 flops    32 x    44 x    32            491651072       0.0%    100.0%      0.0%     
 flops    32 x    32 x    44            494804992       0.0%    100.0%      0.0%     
 flops    32 x    51 x    32            569868288       0.0%    100.0%      0.0%     
 flops    32 x    29 x    32            573192192       0.0%    100.0%      0.0%     
 flops    32 x    32 x    51            573523968       0.0%    100.0%      0.0%     
 flops    32 x    53 x    32            592216064       0.0%    100.0%      0.0%     
 flops    32 x    32 x    53            596015104       0.0%    100.0%      0.0%     
 flops    32 x    54 x    32            603389952       0.0%    100.0%      0.0%     
 flops    32 x    58 x    32            648323072       0.0%    100.0%      0.0%     
 flops    32 x     9 x    32            705632256       0.0%    100.0%      0.0%     
 flops    32 x    32 x    29           1458964480       0.0%    100.0%      0.0%     
 flops    32 x    32 x     9           1811128320       0.0%    100.0%      0.0%     
 flops inhomo. stacks                  3792453888     100.0%      0.0%      0.0%
 flops total                        19.312825E+09      19.6%     80.4%      0.0%
 flops max/rank                      4.976447E+09      17.3%     82.7%      0.0%
 matmuls inhomo. stacks                     26829     100.0%      0.0%      0.0%
 matmuls total                             461897       5.8%     94.2%      0.0%
 number of processed stacks                142794       3.1%     96.9%      0.0%
 average stack size                                     6.1       3.1       0.0
 marketing flops                    29.758755E+09
 -------------------------------------------------------------------------------
 # multiplications                            505
 max memory usage/rank              17.749451E+09
 # max total images/rank                        5
 # max 3D layers                                1
 # MPI messages exchanged                   10100
 MPI messages size (bytes):
  total size                         1.660613E+09
  min size                           0.000000E+00
  max size                         800.800000E+03
  average size                     164.417109E+03
 MPI breakdown and total messages size (bytes):
             size <=      128                1632                      512
       128 < size <=     8192                 212                   673920
      8192 < size <=    32768                  32                   482560
     32768 < size <=   131072                4516                236715584
    131072 < size <=  4194304                3708               1422752256
   4194304 < size <= 16777216                   0                        0
  16777216 < size                               0                        0
 -------------------------------------------------------------------------------

 *** WARNING in dbcsr_mm.F:301 :: Using a non-square number of MPI ranks ***
 *** might lead to poor performance. Used ranks: 5 Suggested: 4 9        ***

 -------------------------------------------------------------------------------
 -                                                                             -
 -                      DBCSR MESSAGE PASSING PERFORMANCE                      -
 -                                                                             -
 -------------------------------------------------------------------------------
 ROUTINE             CALLS      AVE VOLUME [Bytes]
 MP_Bcast              236                     12.
 MP_Allreduce         2586                     23.
 MP_Alltoall          3385                  15303.
 MP_ISend             7742                  48291.
 MP_IRecv             7702                  42585.
 -------------------------------------------------------------------------------

 -------------------------------------------------------------------------------
 -                                                                             -
 -                                GRID STATISTICS                              -
 -                                                                             -
 -------------------------------------------------------------------------------
 LP    KERNEL             BACKEND                              COUNT     PERCENT
 4     collocate ortho    CPU                                     76      38.58%
 4     integrate ortho    CPU                                     76      38.58%
 6     collocate ortho    CPU                                     20      10.15%
 6     integrate ortho    CPU                                     20      10.15%
 0     collocate general  CPU                                      5       2.54%
 -------------------------------------------------------------------------------

 -------------------------------------------------------------------------------
 -                                                                             -
 -                          OFFLOAD MEMPOOL STATISTICS                         -
 -                                                                             -
 -------------------------------------------------------------------------------
 Memory consumption                Number of allocations  Used [MiB]  Size [MiB]
 Host                                                  6         143    21666857
 -------------------------------------------------------------------------------

 MEMORY| Estimated peak process memory [MiB]                                3383

 -------------------------------------------------------------------------------
 -                                                                             -
 -                         MESSAGE PASSING PERFORMANCE                         -
 -                                                                             -
 -------------------------------------------------------------------------------

 ROUTINE             CALLS      AVE VOLUME [Bytes]
 MP_Group                5
 MP_Bcast              500                 316505.
 MP_Allreduce         1413                   5044.
 MP_Sync                10
 MP_Alltoall            44              133879042.
 MP_SendRecv            24                3758933.
 MP_ISendRecv           24                3758933.
 MP_Wait                69
 MP_comm_split          10
 MP_ISend               35               13371429.
 MP_IRecv               35               13371429.
 -------------------------------------------------------------------------------


 -------------------------------------------------------------------------------
 -                                                                             -
 -                           R E F E R E N C E S                               -
 -                                                                             -
 -------------------------------------------------------------------------------
 
 CP2K version 2026.2 (Development Version), the CP2K developers group (2026).
 CP2K is freely available from https://www.cp2k.org/ .
 
 M. Iannuzzi, J. Wilhelm, F. Stein, A. Bussy, H. Elgabarty, D. Golze, A. Hehn, 
 M. Graml, S. Marek, B. Sertcan Gökmen, C. Schran, H. Forbert, R. Z. 
 Khaliullin, A. Kozhevnikov, M. Taillefumier, R. Meli, V. V. Rybkin, M. Brehm, 
 R. Schade, O. Schütt, J. V. Pototschnig, H. Mirhosseini, A. Knüpfer, D. Marx, 
 M. Krack, J. Hutter, T. D. Kühne.
 J. Phys. Chem. B 130, 1237-1310 (2026).
 The CP2K Program Package Made Simple.
 https://doi.org/10.1021/acs.jpcb.5c05851

 M. Graml, K. Zollner, D. Hernangómez-Pérez, P. E. Faria Junior, J. Wilhelm.
 J. Chem. Theory Comput. 20, 2202-2208 (2024).
 Low-scaling GW algorithm applied to twisted transition-metal dichalcogenide 
 heterobilayers.
 https://doi.org/10.1021/acs.jctc.3c01230

 T. D. Kühne, M. Iannuzzi, M. Del Ben, V. V. Rybkin, P. Seewald, F. Stein, T. 
 Laino, R. Z. Khaliullin, O. Schütt, F. Schiffmann, D. Golze, J. Wilhelm, S. 
 Chulkov, M. H. Bani-Hashemian, V. Weber, U. Borstnik, M. Taillefumier, A. S. 
 Jakobovits, A. Lazzaro, H. Pabst, T. Müller, R. Schade, M. Guidon, S. 
 Andermatt, N. Holmberg, G. K. Schenter, A. Hehn, A. Bussy, F. Belleflamme, G. 
 Tabacchi, A. Glöß, M. Lass, I. Bethune, C. J. Mundy, C. Plessl, M. Watkins, 
 J. VandeVondele, M. Krack, J. Hutter.
 J. Chem. Phys. 152, 194103 (2020).
 CP2K: An electronic structure and molecular dynamics software package - 
 Quickstep: Efficient and accurate electronic structure calculations.
 https://doi.org/10.1063/5.0007045

 O. Schuett, P. Messmer, J. Hutter, J. VandeVondele.
 Electronic Structure Calculations on Graphics Processing Units, 173-190 (2016).
 GPU-Accelerated Sparse Matrix-Matrix Multiplication for Linear Scaling Density 
 Functional Theory.
 https://doi.org/10.1002/9781118670712.ch8

 U. Borstnik, J. VandeVondele, V. Weber, J. Hutter.
 Parallel Comput. 40, 47-58 (2014).
 Sparse matrix multiplication: The distributed block-compressed sparse row 
 library.
 https://doi.org/10.1016/j.parco.2014.03.012

 J. VandeVondele, J. Hutter.
 J. Chem. Phys. 127, 114105 (2007).
 Gaussian basis sets for accurate calculations on molecular systems in gas and 
 condensed phases.
 https://doi.org/10.1063/1.2770708

 J. VandeVondele, M. Krack, F. Mohamed, M. Parrinello, T. Chassaing, J. Hutter.
 Comput. Phys. Commun. 167, 103-128 (2005).
 QUICKSTEP: Fast and accurate density functional calculations using a mixed 
 Gaussian and plane waves approach.
 https://doi.org/10.1016/j.cpc.2004.12.014

 M. Krack.
 Theor. Chem. Acc. 114, 145-152 (2005).
 Pseudopotentials for H to Kr optimized for gradient-corrected 
 exchange-correlation functionals.
 https://doi.org/10.1007/s00214-005-0655-y

 M. Frigo, S. G. Johnson.
 Proc. IEEE 93, 216-231 (2005).
 The design and implementation of FFTW3.
 https://doi.org/10.1109/JPROC.2004.840301

 J. VandeVondele, J. Hutter.
 J. Chem. Phys. 118, 4365-4369 (2003).
 An efficient orbital transformation method for electronic structure 
 calculations.
 https://doi.org/10.1063/1.1543154

 C. Hartwigsen, S. Goedecker, J. Hutter.
 Phys. Rev. B 58, 3641-3662 (1998).
 Relativistic separable dual-space Gaussian pseudopotentials from H to Rn.
 https://doi.org/10.1103/PhysRevB.58.3641

 G. Lippert, J. Hutter, M. Parrinello.
 Mol. Phys. 92, 477-487 (1997).
 A hybrid Gaussian and plane wave density functional scheme.
 https://doi.org/10.1080/002689797170220

 S. Goedecker, M. Teter, J. Hutter.
 Phys. Rev. B 54, 1703-1710 (1996).
 Separable dual-space Gaussian pseudopotentials.
 https://doi.org/10.1103/PhysRevB.54.1703

 J. P. Perdew, K. Burke, M. Ernzerhof.
 Phys. Rev. Lett. 77, 3865-3868 (1996).
 Generalized gradient approximation made simple.
 https://doi.org/10.1103/PhysRevLett.77.3865

 P. E. Blöchl.
 J. Chem. Phys. 103, 7422-7428 (1995).
 Electrostatic decoupling of periodic images of plane‐wave‐expanded 
 densities and derived atomic point charges.
 https://doi.org/10.1063/1.470314

 R. H. Byrd, P. H. Lu, J. Nocedal, C. Y. Zhu.
 SIAM J. Sci. Comput. 16, 1190-1208 (1995).
 A Limited Memory Algorithm for Bound Constrained Optimization.
 https://doi.org/10.1137/0916069


 -------------------------------------------------------------------------------
 -                                                                             -
 -                                T I M I N G                                  -
 -                                                                             -
 -------------------------------------------------------------------------------
 SUBROUTINE                       CALLS  ASD         SELF TIME        TOTAL TIME MAXRANK
                                MAXIMUM       AVERAGE  MAXIMUM  AVERAGE  MAXIMUM
 CP2K                                 1  1.0    0.008    0.017   30.500   30.501       0
 qs_energies                          1  2.0    0.000    0.000   29.184   29.184       0
 qs_energies_properties               1  3.0    0.000    0.000   25.364   25.364       1
 post_scf_bandstructure               1  4.0    0.000    0.000   25.364   25.364       2
 run_gw                               1  5.0    0.000    0.000   25.346   25.355       0
 gw_calc_ri_rs_non_periodic           1  6.0    0.000    0.000   23.628   23.777       2
 optimize_ri_rs_grid                  1  7.0    0.000    0.000   22.802   22.941       0
 rirs_grid_LBFGS                      1  8.0    0.443    0.706   22.365   22.366       4
 evaluate_rirs_grid_cluster         213  9.0    1.770    2.400   14.709   21.605       4
 mp_sum_d                           670  3.9    7.244    9.472    7.244    9.472       0
 rirs_cluster_gradient_products     213 10.0    3.847    6.986    3.847    6.986       4
 rirs_cluster_gradient_coordina     213 10.0    4.054    4.112    4.054    4.112       2
 rirs_cluster_D_ll                  213 10.0    1.841    3.300    1.841    3.300       4
 scf_env_do_scf                       1  3.0    0.000    0.000    2.779    2.779       0
 qs_ks_build_kohn_sham_matrix         2  7.5    0.001    0.001    2.682    2.683       3
 fft_wrap_pw1pw2                     28 10.0    0.001    0.001    2.433    2.499       2
 fft_wrap_pw1pw2_300                 16 11.2    0.136    0.181    2.292    2.369       3
 rirs_cluster_residual              213 10.0    1.187    2.065    1.187    2.065       4
 init_scf_loop                        1  4.0    0.000    0.000    2.061    2.061       2
 qs_ks_update_qs_env                  2  5.0    0.000    0.000    2.056    2.057       2
 rebuild_ks_matrix                    1  6.0    0.000    0.000    2.056    2.057       3
 create_and_init_bs_env_for_gw        1  6.0    0.004    0.005    1.717    1.946       0
 fft3d_ps                            28 12.0    1.021    1.131    1.731    1.903       1
 rirs_cluster_d_lP                  213 10.0    0.983    1.844    0.983    1.844       4
 qs_rho_update_rho_low                2  5.0    0.000    0.000    1.453    1.453       3
 calculate_rho_elec                   2  6.0    0.040    0.040    1.453    1.453       0
 qs_vxc_create                        2  8.5    0.000    0.000    1.395    1.422       3
 xc_vxc_pw_create                     1  9.0    0.029    0.032    1.394    1.422       2
 xc_pw_derive                         6 11.0    0.000    0.000    1.041    1.112       3
 mp_alltoall_z22v                    28 14.0    0.458    1.095    0.458    1.095       4
 rirs_cluster_AO_products           213 10.0    1.027    1.052    1.027    1.052       1
 qs_init_subsys                       1  2.0    0.001    0.001    1.014    1.016       0
 qs_env_setup                         1  3.0    0.000    0.000    1.013    1.015       4
 qs_env_rebuild_pw_env                2  3.5    0.000    0.000    1.013    1.014       1
 pw_env_rebuild                       1  5.0    0.000    0.000    1.013    1.014       3
 pw_grid_setup                        5  5.2    0.000    0.000    1.008    1.010       1
 pw_grid_setup_internal               5  6.2    0.017    0.017    1.008    1.010       0
 pw_grid_sort                         5  7.2    0.601    0.610    0.881    0.893       0
 density_rs2pw                        2  7.0    0.000    0.000    0.807    0.817       2
 init_scf_run                         1  3.0    0.000    0.000    0.775    0.775       2
 scf_env_initial_rho_setup            1  4.0    0.000    0.000    0.775    0.775       0
 xc_pw_divergence                     1 10.0    0.000    0.000    0.697    0.751       3
 scf_env_do_scf_inner_loop            1  4.0    0.000    0.000    0.714    0.718       3
 mp_bcast_dm                         18  9.3    0.495    0.717    0.495    0.717       4
 xc_rho_set_and_dset_create           1 10.0    0.025    0.039    0.650    0.702       2
 yz_to_x                             14 12.2    0.120    0.142    0.372    0.680       0
 generate_auto_ri_basis               1  7.0    0.000    0.000    0.679    0.679       1
 compute_V_xc                         1  7.0    0.000    0.000    0.627    0.627       2
 grid_collocate_task_list             2  7.0    0.589    0.608    0.589    0.608       0
 setup_time_and_frequency_minim       1  7.0    0.000    0.000    0.364    0.599       0
 build_minimax_time_frequency_g       1  8.0    0.000    0.000    0.364    0.599       1
 fit_l_sq_weights                     3  9.0    0.364    0.599    0.364    0.599       3
 x_to_yz                             14 13.8    0.130    0.152    0.336    0.584       3
 sum_up_and_integrate                 2  8.5    0.000    0.000    0.533    0.559       2
 integrate_v_rspace                   2  9.5    0.000    0.000    0.526    0.553       3
 potential_pw2rs                      2 10.5    0.002    0.003    0.520    0.548       3
 dbcsr_multiply_generic             505  9.6    0.012    0.012    0.469    0.473       3
 initialize_ri_rs_grid                1  8.0    0.056    0.116    0.273    0.413       0
 compute_AA_optimized_RI_basis        1  8.0    0.000    0.000    0.389    0.389       3
 qs_ks_ddapc                          2  8.5    0.000    0.000    0.377    0.387       3
 compute_Sigma_c_and_QP_energie       1  7.0    0.000    0.000    0.358    0.367       1
 initialize_auto_ri_integrals         2  9.0    0.069    0.346    0.347    0.347       0
 compute_Sigma_c                      1  8.0    0.000    0.001    0.347    0.347       0
 pw_poisson_solve                     2  8.5    0.000    0.000    0.329    0.342       3
 contract_grid_panels_sigma_c        30  9.0    0.001    0.001    0.307    0.307       3
 sort_shells                          5  8.2    0.280    0.284    0.280    0.284       4
 create_qs_kind_set                   1  2.0    0.000    0.000    0.268    0.270       1
 read_qs_kind                         2  3.0    0.121    0.127    0.268    0.270       0
 qs_energies_init_hamiltonians        1  3.0    0.000    0.000    0.265    0.265       3
 qs_env_update_s_mstruct              1  4.0    0.000    0.000    0.261    0.262       3
 pw_gather_p                         14 11.2    0.215    0.247    0.215    0.247       1
 calculate_rho_core                   1  5.0    0.021    0.022    0.232    0.238       2
 transfer_rs2pw                       9  7.8    0.000    0.000    0.200    0.237       2
 multiply_cannon                    505 10.6    0.023    0.024    0.224    0.234       3
 pw_derive                           12 11.2    0.216    0.233    0.216    0.233       3
 pw_scatter_p                        14 12.8    0.207    0.225    0.207    0.225       1
 pw_copy                             28 10.5    0.212    0.221    0.212    0.221       0
 get_mat_chi_Gamma_tau                1  7.0    0.000    0.000    0.213    0.213       0
 contract_grid_panels                31  8.0    0.001    0.001    0.203    0.204       3
 pw_poisson_set                       3  8.3    0.000    0.000    0.182    0.194       3
 compute_W                            1  7.0    0.000    0.000    0.190    0.190       0
 transfer_rs2pw_300                   3  8.3    0.078    0.085    0.157    0.190       1
 rirs_grid_build_clusters             1  8.0    0.107    0.108    0.163    0.165       3
 multiply_cannon_loop               505 11.6    0.014    0.015    0.162    0.163       3
 fft_wrap_pw1pw2_100                  4 10.8    0.007    0.008    0.117    0.163       2
 transfer_pw2rs                       8 11.5    0.000    0.000    0.162    0.162       2
 make_m2s                          1010 10.6    0.007    0.007    0.158    0.161       3
 pw_integral_ab_c1d_c1d_gs            4 10.0    0.135    0.138    0.141    0.152       1
 parser_read_line                 72215  4.0    0.012    0.012    0.147    0.151       3
 compute_AB_optimized_RI_basis        1  8.0    0.000    0.000    0.148    0.148       0
 compute_AB_optimized_RI_basis_       1  9.0    0.000    0.000    0.147    0.147       2
 mp_waitany                          35 11.0    0.112    0.142    0.112    0.142       4
 compute_M_pq_inv_and_V_pq            1  8.0    0.000    0.000    0.142    0.142       0
 make_images                       1010 11.6    0.029    0.032    0.137    0.141       3
 parser_read_line_low                76  5.0    0.018    0.075    0.136    0.139       0
 mp_sum_dm                           24 10.6    0.045    0.137    0.045    0.137       4
 broadcast_input_information         76  6.0    0.022    0.033    0.118    0.136       3
 compute_B_PQ_AB                      2 10.0    0.021    0.025    0.113    0.133       3
 compute_contracted_RI_matrix         2  9.0    0.000    0.000    0.128    0.128       0
 compute_optimized_RI_matrix_bl       6 10.0    0.008    0.011    0.096    0.127       2
 cp_ddapc_apply_CD                    2  9.5    0.000    0.000    0.099    0.125       0
 compute_M_PQ_AB                    138 11.0    0.000    0.000    0.095    0.124       2
 compute_M_PQ                       138 12.0    0.000    0.000    0.095    0.124       2
 int_operators_r12_ab_os            138 13.0    0.000    0.000    0.095    0.124       2
 int_operator_ab_os_low             138 14.0    0.043    0.057    0.095    0.124       2
 xc_functional_eval                   1 11.0    0.000    0.000    0.083    0.120       1
 pbe_lda_eval                         1 12.0    0.083    0.120    0.083    0.120       2
 transfer_pw2rs_300                   2 12.5    0.058    0.063    0.118    0.120       0
 compute_fm_W_freq                   30  8.0    0.000    0.000    0.113    0.114       3
 copy_dbcsr_to_fm                   104  9.5    0.001    0.001    0.067    0.112       3
 parallel_gemm_fm_gemm              431  9.6    0.000    0.000    0.108    0.110       3
 cp_fm_gemm                         434 10.5    0.108    0.110    0.108    0.110       1
 cp_fm_get_submatrix                 20 10.0    0.000    0.000    0.022    0.108       2
 multiply_cannon_multrec           2525 12.6    0.080    0.094    0.082    0.097       4
 pw_axpy                             25  6.6    0.084    0.093    0.084    0.093       2
 contract_B_PQ                       10 11.8    0.065    0.085    0.071    0.093       0
 pw_copy_to_array                    14 11.2    0.085    0.090    0.085    0.090       2
 dbcsr_desymmetrize_deep            104 10.5    0.001    0.001    0.044    0.090       3
 mp_alltoall_i22                    369 11.4    0.043    0.089    0.043    0.089       0
 abc_contract_xsmm                 2883  9.2    0.076    0.088    0.076    0.088       0
 mp_waitall_1                     20234 13.9    0.074    0.088    0.074    0.088       4
 pw_grid_assign                       5  7.2    0.078    0.080    0.079    0.080       2
 mp_bcast_i_src                     309  7.0    0.048    0.077    0.048    0.077       1
 dbcsr_finalize                    1972 10.8    0.010    0.011    0.064    0.070       3
 mp_bcast_am_src                     76  7.0    0.046    0.069    0.046    0.069       4
 check_for_restart_files              1  7.0    0.040    0.058    0.040    0.058       2
 pw_copy_from_array                  14 12.8    0.050    0.057    0.050    0.057       0
 get_ddapc                            2 10.5    0.000    0.000    0.028    0.054       1
 compute_Z_lP                         1  7.0    0.000    0.000    0.054    0.054       1
 compute_Z_lP_auto_ri                 1  8.0    0.000    0.000    0.054    0.054       0
 compute_B_PQ_exchange                5 10.8    0.000    0.000    0.036    0.046       3
 compute_B_PQ_transition              5 10.8    0.000    0.000    0.036    0.046       3
 compute_d_lp_auto_ri_batch           1  9.0    0.000    0.000    0.025    0.046       0
 compute_d_lp_auto_ri_atom            1 10.0    0.008    0.012    0.025    0.046       0
 make_images_data                  1010 12.6    0.007    0.007    0.043    0.045       3
 compute_fm_chi_Gamma_freq           30  8.0    0.000    0.000    0.043    0.044       3
 multiply_cannon_metrocomm3        2525 12.6    0.004    0.004    0.034    0.042       3
 transfer_pw2rs_100                   2 12.5    0.022    0.023    0.037    0.041       1
 transfer_rs2pw_100                   2  9.0    0.020    0.022    0.036    0.040       1
 dbcsr_complete_redistribute        265 10.4    0.010    0.010    0.039    0.039       0
 dbcsr_merge_all                   1703 11.8    0.023    0.025    0.036    0.038       3
 build_G_ao                         121  8.5    0.000    0.000    0.035    0.036       3
 pw_grid_remap                        4  8.0    0.011    0.011    0.025    0.036       1
 operator2                        56454 15.0    0.028    0.036    0.028    0.036       2
 dbcsr_special_finalize            3030 12.6    0.007    0.008    0.031    0.035       3
 pw_zero                             25  4.7    0.031    0.034    0.031    0.034       2
 hybrid_alltoall_any               1114 13.4    0.017    0.021    0.031    0.033       0
 cp_fm_cholesky_invert               31  9.0    0.030    0.033    0.030    0.033       3
 mp_sum_l                          1700 10.5    0.025    0.032    0.025    0.032       4
 ab_contract                      57440 14.9    0.024    0.032    0.024    0.032       2
 dbcsr_add_d                        933  9.0    0.001    0.001    0.029    0.032       3
 fft_wrap_pw1pw2_40                   4 10.8    0.001    0.002    0.019    0.031       0
 dbcsr_add_anytype                  933 10.0    0.004    0.004    0.028    0.031       1
 dbcsr_create_new                  9512 12.0    0.021    0.022    0.029    0.031       3
 -------------------------------------------------------------------------------

 The number of warnings for this run is : 1
 
 -------------------------------------------------------------------------------
  **** **** ******  **  PROGRAM ENDED AT                 2026-10-03 19:13:44.272
 ***** ** ***  *** **   PROGRAM RAN ON                                  n2cn0247
 **    ****   ******    PROGRAM RAN BY                                  eprop2d1
 ***** **    ** ** **   PROGRAM PROCESS ID                               1178165
  **** **  *******  **  PROGRAM STOPPED IN /scratch/hpc-prf-metdyn/eprop2d1_Jan/
                                           53_benchmark_RI_opt/418_gw100_fig5_fu
                                           ll_epsfilter_1e12_20261002/calculatio
                                           ns/rc3p0/ri4_rs10/40_GeH4
