 DBCSR| CPU Multiplication driver                                           XSMM (U)
 DBCSR| Multrec recursion limit                                              512 (U)
 DBCSR| Multiplication stack size                                           1000 (D)
 DBCSR| Maximum elements for images                                    UNLIMITED (U)
 DBCSR| Multiplicative factor virtual images                                   1 (U)
 DBCSR| Use multiplication densification                                       T (D)
 DBCSR| Multiplication size stacks                                             3 (U)
 DBCSR| Use memory pool for CPU allocation                                     F (U)
 DBCSR| Number of 3D layers                                               SINGLE (U)
 DBCSR| Use MPI memory allocation                                              F (U)
 DBCSR| Use RMA algorithm                                                      F (U)
 DBCSR| Use Communication thread                                               T (U)
 DBCSR| Communication thread load                                             60 (D)
 DBCSR| MPI: My process id                                                     0
 DBCSR| MPI: Number of processes                                              16
 DBCSR| OMP: Current number of threads                                         8
 DBCSR| OMP: Max number of threads                                             8
 DBCSR| Split modifier for TAS multiplication algorithm                  1.0E+00 (U)


  **** **** ******  **  PROGRAM STARTED AT               2026-09-17 05:42:05.862
 ***** ** ***  *** **   PROGRAM STARTED ON                              n2cn0603
 **    ****   ******    PROGRAM STARTED BY                              eprop2d1
 ***** **    ** ** **   PROGRAM PROCESS ID                                269802
  **** **  *******  **  PROGRAM STARTED IN /scratch/hpc-prf-metdyn/eprop2d1_Jan/
                                           53_benchmark_RI_opt/111_GW100_GTH_Leb
                                           edev_riao245_rc3/calculations/26_C4_r
                                           iao5_r02

 CP2K| version string:                 CP2K version 2026.2 (Development Version)
 CP2K| source code revision number:                                      unknown
 CP2K| cp2kflags: omp libint fftw3 libxc parallel scalapack openblas            
 CP2K| is freely available from                            https://www.cp2k.org/
 CP2K| Program compiled at                                   2026-09-15 17:57:52
 CP2K| Program compiled on                                              n2login6
 CP2K| Program compiled for                                               x86_64
 CP2K| Data directory path    /scratch/hpc-prf-metdyn/eprop2d1_Jan/53_benchmark_
 CP2K| Input file name        /scratch/hpc-prf-metdyn/eprop2d1_Jan/53_benchmark_
 
 eprop2d1@n2cn0603 has created rank and process                      0    269802
 eprop2d1@n2cn0603 has created rank and process                      1    269803
 eprop2d1@n2cn0603 has created rank and process                      2    269804
 eprop2d1@n2cn0603 has created rank and process                      3    269805
 eprop2d1@n2cn0603 has created rank and process                      4    269806
 eprop2d1@n2cn0603 has created rank and process                      5    269807
 eprop2d1@n2cn0603 has created rank and process                      6    269808
 eprop2d1@n2cn0603 has created rank and process                      7    269809
 eprop2d1@n2cn0603 has created rank and process                      8    269810
 eprop2d1@n2cn0603 has created rank and process                      9    269811
 eprop2d1@n2cn0603 has created rank and process                     10    269812
 eprop2d1@n2cn0603 has created rank and process                     11    269813
 eprop2d1@n2cn0603 has created rank and process                     12    269814
 eprop2d1@n2cn0603 has created rank and process                     13    269815
 eprop2d1@n2cn0603 has created rank and process                     14    269816
 eprop2d1@n2cn0603 has created rank and process                     15    269817
 
 eprop2d1@n2cn0603 is running                                       16 processes

 GLOBAL| Force Environment number                                              1
 GLOBAL| Basis set file name            /scratch/hpc-prf-metdyn/eprop2d1_Jan/53_
 GLOBAL| Potential file name            /scratch/hpc-prf-metdyn/eprop2d1_Jan/53_
 GLOBAL| MM Potential file name                                     MM_POTENTIAL
 GLOBAL| Coordinate file name                                      __STD_INPUT__
 GLOBAL| Method name                                                        CP2K
 GLOBAL| Project name                                 gw100_106_26_C4_a3_leb_r02
 GLOBAL| Run type                                                         ENERGY
 GLOBAL| FFT library                                                       FFTW3
 GLOBAL| Diagonalization library                                       ScaLAPACK
 GLOBAL| Cholesky decomposition library                                ScaLAPACK
 GLOBAL| DGEMM library                                                      BLAS
 GLOBAL| Direct generalized diagonalization requested                          F
 GLOBAL| Orthonormality check for eigenvectors                          DISABLED
 GLOBAL| Matrix multiplication library                                 ScaLAPACK
 GLOBAL| All-to-all communication in single precision                          F
 GLOBAL| Grid backend                                                       AUTO
 GLOBAL| Global print level                                                  LOW
 GLOBAL| MPI I/O enabled                                                       T
 GLOBAL| Total number of message passing processes                            16
 GLOBAL| Number of distributed systems (nodes)                                 1
 GLOBAL| Number of threads for this process                                    8
 GLOBAL| This output is from process                                           0
 GLOBAL| OpenMP stack size per thread (OMP_STACKSIZE)                       128M
 GLOBAL| CPU model name                          AMD EPYC 7763 64-Core Processor

 MEMORY| system memory details [Kb]
 MEMORY|                        rank 0           min           max       average
 MEMORY| MemTotal            263897576     263897576     263897576     263897576
 MEMORY| MemFree             243803768     243803768     243803768     243803768
 MEMORY| Buffers                376280        376280        376280        376280
 MEMORY| Cached               12328076      12328076      12328076      12328076
 MEMORY| Slab                  1682016       1682016       1682016       1682016
 MEMORY| SReclaimable           471248        471248        471248        471248
 MEMORY| MemLikelyFree       256979372     256979372     256979372     256979372


 GENERATE|  Preliminary Number of Bonds generated:                             0
 GENERATE|  Achieved consistency in connectivity generation.

 *******************************************************************************
 *******************************************************************************
 **                                                                           **
 **     #####                         ##              ##                      **
 **    ##   ##            ##          ##              ##                      **
 **   ##     ##                       ##            ######                    **
 **   ##     ##  ##   ##  ##   #####  ##  ##   ####   ##    #####    #####    **
 **   ##     ##  ##   ##  ##  ##      ## ##   ##      ##   ##   ##  ##   ##   **
 **   ##  ## ##  ##   ##  ##  ##      ####     ###    ##   ######   ######    **
 **    ##  ###   ##   ##  ##  ##      ## ##      ##   ##   ##       ##        **
 **     #######   #####   ##   #####  ##  ##  ####    ##    #####   ##        **
 **           ##                                                    ##        **
 **                                                                           **
 **                                                ... make the atoms dance   **
 **                                                                           **
 **            Copyright (C) by CP2K developers group (2000-2026)             **
 **                      J. Chem. Phys. 152, 194103 (2020)                    **
 **                                                                           **
 *******************************************************************************


 TOTAL NUMBERS AND MAXIMUM NUMBERS

  Total number of            - Atomic kinds:                                   1
                             - Atoms:                                          4
                             - Shell sets:                                     4
                             - Shells:                                        20
                             - Primitive Cartesian functions:                 24
                             - Cartesian basis functions:                     56
                             - Spherical basis functions:                     52

  Maximum angular momentum of- Orbital basis functions:                        2
                             - Local part of the GTH pseudopotential:          2
                             - Non-local part of the GTH pseudopotential:      0


 SCF PARAMETERS         Density guess:                                    ATOMIC
                        --------------------------------------------------------
                        max_scf:                                             500
                        max_scf_history:                                       0
                        max_diis:                                              4
                        --------------------------------------------------------
                        eps_scf:                                        1.00E-08
                        eps_scf_history:                                0.00E+00
                        eps_diis:                                       0.00E+00
                        eps_eigval:                                     1.00E-05
                        --------------------------------------------------------
                        level_shift [a.u.]:                             0.000000
                        --------------------------------------------------------
                        Outer loop SCF in use 
                        No variables optimised in outer loop
                        eps_scf                                         1.00E-08
                        max_scf                                               20
                        No outer loop optimization
                        step_size                                       5.00E-01

 Extrapolation method: initial_guess

 Number of electrons:                                                         16
 Number of occupied orbitals:                                                  8
 Number of molecular orbitals:                                                 8

 Number of orbital functions:                                                 52
 Number of independent orbital functions:                                     52


 SCF WAVEFUNCTION OPTIMIZATION

  ----------------------------------- OT ---------------------------------------
  Minimizer      : DIIS                : direct inversion
                                         in the iterative subspace
                                         using   7 DIIS vectors
                                         safer DIIS on
  Preconditioner : FULL_KINETIC        : inversion of T + eS
  Lattice FFT   : OFF
  Precond_solver : DEFAULT
  stepsize       :    0.15000000                  energy_gap     :    0.20000000
  eps_taylor     :   0.10000E-15                  max_taylor     :             4
  ----------------------------------- OT ---------------------------------------

  Step     Update method      Time    Convergence         Total energy    Change
  ------------------------------------------------------------------------------
  Decoupling Energy:                                               0.0002070169
     1 OT DIIS     0.15E+00    0.9     0.14775948       -20.1109857791 -2.01E+01
  Decoupling Energy:                                               0.0000841564
     2 OT DIIS     0.15E+00    0.9     0.07869646       -20.9975082779 -8.87E-01
  Decoupling Energy:                                               0.0000480473
     3 OT DIIS     0.15E+00    0.9     0.05736710       -21.3285873254 -3.31E-01
  Decoupling Energy:                                               0.0000294097
     4 OT DIIS     0.15E+00    0.9     0.04091358       -21.6062799663 -2.78E-01
  Decoupling Energy:                                               0.0000290919
     5 OT DIIS     0.15E+00    0.9     0.03104719       -21.7771849634 -1.71E-01
  Decoupling Energy:                                               0.0000312152
     6 OT DIIS     0.15E+00    0.9     0.02207895       -21.9191079282 -1.42E-01
  Decoupling Energy:                                               0.0000360163
     7 OT DIIS     0.15E+00    0.9     0.01555247       -22.0069894743 -8.79E-02
  Decoupling Energy:                                               0.0000388959
     8 OT DIIS     0.15E+00    0.9     0.01175420       -22.0517323215 -4.47E-02
  Decoupling Energy:                                               0.0000389159
     9 OT DIIS     0.15E+00    0.9     0.00944841       -22.0783865681 -2.67E-02
  Decoupling Energy:                                               0.0000355001
    10 OT DIIS     0.15E+00    0.9     0.00799765       -22.0988618352 -2.05E-02
  Decoupling Energy:                                               0.0000311759
    11 OT DIIS     0.15E+00    0.9     0.00694449       -22.1135385925 -1.47E-02
  Decoupling Energy:                                               0.0000229038
    12 OT DIIS     0.15E+00    0.9     0.00566867       -22.1318486130 -1.83E-02
  Decoupling Energy:                                               0.0000179577
    13 OT DIIS     0.15E+00    0.9     0.00482802       -22.1427497594 -1.09E-02
  Decoupling Energy:                                               0.0000156071
    14 OT DIIS     0.15E+00    0.9     0.00414455       -22.1502384374 -7.49E-03
  Decoupling Energy:                                               0.0000117543
    15 OT DIIS     0.15E+00    0.9     0.00361749       -22.1561038325 -5.87E-03
  Decoupling Energy:                                               0.0000115368
    16 OT DIIS     0.15E+00    0.9     0.00323348       -22.1599531436 -3.85E-03
  Decoupling Energy:                                               0.0000092166
    17 OT DIIS     0.15E+00    0.9     0.00282300       -22.1638435103 -3.89E-03
  Decoupling Energy:                                               0.0000085322
    18 OT DIIS     0.15E+00    0.9     0.00254423       -22.1668468304 -3.00E-03
  Decoupling Energy:                                               0.0000073007
    19 OT DIIS     0.15E+00    0.9     0.00228604       -22.1692003325 -2.35E-03
  Decoupling Energy:                                               0.0000057393
    20 OT DIIS     0.15E+00    0.9     0.00195551       -22.1716117901 -2.41E-03
  Decoupling Energy:                                               0.0000056208
    21 OT DIIS     0.15E+00    0.9     0.00179152       -22.1729538544 -1.34E-03
  Decoupling Energy:                                               0.0000045785
    22 OT DIIS     0.15E+00    0.9     0.00159359       -22.1740672545 -1.11E-03
  Decoupling Energy:                                               0.0000046642
    23 OT DIIS     0.15E+00    0.9     0.00144937       -22.1750030157 -9.36E-04
  Decoupling Energy:                                               0.0000037761
    24 OT DIIS     0.15E+00    0.9     0.00127675       -22.1758507416 -8.48E-04
  Decoupling Energy:                                               0.0000035877
    25 OT DIIS     0.15E+00    0.9     0.00111993       -22.1766398584 -7.89E-04
  Decoupling Energy:                                               0.0000031965
    26 OT DIIS     0.15E+00    0.9     0.00102255       -22.1772297034 -5.90E-04
  Decoupling Energy:                                               0.0000031104
    27 OT DIIS     0.15E+00    0.9     0.00097396       -22.1775625546 -3.33E-04
  Decoupling Energy:                                               0.0000030491
    28 OT DIIS     0.15E+00    0.9     0.00094498       -22.1778438056 -2.81E-04
  Decoupling Energy:                                               0.0000029766
    29 OT DIIS     0.15E+00    0.9     0.00093422       -22.1780201412 -1.76E-04
  Decoupling Energy:                                               0.0000029667
    30 OT DIIS     0.15E+00    0.9     0.00093042       -22.1782090826 -1.89E-04
  Decoupling Energy:                                               0.0000029258
    31 OT DIIS     0.15E+00    0.9     0.00092973       -22.1782733165 -6.42E-05
  Decoupling Energy:                                               0.0000029142
    32 OT SD       0.15E+00    0.9     0.00093025       -22.1783072477 -3.39E-05
  Decoupling Energy:                                               0.0000029143
    33 OT SD       0.15E+00    0.9     0.00093240       -22.1783613028 -5.41E-05
  Decoupling Energy:                                               0.0000029112
    34 OT SD       0.15E+00    0.9     0.00093518       -22.1784156283 -5.43E-05
  Decoupling Energy:                                               0.0000029070
    35 OT SD       0.15E+00    0.9     0.00093847       -22.1784702932 -5.47E-05
  Decoupling Energy:                                               0.0000029021
    36 OT SD       0.15E+00    0.9     0.00094222       -22.1785253568 -5.51E-05
  Decoupling Energy:                                               0.0000028968
    37 OT SD       0.15E+00    0.9     0.00094638       -22.1785808734 -5.55E-05
  Decoupling Energy:                                               0.0000028912
    38 OT SD       0.15E+00    0.9     0.00095094       -22.1786368934 -5.60E-05
  Decoupling Energy:                                               0.0000028853
    39 OT SD       0.15E+00    0.9     0.00095586       -22.1786934646 -5.66E-05
  Decoupling Energy:                                               0.0000028792
    40 OT SD       0.15E+00    0.9     0.00096113       -22.1787506327 -5.72E-05
  Decoupling Energy:                                               0.0000028731
    41 OT SD       0.15E+00    0.9     0.00096674       -22.1788084422 -5.78E-05
  Decoupling Energy:                                               0.0000028668
    42 OT SD       0.15E+00    0.9     0.00097266       -22.1788669362 -5.85E-05
  Decoupling Energy:                                               0.0000028604
    43 OT SD       0.15E+00    0.9     0.00097888       -22.1789261572 -5.92E-05
  Decoupling Energy:                                               0.0000028539
    44 OT SD       0.15E+00    0.9     0.00098541       -22.1789861470 -6.00E-05
  Decoupling Energy:                                               0.0000028474
    45 OT SD       0.15E+00    0.9     0.00099223       -22.1790469474 -6.08E-05
  Decoupling Energy:                                               0.0000028409
    46 OT SD       0.15E+00    0.9     0.00099934       -22.1791085996 -6.17E-05
  Decoupling Energy:                                               0.0000028344
    47 OT SD       0.15E+00    0.9     0.00100672       -22.1791711452 -6.25E-05
  Decoupling Energy:                                               0.0000028279
    48 OT SD       0.15E+00    0.9     0.00101438       -22.1792346257 -6.35E-05
  Decoupling Energy:                                               0.0000028214
    49 OT SD       0.15E+00    0.9     0.00102231       -22.1792990827 -6.45E-05
  Decoupling Energy:                                               0.0000028150
    50 OT SD       0.15E+00    0.9     0.00103051       -22.1793645584 -6.55E-05
  Decoupling Energy:                                               0.0000028086
    51 OT SD       0.15E+00    0.9     0.00103898       -22.1794310950 -6.65E-05
  Decoupling Energy:                                               0.0000028022
    52 OT SD       0.15E+00    0.9     0.00104770       -22.1794987355 -6.76E-05
  Decoupling Energy:                                               0.0000027959
    53 OT SD       0.15E+00    0.9     0.00105669       -22.1795675230 -6.88E-05
  Decoupling Energy:                                               0.0000027896
    54 OT SD       0.15E+00    0.9     0.00106593       -22.1796375014 -7.00E-05
  Decoupling Energy:                                               0.0000027834
    55 OT SD       0.15E+00    0.9     0.00107543       -22.1797087151 -7.12E-05
  Decoupling Energy:                                               0.0000027773
    56 OT SD       0.15E+00    0.9     0.00108518       -22.1797812091 -7.25E-05
  Decoupling Energy:                                               0.0000027713
    57 OT SD       0.15E+00    0.9     0.00109518       -22.1798550291 -7.38E-05
  Decoupling Energy:                                               0.0000027654
    58 OT SD       0.15E+00    0.9     0.00110543       -22.1799302215 -7.52E-05
  Decoupling Energy:                                               0.0000027595
    59 OT SD       0.15E+00    0.9     0.00111593       -22.1800068333 -7.66E-05
  Decoupling Energy:                                               0.0000027537
    60 OT SD       0.15E+00    0.9     0.00112667       -22.1800849125 -7.81E-05
  Decoupling Energy:                                               0.0000027480
    61 OT SD       0.15E+00    0.9     0.00113766       -22.1801645076 -7.96E-05
  Decoupling Energy:                                               0.0000027424
    62 OT SD       0.15E+00    0.9     0.00114890       -22.1802456683 -8.12E-05
  Decoupling Energy:                                               0.0000027370
    63 OT SD       0.15E+00    0.9     0.00116038       -22.1803284448 -8.28E-05
  Decoupling Energy:                                               0.0000027316
    64 OT SD       0.15E+00    0.9     0.00117210       -22.1804128884 -8.44E-05
  Decoupling Energy:                                               0.0000027263
    65 OT SD       0.15E+00    0.9     0.00118406       -22.1804990511 -8.62E-05
  Decoupling Energy:                                               0.0000027211
    66 OT SD       0.15E+00    0.9     0.00119627       -22.1805869861 -8.79E-05
  Decoupling Energy:                                               0.0000027160
    67 OT SD       0.15E+00    0.9     0.00120871       -22.1806767473 -8.98E-05
  Decoupling Energy:                                               0.0000027110
    68 OT SD       0.15E+00    0.9     0.00122139       -22.1807683898 -9.16E-05
  Decoupling Energy:                                               0.0000027061
    69 OT SD       0.15E+00    0.9     0.00123431       -22.1808619694 -9.36E-05
  Decoupling Energy:                                               0.0000027013
    70 OT SD       0.15E+00    0.9     0.00124747       -22.1809575434 -9.56E-05
  Decoupling Energy:                                               0.0000026966
    71 OT SD       0.15E+00    0.9     0.00126087       -22.1810551696 -9.76E-05
  Decoupling Energy:                                               0.0000026920
    72 OT SD       0.15E+00    0.9     0.00127450       -22.1811549074 -9.97E-05
  Decoupling Energy:                                               0.0000026875
    73 OT SD       0.15E+00    0.9     0.00128837       -22.1812568169 -1.02E-04
  Decoupling Energy:                                               0.0000026831
    74 OT SD       0.15E+00    0.9     0.00130247       -22.1813609596 -1.04E-04
  Decoupling Energy:                                               0.0000026789
    75 OT SD       0.15E+00    0.9     0.00131680       -22.1814673979 -1.06E-04
  Decoupling Energy:                                               0.0000026747
    76 OT SD       0.15E+00    0.9     0.00133138       -22.1815761955 -1.09E-04
  Decoupling Energy:                                               0.0000026706
    77 OT SD       0.15E+00    0.9     0.00134618       -22.1816874174 -1.11E-04
  Decoupling Energy:                                               0.0000026666
    78 OT SD       0.15E+00    0.9     0.00136122       -22.1818011295 -1.14E-04
  Decoupling Energy:                                               0.0000026627
    79 OT SD       0.15E+00    0.9     0.00137649       -22.1819173992 -1.16E-04
  Decoupling Energy:                                               0.0000026589
    80 OT SD       0.15E+00    0.9     0.00139199       -22.1820362950 -1.19E-04
  Decoupling Energy:                                               0.0000026552
 Singular DIIS matrix
    81 OT SD       0.15E+00    0.9     0.00140773       -22.1821578868 -1.22E-04
  Decoupling Energy:                                               0.0000026517
    82 OT SD       0.15E+00    0.9     0.00142370       -22.1822822456 -1.24E-04
  Decoupling Energy:                                               0.0000026481
    83 OT SD       0.15E+00    0.9     0.00143990       -22.1824094438 -1.27E-04
  Decoupling Energy:                                               0.0000026447
    84 OT SD       0.15E+00    1.0     0.00145633       -22.1825395552 -1.30E-04
  Decoupling Energy:                                               0.0000026414
    85 OT SD       0.15E+00    0.9     0.00147299       -22.1826726547 -1.33E-04
  Decoupling Energy:                                               0.0000026382
    86 OT SD       0.15E+00    0.9     0.00148988       -22.1828088188 -1.36E-04
  Decoupling Energy:                                               0.0000026350
    87 OT SD       0.15E+00    0.9     0.00150700       -22.1829481252 -1.39E-04
  Decoupling Energy:                                               0.0000026320
    88 OT SD       0.15E+00    0.9     0.00152435       -22.1830906531 -1.43E-04
  Decoupling Energy:                                               0.0000026290
    89 OT SD       0.15E+00    0.9     0.00154192       -22.1832364830 -1.46E-04
  Decoupling Energy:                                               0.0000026261
    90 OT SD       0.15E+00    0.9     0.00155973       -22.1833856968 -1.49E-04
  Decoupling Energy:                                               0.0000026233
    91 OT SD       0.15E+00    0.9     0.00157776       -22.1835383779 -1.53E-04
  Decoupling Energy:                                               0.0000026205
    92 OT SD       0.15E+00    0.9     0.00159602       -22.1836946110 -1.56E-04
  Decoupling Energy:                                               0.0000026179
    93 OT SD       0.15E+00    0.9     0.00161451       -22.1838544823 -1.60E-04
  Decoupling Energy:                                               0.0000026153
    94 OT SD       0.15E+00    0.9     0.00163323       -22.1840180795 -1.64E-04
  Decoupling Energy:                                               0.0000026127
    95 OT SD       0.15E+00    0.9     0.00165217       -22.1841854916 -1.67E-04
  Decoupling Energy:                                               0.0000026103
    96 OT SD       0.15E+00    0.9     0.00167133       -22.1843568091 -1.71E-04
  Decoupling Energy:                                               0.0000026079
    97 OT SD       0.15E+00    0.9     0.00169072       -22.1845321240 -1.75E-04
  Decoupling Energy:                                               0.0000026055
    98 OT SD       0.15E+00    0.9     0.00171033       -22.1847115298 -1.79E-04
  Decoupling Energy:                                               0.0000026032
    99 OT SD       0.15E+00    0.9     0.00173016       -22.1848951212 -1.84E-04
  Decoupling Energy:                                               0.0000026010
   100 OT SD       0.15E+00    0.9     0.00175021       -22.1850829946 -1.88E-04
  Decoupling Energy:                                               0.0000025988
   101 OT SD       0.15E+00    0.9     0.00177049       -22.1852752478 -1.92E-04
  Decoupling Energy:                                               0.0000025967
   102 OT SD       0.15E+00    0.9     0.00179098       -22.1854719799 -1.97E-04
  Decoupling Energy:                                               0.0000025946
   103 OT SD       0.15E+00    0.9     0.00181169       -22.1856732916 -2.01E-04
  Decoupling Energy:                                               0.0000025925
   104 OT SD       0.15E+00    0.9     0.00183262       -22.1858792847 -2.06E-04
  Decoupling Energy:                                               0.0000025905
   105 OT SD       0.15E+00    0.9     0.00185376       -22.1860900628 -2.11E-04
  Decoupling Energy:                                               0.0000025885
   106 OT SD       0.15E+00    0.9     0.00187512       -22.1863057306 -2.16E-04
  Decoupling Energy:                                               0.0000025866
   107 OT SD       0.15E+00    0.9     0.00189668       -22.1865263942 -2.21E-04
  Decoupling Energy:                                               0.0000025846
   108 OT SD       0.15E+00    0.9     0.00191846       -22.1867521611 -2.26E-04
  Decoupling Energy:                                               0.0000025827
   109 OT SD       0.15E+00    0.9     0.00194045       -22.1869831400 -2.31E-04
  Decoupling Energy:                                               0.0000025808
   110 OT SD       0.15E+00    0.9     0.00196264       -22.1872194411 -2.36E-04
  Decoupling Energy:                                               0.0000025789
   111 OT SD       0.15E+00    0.9     0.00198504       -22.1874611754 -2.42E-04
  Decoupling Energy:                                               0.0000025770
   112 OT SD       0.15E+00    0.9     0.00200764       -22.1877084557 -2.47E-04
  Decoupling Energy:                                               0.0000025751
   113 OT SD       0.15E+00    0.9     0.00203044       -22.1879613953 -2.53E-04
  Decoupling Energy:                                               0.0000025732
   114 OT SD       0.15E+00    0.9     0.00205344       -22.1882201092 -2.59E-04
  Decoupling Energy:                                               0.0000025712
   115 OT SD       0.15E+00    0.9     0.00207664       -22.1884847131 -2.65E-04
  Decoupling Energy:                                               0.0000025693
   116 OT SD       0.15E+00    0.9     0.00210002       -22.1887553239 -2.71E-04
  Decoupling Energy:                                               0.0000025673
   117 OT DIIS     0.15E+00    0.9     0.00212360       -22.1890320592 -2.77E-04
  Decoupling Energy:                                               0.0000049187
   118 OT SD       0.15E+00    0.9     0.01176725       -22.2361990968 -4.72E-02
  Decoupling Energy:                                               0.0000027169
   119 OT SD       0.15E+00    0.9     0.00751697       -22.2430487374 -6.85E-03
  Decoupling Energy:                                               0.0000019665
   120 OT SD       0.15E+00    0.9     0.00589505       -22.2461422308 -3.09E-03
  Decoupling Energy:                                               0.0000015585
   121 OT SD       0.15E+00    0.9     0.00514898       -22.2481546074 -2.01E-03
  Decoupling Energy:                                               0.0000012930
   122 OT SD       0.15E+00    0.9     0.00476765       -22.2497396810 -1.59E-03
  Decoupling Energy:                                               0.0000010958
   123 OT SD       0.15E+00    0.9     0.00455200       -22.2511222540 -1.38E-03
  Decoupling Energy:                                               0.0000009391
   124 OT DIIS     0.15E+00    0.9     0.00441723       -22.2523942006 -1.27E-03
  Decoupling Energy:                                              -0.0000005001
   125 OT DIIS     0.15E+00    0.9     0.00382693       -22.2667395491 -1.43E-02
  Decoupling Energy:                                              -0.0000004691
   126 OT DIIS     0.15E+00    0.9     0.00369212       -22.2714166709 -4.68E-03
  Decoupling Energy:                                              -0.0000009685
   127 OT DIIS     0.15E+00    0.9     0.00347766       -22.2773242633 -5.91E-03
  Decoupling Energy:                                              -0.0000011972
   128 OT DIIS     0.15E+00    0.9     0.00326241       -22.2842034294 -6.88E-03
  Decoupling Energy:                                              -0.0000019524
   129 OT DIIS     0.15E+00    0.9     0.00281129       -22.2923153599 -8.11E-03
  Decoupling Energy:                                              -0.0000017923
   130 OT DIIS     0.15E+00    0.9     0.00273372       -22.2965078049 -4.19E-03
  Decoupling Energy:                                              -0.0000024725
   131 OT DIIS     0.15E+00    0.9     0.00220447       -22.3025466984 -6.04E-03
  Decoupling Energy:                                              -0.0000019035
   132 OT DIIS     0.15E+00    0.9     0.00276198       -22.3024416465  1.05E-04
  Decoupling Energy:                                              -0.0000025274
   133 OT DIIS     0.15E+00    0.9     0.00180657       -22.3066577615 -4.22E-03
  Decoupling Energy:                                              -0.0000027481
   134 OT DIIS     0.15E+00    0.9     0.00149005       -22.3093585181 -2.70E-03
  Decoupling Energy:                                              -0.0000027729
   135 OT DIIS     0.15E+00    0.9     0.00124683       -22.3093179113  4.06E-05
  Decoupling Energy:                                              -0.0000027848
   136 OT DIIS     0.15E+00    0.9     0.00112433       -22.3102309683 -9.13E-04
  Decoupling Energy:                                              -0.0000028143
   137 OT DIIS     0.15E+00    0.9     0.00084242       -22.3105917844 -3.61E-04
  Decoupling Energy:                                              -0.0000028026
   138 OT DIIS     0.15E+00    0.9     0.00075886       -22.3109297994 -3.38E-04
  Decoupling Energy:                                              -0.0000028370
   139 OT DIIS     0.15E+00    0.9     0.00052928       -22.3110877612 -1.58E-04
  Decoupling Energy:                                              -0.0000028496
   140 OT DIIS     0.15E+00    0.9     0.00038429       -22.3112143928 -1.27E-04
  Decoupling Energy:                                              -0.0000028463
   141 OT DIIS     0.15E+00    0.9     0.00033181       -22.3112314687 -1.71E-05
  Decoupling Energy:                                              -0.0000028440
   142 OT DIIS     0.15E+00    0.9     0.00026959       -22.3112719722 -4.05E-05
  Decoupling Energy:                                              -0.0000028475
   143 OT DIIS     0.15E+00    0.9     0.00021422       -22.3112991084 -2.71E-05
  Decoupling Energy:                                              -0.0000028479
   144 OT DIIS     0.15E+00    0.9     0.00016920       -22.3113191431 -2.00E-05
  Decoupling Energy:                                              -0.0000028478
   145 OT DIIS     0.15E+00    0.9     0.00013429       -22.3113285594 -9.42E-06
  Decoupling Energy:                                              -0.0000028467
   146 OT DIIS     0.15E+00    0.9     0.00011724       -22.3113320119 -3.45E-06
  Decoupling Energy:                                              -0.0000028456
   147 OT DIIS     0.15E+00    0.9     0.00010165       -22.3113353263 -3.31E-06
  Decoupling Energy:                                              -0.0000028444
   148 OT DIIS     0.15E+00    0.9     0.00008645       -22.3113388920 -3.57E-06
  Decoupling Energy:                                              -0.0000028435
   149 OT DIIS     0.15E+00    0.9     0.00007545       -22.3113417434 -2.85E-06
  Decoupling Energy:                                              -0.0000028424
   150 OT DIIS     0.15E+00    0.9     0.00006832       -22.3113437515 -2.01E-06
  Decoupling Energy:                                              -0.0000028416
   151 OT DIIS     0.15E+00    0.9     0.00006255       -22.3113453425 -1.59E-06
  Decoupling Energy:                                              -0.0000028412
   152 OT DIIS     0.15E+00    0.9     0.00005752       -22.3113466676 -1.33E-06
  Decoupling Energy:                                              -0.0000028415
   153 OT DIIS     0.15E+00    0.9     0.00005175       -22.3113479383 -1.27E-06
  Decoupling Energy:                                              -0.0000028421
   154 OT DIIS     0.15E+00    0.9     0.00004720       -22.3113488838 -9.46E-07
  Decoupling Energy:                                              -0.0000028424
   155 OT DIIS     0.15E+00    0.9     0.00004434       -22.3113495146 -6.31E-07
  Decoupling Energy:                                              -0.0000028425
   156 OT DIIS     0.15E+00    0.9     0.00004221       -22.3113500640 -5.49E-07
  Decoupling Energy:                                              -0.0000028426
   157 OT DIIS     0.15E+00    0.9     0.00004014       -22.3113507222 -6.58E-07
  Decoupling Energy:                                              -0.0000028427
   158 OT DIIS     0.15E+00    0.9     0.00003867       -22.3113512811 -5.59E-07
  Decoupling Energy:                                              -0.0000028429
   159 OT DIIS     0.15E+00    0.9     0.00003712       -22.3113518866 -6.06E-07
  Decoupling Energy:                                              -0.0000028428
   160 OT DIIS     0.15E+00    0.9     0.00003534       -22.3113525804 -6.94E-07
  Decoupling Energy:                                              -0.0000028422
   161 OT DIIS     0.15E+00    0.9     0.00003326       -22.3113533953 -8.15E-07
  Decoupling Energy:                                              -0.0000028418
   162 OT DIIS     0.15E+00    0.9     0.00003177       -22.3113539454 -5.50E-07
  Decoupling Energy:                                              -0.0000028413
   163 OT DIIS     0.15E+00    0.9     0.00003013       -22.3113544972 -5.52E-07
  Decoupling Energy:                                              -0.0000028410
   164 OT DIIS     0.15E+00    0.9     0.00002835       -22.3113550687 -5.72E-07
  Decoupling Energy:                                              -0.0000028406
   165 OT DIIS     0.15E+00    0.9     0.00002647       -22.3113556628 -5.94E-07
  Decoupling Energy:                                              -0.0000028402
   166 OT DIIS     0.15E+00    0.9     0.00002480       -22.3113561442 -4.81E-07
  Decoupling Energy:                                              -0.0000028399
   167 OT DIIS     0.15E+00    0.9     0.00002332       -22.3113565278 -3.84E-07
  Decoupling Energy:                                              -0.0000028398
   168 OT DIIS     0.15E+00    0.9     0.00002199       -22.3113568493 -3.22E-07
  Decoupling Energy:                                              -0.0000028398
   169 OT DIIS     0.15E+00    0.9     0.00002084       -22.3113571243 -2.75E-07
  Decoupling Energy:                                              -0.0000028399
   170 OT DIIS     0.15E+00    0.9     0.00001989       -22.3113573158 -1.91E-07
  Decoupling Energy:                                              -0.0000028401
   171 OT DIIS     0.15E+00    0.9     0.00001875       -22.3113575184 -2.03E-07
  Decoupling Energy:                                              -0.0000028402
   172 OT DIIS     0.15E+00    0.9     0.00001735       -22.3113577599 -2.41E-07
  Decoupling Energy:                                              -0.0000028402
   173 OT DIIS     0.15E+00    0.9     0.00001595       -22.3113579985 -2.39E-07
  Decoupling Energy:                                              -0.0000028402
   174 OT DIIS     0.15E+00    0.9     0.00001491       -22.3113581551 -1.57E-07
  Decoupling Energy:                                              -0.0000028402
   175 OT DIIS     0.15E+00    0.9     0.00001403       -22.3113582710 -1.16E-07
  Decoupling Energy:                                              -0.0000028402
   176 OT DIIS     0.15E+00    0.9     0.00001327       -22.3113583686 -9.76E-08
  Decoupling Energy:                                              -0.0000028401
   177 OT DIIS     0.15E+00    0.9     0.00001271       -22.3113584421 -7.36E-08
  Decoupling Energy:                                              -0.0000028400
   178 OT DIIS     0.15E+00    0.9     0.00001221       -22.3113584995 -5.73E-08
  Decoupling Energy:                                              -0.0000028399
   179 OT DIIS     0.15E+00    0.9     0.00001156       -22.3113585693 -6.98E-08
  Decoupling Energy:                                              -0.0000028397
   180 OT DIIS     0.15E+00    0.9     0.00001084       -22.3113586490 -7.96E-08
  Decoupling Energy:                                              -0.0000028396
   181 OT DIIS     0.15E+00    0.9     0.00001028       -22.3113587153 -6.64E-08
  Decoupling Energy:                                              -0.0000028395
   182 OT DIIS     0.15E+00    0.9     0.00000985       -22.3113587638 -4.85E-08
  Decoupling Energy:                                              -0.0000028395
   183 OT DIIS     0.15E+00    0.9     0.00000946       -22.3113588047 -4.09E-08
  Decoupling Energy:                                              -0.0000028394
   184 OT DIIS     0.15E+00    0.9     0.00000907       -22.3113588472 -4.25E-08
  Decoupling Energy:                                              -0.0000028394
   185 OT DIIS     0.15E+00    0.9     0.00000874       -22.3113588847 -3.75E-08
  Decoupling Energy:                                              -0.0000028394
   186 OT DIIS     0.15E+00    0.9     0.00000838       -22.3113589201 -3.54E-08
  Decoupling Energy:                                              -0.0000028394
   187 OT DIIS     0.15E+00    0.9     0.00000795       -22.3113589565 -3.64E-08
  Decoupling Energy:                                              -0.0000028394
   188 OT DIIS     0.15E+00    0.9     0.00000753       -22.3113589940 -3.74E-08
  Decoupling Energy:                                              -0.0000028394
   189 OT DIIS     0.15E+00    0.9     0.00000722       -22.3113590213 -2.74E-08
  Decoupling Energy:                                              -0.0000028394
   190 OT DIIS     0.15E+00    0.9     0.00000693       -22.3113590436 -2.23E-08
  Decoupling Energy:                                              -0.0000028394
   191 OT DIIS     0.15E+00    0.9     0.00000661       -22.3113590662 -2.26E-08
  Decoupling Energy:                                              -0.0000028393
   192 OT DIIS     0.15E+00    0.9     0.00000629       -22.3113590899 -2.37E-08
  Decoupling Energy:                                              -0.0000028393
   193 OT DIIS     0.15E+00    0.9     0.00000602       -22.3113591091 -1.92E-08
  Decoupling Energy:                                              -0.0000028393
   194 OT DIIS     0.15E+00    0.9     0.00000576       -22.3113591249 -1.58E-08
  Decoupling Energy:                                              -0.0000028393
   195 OT DIIS     0.15E+00    0.9     0.00000552       -22.3113591382 -1.33E-08
  Decoupling Energy:                                              -0.0000028393
   196 OT DIIS     0.15E+00    0.9     0.00000531       -22.3113591504 -1.22E-08
  Decoupling Energy:                                              -0.0000028392
   197 OT DIIS     0.15E+00    0.9     0.00000513       -22.3113591603 -9.87E-09
  Decoupling Energy:                                              -0.0000028392
   198 OT DIIS     0.15E+00    0.9     0.00000491       -22.3113591707 -1.04E-08
  Decoupling Energy:                                              -0.0000028392
   199 OT DIIS     0.15E+00    0.9     0.00000467       -22.3113591821 -1.14E-08
  Decoupling Energy:                                              -0.0000028392
   200 OT DIIS     0.15E+00    0.9     0.00000446       -22.3113591928 -1.07E-08
  Decoupling Energy:                                              -0.0000028391
   201 OT DIIS     0.15E+00    0.9     0.00000431       -22.3113592006 -7.81E-09
  Decoupling Energy:                                              -0.0000028391
   202 OT DIIS     0.15E+00    0.9     0.00000417       -22.3113592069 -6.28E-09
  Decoupling Energy:                                              -0.0000028391
   203 OT DIIS     0.15E+00    0.9     0.00000404       -22.3113592128 -5.95E-09
  Decoupling Energy:                                              -0.0000028391
   204 OT DIIS     0.15E+00    0.9     0.00000391       -22.3113592191 -6.31E-09
  Decoupling Energy:                                              -0.0000028391
   205 OT DIIS     0.15E+00    0.9     0.00000377       -22.3113592254 -6.22E-09
  Decoupling Energy:                                              -0.0000028391
   206 OT DIIS     0.15E+00    0.9     0.00000360       -22.3113592323 -6.91E-09
  Decoupling Energy:                                              -0.0000028391
   207 OT DIIS     0.15E+00    0.9     0.00000342       -22.3113592394 -7.13E-09
  Decoupling Energy:                                              -0.0000028390
   208 OT DIIS     0.15E+00    0.9     0.00000329       -22.3113592450 -5.60E-09
  Decoupling Energy:                                              -0.0000028391
   209 OT DIIS     0.15E+00    0.9     0.00000319       -22.3113592492 -4.18E-09
  Decoupling Energy:                                              -0.0000028391
   210 OT DIIS     0.15E+00    0.9     0.00000307       -22.3113592533 -4.12E-09
  Decoupling Energy:                                              -0.0000028391
   211 OT DIIS     0.15E+00    0.9     0.00000294       -22.3113592577 -4.38E-09
  Decoupling Energy:                                              -0.0000028391
   212 OT DIIS     0.15E+00    0.9     0.00000281       -22.3113592621 -4.42E-09
  Decoupling Energy:                                              -0.0000028390
   213 OT DIIS     0.15E+00    0.9     0.00000269       -22.3113592659 -3.78E-09
  Decoupling Energy:                                              -0.0000028390
   214 OT DIIS     0.15E+00    0.9     0.00000257       -22.3113592691 -3.23E-09
  Decoupling Energy:                                              -0.0000028390
   215 OT DIIS     0.15E+00    0.9     0.00000246       -22.3113592719 -2.83E-09
  Decoupling Energy:                                              -0.0000028390
   216 OT DIIS     0.15E+00    0.9     0.00000238       -22.3113592741 -2.19E-09
  Decoupling Energy:                                              -0.0000028390
   217 OT DIIS     0.15E+00    1.0     0.00000231       -22.3113592760 -1.90E-09
  Decoupling Energy:                                              -0.0000028389
   218 OT DIIS     0.15E+00    0.9     0.00000221       -22.3113592782 -2.16E-09
  Decoupling Energy:                                              -0.0000028389
   219 OT DIIS     0.15E+00    0.9     0.00000211       -22.3113592804 -2.25E-09
  Decoupling Energy:                                              -0.0000028389
   220 OT DIIS     0.15E+00    0.9     0.00000202       -22.3113592824 -1.92E-09
  Decoupling Energy:                                              -0.0000028389
   221 OT DIIS     0.15E+00    0.9     0.00000196       -22.3113592837 -1.38E-09
  Decoupling Energy:                                              -0.0000028389
   222 OT DIIS     0.15E+00    0.9     0.00000190       -22.3113592849 -1.20E-09
  Decoupling Energy:                                              -0.0000028389
   223 OT DIIS     0.15E+00    0.9     0.00000184       -22.3113592861 -1.21E-09
  Decoupling Energy:                                              -0.0000028389
   224 OT DIIS     0.15E+00    0.9     0.00000179       -22.3113592873 -1.15E-09
  Decoupling Energy:                                              -0.0000028389
   225 OT DIIS     0.15E+00    0.9     0.00000173       -22.3113592885 -1.21E-09
  Decoupling Energy:                                              -0.0000028389
   226 OT DIIS     0.15E+00    0.9     0.00000165       -22.3113592900 -1.45E-09
  Decoupling Energy:                                              -0.0000028389
   227 OT DIIS     0.15E+00    0.9     0.00000158       -22.3113592913 -1.35E-09
  Decoupling Energy:                                              -0.0000028389
   228 OT DIIS     0.15E+00    0.9     0.00000153       -22.3113592924 -1.09E-09
  Decoupling Energy:                                              -0.0000028389
   229 OT DIIS     0.15E+00    0.9     0.00000148       -22.3113592932 -8.39E-10
  Decoupling Energy:                                              -0.0000028389
   230 OT DIIS     0.15E+00    0.9     0.00000143       -22.3113592941 -8.56E-10
  Decoupling Energy:                                              -0.0000028389
   231 OT DIIS     0.15E+00    0.9     0.00000137       -22.3113592950 -9.48E-10
  Decoupling Energy:                                              -0.0000028389
   232 OT DIIS     0.15E+00    0.9     0.00000132       -22.3113592959 -8.99E-10
  Decoupling Energy:                                              -0.0000028389
   233 OT DIIS     0.15E+00    0.9     0.00000126       -22.3113592967 -7.97E-10
  Decoupling Energy:                                              -0.0000028389
   234 OT DIIS     0.15E+00    0.9     0.00000120       -22.3113592975 -8.09E-10
  Decoupling Energy:                                              -0.0000028388
   235 OT DIIS     0.15E+00    0.9     0.00000115       -22.3113592982 -6.73E-10
  Decoupling Energy:                                              -0.0000028388
   236 OT DIIS     0.15E+00    0.9     0.00000111       -22.3113592987 -5.26E-10
  Decoupling Energy:                                              -0.0000028388
   237 OT DIIS     0.15E+00    0.9     0.00000107       -22.3113592992 -4.28E-10
  Decoupling Energy:                                              -0.0000028388
   238 OT DIIS     0.15E+00    0.9     0.00000103       -22.3113592996 -4.58E-10
  Decoupling Energy:                                              -0.0000028388
   239 OT DIIS     0.15E+00    0.9     0.00000099       -22.3113593001 -4.42E-10
  Decoupling Energy:                                              -0.0000028388
   240 OT DIIS     0.15E+00    0.9     0.00000095       -22.3113593004 -3.69E-10
  Decoupling Energy:                                              -0.0000028389
   241 OT DIIS     0.15E+00    0.9     0.00000092       -22.3113593007 -2.94E-10
  Decoupling Energy:                                              -0.0000028389
   242 OT DIIS     0.15E+00    0.9     0.00000089       -22.3113593010 -2.99E-10
  Decoupling Energy:                                              -0.0000028389
   243 OT DIIS     0.15E+00    0.9     0.00000086       -22.3113593013 -2.77E-10
  Decoupling Energy:                                              -0.0000028389
   244 OT DIIS     0.15E+00    0.9     0.00000083       -22.3113593016 -2.60E-10
  Decoupling Energy:                                              -0.0000028389
   245 OT DIIS     0.15E+00    0.9     0.00000081       -22.3113593018 -2.35E-10
  Decoupling Energy:                                              -0.0000028388
   246 OT DIIS     0.15E+00    0.9     0.00000078       -22.3113593021 -2.55E-10
  Decoupling Energy:                                              -0.0000028388
   247 OT DIIS     0.15E+00    0.9     0.00000075       -22.3113593023 -2.38E-10
  Decoupling Energy:                                              -0.0000028388
   248 OT DIIS     0.15E+00    0.9     0.00000073       -22.3113593025 -2.00E-10
  Decoupling Energy:                                              -0.0000028388
   249 OT DIIS     0.15E+00    0.9     0.00000071       -22.3113593027 -1.85E-10
  Decoupling Energy:                                              -0.0000028388
   250 OT DIIS     0.15E+00    0.9     0.00000068       -22.3113593029 -2.32E-10
  Decoupling Energy:                                              -0.0000028388
   251 OT DIIS     0.15E+00    0.9     0.00000065       -22.3113593031 -2.28E-10
  Decoupling Energy:                                              -0.0000028388
   252 OT DIIS     0.15E+00    0.9     0.00000063       -22.3113593034 -2.08E-10
  Decoupling Energy:                                              -0.0000028388
   253 OT DIIS     0.15E+00    0.9     0.00000060       -22.3113593035 -1.70E-10
  Decoupling Energy:                                              -0.0000028388
   254 OT DIIS     0.15E+00    0.9     0.00000058       -22.3113593037 -1.60E-10
  Decoupling Energy:                                              -0.0000028388
   255 OT DIIS     0.15E+00    0.9     0.00000056       -22.3113593038 -1.38E-10
  Decoupling Energy:                                              -0.0000028388
   256 OT DIIS     0.15E+00    0.9     0.00000054       -22.3113593039 -1.22E-10
  Decoupling Energy:                                              -0.0000028388
   257 OT DIIS     0.15E+00    0.9     0.00000052       -22.3113593041 -1.19E-10
  Decoupling Energy:                                              -0.0000028388
   258 OT DIIS     0.15E+00    0.9     0.00000049       -22.3113593042 -1.40E-10
  Decoupling Energy:                                              -0.0000028388
   259 OT DIIS     0.15E+00    0.9     0.00000047       -22.3113593043 -1.16E-10
  Decoupling Energy:                                              -0.0000028388
   260 OT DIIS     0.15E+00    0.9     0.00000045       -22.3113593044 -8.67E-11
  Decoupling Energy:                                              -0.0000028388
   261 OT DIIS     0.15E+00    0.9     0.00000044       -22.3113593045 -6.33E-11
  Decoupling Energy:                                              -0.0000028388
   262 OT DIIS     0.15E+00    0.9     0.00000042       -22.3113593045 -6.11E-11
  Decoupling Energy:                                              -0.0000028388
   263 OT DIIS     0.15E+00    0.9     0.00000041       -22.3113593046 -5.86E-11
  Decoupling Energy:                                              -0.0000028388
   264 OT DIIS     0.15E+00    0.9     0.00000040       -22.3113593046 -5.61E-11
  Decoupling Energy:                                              -0.0000028388
   265 OT DIIS     0.15E+00    0.9     0.00000038       -22.3113593047 -5.74E-11
  Decoupling Energy:                                              -0.0000028388
   266 OT DIIS     0.15E+00    0.9     0.00000037       -22.3113593048 -6.28E-11
  Decoupling Energy:                                              -0.0000028388
   267 OT DIIS     0.15E+00    0.9     0.00000035       -22.3113593048 -4.86E-11
  Decoupling Energy:                                              -0.0000028388
   268 OT DIIS     0.15E+00    0.9     0.00000035       -22.3113593049 -3.82E-11
  Decoupling Energy:                                              -0.0000028388
   269 OT DIIS     0.15E+00    0.9     0.00000034       -22.3113593049 -3.64E-11
  Decoupling Energy:                                              -0.0000028388
   270 OT DIIS     0.15E+00    0.9     0.00000032       -22.3113593049 -4.46E-11
  Decoupling Energy:                                              -0.0000028388
   271 OT DIIS     0.15E+00    0.9     0.00000031       -22.3113593050 -4.71E-11
  Decoupling Energy:                                              -0.0000028388
   272 OT DIIS     0.15E+00    0.9     0.00000030       -22.3113593050 -4.29E-11
  Decoupling Energy:                                              -0.0000028388
   273 OT DIIS     0.15E+00    0.9     0.00000029       -22.3113593051 -4.00E-11
  Decoupling Energy:                                              -0.0000028388
   274 OT DIIS     0.15E+00    0.9     0.00000028       -22.3113593051 -3.93E-11
  Decoupling Energy:                                              -0.0000028388
   275 OT DIIS     0.15E+00    0.9     0.00000027       -22.3113593051 -3.14E-11
  Decoupling Energy:                                              -0.0000028388
   276 OT DIIS     0.15E+00    0.9     0.00000026       -22.3113593052 -2.63E-11
  Decoupling Energy:                                              -0.0000028388
   277 OT DIIS     0.15E+00    0.9     0.00000025       -22.3113593052 -2.85E-11
  Decoupling Energy:                                              -0.0000028388
   278 OT DIIS     0.15E+00    0.9     0.00000024       -22.3113593052 -3.24E-11
  Decoupling Energy:                                              -0.0000028388
   279 OT DIIS     0.15E+00    0.9     0.00000023       -22.3113593052 -2.66E-11
  Decoupling Energy:                                              -0.0000028388
   280 OT DIIS     0.15E+00    0.9     0.00000022       -22.3113593053 -1.99E-11
  Decoupling Energy:                                              -0.0000028388
   281 OT DIIS     0.15E+00    0.9     0.00000021       -22.3113593053 -1.74E-11
  Decoupling Energy:                                              -0.0000028388
   282 OT DIIS     0.15E+00    0.9     0.00000020       -22.3113593053 -1.69E-11
  Decoupling Energy:                                              -0.0000028388
   283 OT DIIS     0.15E+00    0.9     0.00000020       -22.3113593053 -1.50E-11
  Decoupling Energy:                                              -0.0000028388
   284 OT DIIS     0.15E+00    0.9     0.00000019       -22.3113593053 -1.33E-11
  Decoupling Energy:                                              -0.0000028388
   285 OT DIIS     0.15E+00    0.9     0.00000018       -22.3113593053 -1.38E-11
  Decoupling Energy:                                              -0.0000028388
   286 OT DIIS     0.15E+00    0.9     0.00000018       -22.3113593054 -1.35E-11
  Decoupling Energy:                                              -0.0000028388
   287 OT DIIS     0.15E+00    0.9     0.00000017       -22.3113593054 -1.02E-11
  Decoupling Energy:                                              -0.0000028388
   288 OT DIIS     0.15E+00    0.9     0.00000017       -22.3113593054 -8.32E-12
  Decoupling Energy:                                              -0.0000028388
   289 OT DIIS     0.15E+00    0.9     0.00000016       -22.3113593054 -9.18E-12
  Decoupling Energy:                                              -0.0000028388
   290 OT DIIS     0.15E+00    0.9     0.00000016       -22.3113593054 -1.10E-11
  Decoupling Energy:                                              -0.0000028388
   291 OT DIIS     0.15E+00    0.9     0.00000015       -22.3113593054 -1.03E-11
  Decoupling Energy:                                              -0.0000028388
   292 OT DIIS     0.15E+00    0.9     0.00000015       -22.3113593054 -8.69E-12
  Decoupling Energy:                                              -0.0000028388
   293 OT DIIS     0.15E+00    0.9     0.00000014       -22.3113593054 -8.43E-12
  Decoupling Energy:                                              -0.0000028388
   294 OT DIIS     0.15E+00    0.9     0.00000014       -22.3113593054 -7.82E-12
  Decoupling Energy:                                              -0.0000028388
   295 OT DIIS     0.15E+00    0.9     0.00000013       -22.3113593054 -6.58E-12
  Decoupling Energy:                                              -0.0000028388
   296 OT DIIS     0.15E+00    0.9     0.00000013       -22.3113593054 -6.48E-12
  Decoupling Energy:                                              -0.0000028388
   297 OT DIIS     0.15E+00    0.9     0.00000012       -22.3113593055 -7.52E-12
  Decoupling Energy:                                              -0.0000028388
   298 OT DIIS     0.15E+00    0.9     0.00000012       -22.3113593055 -7.98E-12
  Decoupling Energy:                                              -0.0000028388
   299 OT DIIS     0.15E+00    0.9     0.00000011       -22.3113593055 -5.96E-12
  Decoupling Energy:                                              -0.0000028388
   300 OT DIIS     0.15E+00    0.9     0.00000011       -22.3113593055 -4.28E-12
  Decoupling Energy:                                              -0.0000028388
   301 OT DIIS     0.15E+00    0.9     0.00000010       -22.3113593055 -3.82E-12
  Decoupling Energy:                                              -0.0000028388
   302 OT DIIS     0.15E+00    0.9     0.00000010       -22.3113593055 -3.72E-12
  Decoupling Energy:                                              -0.0000028388
   303 OT DIIS     0.15E+00    0.9     0.00000010       -22.3113593055 -3.49E-12
  Decoupling Energy:                                              -0.0000028388
   304 OT DIIS     0.15E+00    0.9     0.00000009       -22.3113593055 -3.40E-12
  Decoupling Energy:                                              -0.0000028388
   305 OT DIIS     0.15E+00    0.9     0.00000009       -22.3113593055 -3.39E-12
  Decoupling Energy:                                              -0.0000028388
   306 OT DIIS     0.15E+00    0.9     0.00000009       -22.3113593055 -3.12E-12
  Decoupling Energy:                                              -0.0000028388
   307 OT DIIS     0.15E+00    0.9     0.00000008       -22.3113593055 -2.12E-12
  Decoupling Energy:                                              -0.0000028388
   308 OT DIIS     0.15E+00    0.9     0.00000008       -22.3113593055 -1.79E-12
  Decoupling Energy:                                              -0.0000028388
   309 OT DIIS     0.15E+00    0.9     0.00000008       -22.3113593055 -2.03E-12
  Decoupling Energy:                                              -0.0000028388
   310 OT DIIS     0.15E+00    2.6     0.00000008       -22.3113593055 -2.39E-12
  Decoupling Energy:                                              -0.0000028388
   311 OT DIIS     0.15E+00    0.9     0.00000007       -22.3113593055 -2.31E-12
  Decoupling Energy:                                              -0.0000028388
   312 OT DIIS     0.15E+00    0.9     0.00000007       -22.3113593055 -2.16E-12
  Decoupling Energy:                                              -0.0000028388
   313 OT DIIS     0.15E+00    0.9     0.00000007       -22.3113593055 -1.95E-12
  Decoupling Energy:                                              -0.0000028388
   314 OT DIIS     0.15E+00    0.9     0.00000007       -22.3113593055 -1.84E-12
  Decoupling Energy:                                              -0.0000028388
   315 OT DIIS     0.15E+00    0.9     0.00000007       -22.3113593055 -1.43E-12
  Decoupling Energy:                                              -0.0000028388
   316 OT DIIS     0.15E+00    0.9     0.00000006       -22.3113593055 -1.49E-12
  Decoupling Energy:                                              -0.0000028388
   317 OT DIIS     0.15E+00    0.9     0.00000006       -22.3113593055 -1.75E-12
  Decoupling Energy:                                              -0.0000028388
   318 OT DIIS     0.15E+00    0.9     0.00000006       -22.3113593055 -1.79E-12
  Decoupling Energy:                                              -0.0000028388
   319 OT DIIS     0.15E+00    0.9     0.00000006       -22.3113593055 -1.38E-12
  Decoupling Energy:                                              -0.0000028388
   320 OT DIIS     0.15E+00    0.9     0.00000005       -22.3113593055 -1.14E-12
  Decoupling Energy:                                              -0.0000028388
   321 OT DIIS     0.15E+00    0.9     0.00000005       -22.3113593055 -9.91E-13
  Decoupling Energy:                                              -0.0000028388
   322 OT DIIS     0.15E+00    0.9     0.00000005       -22.3113593055 -9.45E-13
  Decoupling Energy:                                              -0.0000028388
   323 OT DIIS     0.15E+00    0.9     0.00000005       -22.3113593055 -7.64E-13
  Decoupling Energy:                                              -0.0000028388
   324 OT DIIS     0.15E+00    0.9     0.00000005       -22.3113593055 -7.32E-13
  Decoupling Energy:                                              -0.0000028388
   325 OT DIIS     0.15E+00    0.9     0.00000004       -22.3113593055 -7.35E-13
  Decoupling Energy:                                              -0.0000028388
   326 OT DIIS     0.15E+00    0.9     0.00000004       -22.3113593055 -6.29E-13
  Decoupling Energy:                                              -0.0000028388
   327 OT DIIS     0.15E+00    0.9     0.00000004       -22.3113593055 -4.55E-13
  Decoupling Energy:                                              -0.0000028388
   328 OT DIIS     0.15E+00    0.9     0.00000004       -22.3113593055 -4.41E-13
  Decoupling Energy:                                              -0.0000028388
   329 OT DIIS     0.15E+00    0.9     0.00000004       -22.3113593055 -4.33E-13
  Decoupling Energy:                                              -0.0000028388
   330 OT DIIS     0.15E+00    0.9     0.00000004       -22.3113593055 -4.51E-13
  Decoupling Energy:                                              -0.0000028388
   331 OT DIIS     0.15E+00    0.9     0.00000004       -22.3113593055 -3.80E-13
  Decoupling Energy:                                              -0.0000028388
   332 OT DIIS     0.15E+00    1.0     0.00000004       -22.3113593055 -3.27E-13
  Decoupling Energy:                                              -0.0000028388
   333 OT DIIS     0.15E+00    0.9     0.00000003       -22.3113593055 -3.55E-13
  Decoupling Energy:                                              -0.0000028388
   334 OT DIIS     0.15E+00    0.9     0.00000003       -22.3113593055 -3.41E-13
  Decoupling Energy:                                              -0.0000028388
   335 OT DIIS     0.15E+00    0.9     0.00000003       -22.3113593055 -2.77E-13
  Decoupling Energy:                                              -0.0000028388
   336 OT DIIS     0.15E+00    0.9     0.00000003       -22.3113593055 -3.62E-13
  Decoupling Energy:                                              -0.0000028388
   337 OT DIIS     0.15E+00    0.9     0.00000003       -22.3113593055 -3.48E-13
  Decoupling Energy:                                              -0.0000028388
   338 OT DIIS     0.15E+00    0.9     0.00000003       -22.3113593055 -2.52E-13
  Decoupling Energy:                                              -0.0000028388
   339 OT DIIS     0.15E+00    0.9     0.00000003       -22.3113593055 -2.34E-13
  Decoupling Energy:                                              -0.0000028388
   340 OT DIIS     0.15E+00    0.9     0.00000003       -22.3113593055 -1.71E-13
  Decoupling Energy:                                              -0.0000028388
   341 OT DIIS     0.15E+00    0.9     0.00000003       -22.3113593055 -1.88E-13
  Decoupling Energy:                                              -0.0000028388
   342 OT DIIS     0.15E+00    0.9     0.00000003       -22.3113593055 -1.63E-13
  Decoupling Energy:                                              -0.0000028388
   343 OT DIIS     0.15E+00    0.9     0.00000002       -22.3113593055 -1.39E-13
  Decoupling Energy:                                              -0.0000028388
   344 OT DIIS     0.15E+00    0.9     0.00000002       -22.3113593055 -1.67E-13
  Decoupling Energy:                                              -0.0000028388
   345 OT DIIS     0.15E+00    0.9     0.00000002       -22.3113593055 -9.59E-14
  Decoupling Energy:                                              -0.0000028388
   346 OT DIIS     0.15E+00    0.9     0.00000002       -22.3113593055 -4.26E-14
  Decoupling Energy:                                              -0.0000028388
   347 OT DIIS     0.15E+00    0.9     0.00000002       -22.3113593055 -5.68E-14
  Decoupling Energy:                                              -0.0000028388
   348 OT DIIS     0.15E+00    0.9     0.00000002       -22.3113593055 -2.49E-14
  Decoupling Energy:                                              -0.0000028388
   349 OT DIIS     0.15E+00    0.9     0.00000002       -22.3113593055 -4.97E-14
  Decoupling Energy:                                              -0.0000028388
   350 OT DIIS     0.15E+00    0.9     0.00000002       -22.3113593055 -4.97E-14
  Decoupling Energy:                                              -0.0000028388
   351 OT DIIS     0.15E+00    0.9     0.00000002       -22.3113593055 -1.42E-14
  Decoupling Energy:                                              -0.0000028388
   352 OT DIIS     0.15E+00    0.9     0.00000002       -22.3113593055  3.20E-14
  Decoupling Energy:                                              -0.0000028388
   353 OT DIIS     0.15E+00    0.9     0.00000002       -22.3113593055 -1.78E-14
  Decoupling Energy:                                              -0.0000028388
   354 OT DIIS     0.15E+00    0.9     0.00000002       -22.3113593055 -7.11E-15
  Decoupling Energy:                                              -0.0000028388
   355 OT DIIS     0.15E+00    0.9     0.00000002       -22.3113593055 -7.11E-15
  Decoupling Energy:                                              -0.0000028388
   356 OT DIIS     0.15E+00    0.9     0.00000002       -22.3113593055  4.62E-14
  Decoupling Energy:                                              -0.0000028388
   357 OT DIIS     0.15E+00    0.9     0.00000002       -22.3113593055  1.42E-14
  Decoupling Energy:                                              -0.0000028388
   358 OT DIIS     0.15E+00    0.9     0.00000001       -22.3113593055  1.42E-14
  Decoupling Energy:                                              -0.0000028388
   359 OT DIIS     0.15E+00    0.9     0.00000001       -22.3113593055  1.42E-14
  Decoupling Energy:                                              -0.0000028388
   360 OT DIIS     0.15E+00    0.9     0.00000001       -22.3113593055  6.75E-14
  Decoupling Energy:                                              -0.0000028388
   361 OT DIIS     0.15E+00    0.9     0.00000001       -22.3113593055  7.11E-15
  Decoupling Energy:                                              -0.0000028388
   362 OT DIIS     0.15E+00    0.9     0.00000001       -22.3113593055  4.26E-14
  Decoupling Energy:                                              -0.0000028388
   363 OT DIIS     0.15E+00    0.9     0.00000001       -22.3113593055  5.33E-14
  Decoupling Energy:                                              -0.0000028388
   364 OT DIIS     0.15E+00    0.9     0.00000001       -22.3113593055  6.04E-14
  Decoupling Energy:                                              -0.0000028388
   365 OT DIIS     0.15E+00    0.9     0.00000001       -22.3113593055  3.55E-14
  Decoupling Energy:                                              -0.0000028388
   366 OT DIIS     0.15E+00    0.9     0.00000001       -22.3113593055  5.68E-14
  Decoupling Energy:                                              -0.0000028388
   367 OT DIIS     0.15E+00    0.9     0.00000001       -22.3113593055  5.33E-14
  Decoupling Energy:                                              -0.0000028388
   368 OT DIIS     0.15E+00    0.9     0.00000001       -22.3113593055  5.68E-14
  Decoupling Energy:                                              -0.0000028388
   369 OT DIIS     0.15E+00    0.9     9.7634E-09       -22.3113593055  6.75E-14

  *** SCF run converged in   369 steps ***


  Electronic density on regular grids:        -15.9999998942        0.0000001058
  Core density on regular grids:               16.0000000000       -0.0000000000
  Total charge density on r-space grids:        0.0000001058
  Total charge density g-space grids:           0.0000001058

  Overlap energy of the core charge distribution:               0.00000048963826
  Self energy of the core charge distribution:                -53.34003170706085
  Core Hamiltonian energy:                                     15.77112538661327
  Hartree energy:                                              21.85740661919598
  Exchange-correlation energy:                                 -6.59986009391370

  Total energy:                                               -22.31135930552705

  outer SCF iter =    1 RMS gradient =   0.98E-08 energy =        -22.3113593055
  outer SCF loop converged in   1 iterations or  369 steps

  
 -------------------------------------------------------------------------------
 -                                                                             -
 -                          BANDSTRUCTURE CALCULATION                          -
 -                                                                             -
 -------------------------------------------------------------------------------
  
 Number of occupied molecular orbitals (MOs) = Number of occupied bands        8
 Number of unoccupied (= virtual) MOs = Number of unoccupied bands            44
 Number of Gaussian basis functions for MOs                                   52
  
 -------------------------------------------------------------------------------
 -                                                                             -
 -                                GW CALCULATION                               -
 -                                                                             -
 -------------------------------------------------------------------------------
  
 Input: Number of time/freq. points                                           30
 Input: ω_max for fitting Σ(iω) (eV)                                        10.0
 Input: Filter threshold for sparse tensor operations                    1.0E-07
 Input: Apply Hedin shift                                                      F
 Input: Available memory per MPI process                                  8.0 GB
 
 Input: RI-RS Tikhonov regularization                                   1.00E-04
 Input: AO grid hard cutoff radius                                        8.00 Å
 Input: MPI ranks per atom in Z_lP solve                                      -1
 Input: Keep sparsity in χ/G/W panels                                          T
 Input: GW flavour                                                          G0W0
 
 Input: RI-RS grid optimization activated                                      T
 Input: Initial RI-RS grid                                              CHOLESKY
 Input: RS points per AO function                                         2.0000
 Input: Initial RS candidates per AO function                            30.0000
 Input: Additional Lebedev degree                                              2
 Input: Cholesky selection matrix                                        D_PRIME
 Input: Cholesky candidate domain                                      FULL_ATOM
 Input: Initial radial quadrature                                       GAPW_LOG
 Input: Cutoff radius for atomic clusters                                  3.0 Å
 Input: Maximum grid optimization iterations                                 300
 Input: L-BFGS history size                                                    7
 Input: L-BFGS relative-function factor                              0.00000E+00
 Input: L-BFGS projected-gradient tolerance                          1.00000E-09
 
 Input: AUTO_RI basis optimization activated:                                  T
 Input: AUTO_RI requested RI/AO ratio:                                       5.0
 Input: AUTO_RI frontier orbital window:                                  5.0 eV
 Input: AUTO_RI neighbor radius:                                           3.0 Å
 
 Cutoff radius for the truncated Coulomb operator in RI metric:            7.0 Å
 Regularization parameter of RI                                          0.0E+00
 Regularization parameter of minimax grids                               1.0E-06
 
 AUTO_RI| Number of automatic RI functions for χ, ε, W:                      260
 AUTO_RI| Total RI basis optimization time:                                0.7 s
  Decoupling Energy:                                              -0.0000028388
 
 SCF direct band gap (eV)                                                   1.06
 Max. SCF eigval diff. (eV)                                               168.61
 E-Range for minimax grid                                                 158.90
 Number of Padé parameters for analytic continuation:                         16
 
 RI-RS basis radii (Å):
     Kind  Elem     r_AO (Å)     r_RI (Å)
        1    C         8.0299        5.0785
 
 RI-RS initialization: atomic kind                                             1
 RI-RS initialization: Lebedev degree                                         11
 RI-RS initialization: radial shells                                           8
 RI-RS initialization: candidates per atom                                   400
 RI-RS initialization: retained points per atom                               26
 RI-RS initialization: largest cluster candidate count                      1600
 RI-RS initialization: most pivots in one cluster                            123
 RI-RS initialization: most stored AO values in one cluster                83200
 RI-RS initialization: wall time [s]                                       0.024
 Started RI-RS grid optimization
 RI-RS grid initial normalized error                          4.362873199570E-02
 RI-RS grid optimization completed, execution time:                        2.9 s
 Normalized 3C error:                                                    4.8E-04
 Maximum absolute 3C error:                                              1.1E-01
 Optimized points outside molecular Voronoi cells:                            11 / 104
 Total grid points used for RI-RS:                                           104
 
 RI-RS grid row-blocks of Φ_μ(r_l)                                             4
 RI-RS grid points per block (max)                                            32
 
 Percentage of non-zero matrix elements in Φ_μ(r_l)                     100.00 %
 
 RI-RS memory estimate per MPI process:
   Available memory per process (system)                                15.86 GB
   Required for Z_lP (dense upper bound; actual is sparser)              0.00 GB
   Required for χ, W, Σ panels (peak per panel step)                     0.00 GB
   Required for Z_lP solve peak (D_local+φ, worst-case atom)             0.00 GB
   Worst-case local-grid number of grid points:                              104
   Worst-case memory D_local:                                            0.00 GB
 
 Started computing Z_lP
 Computed Z_lP (MPI rank 0) for atom          1 /  1,    Execution time    0.0 s
 Computed Z_lP (all MPI ranks) for all atoms,            Execution time    0.1 s

 Number of batches for χ, Σ matrices                                           1
 
 Percentage of non-zero matrix elements in Z_lP                         100.00 %
 Percentage of non-zero matrix elements in G_ll', χ_ll', W_ll'          100.00 %
 Percentage of non-zero matrix elements in χ_PQ for time point 1        100.00 %
 
 Computed χ(iτ,k=0) for time point            1 / 30,    Execution time    0.0 s
 Computed χ(iτ,k=0) for time point            2 / 30,    Execution time    0.0 s
 Computed χ(iτ,k=0) for time point            3 / 30,    Execution time    0.0 s
 Computed χ(iτ,k=0) for time point            4 / 30,    Execution time    0.0 s
 Computed χ(iτ,k=0) for time point            5 / 30,    Execution time    0.0 s
 Computed χ(iτ,k=0) for time point            6 / 30,    Execution time    0.0 s
 Computed χ(iτ,k=0) for time point            7 / 30,    Execution time    0.0 s
 Computed χ(iτ,k=0) for time point            8 / 30,    Execution time    0.0 s
 Computed χ(iτ,k=0) for time point            9 / 30,    Execution time    0.0 s
 Computed χ(iτ,k=0) for time point           10 / 30,    Execution time    0.0 s
 Computed χ(iτ,k=0) for time point           11 / 30,    Execution time    0.0 s
 Computed χ(iτ,k=0) for time point           12 / 30,    Execution time    0.0 s
 Computed χ(iτ,k=0) for time point           13 / 30,    Execution time    0.0 s
 Computed χ(iτ,k=0) for time point           14 / 30,    Execution time    0.0 s
 Computed χ(iτ,k=0) for time point           15 / 30,    Execution time    0.0 s
 Computed χ(iτ,k=0) for time point           16 / 30,    Execution time    0.0 s
 Computed χ(iτ,k=0) for time point           17 / 30,    Execution time    0.0 s
 Computed χ(iτ,k=0) for time point           18 / 30,    Execution time    0.0 s
 Computed χ(iτ,k=0) for time point           19 / 30,    Execution time    0.0 s
 Computed χ(iτ,k=0) for time point           20 / 30,    Execution time    0.0 s
 Computed χ(iτ,k=0) for time point           21 / 30,    Execution time    0.0 s
 Computed χ(iτ,k=0) for time point           22 / 30,    Execution time    0.0 s
 Computed χ(iτ,k=0) for time point           23 / 30,    Execution time    0.0 s
 Computed χ(iτ,k=0) for time point           24 / 30,    Execution time    0.0 s
 Computed χ(iτ,k=0) for time point           25 / 30,    Execution time    0.0 s
 Computed χ(iτ,k=0) for time point           26 / 30,    Execution time    0.0 s
 Computed χ(iτ,k=0) for time point           27 / 30,    Execution time    0.0 s
 Computed χ(iτ,k=0) for time point           28 / 30,    Execution time    0.0 s
 Computed χ(iτ,k=0) for time point           29 / 30,    Execution time    0.0 s
 Computed χ(iτ,k=0) for time point           30 / 30,    Execution time    0.0 s
 
 Computed W(iτ),                                         Execution time    0.1 s
 
 Computed Σ^x(k=0),                                      Execution time    0.0 s
 
 Computed Σ^c(iτ) for time point              1 / 30,    Execution time    0.0 s
 Computed Σ^c(iτ) for time point              2 / 30,    Execution time    0.0 s
 Computed Σ^c(iτ) for time point              3 / 30,    Execution time    0.0 s
 Computed Σ^c(iτ) for time point              4 / 30,    Execution time    0.0 s
 Computed Σ^c(iτ) for time point              5 / 30,    Execution time    0.0 s
 Computed Σ^c(iτ) for time point              6 / 30,    Execution time    0.0 s
 Computed Σ^c(iτ) for time point              7 / 30,    Execution time    0.0 s
 Computed Σ^c(iτ) for time point              8 / 30,    Execution time    0.0 s
 Computed Σ^c(iτ) for time point              9 / 30,    Execution time    0.0 s
 Computed Σ^c(iτ) for time point             10 / 30,    Execution time    0.0 s
 Computed Σ^c(iτ) for time point             11 / 30,    Execution time    0.0 s
 Computed Σ^c(iτ) for time point             12 / 30,    Execution time    0.0 s
 Computed Σ^c(iτ) for time point             13 / 30,    Execution time    0.0 s
 Computed Σ^c(iτ) for time point             14 / 30,    Execution time    0.0 s
 Computed Σ^c(iτ) for time point             15 / 30,    Execution time    0.0 s
 Computed Σ^c(iτ) for time point             16 / 30,    Execution time    0.0 s
 Computed Σ^c(iτ) for time point             17 / 30,    Execution time    0.0 s
 Computed Σ^c(iτ) for time point             18 / 30,    Execution time    0.0 s
 Computed Σ^c(iτ) for time point             19 / 30,    Execution time    0.0 s
 Computed Σ^c(iτ) for time point             20 / 30,    Execution time    0.0 s
 Computed Σ^c(iτ) for time point             21 / 30,    Execution time    0.0 s
 Computed Σ^c(iτ) for time point             22 / 30,    Execution time    0.0 s
 Computed Σ^c(iτ) for time point             23 / 30,    Execution time    0.0 s
 Computed Σ^c(iτ) for time point             24 / 30,    Execution time    0.0 s
 Computed Σ^c(iτ) for time point             25 / 30,    Execution time    0.0 s
 Computed Σ^c(iτ) for time point             26 / 30,    Execution time    0.0 s
 Computed Σ^c(iτ) for time point             27 / 30,    Execution time    0.0 s
 Computed Σ^c(iτ) for time point             28 / 30,    Execution time    0.0 s
 Computed Σ^c(iτ) for time point             29 / 30,    Execution time    0.0 s
 Computed Σ^c(iτ) for time point             30 / 30,    Execution time    0.0 s
 
 SCF valence band maximum (eV):                                           -7.296
 SCF conduction band minimum (eV):                                        -6.235
 SCF indirect band gap (eV):                                               1.061
 SCF direct band gap (eV):                                                 1.061
 
 G0W0 valence band maximum (eV):                                          -9.809
 G0W0 conduction band minimum (eV):                                       -2.148
 G0W0 indirect band gap (eV):                                              7.662
 G0W0 direct band gap (eV):                                                7.662
 
 Hartree-Fock with SCF orbitals valence band maximum (eV):               -11.244
 Hartree-Fock with SCF orbitals conduction band minimum (eV)               0.123
 Hartree-Fock with SCF orbitals indirect band gap (eV):                   11.367
 Hartree-Fock with SCF orbitals direct band gap (eV):                     11.367

 ENERGY| Total FORCE_EVAL ( QS ) energy [hartree]            -22.311359305527048

 -------------------------------------------------------------------------------
 -                                                                             -
 -                                DBCSR STATISTICS                             -
 -                                                                             -
 -------------------------------------------------------------------------------
 COUNTER                                    TOTAL       BLAS       SMM       ACC
 flops     8 x     8 x     8              3394560       0.0%    100.0%      0.0%     
 flops     8 x     8 x    13              9817600       0.0%    100.0%      0.0%     
 flops    13 x    13 x     8             10004800       0.0%    100.0%      0.0%     
 flops    13 x     8 x     8             12273664       0.0%    100.0%      0.0%     
 flops    53 x    53 x    26             13146120       0.0%    100.0%      0.0%     
 flops    26 x    53 x    53             13438256       0.0%    100.0%      0.0%     
 flops    64 x    53 x    26             15874560       0.0%    100.0%      0.0%     
 flops    53 x    64 x    26             15874560       0.0%    100.0%      0.0%     
 flops    26 x    53 x    64             16932864       0.0%    100.0%      0.0%     
 flops    26 x    64 x    53             16932864       0.0%    100.0%      0.0%     
 flops    26 x    53 x    71             17219488       0.0%    100.0%      0.0%     
 flops    26 x    71 x    53             17219488       0.0%    100.0%      0.0%     
 flops    53 x    71 x    26             17610840       0.0%    100.0%      0.0%     
 flops    71 x    53 x    26             17610840       0.0%    100.0%      0.0%     
 flops    53 x    72 x    26             17858880       0.0%    100.0%      0.0%     
 flops    72 x    53 x    26             17858880       0.0%    100.0%      0.0%     
 flops    26 x    72 x    53             18255744       0.0%    100.0%      0.0%     
 flops    64 x    64 x    26             19169280       0.0%    100.0%      0.0%     
 flops    26 x    64 x    64             20447232       0.0%    100.0%      0.0%     
 flops    64 x    71 x    26             21265920       0.0%    100.0%      0.0%     
 flops    71 x    64 x    26             21265920       0.0%    100.0%      0.0%     
 flops    64 x    72 x    26             21565440       0.0%    100.0%      0.0%     
 flops    72 x    64 x    26             21565440       0.0%    100.0%      0.0%     
 flops    26 x    71 x    64             21738496       0.0%    100.0%      0.0%     
 flops    26 x    64 x    71             21738496       0.0%    100.0%      0.0%     
 flops    13 x    13 x    26             21970000       0.0%    100.0%      0.0%     
 flops    26 x    72 x    64             22044672       0.0%    100.0%      0.0%     
 flops    71 x    71 x    26             23591880       0.0%    100.0%      0.0%     
 flops    72 x    71 x    26             23924160       0.0%    100.0%      0.0%     
 flops    71 x    72 x    26             23924160       0.0%    100.0%      0.0%     
 flops    26 x    71 x    71             24116144       0.0%    100.0%      0.0%     
 flops    72 x    72 x    26             24261120       0.0%    100.0%      0.0%     
 flops    26 x    72 x    71             24455808       0.0%    100.0%      0.0%     
 flops    26 x    26 x    53             27515904       0.0%    100.0%      0.0%     
 flops    26 x    53 x    26             28375776       0.0%    100.0%      0.0%     
 flops    26 x    26 x    64             33226752       0.0%    100.0%      0.0%     
 flops    26 x    64 x    26             34265088       0.0%    100.0%      0.0%     
 flops    26 x    26 x    71             35325056       0.0%    100.0%      0.0%     
 flops    26 x    71 x    26             38012832       0.0%    100.0%      0.0%     
 flops    26 x    72 x    26             38548224       0.0%    100.0%      0.0%     
 flops    26 x    13 x    26             45767904       0.0%    100.0%      0.0%     
 flops    13 x     8 x    13             48974848       0.0%    100.0%      0.0%     
 flops    26 x    13 x    13             57930496       0.0%    100.0%      0.0%     
 flops    26 x    26 x    13            114595520       0.0%    100.0%      0.0%     
 flops inhomo. stacks                   125379072     100.0%      0.0%      0.0%
 flops total                         1.236286E+09      10.1%     89.9%      0.0%
 flops max/rank                    101.436972E+06       8.3%     91.7%      0.0%
 matmuls inhomo. stacks                       736     100.0%      0.0%      0.0%
 matmuls total                              62623       1.2%     98.8%      0.0%
 number of processed stacks                 62623       1.2%     98.8%      0.0%
 average stack size                                     1.0       1.0       0.0
 marketing flops                     1.598355E+09
 -------------------------------------------------------------------------------
 # multiplications                           8623
 max memory usage/rank              21.035528E+09
 # max total images/rank                        1
 # max 3D layers                                1
 # MPI messages exchanged                  827808
 MPI messages size (bytes):
  total size                       391.580640E+06
  min size                           0.000000E+00
  max size                          41.472000E+03
  average size                     473.033173E+00
 MPI breakdown and total messages size (bytes):
             size <=      128              626016                        0
       128 < size <=     8192              192621                245192112
      8192 < size <=    32768                8619                124996872
     32768 < size <=   131072                 552                 21391656
    131072 < size <=  4194304                   0                        0
   4194304 < size <= 16777216                   0                        0
  16777216 < size                               0                        0
 -------------------------------------------------------------------------------
 -                                                                             -
 -                      DBCSR MESSAGE PASSING PERFORMANCE                      -
 -                                                                             -
 -------------------------------------------------------------------------------
 ROUTINE             CALLS      AVE VOLUME [Bytes]
 MP_Bcast               45                     12.
 MP_Allreduce        41292                      8.
 MP_Alltoall         29804                    899.
 MP_ISend           139956                    340.
 MP_IRecv           137770                    280.
 -------------------------------------------------------------------------------

 -------------------------------------------------------------------------------
 -                                                                             -
 -                                GRID STATISTICS                              -
 -                                                                             -
 -------------------------------------------------------------------------------
 LP    KERNEL             BACKEND                              COUNT     PERCENT
 4     collocate ortho    CPU                                  15170      49.99%
 4     integrate ortho    CPU                                  15170      49.99%
 0     collocate general  CPU                                      4       0.01%
 -------------------------------------------------------------------------------

 -------------------------------------------------------------------------------
 -                                                                             -
 -                          OFFLOAD MEMPOOL STATISTICS                         -
 -                                                                             -
 -------------------------------------------------------------------------------
 Memory consumption                Number of allocations  Used [MiB]  Size [MiB]
 Host                                                  6          58    22216325
 -------------------------------------------------------------------------------

 MEMORY| Estimated peak process memory [MiB]                                1412

 -------------------------------------------------------------------------------
 -                                                                             -
 -                         MESSAGE PASSING PERFORMANCE                         -
 -                                                                             -
 -------------------------------------------------------------------------------

 ROUTINE             CALLS      AVE VOLUME [Bytes]
 MP_Group                5
 MP_Bcast             7141                   5347.
 MP_Allreduce        26230                    155.
 MP_Sync               397
 MP_Alltoall          7038               65712203.
 MP_SendRecv         11100                 337600.
 MP_ISendRecv        11100                 337600.
 MP_Wait             45163
 MP_comm_split         394
 MP_ISend            29620                1291458.
 MP_IRecv            29620                1291464.
 -------------------------------------------------------------------------------


 -------------------------------------------------------------------------------
 -                                                                             -
 -                           R E F E R E N C E S                               -
 -                                                                             -
 -------------------------------------------------------------------------------
 
 CP2K version 2026.2 (Development Version), the CP2K developers group (2026).
 CP2K is freely available from https://www.cp2k.org/ .
 
 M. Iannuzzi, J. Wilhelm, F. Stein, A. Bussy, H. Elgabarty, D. Golze, A. Hehn, 
 M. Graml, S. Marek, B. Sertcan Gökmen, C. Schran, H. Forbert, R. Z. 
 Khaliullin, A. Kozhevnikov, M. Taillefumier, R. Meli, V. V. Rybkin, M. Brehm, 
 R. Schade, O. Schütt, J. V. Pototschnig, H. Mirhosseini, A. Knüpfer, D. Marx, 
 M. Krack, J. Hutter, T. D. Kühne.
 J. Phys. Chem. B 130, 1237-1310 (2026).
 The CP2K Program Package Made Simple.
 https://doi.org/10.1021/acs.jpcb.5c05851

 M. Graml, K. Zollner, D. Hernangómez-Pérez, P. E. Faria Junior, J. Wilhelm.
 J. Chem. Theory Comput. 20, 2202-2208 (2024).
 Low-scaling GW algorithm applied to twisted transition-metal dichalcogenide 
 heterobilayers.
 https://doi.org/10.1021/acs.jctc.3c01230

 T. D. Kühne, M. Iannuzzi, M. Del Ben, V. V. Rybkin, P. Seewald, F. Stein, T. 
 Laino, R. Z. Khaliullin, O. Schütt, F. Schiffmann, D. Golze, J. Wilhelm, S. 
 Chulkov, M. H. Bani-Hashemian, V. Weber, U. Borstnik, M. Taillefumier, A. S. 
 Jakobovits, A. Lazzaro, H. Pabst, T. Müller, R. Schade, M. Guidon, S. 
 Andermatt, N. Holmberg, G. K. Schenter, A. Hehn, A. Bussy, F. Belleflamme, G. 
 Tabacchi, A. Glöß, M. Lass, I. Bethune, C. J. Mundy, C. Plessl, M. Watkins, 
 J. VandeVondele, M. Krack, J. Hutter.
 J. Chem. Phys. 152, 194103 (2020).
 CP2K: An electronic structure and molecular dynamics software package - 
 Quickstep: Efficient and accurate electronic structure calculations.
 https://doi.org/10.1063/5.0007045

 O. Schuett, P. Messmer, J. Hutter, J. VandeVondele.
 Electronic Structure Calculations on Graphics Processing Units, 173-190 (2016).
 GPU-Accelerated Sparse Matrix-Matrix Multiplication for Linear Scaling Density 
 Functional Theory.
 https://doi.org/10.1002/9781118670712.ch8

 U. Borstnik, J. VandeVondele, V. Weber, J. Hutter.
 Parallel Comput. 40, 47-58 (2014).
 Sparse matrix multiplication: The distributed block-compressed sparse row 
 library.
 https://doi.org/10.1016/j.parco.2014.03.012

 J. VandeVondele, J. Hutter.
 J. Chem. Phys. 127, 114105 (2007).
 Gaussian basis sets for accurate calculations on molecular systems in gas and 
 condensed phases.
 https://doi.org/10.1063/1.2770708

 J. VandeVondele, M. Krack, F. Mohamed, M. Parrinello, T. Chassaing, J. Hutter.
 Comput. Phys. Commun. 167, 103-128 (2005).
 QUICKSTEP: Fast and accurate density functional calculations using a mixed 
 Gaussian and plane waves approach.
 https://doi.org/10.1016/j.cpc.2004.12.014

 M. Krack.
 Theor. Chem. Acc. 114, 145-152 (2005).
 Pseudopotentials for H to Kr optimized for gradient-corrected 
 exchange-correlation functionals.
 https://doi.org/10.1007/s00214-005-0655-y

 M. Frigo, S. G. Johnson.
 Proc. IEEE 93, 216-231 (2005).
 The design and implementation of FFTW3.
 https://doi.org/10.1109/JPROC.2004.840301

 J. VandeVondele, J. Hutter.
 J. Chem. Phys. 118, 4365-4369 (2003).
 An efficient orbital transformation method for electronic structure 
 calculations.
 https://doi.org/10.1063/1.1543154

 C. Hartwigsen, S. Goedecker, J. Hutter.
 Phys. Rev. B 58, 3641-3662 (1998).
 Relativistic separable dual-space Gaussian pseudopotentials from H to Rn.
 https://doi.org/10.1103/PhysRevB.58.3641

 G. Lippert, J. Hutter, M. Parrinello.
 Mol. Phys. 92, 477-487 (1997).
 A hybrid Gaussian and plane wave density functional scheme.
 https://doi.org/10.1080/002689797170220

 S. Goedecker, M. Teter, J. Hutter.
 Phys. Rev. B 54, 1703-1710 (1996).
 Separable dual-space Gaussian pseudopotentials.
 https://doi.org/10.1103/PhysRevB.54.1703

 J. P. Perdew, K. Burke, M. Ernzerhof.
 Phys. Rev. Lett. 77, 3865-3868 (1996).
 Generalized gradient approximation made simple.
 https://doi.org/10.1103/PhysRevLett.77.3865

 P. E. Blöchl.
 J. Chem. Phys. 103, 7422-7428 (1995).
 Electrostatic decoupling of periodic images of plane‐wave‐expanded 
 densities and derived atomic point charges.
 https://doi.org/10.1063/1.470314

 R. H. Byrd, P. H. Lu, J. Nocedal, C. Y. Zhu.
 SIAM J. Sci. Comput. 16, 1190-1208 (1995).
 A Limited Memory Algorithm for Bound Constrained Optimization.
 https://doi.org/10.1137/0916069


 -------------------------------------------------------------------------------
 -                                                                             -
 -                                T I M I N G                                  -
 -                                                                             -
 -------------------------------------------------------------------------------
 SUBROUTINE                       CALLS  ASD         SELF TIME        TOTAL TIME MAXRANK
                                MAXIMUM       AVERAGE  MAXIMUM  AVERAGE  MAXIMUM
 CP2K                                 1  1.0    0.217    0.225  340.453  340.455       0
 qs_energies                          1  2.0    0.031    0.032  339.581  339.581       1
 scf_env_do_scf                       1  3.0    0.022    0.022  333.776  333.777       4
 scf_env_do_scf_inner_loop          369  4.0    0.164    1.764  332.919  332.920       0
 qs_ks_update_qs_env                370  5.0    0.004    0.004  236.969  237.080       2
 qs_ks_build_kohn_sham_matrix       370  7.0    0.143    0.149  235.676  235.680       2
 rebuild_ks_matrix                  369  6.0    0.002    0.002  235.349  235.352       5
 fft_wrap_pw1pw2                   6284 10.4    0.135    0.146  183.280  190.114       6
 fft_wrap_pw1pw2_300               4064 11.8    9.855   10.260  176.687  183.902       6
 qs_vxc_create                      370  8.0    0.012    0.013  156.617  157.236      10
 xc_vxc_pw_create                   369  9.0    3.488    3.836  156.605  157.224       8
 fft3d_ps                          6284 12.4   71.988   75.153  131.469  139.365       1
 xc_pw_derive                      2214 11.0    0.021    0.022  117.464  125.105       6
 qs_rho_update_rho_low              370  5.0    0.014    0.015   91.484   91.497       1
 calculate_rho_elec                 370  6.0    2.353    2.396   91.470   91.483       4
 xc_pw_divergence                   369 10.0    0.012    0.013   79.556   87.005       7
 xc_rho_set_and_dset_create         369 10.0    2.805    3.327   71.409   77.760       5
 mp_alltoall_z22v                  6284 14.4   41.061   54.191   41.061   54.191       2
 density_rs2pw                      370  7.0    0.070    0.078   47.807   48.585       8
 grid_collocate_task_list           370  7.0   40.746   41.249   40.746   41.249       9
 yz_to_x                           2958 12.9    9.304    9.967   29.414   39.641       0
 sum_up_and_integrate               370  8.0    0.030    0.030   34.836   34.920      14
 integrate_v_rspace                 370  9.0    0.011    0.013   34.140   34.256       6
 potential_pw2rs                    370 10.0    0.095    0.102   33.616   33.673       9
 x_to_yz                           3326 13.8    9.006    9.488   29.957   31.216       5
 qs_ks_ddapc                        370  8.0    0.008    0.009   21.759   22.114       6
 pw_derive                         3324 11.3   20.081   20.347   20.081   20.347      14
 pw_poisson_solve                   370  8.0    0.020    0.022   18.883   19.078      12
 pw_copy                           5916 10.6   17.007   17.204   17.007   17.204       1
 pw_scatter_p                      3326 12.8   16.051   16.447   16.051   16.447       9
 xc_functional_eval                 369 11.0    0.010    0.015    8.820   14.892      10
 pbe_lda_eval                       369 12.0    8.810   14.884    8.810   14.884       8
 transfer_pw2rs                    1480 11.0    0.015    0.016   13.867   13.882       6
 pw_gather_p                       2958 11.9   12.129   12.914   12.129   12.914      11
 pw_poisson_set                     371  9.0    0.008    0.009   10.959   11.154       8
 transfer_rs2pw                    1481  8.0    0.029    0.037   10.549   11.050       6
 mp_waitany                       29620 11.5    9.834   10.344    9.834   10.344       8
 transfer_pw2rs_300                 370 12.0    3.549    3.747    8.387    8.658       5
 pw_integral_ab_c1d_c1d_gs          740  9.5    7.351    7.427    7.782    7.846       0
 mp_sum_d                         11786 10.5    5.751    7.810    5.751    7.810       6
 pw_axpy                           3705  9.3    7.566    7.689    7.566    7.689       4
 pw_copy_from_array                3326 12.8    6.989    7.368    6.989    7.368       1
 transfer_rs2pw_300                 371  9.0    2.771    2.869    6.303    6.657       8
 pw_copy_to_array                  2958 11.9    6.201    6.581    6.201    6.581       1
 cp_ddapc_apply_CD                  370  9.0    0.019    0.028    5.575    5.734       0
 fft_wrap_pw1pw2_100                740 10.5    0.369    0.445    5.026    5.707      10
 qs_energies_properties               1  3.0    0.006    0.006    5.025    5.025      10
 post_scf_bandstructure               1  4.0    0.006    0.006    5.019    5.019      11
 gw                                   1  5.0    0.002    0.002    4.926    4.939       0
 qs_scf_new_mos                     369  5.0    0.001    0.002    4.783    4.788       5
 qs_scf_loop_do_ot                  369  6.0    0.002    0.002    4.781    4.786       7
 ot_scf_mini                        369  7.0    0.004    0.004    4.603    4.606       2
 dbcsr_multiply_generic            8623 10.1    0.199    0.207    4.299    4.549       4
 transfer_pw2rs_100                 370 12.0    0.766    0.861    3.407    3.697       8
 gw_calc_non_periodic_ri_rs           1  6.0    0.001    0.001    3.465    3.477       3
 pw_zero                           1865 10.3    3.060    3.273    3.060    3.273       1
 ri_rs_grid_assembler                 1  7.0    0.002    0.008    2.910    2.916       0
 optimize_ri_rs_grid                  1  8.0    0.000    0.000    2.883    2.883       0
 rirs_grid_LBFGS                      1  9.0    0.032    0.084    2.808    2.883       0
 ot_mini                            369  8.0    0.016    0.016    2.769    2.777       6
 mp_waitall_1                    429447 14.3    2.286    2.772    2.286    2.772      14
 transfer_rs2pw_100                 370  9.0    0.879    0.955    2.417    2.729       9
 evaluate_rirs_grid_cluster         301 10.0    0.062    0.251    0.621    2.491       0
 qs_ot_get_derivative               369  9.0    0.014    0.014    2.343    2.346       3
 dbcsr_dot                         4775  9.6    0.019    0.022    1.773    1.921       0
 rs_grid_zero                       741 13.0    1.798    1.847    1.798    1.847       4
 get_ddapc                          370 10.0    0.010    0.010    1.684    1.840       8
 qs_ot_get_derivative_diag          368 10.0    0.007    0.007    1.817    1.819       2
 transfer_pw2rs_40                  370 12.0    0.627    0.671    1.664    1.811      14
 pw_scale                          1477  9.8    1.487    1.752    1.487    1.752      15
 evaluate_core_matrix_traces        369  6.0    0.002    0.002    1.616    1.724       5
 calculate_ptrace_kp                738  7.0    0.001    0.001    1.615    1.722      11
 make_m2s                         17246 11.1    0.095    0.098    1.577    1.602       0
 transfer_rs2pw_40                  370  9.0    0.509    0.527    1.412    1.515       7
 multiply_cannon                   8623 11.1    0.433    0.442    1.437    1.479      15
 create_and_init_bs_env_for_gw        1  6.0    0.030    0.035    1.460    1.460       3
 qs_ot_get_p                        370  8.0    0.010    0.010    1.387    1.393       1
 fft_wrap_pw1pw2_40                 740 10.5    0.069    0.075    1.173    1.373      10
 pw_multiply_with                   370  9.0    1.323    1.360    1.323    1.360       2
 mp_sendrecv_dv                   11100 10.0    1.159    1.293    1.159    1.293       0
 make_images                      17246 12.1    0.184    0.200    1.194    1.218       3
 qs_ot_p2m_diag                     369  9.0    0.009    0.011    0.936    0.950       0
 init_scf_loop                        1  4.0    0.013    0.013    0.835    0.835      14
 multiply_cannon_loop              8623 12.1    0.116    0.118    0.642    0.676      13
 generate_auto_ri_basis               1  7.0    0.001    0.001    0.670    0.670       4
 mp_sum_l                         40788 11.2    0.422    0.663    0.422    0.663       6
 write_mo_set_to_restart            369  5.0    0.040    0.397    0.412    0.586       0
 rirs_cluster_gradient_products     301 11.0    0.146    0.585    0.146    0.585       2
 cp_dbcsr_syevd                     369 10.0    0.018    0.019    0.563    0.573      13
 grid_integrate_task_list           370 10.0    0.406    0.546    0.406    0.546      11
 rirs_cluster_gradient_coordina     301 11.0    0.135    0.539    0.135    0.539       1
 make_images_sizes                17246 13.1    0.012    0.012    0.488    0.521      12
 mp_alltoall_i44                  17246 14.1    0.476    0.509    0.476    0.509      14
 mp_alltoall_d11v                  6560 12.4    0.156    0.486    0.156    0.486      10
 rirs_cluster_AO_products           301 11.0    0.116    0.465    0.116    0.465       0
 transfer_pw2rs_20                  370 12.0    0.162    0.171    0.393    0.447      14
 xc_pw_smooth                       369 10.0    0.001    0.001    0.371    0.446      14
 init_scf_run                         1  3.0    0.001    0.001    0.439    0.444       9
 scf_env_initial_rho_setup            1  4.0    0.005    0.005    0.437    0.437      13
 transfer_rs2pw_20                  370  9.0    0.132    0.139    0.389    0.410       5
 cp_fm_syevd                        392 10.8    0.003    0.004    0.405    0.408       2
 ot_diis_step                       369  9.0    0.032    0.038    0.400    0.406       3
 qs_init_subsys                       1  2.0    0.033    0.034    0.394    0.394       9
 rirs_cluster_residual              301 11.0    0.098    0.392    0.098    0.392       0
 compute_AA_optimized_RI_basis        1  8.0    0.009    0.009    0.376    0.376      15
 rs_gather_matrices                 370 10.0    0.011    0.014    0.105    0.359       2
 qs_env_setup                         1  3.0    0.006    0.006    0.347    0.347       4
 qs_ot_get_orbitals                 369  8.0    0.001    0.001    0.341    0.344       2
 write_mo_set_low                    19  6.0    0.006    0.009    0.332    0.344       0
 compute_V_xc                         1  7.0    0.011    0.011    0.341    0.341      15
 -------------------------------------------------------------------------------

 The number of warnings for this run is : 0
 
 -------------------------------------------------------------------------------
  **** **** ******  **  PROGRAM ENDED AT                 2026-09-17 05:47:48.488
 ***** ** ***  *** **   PROGRAM RAN ON                                  n2cn0603
 **    ****   ******    PROGRAM RAN BY                                  eprop2d1
 ***** **    ** ** **   PROGRAM PROCESS ID                                269802
  **** **  *******  **  PROGRAM STOPPED IN /scratch/hpc-prf-metdyn/eprop2d1_Jan/
                                           53_benchmark_RI_opt/111_GW100_GTH_Leb
                                           edev_riao245_rc3/calculations/26_C4_r
                                           iao5_r02
