 DBCSR| CPU Multiplication driver                                           XSMM (U)
 DBCSR| Multrec recursion limit                                              512 (U)
 DBCSR| Multiplication stack size                                           1000 (D)
 DBCSR| Maximum elements for images                                    UNLIMITED (U)
 DBCSR| Multiplicative factor virtual images                                   1 (U)
 DBCSR| Use multiplication densification                                       T (D)
 DBCSR| Multiplication size stacks                                             3 (U)
 DBCSR| Use memory pool for CPU allocation                                     F (U)
 DBCSR| Number of 3D layers                                               SINGLE (U)
 DBCSR| Use MPI memory allocation                                              F (U)
 DBCSR| Use RMA algorithm                                                      F (U)
 DBCSR| Use Communication thread                                               T (U)
 DBCSR| Communication thread load                                             30 (D)
 DBCSR| MPI: My process id                                                     3
 DBCSR| MPI: Number of processes                                               8
 DBCSR| OMP: Current number of threads                                        16
 DBCSR| OMP: Max number of threads                                            16
 DBCSR| Split modifier for TAS multiplication algorithm                  1.0E+00 (U)


  **** **** ******  **  PROGRAM STARTED AT               2026-09-18 00:29:01.638
 ***** ** ***  *** **   PROGRAM STARTED ON                              n2cn0276
 **    ****   ******    PROGRAM STARTED BY                              eprop2d1
 ***** **    ** ** **   PROGRAM PROCESS ID                                435598
  **** **  *******  **  PROGRAM STARTED IN /scratch/hpc-prf-metdyn/eprop2d1_Jan/
                                           53_benchmark_RI_opt/122_GW100_GTH_Leb
                                           edev_RIAO2345_rc05_metdyn/calculation
                                           s/01_He_riao5_r09

 CP2K| version string:                 CP2K version 2026.2 (Development Version)
 CP2K| source code revision number:                                      unknown
 CP2K| cp2kflags: omp libint fftw3 libxc parallel scalapack openblas            
 CP2K| is freely available from                            https://www.cp2k.org/
 CP2K| Program compiled at                                   2026-09-15 17:57:52
 CP2K| Program compiled on                                              n2login6
 CP2K| Program compiled for                                               x86_64
 CP2K| Data directory path    /scratch/hpc-prf-metdyn/eprop2d1_Jan/53_benchmark_
 CP2K| Input file name                                                 input.inp
 
 eprop2d1@n2cn0276 has created rank and process                      0    435598
 
 eprop2d1@n2cn0276 is running                                        1 processes

 GLOBAL| Force Environment number                                              1
 GLOBAL| Basis set file name            /scratch/hpc-prf-metdyn/eprop2d1_Jan/53_
 GLOBAL| Potential file name            /scratch/hpc-prf-metdyn/eprop2d1_Jan/53_
 GLOBAL| MM Potential file name                                     MM_POTENTIAL
 GLOBAL| Coordinate file name                                      __STD_INPUT__
 GLOBAL| Method name                                                        CP2K
 GLOBAL| Project name                                  gw100_122_01_He_riao5_r09
 GLOBAL| Run type                                                         ENERGY
 GLOBAL| FFT library                                                       FFTW3
 GLOBAL| Diagonalization library                                       ScaLAPACK
 GLOBAL| Cholesky decomposition library                                ScaLAPACK
 GLOBAL| DGEMM library                                                      BLAS
 GLOBAL| Direct generalized diagonalization requested                          F
 GLOBAL| Orthonormality check for eigenvectors                          DISABLED
 GLOBAL| Matrix multiplication library                                 ScaLAPACK
 GLOBAL| All-to-all communication in single precision                          F
 GLOBAL| Grid backend                                                       AUTO
 GLOBAL| Global print level                                                  LOW
 GLOBAL| MPI I/O enabled                                                       T
 GLOBAL| Total number of message passing processes                             1
 GLOBAL| Number of distributed systems (nodes)                                 1
 GLOBAL| Number of threads for this process                                   16
 GLOBAL| This output is from process                                           0
 GLOBAL| OpenMP stack size per thread (OMP_STACKSIZE)                       512M
 GLOBAL| CPU model name                          AMD EPYC 7763 64-Core Processor

 MEMORY| system memory details [Kb]
 MEMORY|                        rank 0           min           max       average
 MEMORY| MemTotal            263897624     263897624     263897624     263897624
 MEMORY| MemFree             251230488     251230488     251230488     251230488
 MEMORY| Buffers                265184        265184        265184        265184
 MEMORY| Cached                6957016       6957016       6957016       6957016
 MEMORY| Slab                  1361728       1361728       1361728       1361728
 MEMORY| SReclaimable           271100        271100        271100        271100
 MEMORY| MemLikelyFree       258723788     258723788     258723788     258723788


 GENERATE|  Preliminary Number of Bonds generated:                             0
 GENERATE|  Achieved consistency in connectivity generation.

 *******************************************************************************
 *******************************************************************************
 **                                                                           **
 **     #####                         ##              ##                      **
 **    ##   ##            ##          ##              ##                      **
 **   ##     ##                       ##            ######                    **
 **   ##     ##  ##   ##  ##   #####  ##  ##   ####   ##    #####    #####    **
 **   ##     ##  ##   ##  ##  ##      ## ##   ##      ##   ##   ##  ##   ##   **
 **   ##  ## ##  ##   ##  ##  ##      ####     ###    ##   ######   ######    **
 **    ##  ###   ##   ##  ##  ##      ## ##      ##   ##   ##       ##        **
 **     #######   #####   ##   #####  ##  ##  ####    ##    #####   ##        **
 **           ##                                                    ##        **
 **                                                                           **
 **                                                ... make the atoms dance   **
 **                                                                           **
 **            Copyright (C) by CP2K developers group (2000-2026)             **
 **                      J. Chem. Phys. 152, 194103 (2020)                    **
 **                                                                           **
 *******************************************************************************


 TOTAL NUMBERS AND MAXIMUM NUMBERS

  Total number of            - Atomic kinds:                                   1
                             - Atoms:                                          1
                             - Shell sets:                                     1
                             - Shells:                                         3
                             - Primitive Cartesian functions:                  6
                             - Cartesian basis functions:                      5
                             - Spherical basis functions:                      5

  Maximum angular momentum of- Orbital basis functions:                        1
                             - Local part of the GTH pseudopotential:          2


 SCF PARAMETERS         Density guess:                                    ATOMIC
                        --------------------------------------------------------
                        max_scf:                                             500
                        max_scf_history:                                       0
                        max_diis:                                              4
                        --------------------------------------------------------
                        eps_scf:                                        1.00E-08
                        eps_scf_history:                                0.00E+00
                        eps_diis:                                       0.00E+00
                        eps_eigval:                                     1.00E-05
                        --------------------------------------------------------
                        level_shift [a.u.]:                             0.000000
                        --------------------------------------------------------
                        Outer loop SCF in use 
                        No variables optimised in outer loop
                        eps_scf                                         1.00E-08
                        max_scf                                               20
                        No outer loop optimization
                        step_size                                       5.00E-01

 Extrapolation method: initial_guess

 Number of electrons:                                                          2
 Number of occupied orbitals:                                                  1
 Number of molecular orbitals:                                                 1

 Number of orbital functions:                                                  5
 Number of independent orbital functions:                                      5


 SCF WAVEFUNCTION OPTIMIZATION

  ----------------------------------- OT ---------------------------------------
  Minimizer      : DIIS                : direct inversion
                                         in the iterative subspace
                                         using   7 DIIS vectors
                                         safer DIIS on
  Preconditioner : FULL_KINETIC        : inversion of T + eS
  Lattice FFT   : OFF
  Precond_solver : DEFAULT
  stepsize       :    0.15000000                  energy_gap     :    0.20000000
  eps_taylor     :   0.10000E-15                  max_taylor     :             4
  ----------------------------------- OT ---------------------------------------

  Step     Update method      Time    Convergence         Total energy    Change
  ------------------------------------------------------------------------------
  Decoupling Energy:                                              -0.0000000000
     1 OT DIIS     0.15E+00    5.5     0.01324555        -2.8896097321 -2.89E+00
  Decoupling Energy:                                              -0.0000000000
     2 OT DIIS     0.15E+00    6.7     0.00540753        -2.8897023425 -9.26E-05
  Decoupling Energy:                                              -0.0000000000
     3 OT DIIS     0.15E+00    6.7     0.00002885        -2.8897209584 -1.86E-05
  Decoupling Energy:                                              -0.0000000000
 Singular DIIS matrix
     4 OT SD       0.15E+00    6.7     0.00002885        -2.8897209584  0.00E+00
  Decoupling Energy:                                              -0.0000000000
     5 OT SD       0.15E+00    6.7     0.00001191        -2.8897209589 -4.41E-10
  Decoupling Energy:                                              -0.0000000000
     6 OT SD       0.15E+00    6.8     0.00000492        -2.8897209589 -7.51E-11
  Decoupling Energy:                                              -0.0000000000
     7 OT SD       0.15E+00    6.7     0.00000203        -2.8897209590 -1.28E-11
  Decoupling Energy:                                              -0.0000000000
     8 OT DIIS     0.15E+00    6.7     0.00000084        -2.8897209590 -2.18E-12
  Decoupling Energy:                                              -0.0000000000
     9 OT DIIS     0.15E+00    6.7     0.00000325        -2.8897209589  6.28E-12
  Decoupling Energy:                                              -0.0000000000
    10 OT DIIS     0.15E+00    6.7     0.00000001        -2.8897209590 -6.73E-12
  Decoupling Energy:                                              -0.0000000000
    11 OT DIIS     0.15E+00    6.7     1.4830E-11        -2.8897209590  2.66E-15

  *** SCF run converged in    11 steps ***


  Electronic density on regular grids:         -2.0000000000        0.0000000000
  Core density on regular grids:                2.0000000000       -0.0000000000
  Total charge density on r-space grids:       -0.0000000000
  Total charge density g-space grids:          -0.0000000000

  Overlap energy of the core charge distribution:               0.00000000000000
  Self energy of the core charge distribution:                 -5.64189583547756
  Core Hamiltonian energy:                                      1.95975960288370
  Hartree energy:                                               1.83515743032931
  Exchange-correlation energy:                                 -1.04274215668937

  Total energy:                                                -2.88972095895393

  outer SCF iter =    1 RMS gradient =   0.15E-10 energy =         -2.8897209590
  outer SCF loop converged in   1 iterations or   11 steps

  
 -------------------------------------------------------------------------------
 -                                                                             -
 -                          BANDSTRUCTURE CALCULATION                          -
 -                                                                             -
 -------------------------------------------------------------------------------
  
 Number of occupied molecular orbitals (MOs) = Number of occupied bands        1
 Number of unoccupied (= virtual) MOs = Number of unoccupied bands             4
 Number of Gaussian basis functions for MOs                                    5
  
 -------------------------------------------------------------------------------
 -                                                                             -
 -                                GW CALCULATION                               -
 -                                                                             -
 -------------------------------------------------------------------------------
  
 Input: Number of time/freq. points                                           30
 Input: ω_max for fitting Σ(iω) (eV)                                        10.0
 Input: Filter threshold for sparse tensor operations                    1.0E-07
 Input: Apply Hedin shift                                                      F
 Input: Available memory per MPI process                                  2.0 GB
 
 Input: RI-RS Tikhonov regularization                                   1.00E-04
 Input: AO grid hard cutoff radius                                        8.00 Å
 Input: MPI ranks per atom in Z_lP solve                                      -1
 Input: Keep sparsity in χ/G/W panels                                          T
 Input: GW flavour                                                          G0W0
 
 Input: RI-RS grid optimization activated                                      T
 Input: Initial RI-RS grid                                              CHOLESKY
 Input: RS points per AO function                                         9.0000
 Input: Initial RS candidates per AO function                            30.0000
 Input: Additional Lebedev degree                                              2
 Input: Cholesky selection matrix                                        D_PRIME
 Input: Cholesky candidate domain                                      FULL_ATOM
 Input: Initial radial quadrature                                       GAPW_LOG
 Input: Cutoff radius for atomic clusters                                  0.5 Å
 Input: Maximum grid optimization iterations                                 300
 Input: L-BFGS history size                                                    7
 Input: L-BFGS relative-function factor                              0.00000E+00
 Input: L-BFGS projected-gradient tolerance                          1.00000E-09
 
 Input: AUTO_RI basis optimization activated:                                  T
 Input: AUTO_RI requested RI/AO ratio:                                       5.0
 Input: AUTO_RI frontier orbital window:                                  5.0 eV
 Input: AUTO_RI neighbor radius:                                           3.0 Å
 
 Cutoff radius for the truncated Coulomb operator in RI metric:            7.0 Å
 Regularization parameter of RI                                          0.0E+00
 Regularization parameter of minimax grids                               1.0E-06
 AUTO_RI| Isolated-atom AA target limited by non-null product-space rank: 6 of 25
 
 AUTO_RI| Number of automatic RI functions for χ, ε, W:                        6
 AUTO_RI| Total RI basis optimization time:                                0.2 s
  Decoupling Energy:                                              -0.0000000000
 
 SCF direct band gap (eV)                                                  19.82
 Max. SCF eigval diff. (eV)                                                21.10
 E-Range for minimax grid                                                   1.06
 Number of Padé parameters for analytic continuation:                         16
 
 RI-RS basis radii (Å):
     Kind  Elem     r_AO (Å)     r_RI (Å)
        1    He        6.4056        4.0513
 
 RI-RS initialization: atomic kind                                             1
 RI-RS initialization: Lebedev degree                                          5
 RI-RS initialization: radial shells                                          11
 RI-RS initialization: candidates per atom                                   154
 RI-RS initialization: retained points per atom                               45
 RI-RS initialization: largest cluster candidate count                       154
 RI-RS initialization: most pivots in one cluster                             45
 RI-RS initialization: most stored AO values in one cluster                  700
 RI-RS initialization: wall time [s]                                       0.011
 Started RI-RS grid optimization
 RI-RS grid initial normalized error                          1.786203030841E-09
 RI-RS grid optimization completed, execution time:                        0.0 s
 Normalized 3C error:                                                    1.8E-09
 Maximum absolute 3C error:                                              3.9E-04
 Optimized points outside molecular Voronoi cells:                             0 / 45
 Total grid points used for RI-RS:                                            45
 
 RI-RS grid row-blocks of Φ_μ(r_l)                                             2
 RI-RS grid points per block (max)                                            32
 
 Percentage of non-zero matrix elements in Φ_μ(r_l)                     100.00 %
 
 RI-RS memory estimate per MPI process:
   Available memory per process (system)                               189.86 GB
   Required for Z_lP (dense upper bound; actual is sparser)              0.00 GB
   Required for χ, W, Σ panels (peak per panel step)                     0.00 GB
   Required for Z_lP solve peak (D_local+φ, worst-case atom)             0.00 GB
   Worst-case local-grid number of grid points:                               45
   Worst-case memory D_local:                                            0.00 GB
 
 Started computing Z_lP
 Computed Z_lP (MPI rank 0) for atom          1 /  1,    Execution time    0.0 s
 Computed Z_lP (all MPI ranks) for all atoms,            Execution time    0.0 s

 Number of batches for χ, Σ matrices                                           1
 
 Percentage of non-zero matrix elements in Z_lP                         100.00 %
 Percentage of non-zero matrix elements in G_ll', χ_ll', W_ll'          100.00 %
 Percentage of non-zero matrix elements in χ_PQ for time point 1        100.00 %
 
 Computed χ(iτ,k=0) for time point            1 / 30,    Execution time    0.0 s
 Computed χ(iτ,k=0) for time point            2 / 30,    Execution time    0.0 s
 Computed χ(iτ,k=0) for time point            3 / 30,    Execution time    0.0 s
 Computed χ(iτ,k=0) for time point            4 / 30,    Execution time    0.0 s
 Computed χ(iτ,k=0) for time point            5 / 30,    Execution time    0.0 s
 Computed χ(iτ,k=0) for time point            6 / 30,    Execution time    0.0 s
 Computed χ(iτ,k=0) for time point            7 / 30,    Execution time    0.0 s
 Computed χ(iτ,k=0) for time point            8 / 30,    Execution time    0.0 s
 Computed χ(iτ,k=0) for time point            9 / 30,    Execution time    0.0 s
 Computed χ(iτ,k=0) for time point           10 / 30,    Execution time    0.0 s
 Computed χ(iτ,k=0) for time point           11 / 30,    Execution time    0.0 s
 Computed χ(iτ,k=0) for time point           12 / 30,    Execution time    0.0 s
 Computed χ(iτ,k=0) for time point           13 / 30,    Execution time    0.0 s
 Computed χ(iτ,k=0) for time point           14 / 30,    Execution time    0.0 s
 Computed χ(iτ,k=0) for time point           15 / 30,    Execution time    0.0 s
 Computed χ(iτ,k=0) for time point           16 / 30,    Execution time    0.0 s
 Computed χ(iτ,k=0) for time point           17 / 30,    Execution time    0.0 s
 Computed χ(iτ,k=0) for time point           18 / 30,    Execution time    0.0 s
 Computed χ(iτ,k=0) for time point           19 / 30,    Execution time    0.0 s
 Computed χ(iτ,k=0) for time point           20 / 30,    Execution time    0.0 s
 Computed χ(iτ,k=0) for time point           21 / 30,    Execution time    0.0 s
 Computed χ(iτ,k=0) for time point           22 / 30,    Execution time    0.0 s
 Computed χ(iτ,k=0) for time point           23 / 30,    Execution time    0.0 s
 Computed χ(iτ,k=0) for time point           24 / 30,    Execution time    0.0 s
 Computed χ(iτ,k=0) for time point           25 / 30,    Execution time    0.0 s
 Computed χ(iτ,k=0) for time point           26 / 30,    Execution time    0.0 s
 Computed χ(iτ,k=0) for time point           27 / 30,    Execution time    0.0 s
 Computed χ(iτ,k=0) for time point           28 / 30,    Execution time    0.0 s
 Computed χ(iτ,k=0) for time point           29 / 30,    Execution time    0.0 s
 Computed χ(iτ,k=0) for time point           30 / 30,    Execution time    0.0 s
 
 Computed W(iτ),                                         Execution time    0.0 s
 
 Computed Σ^x(k=0),                                      Execution time    0.0 s
 
 Computed Σ^c(iτ) for time point              1 / 30,    Execution time    0.0 s
 Computed Σ^c(iτ) for time point              2 / 30,    Execution time    0.0 s
 Computed Σ^c(iτ) for time point              3 / 30,    Execution time    0.0 s
 Computed Σ^c(iτ) for time point              4 / 30,    Execution time    0.0 s
 Computed Σ^c(iτ) for time point              5 / 30,    Execution time    0.0 s
 Computed Σ^c(iτ) for time point              6 / 30,    Execution time    0.0 s
 Computed Σ^c(iτ) for time point              7 / 30,    Execution time    0.0 s
 Computed Σ^c(iτ) for time point              8 / 30,    Execution time    0.0 s
 Computed Σ^c(iτ) for time point              9 / 30,    Execution time    0.0 s
 Computed Σ^c(iτ) for time point             10 / 30,    Execution time    0.0 s
 Computed Σ^c(iτ) for time point             11 / 30,    Execution time    0.0 s
 Computed Σ^c(iτ) for time point             12 / 30,    Execution time    0.0 s
 Computed Σ^c(iτ) for time point             13 / 30,    Execution time    0.0 s
 Computed Σ^c(iτ) for time point             14 / 30,    Execution time    0.0 s
 Computed Σ^c(iτ) for time point             15 / 30,    Execution time    0.0 s
 Computed Σ^c(iτ) for time point             16 / 30,    Execution time    0.0 s
 Computed Σ^c(iτ) for time point             17 / 30,    Execution time    0.0 s
 Computed Σ^c(iτ) for time point             18 / 30,    Execution time    0.0 s
 Computed Σ^c(iτ) for time point             19 / 30,    Execution time    0.0 s
 Computed Σ^c(iτ) for time point             20 / 30,    Execution time    0.0 s
 Computed Σ^c(iτ) for time point             21 / 30,    Execution time    0.0 s
 Computed Σ^c(iτ) for time point             22 / 30,    Execution time    0.0 s
 Computed Σ^c(iτ) for time point             23 / 30,    Execution time    0.0 s
 Computed Σ^c(iτ) for time point             24 / 30,    Execution time    0.0 s
 Computed Σ^c(iτ) for time point             25 / 30,    Execution time    0.0 s
 Computed Σ^c(iτ) for time point             26 / 30,    Execution time    0.0 s
 Computed Σ^c(iτ) for time point             27 / 30,    Execution time    0.0 s
 Computed Σ^c(iτ) for time point             28 / 30,    Execution time    0.0 s
 Computed Σ^c(iτ) for time point             29 / 30,    Execution time    0.0 s
 Computed Σ^c(iτ) for time point             30 / 30,    Execution time    0.0 s
 
 SCF valence band maximum (eV):                                          -15.765
 SCF conduction band minimum (eV):                                         4.058
 SCF indirect band gap (eV):                                              19.824
 SCF direct band gap (eV):                                                19.824
 
 G0W0 valence band maximum (eV):                                         -22.548
 G0W0 conduction band minimum (eV):                                        6.496
 G0W0 indirect band gap (eV):                                             29.044
 G0W0 direct band gap (eV):                                               29.044
 
 Hartree-Fock with SCF orbitals valence band maximum (eV):               -25.128
 Hartree-Fock with SCF orbitals conduction band minimum (eV)               6.524
 Hartree-Fock with SCF orbitals indirect band gap (eV):                   31.652
 Hartree-Fock with SCF orbitals direct band gap (eV):                     31.652

 ENERGY| Total FORCE_EVAL ( QS ) energy [hartree]             -2.889720958953930

 -------------------------------------------------------------------------------
 -                                                                             -
 -                                DBCSR STATISTICS                             -
 -                                                                             -
 -------------------------------------------------------------------------------
 COUNTER                                    TOTAL       BLAS       SMM       ACC
 flops     5 x     1 x     1                  540     100.0%      0.0%      0.0%     
 flops     5 x     5 x     1                  600     100.0%      0.0%      0.0%     
 flops     5 x     1 x     5                 2000     100.0%      0.0%      0.0%     
 flops     6 x     6 x    13                 7488     100.0%      0.0%      0.0%     
 flops    13 x     6 x     6                 7488     100.0%      0.0%      0.0%     
 flops     5 x     5 x    13                 8450     100.0%      0.0%      0.0%     
 flops    13 x    13 x     6                16224     100.0%      0.0%      0.0%     
 flops    13 x     6 x    13                18252     100.0%      0.0%      0.0%     
 flops     6 x     6 x    32                18432     100.0%      0.0%      0.0%     
 flops    32 x     6 x     6                18432     100.0%      0.0%      0.0%     
 flops     5 x     5 x    32                20800     100.0%      0.0%      0.0%     
 flops    13 x     5 x    13                23660     100.0%      0.0%      0.0%     
 flops    13 x     5 x     5                26650     100.0%      0.0%      0.0%     
 flops    32 x    13 x     6                39936     100.0%      0.0%      0.0%     
 flops    13 x    32 x     6                39936     100.0%      0.0%      0.0%     
 flops    32 x     6 x    13                44928     100.0%      0.0%      0.0%     
 flops    13 x     6 x    32                44928     100.0%      0.0%      0.0%     
 flops    32 x     5 x    13                58240     100.0%      0.0%      0.0%     
 flops    13 x     5 x    32                58240     100.0%      0.0%      0.0%     
 flops    32 x     5 x     5                65600     100.0%      0.0%      0.0%     
 flops    13 x    13 x     5                69290     100.0%      0.0%      0.0%     
 flops    32 x    32 x     6                98304     100.0%      0.0%      0.0%     
 flops    32 x     6 x    32               110592     100.0%      0.0%      0.0%     
 flops    32 x     5 x    32               143360     100.0%      0.0%      0.0%     
 flops    32 x    13 x     5               170560     100.0%      0.0%      0.0%     
 flops    13 x    32 x     5               170560     100.0%      0.0%      0.0%     
 flops    32 x    32 x     5               419840     100.0%      0.0%      0.0%     
 flops inhomo. stacks                         646     100.0%      0.0%      0.0%
 flops total                         1.703976E+06     100.0%      0.0%      0.0%
 flops max/rank                      1.703976E+06     100.0%      0.0%      0.0%
 matmuls inhomo. stacks                       151     100.0%      0.0%      0.0%
 matmuls total                                685     100.0%      0.0%      0.0%
 number of processed stacks                   685     100.0%      0.0%      0.0%
 average stack size                                     1.0       0.0       0.0
 marketing flops                     5.778736E+06
 -------------------------------------------------------------------------------
 # multiplications                            744
 max memory usage/rank              41.223000E+09
 # max total images/rank                        1
 # max 3D layers                                1
 # MPI messages exchanged                       0
 -------------------------------------------------------------------------------
 -                                                                             -
 -                      DBCSR MESSAGE PASSING PERFORMANCE                      -
 -                                                                             -
 -------------------------------------------------------------------------------
 ROUTINE             CALLS      AVE VOLUME [Bytes]
 MP_Bcast               28                     12.
 MP_Allreduce         3301                      8.
 MP_Alltoall          4041                     73.
 MP_ISend             2298                     31.
 MP_IRecv             2298                     31.
 -------------------------------------------------------------------------------

 -------------------------------------------------------------------------------
 -                                                                             -
 -                                GRID STATISTICS                              -
 -                                                                             -
 -------------------------------------------------------------------------------
 LP    KERNEL             BACKEND                              COUNT     PERCENT
 2     collocate ortho    CPU                                    432      49.94%
 2     integrate ortho    CPU                                    432      49.94%
 0     collocate general  CPU                                      1       0.12%
 -------------------------------------------------------------------------------

 -------------------------------------------------------------------------------
 -                                                                             -
 -                          OFFLOAD MEMPOOL STATISTICS                         -
 -                                                                             -
 -------------------------------------------------------------------------------
 Memory consumption                Number of allocations  Used [MiB]  Size [MiB]
 Host                                                  6         260    21566042
 -------------------------------------------------------------------------------

 MEMORY| Estimated peak process memory [MiB]                               11868

 -------------------------------------------------------------------------------
 -                                                                             -
 -                         MESSAGE PASSING PERFORMANCE                         -
 -                                                                             -
 -------------------------------------------------------------------------------

 ROUTINE             CALLS      AVE VOLUME [Bytes]
 MP_Group                5
 MP_Bcast               55                  15359.
 MP_Allreduce          478                    326.
 MP_Sync                10
 MP_comm_split           7
 -------------------------------------------------------------------------------


 -------------------------------------------------------------------------------
 -                                                                             -
 -                           R E F E R E N C E S                               -
 -                                                                             -
 -------------------------------------------------------------------------------
 
 CP2K version 2026.2 (Development Version), the CP2K developers group (2026).
 CP2K is freely available from https://www.cp2k.org/ .
 
 M. Iannuzzi, J. Wilhelm, F. Stein, A. Bussy, H. Elgabarty, D. Golze, A. Hehn, 
 M. Graml, S. Marek, B. Sertcan Gökmen, C. Schran, H. Forbert, R. Z. 
 Khaliullin, A. Kozhevnikov, M. Taillefumier, R. Meli, V. V. Rybkin, M. Brehm, 
 R. Schade, O. Schütt, J. V. Pototschnig, H. Mirhosseini, A. Knüpfer, D. Marx, 
 M. Krack, J. Hutter, T. D. Kühne.
 J. Phys. Chem. B 130, 1237-1310 (2026).
 The CP2K Program Package Made Simple.
 https://doi.org/10.1021/acs.jpcb.5c05851

 M. Graml, K. Zollner, D. Hernangómez-Pérez, P. E. Faria Junior, J. Wilhelm.
 J. Chem. Theory Comput. 20, 2202-2208 (2024).
 Low-scaling GW algorithm applied to twisted transition-metal dichalcogenide 
 heterobilayers.
 https://doi.org/10.1021/acs.jctc.3c01230

 T. D. Kühne, M. Iannuzzi, M. Del Ben, V. V. Rybkin, P. Seewald, F. Stein, T. 
 Laino, R. Z. Khaliullin, O. Schütt, F. Schiffmann, D. Golze, J. Wilhelm, S. 
 Chulkov, M. H. Bani-Hashemian, V. Weber, U. Borstnik, M. Taillefumier, A. S. 
 Jakobovits, A. Lazzaro, H. Pabst, T. Müller, R. Schade, M. Guidon, S. 
 Andermatt, N. Holmberg, G. K. Schenter, A. Hehn, A. Bussy, F. Belleflamme, G. 
 Tabacchi, A. Glöß, M. Lass, I. Bethune, C. J. Mundy, C. Plessl, M. Watkins, 
 J. VandeVondele, M. Krack, J. Hutter.
 J. Chem. Phys. 152, 194103 (2020).
 CP2K: An electronic structure and molecular dynamics software package - 
 Quickstep: Efficient and accurate electronic structure calculations.
 https://doi.org/10.1063/5.0007045

 O. Schuett, P. Messmer, J. Hutter, J. VandeVondele.
 Electronic Structure Calculations on Graphics Processing Units, 173-190 (2016).
 GPU-Accelerated Sparse Matrix-Matrix Multiplication for Linear Scaling Density 
 Functional Theory.
 https://doi.org/10.1002/9781118670712.ch8

 U. Borstnik, J. VandeVondele, V. Weber, J. Hutter.
 Parallel Comput. 40, 47-58 (2014).
 Sparse matrix multiplication: The distributed block-compressed sparse row 
 library.
 https://doi.org/10.1016/j.parco.2014.03.012

 J. VandeVondele, J. Hutter.
 J. Chem. Phys. 127, 114105 (2007).
 Gaussian basis sets for accurate calculations on molecular systems in gas and 
 condensed phases.
 https://doi.org/10.1063/1.2770708

 J. VandeVondele, M. Krack, F. Mohamed, M. Parrinello, T. Chassaing, J. Hutter.
 Comput. Phys. Commun. 167, 103-128 (2005).
 QUICKSTEP: Fast and accurate density functional calculations using a mixed 
 Gaussian and plane waves approach.
 https://doi.org/10.1016/j.cpc.2004.12.014

 M. Krack.
 Theor. Chem. Acc. 114, 145-152 (2005).
 Pseudopotentials for H to Kr optimized for gradient-corrected 
 exchange-correlation functionals.
 https://doi.org/10.1007/s00214-005-0655-y

 M. Frigo, S. G. Johnson.
 Proc. IEEE 93, 216-231 (2005).
 The design and implementation of FFTW3.
 https://doi.org/10.1109/JPROC.2004.840301

 J. VandeVondele, J. Hutter.
 J. Chem. Phys. 118, 4365-4369 (2003).
 An efficient orbital transformation method for electronic structure 
 calculations.
 https://doi.org/10.1063/1.1543154

 C. Hartwigsen, S. Goedecker, J. Hutter.
 Phys. Rev. B 58, 3641-3662 (1998).
 Relativistic separable dual-space Gaussian pseudopotentials from H to Rn.
 https://doi.org/10.1103/PhysRevB.58.3641

 G. Lippert, J. Hutter, M. Parrinello.
 Mol. Phys. 92, 477-487 (1997).
 A hybrid Gaussian and plane wave density functional scheme.
 https://doi.org/10.1080/002689797170220

 S. Goedecker, M. Teter, J. Hutter.
 Phys. Rev. B 54, 1703-1710 (1996).
 Separable dual-space Gaussian pseudopotentials.
 https://doi.org/10.1103/PhysRevB.54.1703

 J. P. Perdew, K. Burke, M. Ernzerhof.
 Phys. Rev. Lett. 77, 3865-3868 (1996).
 Generalized gradient approximation made simple.
 https://doi.org/10.1103/PhysRevLett.77.3865

 P. E. Blöchl.
 J. Chem. Phys. 103, 7422-7428 (1995).
 Electrostatic decoupling of periodic images of plane‐wave‐expanded 
 densities and derived atomic point charges.
 https://doi.org/10.1063/1.470314

 R. H. Byrd, P. H. Lu, J. Nocedal, C. Y. Zhu.
 SIAM J. Sci. Comput. 16, 1190-1208 (1995).
 A Limited Memory Algorithm for Bound Constrained Optimization.
 https://doi.org/10.1137/0916069


 -------------------------------------------------------------------------------
 -                                                                             -
 -                                T I M I N G                                  -
 -                                                                             -
 -------------------------------------------------------------------------------
 SUBROUTINE                       CALLS  ASD         SELF TIME        TOTAL TIME MAXRANK
                                MAXIMUM       AVERAGE  MAXIMUM  AVERAGE  MAXIMUM
 CP2K                                 1  1.0    0.055    0.055   86.500   86.500       0
 qs_energies                          1  2.0    0.010    0.010   79.736   79.736       0
 scf_env_do_scf                       1  3.0    0.006    0.006   74.498   74.498       0
 scf_env_do_scf_inner_loop           11  4.0    0.005    0.005   68.997   68.997       0
 qs_ks_build_kohn_sham_matrix        12  7.1    0.032    0.032   59.729   59.729       0
 qs_ks_update_qs_env                 12  5.0    0.000    0.000   58.085   58.085       0
 rebuild_ks_matrix                   11  6.0    0.000    0.000   58.084   58.084       0
 fft_wrap_pw1pw2                    198 10.3    0.005    0.005   47.986   47.986       0
 fft_wrap_pw1pw2_300                126 11.7    2.321    2.321   46.228   46.228       0
 qs_vxc_create                       12  8.1    0.003    0.003   39.648   39.648       0
 xc_vxc_pw_create                    11  9.0    1.650    1.650   39.645   39.645       0
 xc_pw_derive                        66 11.0    0.001    0.001   29.289   29.289       0
 fft3d_s                            199 12.3   28.369   28.369   28.386   28.386       0
 xc_pw_divergence                    11 10.0    0.000    0.000   19.847   19.847       0
 qs_rho_update_rho_low               12  5.0    0.000    0.000   17.716   17.716       0
 calculate_rho_elec                  12  6.0    1.205    1.205   17.715   17.715       0
 xc_rho_set_and_dset_create          11 10.0    0.896    0.896   17.608   17.608       0
 density_rs2pw                       12  7.0    0.001    0.001   10.799   10.799       0
 pw_scatter_s                       104 12.8    8.995    8.995    8.995    8.995       0
 qs_ks_ddapc                         12  8.1    0.001    0.001    6.595    6.595       0
 qs_init_subsys                       1  2.0    0.028    0.028    6.531    6.531       0
 qs_env_setup                         1  3.0    0.001    0.001    6.487    6.487       0
 qs_env_rebuild_pw_env                2  3.5    0.003    0.003    6.485    6.485       0
 pw_env_rebuild                       1  5.0    0.005    0.005    6.482    6.482       0
 pw_grid_setup                        5  5.2    0.001    0.001    6.479    6.479       0
 pw_grid_setup_internal               5  6.2    0.082    0.082    6.478    6.478       0
 pw_poisson_solve                    12  8.1    0.000    0.000    6.375    6.375       0
 sum_up_and_integrate                12  8.1    0.001    0.001    6.281    6.281       0
 pw_grid_sort                         5  7.2    4.731    4.731    6.098    6.098       0
 pw_derive                          102 11.3    6.056    6.056    6.056    6.056       0
 integrate_v_rspace                  12  9.1    0.008    0.008    5.991    5.991       0
 potential_pw2rs                     12 10.1    0.042    0.042    5.963    5.963       0
 grid_collocate_task_list            12  7.0    5.712    5.712    5.712    5.712       0
 init_scf_loop                        1  4.0    0.029    0.029    5.495    5.495       0
 pw_gather_s                         94 11.8    4.853    4.853    4.853    4.853       0
 pw_copy                            188 10.6    4.630    4.630    4.630    4.630       0
 pw_integral_ab_c1d_c1d_gs           24  9.6    3.528    3.528    3.528    3.528       0
 pw_poisson_set                      13  8.8    0.000    0.000    3.364    3.364       0
 qs_energies_properties               1  3.0    0.001    0.001    2.742    2.742       0
 post_scf_bandstructure               1  4.0    0.001    0.001    2.741    2.741       0
 gw                                   1  5.0    0.001    0.001    2.725    2.725       0
 pw_axpy                            125  8.8    2.504    2.504    2.504    2.504       0
 cp_ddapc_apply_CD                   12  9.1    0.003    0.003    2.188    2.188       0
 create_and_init_bs_env_for_gw        1  6.0    0.019    0.019    2.186    2.186       0
 init_scf_run                         1  3.0    0.007    0.007    1.729    1.729       0
 scf_env_initial_rho_setup            1  4.0    0.002    0.002    1.722    1.722       0
 pw_copy_to_array                    94 11.8    1.692    1.692    1.692    1.692       0
 compute_V_xc                         1  7.0    0.000    0.000    1.646    1.646       0
 pw_copy_from_array                 104 12.8    1.611    1.611    1.611    1.611       0
 fft_wrap_pw1pw2_100                 24 10.5    0.110    0.110    1.598    1.598       0
 sort_shells                          5  8.2    1.367    1.367    1.367    1.367       0
 xc_functional_eval                  11 11.0    0.000    0.000    1.235    1.235       0
 pbe_lda_eval                        11 12.0    1.235    1.235    1.235    1.235       0
 pw_zero                             75  8.5    0.874    0.874    0.874    0.874       0
 qs_energies_init_hamiltonians        1  3.0    0.003    0.003    0.747    0.747       0
 qs_env_update_s_mstruct              1  4.0    0.001    0.001    0.670    0.670       0
 calculate_rho_core                   1  5.0    0.109    0.109    0.548    0.548       0
 gw_calc_non_periodic_ri_rs           1  6.0    0.001    0.001    0.538    0.538       0
 pw_scale                            45  9.8    0.481    0.481    0.481    0.481       0
 get_ddapc                           12 10.1    0.000    0.000    0.414    0.414       0
 pw_multiply_with                    12  9.1    0.395    0.395    0.395    0.395       0
 compute_Sigma_c_and_QP_energie       1  7.0    0.000    0.000    0.373    0.373       0
 pw_grid_assign                       5  7.2    0.297    0.297    0.297    0.297       0
 transfer_rs2pw                      49  8.0    0.001    0.001    0.296    0.296       0
 transfer_pw2rs                      48 11.1    0.001    0.001    0.257    0.257       0
 generate_auto_ri_basis               1  7.0    0.000    0.000    0.250    0.250       0
 transfer_rs2pw_300                  13  8.8    0.239    0.239    0.239    0.239       0
 compute_AA_optimized_RI_basis        1  8.0    0.003    0.003    0.238    0.238       0
 initialize_auto_ri_integrals         2  9.0    0.221    0.221    0.221    0.221       0
 delete_unnecessary_files             1  8.0    0.000    0.000    0.209    0.209       0
 safe_delete                         60  9.0    0.209    0.209    0.209    0.209       0
 transfer_pw2rs_300                  12 12.1    0.204    0.204    0.204    0.204       0
 check_for_restart_files              1  7.0    0.193    0.193    0.193    0.193       0
 xc_pw_smooth                        11 10.0    0.000    0.000    0.176    0.176       0
 compute_Sigma_c                      1  8.0    0.004    0.004    0.136    0.136       0
 qs_scf_new_mos                      11  5.0    0.000    0.000    0.127    0.127       0
 qs_scf_loop_do_ot                   11  6.0    0.000    0.000    0.127    0.127       0
 fft_wrap_pw1pw2_40                  24 10.5    0.010    0.010    0.125    0.125       0
 ot_scf_mini                         11  7.0    0.004    0.004    0.122    0.122       0
 external_control                    11  5.0    0.109    0.109    0.109    0.109       0
 contract_grid_panels_sigma_c        30  9.0    0.099    0.099    0.109    0.109       0
 cp_ddapc_init                        1  5.0    0.000    0.000    0.108    0.108       0
 cp_ddapc_create                      1  6.0    0.000    0.000    0.107    0.107       0
 ddapc_eval_gfunc                     1  7.0    0.100    0.100    0.100    0.100       0
 ot_mini                             11  8.0    0.000    0.000    0.089    0.089       0
 -------------------------------------------------------------------------------

 The number of warnings for this run is : 0
 
 -------------------------------------------------------------------------------
  **** **** ******  **  PROGRAM ENDED AT                 2026-09-18 00:30:36.372
 ***** ** ***  *** **   PROGRAM RAN ON                                  n2cn0276
 **    ****   ******    PROGRAM RAN BY                                  eprop2d1
 ***** **    ** ** **   PROGRAM PROCESS ID                                435598
  **** **  *******  **  PROGRAM STOPPED IN /scratch/hpc-prf-metdyn/eprop2d1_Jan/
                                           53_benchmark_RI_opt/122_GW100_GTH_Leb
                                           edev_RIAO2345_rc05_metdyn/calculation
                                           s/01_He_riao5_r09
