 DBCSR| CPU Multiplication driver                                           XSMM (U)
 DBCSR| Multrec recursion limit                                              512 (U)
 DBCSR| Multiplication stack size                                           1000 (D)
 DBCSR| Maximum elements for images                                    UNLIMITED (U)
 DBCSR| Multiplicative factor virtual images                                   1 (U)
 DBCSR| Use multiplication densification                                       T (D)
 DBCSR| Multiplication size stacks                                             3 (U)
 DBCSR| Use memory pool for CPU allocation                                     F (U)
 DBCSR| Number of 3D layers                                               SINGLE (U)
 DBCSR| Use MPI memory allocation                                              F (U)
 DBCSR| Use RMA algorithm                                                      F (U)
 DBCSR| Use Communication thread                                               T (U)
 DBCSR| Communication thread load                                             57 (D)
 DBCSR| MPI: My process id                                                     0
 DBCSR| MPI: Number of processes                                              13
 DBCSR| OMP: Current number of threads                                         9
 DBCSR| OMP: Max number of threads                                             9
 DBCSR| Split modifier for TAS multiplication algorithm                  1.0E+00 (U)


  **** **** ******  **  PROGRAM STARTED AT               2026-10-03 12:05:07.079
 ***** ** ***  *** **   PROGRAM STARTED ON                              n2cn0251
 **    ****   ******    PROGRAM STARTED BY                              eprop2d1
 ***** **    ** ** **   PROGRAM PROCESS ID                               1397108
  **** **  *******  **  PROGRAM STARTED IN /scratch/hpc-prf-metdyn/eprop2d1_Jan/
                                           53_benchmark_RI_opt/418_gw100_fig5_fu
                                           ll_epsfilter_1e12_20261002/calculatio
                                           ns/rc0p5/ri2_rs05/25_C2H2

 CP2K| version string:                 CP2K version 2026.2 (Development Version)
 CP2K| source code revision number:                                   0671c5aa6c
 CP2K| cp2kflags: omp libint fftw3 libxc parallel scalapack openblas            
 CP2K| is freely available from                            https://www.cp2k.org/
 CP2K| Program compiled at                                   2026-09-20 09:25:26
 CP2K| Program compiled on                                              n2login5
 CP2K| Program compiled for                                               x86_64
 CP2K| Data directory path    /scratch/hpc-prf-metdyn/eprop2d1_Jan/53_benchmark_
 CP2K| Input file name                                                 input.inp
 
 eprop2d1@n2cn0251 has created rank and process                      0   1397108
 eprop2d1@n2cn0251 has created rank and process                      1   1397109
 eprop2d1@n2cn0251 has created rank and process                      2   1397110
 eprop2d1@n2cn0251 has created rank and process                      3   1397111
 
 eprop2d1@n2cn0251 is running                                        4 processes

 GLOBAL| Force Environment number                                              1
 GLOBAL| Basis set file name            /scratch/hpc-prf-metdyn/eprop2d1_Jan/53_
 GLOBAL| Potential file name            /scratch/hpc-prf-metdyn/eprop2d1_Jan/53_
 GLOBAL| MM Potential file name                                     MM_POTENTIAL
 GLOBAL| Coordinate file name                                      __STD_INPUT__
 GLOBAL| Method name                                                        CP2K
 GLOBAL| Project name                                             g418_a205_m025
 GLOBAL| Run type                                                         ENERGY
 GLOBAL| FFT library                                                       FFTW3
 GLOBAL| Diagonalization library                                       ScaLAPACK
 GLOBAL| Cholesky decomposition library                                ScaLAPACK
 GLOBAL| DGEMM library                                                      BLAS
 GLOBAL| Direct generalized diagonalization requested                          F
 GLOBAL| Orthonormality check for eigenvectors                          DISABLED
 GLOBAL| Matrix multiplication library                                 ScaLAPACK
 GLOBAL| All-to-all communication in single precision                          F
 GLOBAL| Grid backend                                                       AUTO
 GLOBAL| Global print level                                                  LOW
 GLOBAL| MPI I/O enabled                                                       T
 GLOBAL| Total number of message passing processes                             4
 GLOBAL| Number of distributed systems (nodes)                                 1
 GLOBAL| Number of threads for this process                                    9
 GLOBAL| This output is from process                                           0
 GLOBAL| OpenMP stack size per thread (OMP_STACKSIZE)                       512M
 GLOBAL| CPU model name                          AMD EPYC 7763 64-Core Processor

 MEMORY| system memory details [Kb]
 MEMORY|                        rank 0           min           max       average
 MEMORY| MemTotal            263897544     263897544     263897544     263897544
 MEMORY| MemFree             239507436     239507436     239507436     239507436
 MEMORY| Buffers                278480        278480        278480        278480
 MEMORY| Cached                7332016       7332016       7332016       7332016
 MEMORY| Slab                  1669996       1669996       1669996       1669996
 MEMORY| SReclaimable           300252        300252        300252        300252
 MEMORY| MemLikelyFree       247418184     247418184     247418184     247418184


 GENERATE|  Preliminary Number of Bonds generated:                             0
 GENERATE|  Achieved consistency in connectivity generation.

 *******************************************************************************
 *******************************************************************************
 **                                                                           **
 **     #####                         ##              ##                      **
 **    ##   ##            ##          ##              ##                      **
 **   ##     ##                       ##            ######                    **
 **   ##     ##  ##   ##  ##   #####  ##  ##   ####   ##    #####    #####    **
 **   ##     ##  ##   ##  ##  ##      ## ##   ##      ##   ##   ##  ##   ##   **
 **   ##  ## ##  ##   ##  ##  ##      ####     ###    ##   ######   ######    **
 **    ##  ###   ##   ##  ##  ##      ## ##      ##   ##   ##       ##        **
 **     #######   #####   ##   #####  ##  ##  ####    ##    #####   ##        **
 **           ##                                                    ##        **
 **                                                                           **
 **                                                ... make the atoms dance   **
 **                                                                           **
 **            Copyright (C) by CP2K developers group (2000-2026)             **
 **                      J. Chem. Phys. 152, 194103 (2020)                    **
 **                                                                           **
 *******************************************************************************


 TOTAL NUMBERS AND MAXIMUM NUMBERS

  Total number of            - Atomic kinds:                                   2
                             - Atoms:                                          4
                             - Shell sets:                                     4
                             - Shells:                                        28
                             - Primitive Cartesian functions:                 26
                             - Cartesian basis functions:                     86
                             - Spherical basis functions:                     76

  Maximum angular momentum of- Orbital basis functions:                        3
                             - Local part of the GTH pseudopotential:          2
                             - Non-local part of the GTH pseudopotential:      0


 SCF PARAMETERS         Density guess:                                   RESTART
                        --------------------------------------------------------
                        max_scf:                                             500
                        max_scf_history:                                       0
                        max_diis:                                              4
                        --------------------------------------------------------
                        eps_scf:                                        1.00E-08
                        eps_scf_history:                                0.00E+00
                        eps_diis:                                       0.00E+00
                        eps_eigval:                                     1.00E-05
                        --------------------------------------------------------
                        level_shift [a.u.]:                             0.000000
                        --------------------------------------------------------
                        Outer loop SCF in use 
                        No variables optimised in outer loop
                        eps_scf                                         1.00E-08
                        max_scf                                               20
                        No outer loop optimization
                        step_size                                       5.00E-01

 Extrapolation method: initial_guess

 Number of electrons:                                                         10
 Number of occupied orbitals:                                                  5
 Number of molecular orbitals:                                                 5

 Number of orbital functions:                                                 76
 Number of independent orbital functions:                                     76


 SCF WAVEFUNCTION OPTIMIZATION

  ----------------------------------- OT ---------------------------------------
  Minimizer      : DIIS                : direct inversion
                                         in the iterative subspace
                                         using   7 DIIS vectors
                                         safer DIIS on
  Preconditioner : FULL_KINETIC        : inversion of T + eS
  Lattice FFT   : OFF
  Precond_solver : DEFAULT
  stepsize       :    0.15000000                  energy_gap     :    0.20000000
  eps_taylor     :   0.10000E-15                  max_taylor     :             4
  ----------------------------------- OT ---------------------------------------

  Step     Update method      Time    Convergence         Total energy    Change
  ------------------------------------------------------------------------------
  Decoupling Energy:                                              -0.0000009224
     1 OT DIIS     0.15E+00    2.8     8.8543E-09       -12.4758105675 -1.25E+01

  *** SCF run converged in     1 steps ***


  Electronic density on regular grids:        -10.0000000000        0.0000000000
  Core density on regular grids:               10.0000000000       -0.0000000000
  Total charge density on r-space grids:       -0.0000000000
  Total charge density g-space grids:          -0.0000000000

  Overlap energy of the core charge distribution:               0.00001575986965
  Self energy of the core charge distribution:                -29.49096377126920
  Core Hamiltonian energy:                                      9.16778103416038
  Hartree energy:                                              11.92829414388039
  Exchange-correlation energy:                                 -4.08093773415191

  Total energy:                                               -12.47581056751070

  outer SCF iter =    1 RMS gradient =   0.89E-08 energy =        -12.4758105675
  outer SCF loop converged in   1 iterations or    1 steps

  
 -------------------------------------------------------------------------------
 -                                                                             -
 -                          BANDSTRUCTURE CALCULATION                          -
 -                                                                             -
 -------------------------------------------------------------------------------
  
 Number of occupied molecular orbitals (MOs) = Number of occupied bands        5
 Number of unoccupied (= virtual) MOs = Number of unoccupied bands            71
 Number of Gaussian basis functions for MOs                                   76
  
 -------------------------------------------------------------------------------
 -                                                                             -
 -                                GW CALCULATION                               -
 -                                                                             -
 -------------------------------------------------------------------------------
  
 Input: Number of time/freq. points                                           30
 Input: ω_max for fitting Σ(iω) (eV)                                        10.0
 Input: Filter threshold for sparse tensor operations                    1.0E-12
 Input: Apply Hedin shift                                                      F
 Detected: Available memory per MPI process                              49.9 GB
 
 Input: RI-RS Tikhonov regularization                                   1.00E-04
 Input: AO grid hard cutoff radius                                        8.00 Å
 Input: MPI ranks per atom in Z_lP solve                                      -1
 Input: Keep sparsity in χ/G/W panels                                          T
 Input: GW flavour                                                          G0W0
 
 Input: RI-RS grid optimization activated                                      T
 Input: RS points per AO function                                            5.0
 Input: Cutoff radius for atomic clusters                                  0.5 Å
 Input: Maximum grid optimization iterations                                 300
 
 Input: AUTO_RI basis optimization activated:                                  T
 Input: AUTO_RI number of RI functions per AO function:                      2.0
 Input: AUTO_RI frontier orbital window:                                  5.0 eV
 Input: AUTO_RI neighbor radius:                                           3.0 Å
 
 Cutoff radius for the truncated Coulomb operator in RI metric:            7.0 Å
 Regularization parameter of RI                                          0.0E+00
 Regularization parameter of minimax grids                               1.0E-06
 
 AUTO_RI| Number of automatic RI functions for χ, ε, W:                      152
 AUTO_RI| Total RI basis optimization time:                                0.9 s
  Decoupling Energy:                                              -0.0000009224
 
 SCF direct band gap (eV)                                                   6.77
 Max. SCF eigval diff. (eV)                                               261.31
 E-Range for minimax grid                                                  38.58
 Number of Padé parameters for analytic continuation:                         16
 
 RI-RS basis radii (Å):
     Kind  Elem     r_AO (Å)     r_RI (Å)
        1    C        15.9835       10.1279
        2    H        13.9082        8.7963
 
 Started RI-RS grid optimization
 RI-RS grid initial normalized error                          7.885015326731E-02
 RI-RS grid optimization completed, execution time:                        0.7 s
 Normalized 3C error:                                                    4.9E-05
 Maximum absolute 3C error:                                              1.0E-01
 Optimized points outside molecular Voronoi cells:                           154 / 380
 Total grid points used for RI-RS:                                           380
 
 RI-RS grid row-blocks of ϕ_μ(r_l)                                            14
 RI-RS grid points per block (max)                                            32
 
 Percentage of non-zero matrix elements in ϕ_μ(r_l)                     100.00 %
 
 RI-RS memory estimate per MPI process:
   Available memory per process (system)                                57.25 GB
   Required for Z_lP (dense upper bound; actual is sparser)              0.00 GB
   Required for χ, W, Σ panels (peak per panel step)                     0.00 GB
   Required for Z_lP solve peak (D_local+ϕ, worst-case atom)             0.00 GB
   Worst-case local-grid number of grid points:                              380
   Worst-case memory D_local:                                            0.00 GB
 
 Started computing Z_lP
 Computed Z_lP (MPI rank 0) for atom          1 /  1,    Execution time    0.1 s
 Computed Z_lP (all MPI ranks) for all atoms,            Execution time    0.1 s

 Memory per MPI process after computing Z_lP:
 Available memory per MPI process                               57.3 GB
 Used memory per MPI process                                     1.4 GB
 Number of batches for χ, Σ matrices                                           1
 
 Percentage of non-zero matrix elements in Z_lP                         100.00 %
 Percentage of non-zero matrix elements in G_ll', χ_ll', W_ll'          100.00 %
 Percentage of non-zero matrix elements in χ_PQ for time point 1        100.00 %
 
 Computed χ(iτ,k=0) for time point            1 / 30,    Execution time    0.0 s
 Computed χ(iτ,k=0) for time point            2 / 30,    Execution time    0.0 s
 Computed χ(iτ,k=0) for time point            3 / 30,    Execution time    0.0 s
 Computed χ(iτ,k=0) for time point            4 / 30,    Execution time    0.0 s
 Computed χ(iτ,k=0) for time point            5 / 30,    Execution time    0.0 s
 Computed χ(iτ,k=0) for time point            6 / 30,    Execution time    0.0 s
 Computed χ(iτ,k=0) for time point            7 / 30,    Execution time    0.0 s
 Computed χ(iτ,k=0) for time point            8 / 30,    Execution time    0.0 s
 Computed χ(iτ,k=0) for time point            9 / 30,    Execution time    0.0 s
 Computed χ(iτ,k=0) for time point           10 / 30,    Execution time    0.0 s
 Computed χ(iτ,k=0) for time point           11 / 30,    Execution time    0.0 s
 Computed χ(iτ,k=0) for time point           12 / 30,    Execution time    0.0 s
 Computed χ(iτ,k=0) for time point           13 / 30,    Execution time    0.0 s
 Computed χ(iτ,k=0) for time point           14 / 30,    Execution time    0.0 s
 Computed χ(iτ,k=0) for time point           15 / 30,    Execution time    0.0 s
 Computed χ(iτ,k=0) for time point           16 / 30,    Execution time    0.0 s
 Computed χ(iτ,k=0) for time point           17 / 30,    Execution time    0.0 s
 Computed χ(iτ,k=0) for time point           18 / 30,    Execution time    0.0 s
 Computed χ(iτ,k=0) for time point           19 / 30,    Execution time    0.0 s
 Computed χ(iτ,k=0) for time point           20 / 30,    Execution time    0.0 s
 Computed χ(iτ,k=0) for time point           21 / 30,    Execution time    0.0 s
 Computed χ(iτ,k=0) for time point           22 / 30,    Execution time    0.0 s
 Computed χ(iτ,k=0) for time point           23 / 30,    Execution time    0.0 s
 Computed χ(iτ,k=0) for time point           24 / 30,    Execution time    0.0 s
 Computed χ(iτ,k=0) for time point           25 / 30,    Execution time    0.0 s
 Computed χ(iτ,k=0) for time point           26 / 30,    Execution time    0.0 s
 Computed χ(iτ,k=0) for time point           27 / 30,    Execution time    0.0 s
 Computed χ(iτ,k=0) for time point           28 / 30,    Execution time    0.0 s
 Computed χ(iτ,k=0) for time point           29 / 30,    Execution time    0.0 s
 Computed χ(iτ,k=0) for time point           30 / 30,    Execution time    0.0 s
 
 Computed W(iτ),                                         Execution time    0.1 s
 
 Computed Σ^x(k=0),                                      Execution time    0.0 s
 
 Computed Σ^c(iτ) for time point              1 / 30,    Execution time    0.0 s
 Computed Σ^c(iτ) for time point              2 / 30,    Execution time    0.0 s
 Computed Σ^c(iτ) for time point              3 / 30,    Execution time    0.0 s
 Computed Σ^c(iτ) for time point              4 / 30,    Execution time    0.0 s
 Computed Σ^c(iτ) for time point              5 / 30,    Execution time    0.0 s
 Computed Σ^c(iτ) for time point              6 / 30,    Execution time    0.0 s
 Computed Σ^c(iτ) for time point              7 / 30,    Execution time    0.0 s
 Computed Σ^c(iτ) for time point              8 / 30,    Execution time    0.0 s
 Computed Σ^c(iτ) for time point              9 / 30,    Execution time    0.0 s
 Computed Σ^c(iτ) for time point             10 / 30,    Execution time    0.0 s
 Computed Σ^c(iτ) for time point             11 / 30,    Execution time    0.0 s
 Computed Σ^c(iτ) for time point             12 / 30,    Execution time    0.0 s
 Computed Σ^c(iτ) for time point             13 / 30,    Execution time    0.0 s
 Computed Σ^c(iτ) for time point             14 / 30,    Execution time    0.0 s
 Computed Σ^c(iτ) for time point             15 / 30,    Execution time    0.0 s
 Computed Σ^c(iτ) for time point             16 / 30,    Execution time    0.0 s
 Computed Σ^c(iτ) for time point             17 / 30,    Execution time    0.0 s
 Computed Σ^c(iτ) for time point             18 / 30,    Execution time    0.0 s
 Computed Σ^c(iτ) for time point             19 / 30,    Execution time    0.0 s
 Computed Σ^c(iτ) for time point             20 / 30,    Execution time    0.0 s
 Computed Σ^c(iτ) for time point             21 / 30,    Execution time    0.0 s
 Computed Σ^c(iτ) for time point             22 / 30,    Execution time    0.0 s
 Computed Σ^c(iτ) for time point             23 / 30,    Execution time    0.0 s
 Computed Σ^c(iτ) for time point             24 / 30,    Execution time    0.0 s
 Computed Σ^c(iτ) for time point             25 / 30,    Execution time    0.0 s
 Computed Σ^c(iτ) for time point             26 / 30,    Execution time    0.0 s
 Computed Σ^c(iτ) for time point             27 / 30,    Execution time    0.0 s
 Computed Σ^c(iτ) for time point             28 / 30,    Execution time    0.0 s
 Computed Σ^c(iτ) for time point             29 / 30,    Execution time    0.0 s
 Computed Σ^c(iτ) for time point             30 / 30,    Execution time    0.0 s

 *** WARNING in post_scf_bandstructure_utils.F:3161 :: G0W0 reorders the   ***
 *** empty levels: the SCF conduction band minimum (SCF LUMO) is level 6,  ***
 *** whereas the G0W0 conduction band minimum (G0W0 LUMO) is level 8. The  ***
 *** SCF and G0W0 band edges printed below therefore belong to different   ***
 *** orbitals; see the eigenvalues in the file bandstructure_SCF_and_G0W0. ***

 
 SCF valence band maximum (eV):                                           -7.188
 SCF conduction band minimum (eV):                                        -0.416
 SCF indirect band gap (eV):                                               6.773
 SCF direct band gap (eV):                                                 6.773
 
 G0W0 valence band maximum (eV):                                         -10.560
 G0W0 conduction band minimum (eV):                                        1.645
 G0W0 indirect band gap (eV):                                             12.204
 G0W0 direct band gap (eV):                                               12.204
 
 Hartree-Fock with SCF orbitals valence band maximum (eV):               -10.862
 Hartree-Fock with SCF orbitals conduction band minimum (eV)               2.069
 Hartree-Fock with SCF orbitals indirect band gap (eV):                   12.931
 Hartree-Fock with SCF orbitals direct band gap (eV):                     12.931

 ENERGY| Total FORCE_EVAL ( QS ) energy [hartree]            -12.475810567510701

 -------------------------------------------------------------------------------
 -                                                                             -
 -                                DBCSR STATISTICS                             -
 -                                                                             -
 -------------------------------------------------------------------------------
 COUNTER                                    TOTAL       BLAS       SMM       ACC
 flops     5 x     5 x     5                  250     100.0%      0.0%      0.0%     
 flops     9 x     5 x     5                 3600     100.0%      0.0%      0.0%     
 flops     9 x     9 x     5                 4860     100.0%      0.0%      0.0%     
 flops     9 x    29 x     5                10440     100.0%      0.0%      0.0%     
 flops    29 x     9 x     5                10440     100.0%      0.0%      0.0%     
 flops     5 x     5 x    38                11400     100.0%      0.0%      0.0%     
 flops    29 x     5 x     5                11600     100.0%      0.0%      0.0%     
 flops     9 x     5 x     9                19440     100.0%      0.0%      0.0%     
 flops     9 x     5 x    38                27360     100.0%      0.0%      0.0%     
 flops    29 x    29 x     5                50460     100.0%      0.0%      0.0%     
 flops    29 x     5 x     9                62640     100.0%      0.0%      0.0%     
 flops     9 x     5 x    29                62640     100.0%      0.0%      0.0%     
 flops    29 x     5 x    38                88160     100.0%      0.0%      0.0%     
 flops    29 x     5 x    29               201840     100.0%      0.0%      0.0%     
 flops     9 x     9 x    13               606528     100.0%      0.0%      0.0%     
 flops     9 x     9 x    17               815184     100.0%      0.0%      0.0%     
 flops    13 x     9 x    13               885222     100.0%      0.0%      0.0%     
 flops    17 x     9 x    13              1161576     100.0%      0.0%      0.0%     
 flops    13 x     9 x    17              1173510     100.0%      0.0%      0.0%     
 flops    13 x     9 x     9              1499472     100.0%      0.0%      0.0%     
 flops    17 x     9 x    17              1539792     100.0%      0.0%      0.0%     
 flops    13 x    13 x     9              1618344     100.0%      0.0%      0.0%     
 flops    13 x    32 x    13              1752192     100.0%      0.0%      0.0%     
 flops    29 x     9 x    13              1954368     100.0%      0.0%      0.0%     
 flops    17 x     9 x     9              1960848     100.0%      0.0%      0.0%     
 flops     9 x    29 x    13              1967940     100.0%      0.0%      0.0%     
 flops    13 x    17 x     9              2132208     100.0%      0.0%      0.0%     
 flops    17 x    13 x     9              2179944     100.0%      0.0%      0.0%     
 flops    13 x    13 x    38              2260544     100.0%      0.0%      0.0%     
 flops    13 x    32 x    17              2319616     100.0%      0.0%      0.0%     
 flops    17 x    32 x    13              2376192     100.0%      0.0%      0.0%     
 flops    13 x    44 x    13              2409264     100.0%      0.0%      0.0%     
 flops    29 x     9 x    17              2626704     100.0%      0.0%      0.0%     
 flops     9 x    29 x    17              2626704     100.0%      0.0%      0.0%     
 flops    13 x    29 x    13              2832778     100.0%      0.0%      0.0%     
 flops    17 x    17 x     9              2954736     100.0%      0.0%      0.0%     
 flops    13 x    17 x    38              2956096     100.0%      0.0%      0.0%     
 flops    17 x    13 x    38              2956096     100.0%      0.0%      0.0%     
 flops    17 x    32 x    17              3107328     100.0%      0.0%      0.0%     
 flops    13 x    44 x    17              3189472     100.0%      0.0%      0.0%     
 flops    17 x    44 x    13              3267264     100.0%      0.0%      0.0%     
 flops    17 x    29 x    13              3742856     100.0%      0.0%      0.0%     
 flops    13 x    29 x    17              3794128     100.0%      0.0%      0.0%     
 flops    17 x    17 x    38              3865664     100.0%      0.0%      0.0%     
 flops    17 x    44 x    17              4272576     100.0%      0.0%      0.0%     
 flops    13 x    13 x    76              4315584     100.0%      0.0%      0.0%     
 flops    13 x    29 x     9              4940208     100.0%      0.0%      0.0%     
 flops    17 x    29 x    17              4961552     100.0%      0.0%      0.0%     
 flops    13 x     9 x    29              4994496     100.0%      0.0%      0.0%     
 flops    13 x    13 x    29              5273476     100.0%      0.0%      0.0%     
 flops    13 x    17 x    76              5643456     100.0%      0.0%      0.0%     
 flops    17 x    13 x    76              5643456     100.0%      0.0%      0.0%     
 flops    44 x    32 x    13              5710848     100.0%      0.0%      0.0%     
 flops    13 x    32 x    44              6150144     100.0%      0.0%      0.0%     
 flops    29 x    29 x    13              6384872     100.0%      0.0%      0.0%     
 flops    17 x     9 x    29              6602256     100.0%      0.0%      0.0%     
 flops    17 x    29 x     9              6602256     100.0%      0.0%      0.0%     
 flops    13 x    17 x    29              6921720     100.0%      0.0%      0.0%     
 flops    17 x    13 x    29              7178080     100.0%      0.0%      0.0%     
 flops    17 x    17 x    76              7379904     100.0%      0.0%      0.0%     
 flops    44 x    32 x    17              7659520     100.0%      0.0%      0.0%     
 flops     9 x     9 x    32              7672320     100.0%      0.0%      0.0%     
 flops    44 x    44 x    13              7852416     100.0%      0.0%      0.0%     
 flops    17 x    32 x    44              8042496     100.0%      0.0%      0.0%     
 flops    13 x    44 x    44              8456448     100.0%      0.0%      0.0%     
 flops    29 x    29 x    17              8463824     100.0%      0.0%      0.0%     
 flops    17 x    17 x    29              9520816     100.0%      0.0%      0.0%     
 flops    44 x    44 x    17             10531840     100.0%      0.0%      0.0%     
 flops    32 x     9 x    13             10932480     100.0%      0.0%      0.0%     
 flops    17 x    44 x    44             11058432     100.0%      0.0%      0.0%     
 flops    13 x     9 x    32             11059776     100.0%      0.0%      0.0%     
 flops    32 x     9 x    17             14492160     100.0%      0.0%      0.0%     
 flops    17 x     9 x    32             14492160     100.0%      0.0%      0.0%     
 flops    13 x    29 x    29             16268304     100.0%      0.0%      0.0%     
 flops    32 x     9 x     9             18455040     100.0%      0.0%      0.0%     
 flops    13 x    32 x     9             20067840     100.0%      0.0%      0.0%     
 flops    32 x    13 x     9             20337408     100.0%      0.0%      0.0%     
 flops    17 x    29 x    29             21273936     100.0%      0.0%      0.0%     
 flops    29 x     9 x    32             24721920     100.0%      0.0%      0.0%     
 flops     9 x    29 x    32             24721920     100.0%      0.0%      0.0%     
 flops    13 x    32 x    32             26118144     100.0%      0.0%      0.0%     
 flops    32 x    32 x    13             26517504     100.0%      0.0%      0.0%     
 flops    32 x    17 x     9             27221760     100.0%      0.0%      0.0%     
 flops    17 x    32 x     9             27770112     100.0%      0.0%      0.0%     
 flops    13 x    32 x    38             27822080     100.0%      0.0%      0.0%     
 flops    32 x    13 x    38             27822080     100.0%      0.0%      0.0%     
 flops    32 x    32 x    17             34816000     100.0%      0.0%      0.0%     
 flops    17 x    32 x    32             35094528     100.0%      0.0%      0.0%     
 flops    32 x    29 x    13             35419904     100.0%      0.0%      0.0%     
 flops    13 x    29 x    32             35709440     100.0%      0.0%      0.0%     
 flops    13 x    44 x    32             35949056     100.0%      0.0%      0.0%     
 flops    32 x    17 x    38             36382720     100.0%      0.0%      0.0%     
 flops    17 x    32 x    38             36382720     100.0%      0.0%      0.0%     
 flops    32 x    44 x    13             36461568     100.0%      0.0%      0.0%     
 flops    32 x    29 x    17             46696960     100.0%      0.0%      0.0%     
 flops    17 x    29 x    32             46696960     100.0%      0.0%      0.0%     
 flops    32 x    44 x    17             47872000     100.0%      0.0%      0.0%     
 flops    17 x    44 x    32             48254976     100.0%      0.0%      0.0%     
 flops    13 x    32 x    76             53114880     100.0%      0.0%      0.0%     
 flops    32 x    13 x    76             53114880     100.0%      0.0%      0.0%     
 flops    32 x    29 x     9             62072064     100.0%      0.0%      0.0%     
 flops    32 x     9 x    29             62138880     100.0%      0.0%      0.0%     
 flops    13 x    32 x    29             65145600     100.0%      0.0%      0.0%     
 flops    32 x    13 x    29             67558400     100.0%      0.0%      0.0%     
 flops    32 x    17 x    76             69457920     100.0%      0.0%      0.0%     
 flops    17 x    32 x    76             69457920     100.0%      0.0%      0.0%     
 flops    44 x    32 x    32             72089600     100.0%      0.0%      0.0%     
 flops    32 x    32 x    44             75694080     100.0%      0.0%      0.0%     
 flops    29 x    29 x    32             79659520     100.0%      0.0%      0.0%     
 flops    32 x    17 x    29             89607680     100.0%      0.0%      0.0%     
 flops    17 x    32 x    29             89607680     100.0%      0.0%      0.0%     
 flops    44 x    44 x    32             99123200     100.0%      0.0%      0.0%     
 flops    32 x    44 x    44            104079360     100.0%      0.0%      0.0%     
 flops    32 x     9 x    32            136396800     100.0%      0.0%      0.0%     
 flops    32 x    29 x    29            200225280     100.0%      0.0%      0.0%     
 flops    32 x    32 x     9            257089536     100.0%      0.0%      0.0%     
 flops    32 x    32 x    38            342425600     100.0%      0.0%      0.0%     
 flops    32 x    32 x    32            382730240     100.0%      0.0%      0.0%     
 flops    32 x    29 x    32            439560192     100.0%      0.0%      0.0%     
 flops    32 x    44 x    32            526254080     100.0%      0.0%      0.0%     
 flops    32 x    32 x    76            653721600     100.0%      0.0%      0.0%     
 flops    32 x    32 x    29            843366400     100.0%      0.0%      0.0%     
 flops inhomo. stacks                           0       0.0%      0.0%      0.0%
 flops total                         5.970854E+09     100.0%      0.0%      0.0%
 flops max/rank                      1.712800E+09     100.0%      0.0%      0.0%
 matmuls inhomo. stacks                         0       0.0%      0.0%      0.0%
 matmuls total                             155095     100.0%      0.0%      0.0%
 number of processed stacks                 62191     100.0%      0.0%      0.0%
 average stack size                                     2.5       0.0       0.0
 marketing flops                     8.543107E+09
 -------------------------------------------------------------------------------
 # multiplications                           2020
 max memory usage/rank              19.212562E+09
 # max total images/rank                        1
 # max 3D layers                                1
 # MPI messages exchanged                    4040
 MPI messages size (bytes):
  total size                       278.340000E+06
  min size                           0.000000E+00
  max size                         349.448000E+03
  average size                      68.896039E+03
 MPI breakdown and total messages size (bytes):
             size <=      128                 594                        0
       128 < size <=     8192                  50                    68080
      8192 < size <=    32768                 404                  4656640
     32768 < size <=   131072                2712                193202224
    131072 < size <=  4194304                 280                 80413056
   4194304 < size <= 16777216                   0                        0
  16777216 < size                               0                        0
 -------------------------------------------------------------------------------
 -                                                                             -
 -                      DBCSR MESSAGE PASSING PERFORMANCE                      -
 -                                                                             -
 -------------------------------------------------------------------------------
 ROUTINE             CALLS      AVE VOLUME [Bytes]
 MP_Bcast              123                     12.
 MP_Allreduce         2365                     13.
 MP_Alltoall          3385                   6351.
 MP_ISend             4676                  21884.
 MP_IRecv             4676                  18194.
 -------------------------------------------------------------------------------

 -------------------------------------------------------------------------------
 -                                                                             -
 -                                GRID STATISTICS                              -
 -                                                                             -
 -------------------------------------------------------------------------------
 LP    KERNEL             BACKEND                              COUNT     PERCENT
 4     collocate ortho    CPU                                   1296      19.42%
 4     integrate ortho    CPU                                   1296      19.42%
 6     collocate ortho    CPU                                   1176      17.63%
 6     integrate ortho    CPU                                   1176      17.63%
 2     collocate ortho    CPU                                    832      12.47%
 2     integrate ortho    CPU                                    832      12.47%
 0     collocate general  CPU                                     64       0.96%
 -------------------------------------------------------------------------------

 -------------------------------------------------------------------------------
 -                                                                             -
 -                          OFFLOAD MEMPOOL STATISTICS                         -
 -                                                                             -
 -------------------------------------------------------------------------------
 Memory consumption                Number of allocations  Used [MiB]  Size [MiB]
 Host                                                  6         142    22287966
 -------------------------------------------------------------------------------

 MEMORY| Estimated peak process memory [MiB]                                3877

 -------------------------------------------------------------------------------
 -                                                                             -
 -                         MESSAGE PASSING PERFORMANCE                         -
 -                                                                             -
 -------------------------------------------------------------------------------

 ROUTINE             CALLS      AVE VOLUME [Bytes]
 MP_Group                5
 MP_Bcast              200                 277779.
 MP_Allreduce         1842                   3041.
 MP_Sync                10
 MP_Alltoall            44              167349563.
 MP_SendRecv            18                4698667.
 MP_ISendRecv           18                4698667.
 MP_Wait                58
 MP_comm_split          10
 MP_ISend               30               15480000.
 MP_IRecv               30               15480000.
 -------------------------------------------------------------------------------


 -------------------------------------------------------------------------------
 -                                                                             -
 -                           R E F E R E N C E S                               -
 -                                                                             -
 -------------------------------------------------------------------------------
 
 CP2K version 2026.2 (Development Version), the CP2K developers group (2026).
 CP2K is freely available from https://www.cp2k.org/ .
 
 M. Iannuzzi, J. Wilhelm, F. Stein, A. Bussy, H. Elgabarty, D. Golze, A. Hehn, 
 M. Graml, S. Marek, B. Sertcan Gökmen, C. Schran, H. Forbert, R. Z. 
 Khaliullin, A. Kozhevnikov, M. Taillefumier, R. Meli, V. V. Rybkin, M. Brehm, 
 R. Schade, O. Schütt, J. V. Pototschnig, H. Mirhosseini, A. Knüpfer, D. Marx, 
 M. Krack, J. Hutter, T. D. Kühne.
 J. Phys. Chem. B 130, 1237-1310 (2026).
 The CP2K Program Package Made Simple.
 https://doi.org/10.1021/acs.jpcb.5c05851

 M. Graml, K. Zollner, D. Hernangómez-Pérez, P. E. Faria Junior, J. Wilhelm.
 J. Chem. Theory Comput. 20, 2202-2208 (2024).
 Low-scaling GW algorithm applied to twisted transition-metal dichalcogenide 
 heterobilayers.
 https://doi.org/10.1021/acs.jctc.3c01230

 T. D. Kühne, M. Iannuzzi, M. Del Ben, V. V. Rybkin, P. Seewald, F. Stein, T. 
 Laino, R. Z. Khaliullin, O. Schütt, F. Schiffmann, D. Golze, J. Wilhelm, S. 
 Chulkov, M. H. Bani-Hashemian, V. Weber, U. Borstnik, M. Taillefumier, A. S. 
 Jakobovits, A. Lazzaro, H. Pabst, T. Müller, R. Schade, M. Guidon, S. 
 Andermatt, N. Holmberg, G. K. Schenter, A. Hehn, A. Bussy, F. Belleflamme, G. 
 Tabacchi, A. Glöß, M. Lass, I. Bethune, C. J. Mundy, C. Plessl, M. Watkins, 
 J. VandeVondele, M. Krack, J. Hutter.
 J. Chem. Phys. 152, 194103 (2020).
 CP2K: An electronic structure and molecular dynamics software package - 
 Quickstep: Efficient and accurate electronic structure calculations.
 https://doi.org/10.1063/5.0007045

 O. Schuett, P. Messmer, J. Hutter, J. VandeVondele.
 Electronic Structure Calculations on Graphics Processing Units, 173-190 (2016).
 GPU-Accelerated Sparse Matrix-Matrix Multiplication for Linear Scaling Density 
 Functional Theory.
 https://doi.org/10.1002/9781118670712.ch8

 U. Borstnik, J. VandeVondele, V. Weber, J. Hutter.
 Parallel Comput. 40, 47-58 (2014).
 Sparse matrix multiplication: The distributed block-compressed sparse row 
 library.
 https://doi.org/10.1016/j.parco.2014.03.012

 J. VandeVondele, J. Hutter.
 J. Chem. Phys. 127, 114105 (2007).
 Gaussian basis sets for accurate calculations on molecular systems in gas and 
 condensed phases.
 https://doi.org/10.1063/1.2770708

 J. VandeVondele, M. Krack, F. Mohamed, M. Parrinello, T. Chassaing, J. Hutter.
 Comput. Phys. Commun. 167, 103-128 (2005).
 QUICKSTEP: Fast and accurate density functional calculations using a mixed 
 Gaussian and plane waves approach.
 https://doi.org/10.1016/j.cpc.2004.12.014

 M. Krack.
 Theor. Chem. Acc. 114, 145-152 (2005).
 Pseudopotentials for H to Kr optimized for gradient-corrected 
 exchange-correlation functionals.
 https://doi.org/10.1007/s00214-005-0655-y

 M. Frigo, S. G. Johnson.
 Proc. IEEE 93, 216-231 (2005).
 The design and implementation of FFTW3.
 https://doi.org/10.1109/JPROC.2004.840301

 J. VandeVondele, J. Hutter.
 J. Chem. Phys. 118, 4365-4369 (2003).
 An efficient orbital transformation method for electronic structure 
 calculations.
 https://doi.org/10.1063/1.1543154

 C. Hartwigsen, S. Goedecker, J. Hutter.
 Phys. Rev. B 58, 3641-3662 (1998).
 Relativistic separable dual-space Gaussian pseudopotentials from H to Rn.
 https://doi.org/10.1103/PhysRevB.58.3641

 G. Lippert, J. Hutter, M. Parrinello.
 Mol. Phys. 92, 477-487 (1997).
 A hybrid Gaussian and plane wave density functional scheme.
 https://doi.org/10.1080/002689797170220

 S. Goedecker, M. Teter, J. Hutter.
 Phys. Rev. B 54, 1703-1710 (1996).
 Separable dual-space Gaussian pseudopotentials.
 https://doi.org/10.1103/PhysRevB.54.1703

 J. P. Perdew, K. Burke, M. Ernzerhof.
 Phys. Rev. Lett. 77, 3865-3868 (1996).
 Generalized gradient approximation made simple.
 https://doi.org/10.1103/PhysRevLett.77.3865

 P. E. Blöchl.
 J. Chem. Phys. 103, 7422-7428 (1995).
 Electrostatic decoupling of periodic images of plane‐wave‐expanded 
 densities and derived atomic point charges.
 https://doi.org/10.1063/1.470314

 R. H. Byrd, P. H. Lu, J. Nocedal, C. Y. Zhu.
 SIAM J. Sci. Comput. 16, 1190-1208 (1995).
 A Limited Memory Algorithm for Bound Constrained Optimization.
 https://doi.org/10.1137/0916069


 -------------------------------------------------------------------------------
 -                                                                             -
 -                                T I M I N G                                  -
 -                                                                             -
 -------------------------------------------------------------------------------
 SUBROUTINE                       CALLS  ASD         SELF TIME        TOTAL TIME MAXRANK
                                MAXIMUM       AVERAGE  MAXIMUM  AVERAGE  MAXIMUM
 CP2K                                 1  1.0    0.008    0.019    9.883    9.883       0
 qs_energies                          1  2.0    0.000    0.000    8.323    8.323       2
 scf_env_do_scf                       1  3.0    0.000    0.000    3.626    3.626       0
 qs_ks_build_kohn_sham_matrix         2  7.5    0.002    0.002    3.623    3.623       0
 qs_energies_properties               1  3.0    0.000    0.000    3.461    3.461       2
 post_scf_bandstructure               1  4.0    0.000    0.000    3.461    3.461       0
 run_gw                               1  5.0    0.000    0.000    3.445    3.455       1
 fft_wrap_pw1pw2                     28 10.0    0.001    0.001    3.335    3.395       3
 fft_wrap_pw1pw2_300                 16 11.2    0.173    0.188    3.171    3.225       3
 init_scf_loop                        1  4.0    0.000    0.000    2.764    2.765       0
 qs_ks_update_qs_env                  2  5.0    0.000    0.000    2.762    2.762       0
 rebuild_ks_matrix                    1  6.0    0.000    0.000    2.762    2.762       3
 fft3d_ps                            28 12.0    1.387    1.414    2.354    2.418       1
 create_and_init_bs_env_for_gw        1  6.0    0.005    0.005    2.067    2.195       3
 qs_vxc_create                        2  8.5    0.000    0.000    1.877    1.887       3
 xc_vxc_pw_create                     1  9.0    0.037    0.039    1.876    1.887       2
 qs_rho_update_rho_low                2  5.0    0.000    0.000    1.734    1.734       1
 calculate_rho_elec                   2  6.0    0.050    0.050    1.734    1.734       0
 gw_calc_ri_rs_non_periodic           1  6.0    0.000    0.000    1.378    1.478       0
 xc_pw_derive                         6 11.0    0.000    0.000    1.391    1.464       3
 qs_init_subsys                       1  2.0    0.001    0.001    1.403    1.405       0
 qs_env_setup                         1  3.0    0.000    0.000    1.402    1.404       0
 qs_env_rebuild_pw_env                2  3.5    0.000    0.000    1.402    1.403       0
 pw_env_rebuild                       1  5.0    0.000    0.000    1.402    1.403       0
 pw_grid_setup                        5  5.2    0.000    0.000    1.396    1.397       0
 pw_grid_setup_internal               5  6.2    0.022    0.022    1.396    1.397       0
 pw_grid_sort                         5  7.2    0.859    0.876    1.250    1.263       1
 density_rs2pw                        2  7.0    0.000    0.000    1.082    1.095       3
 xc_pw_divergence                     1 10.0    0.000    0.000    0.918    0.971       3
 optimize_ri_rs_grid                  1  7.0    0.000    0.000    0.874    0.964       0
 xc_rho_set_and_dset_create           1 10.0    0.030    0.031    0.904    0.952       1
 init_scf_run                         1  3.0    0.000    0.000    0.905    0.905       0
 scf_env_initial_rho_setup            1  4.0    0.000    0.000    0.905    0.905       0
 generate_auto_ri_basis               1  7.0    0.000    0.000    0.865    0.865       0
 compute_V_xc                         1  7.0    0.000    0.000    0.862    0.862       3
 scf_env_do_scf_inner_loop            1  4.0    0.000    0.000    0.857    0.862       0
 rirs_grid_LBFGS                      1  8.0    0.059    0.096    0.730    0.745       1
 mp_sum_d                           724  4.7    0.373    0.729    0.373    0.729       2
 compute_AB_optimized_RI_basis        1  8.0    0.000    0.000    0.729    0.729       0
 compute_AB_optimized_RI_basis_       1  9.0    0.000    0.000    0.616    0.728       0
 compute_B_PQ_AB                      2 10.0    0.074    0.185    0.282    0.702       0
 sum_up_and_integrate                 2  8.5    0.000    0.000    0.688    0.691       1
 integrate_v_rspace                   2  9.5    0.000    0.000    0.677    0.680       3
 potential_pw2rs                      2 10.5    0.002    0.002    0.663    0.666       3
 mp_sum_dm                           14 10.4    0.461    0.633    0.461    0.633       3
 evaluate_rirs_grid_cluster         301  9.0    0.057    0.104    0.327    0.615       1
 grid_collocate_task_list             2  7.0    0.592    0.614    0.592    0.614       0
 qs_ks_ddapc                          2  8.5    0.000    0.000    0.539    0.553       3
 yz_to_x                             14 12.2    0.250    0.255    0.473    0.540       3
 x_to_yz                             14 13.8    0.323    0.329    0.490    0.520       3
 mp_alltoall_z22v                    28 14.0    0.389    0.476    0.389    0.476       3
 pw_poisson_solve                     2  8.5    0.000    0.000    0.454    0.465       1
 cp_fm_get_submatrix                 10 10.0    0.000    0.000    0.321    0.428       3
 setup_time_and_frequency_minim       1  7.0    0.000    0.000    0.292    0.422       0
 build_minimax_time_frequency_g       1  8.0    0.000    0.000    0.292    0.422       3
 fit_l_sq_weights                     3  9.0    0.292    0.422    0.292    0.422       3
 contract_B_PQ                       10 11.7    0.152    0.380    0.164    0.410       0
 sort_shells                          5  8.2    0.391    0.394    0.391    0.394       0
 qs_energies_init_hamiltonians        1  3.0    0.000    0.000    0.330    0.330       3
 qs_env_update_s_mstruct              1  4.0    0.000    0.000    0.327    0.329       0
 pw_derive                           12 11.2    0.312    0.324    0.312    0.324       3
 pw_gather_p                         14 11.2    0.308    0.313    0.308    0.313       1
 pw_copy                             28 10.5    0.308    0.310    0.308    0.310       2
 calculate_rho_core                   1  5.0    0.025    0.026    0.298    0.300       2
 pw_scatter_p                        14 12.8    0.292    0.299    0.292    0.299       1
 pw_poisson_set                       3  8.3    0.000    0.000    0.258    0.268       1
 rirs_cluster_gradient_coordina     301 10.0    0.117    0.227    0.117    0.227       1
 compute_Sigma_c_and_QP_energie       1  7.0    0.000    0.000    0.210    0.220       0
 transfer_rs2pw                       9  7.8    0.000    0.000    0.203    0.219       1
 initialize_ri_rs_grid                1  8.0    0.003    0.007    0.128    0.218       0
 mp_bcast_dm                         11  9.4    0.125    0.212    0.125    0.212       0
 compute_B_PQ_exchange                5 10.7    0.000    0.000    0.082    0.205       0
 compute_B_PQ_transition              5 10.7    0.000    0.000    0.082    0.205       0
 compute_Sigma_c                      1  8.0    0.002    0.002    0.198    0.198       0
 pw_integral_ab_c1d_c1d_gs            4 10.0    0.174    0.176    0.178    0.179       1
 transfer_pw2rs                       8 11.5    0.000    0.000    0.176    0.177       2
 xc_functional_eval                   1 11.0    0.000    0.000    0.121    0.171       3
 pbe_lda_eval                         1 12.0    0.121    0.171    0.121    0.171       1
 transfer_rs2pw_300                   3  8.3    0.079    0.087    0.156    0.170       1
 contract_grid_panels_sigma_c        30  9.0    0.150    0.151    0.167    0.167       2
 fft_wrap_pw1pw2_100                  4 10.8    0.007    0.007    0.140    0.146       3
 abc_contract_xsmm                  425 10.9    0.068    0.144    0.068    0.144       0
 cp_ddapc_apply_CD                    2  9.5    0.000    0.000    0.131    0.139       0
 mp_waitany                          30 11.0    0.111    0.133    0.111    0.133       3
 pw_axpy                             25  6.6    0.128    0.132    0.128    0.132       1
 transfer_pw2rs_300                   2 12.5    0.065    0.068    0.127    0.132       3
 pw_copy_to_array                    14 11.2    0.124    0.126    0.124    0.126       2
 create_qs_kind_set                   1  2.0    0.000    0.000    0.121    0.125       3
 read_qs_kind                         2  3.0    0.046    0.053    0.121    0.125       0
 get_mat_chi_Gamma_tau                1  7.0    0.000    0.001    0.121    0.121       0
 contract_grid_panels                31  8.0    0.099    0.100    0.111    0.111       2
 rirs_cluster_gradient_products     301 10.0    0.057    0.107    0.057    0.107       0
 pw_grid_assign                       5  7.2    0.085    0.091    0.091    0.092       0
 compute_Z_lP                         1  7.0    0.000    0.000    0.089    0.089       1
 compute_Z_lP_auto_ri                 1  8.0    0.000    0.000    0.089    0.089       3
 compute_d_lp_auto_ri_batch           1  9.0    0.000    0.000    0.057    0.085       0
 compute_d_lp_auto_ri_atom            1 10.0    0.007    0.009    0.057    0.085       0
 parser_read_line                 22513  4.0    0.004    0.004    0.075    0.083       1
 pw_copy_from_array                  14 12.8    0.075    0.082    0.075    0.082       2
 parser_read_line_low                27  5.0    0.010    0.036    0.071    0.079       0
 broadcast_input_information         27  6.0    0.009    0.011    0.061    0.077       1
 compute_W                            1  7.0    0.000    0.000    0.077    0.077       0
 compute_M_PQ_AB                     44 11.0    0.000    0.000    0.057    0.075       0
 compute_M_PQ                        44 12.0    0.000    0.000    0.057    0.075       0
 int_operators_r12_ab_os             44 13.0    0.000    0.000    0.057    0.075       0
 int_operator_ab_os_low              44 14.0    0.022    0.029    0.057    0.075       0
 compute_M_pq_inv_and_V_pq            1  8.0    0.000    0.000    0.071    0.071       3
 compute_contracted_RI_matrix         2  9.0    0.000    0.000    0.066    0.066       3
 compute_optimized_RI_matrix_bl       6 10.0    0.003    0.004    0.053    0.065       0
 compute_AA_optimized_RI_basis        1  8.0    0.000    0.000    0.065    0.065       1
 copy_dbcsr_to_fm                   104  9.5    0.039    0.054    0.040    0.055       2
 rirs_cluster_residual              301 10.0    0.029    0.055    0.029    0.055       1
 mp_bcast_i_src                     113  7.0    0.039    0.054    0.039    0.054       3
 check_for_restart_files              1  7.0    0.041    0.053    0.041    0.053       1
 rirs_cluster_AO_products           301 10.0    0.025    0.053    0.025    0.053       0
 get_ddapc                            2 10.5    0.000    0.000    0.040    0.048       3
 pw_grid_remap                        4  8.0    0.014    0.015    0.030    0.048       2
 pw_zero                             25  4.7    0.043    0.046    0.043    0.046       2
 transfer_rs2pw_100                   2  9.0    0.023    0.024    0.039    0.045       1
 transfer_pw2rs_100                   2 12.5    0.024    0.027    0.040    0.044       3
 rirs_cluster_D_ll                  301 10.0    0.023    0.043    0.023    0.043       1
 mp_waitall_1                        28 12.6    0.032    0.043    0.032    0.043       2
 parallel_gemm_fm_gemm              431  9.6    0.000    0.000    0.042    0.043       3
 cp_fm_gemm                         434 10.5    0.042    0.043    0.042    0.043       0
 build_3c_integral_block_auto_r      24 11.0    0.028    0.041    0.028    0.041       0
 compute_B_PQ_AA                      4  9.0    0.000    0.000    0.033    0.035       1
 rirs_cluster_d_lP                  301 10.0    0.019    0.035    0.019    0.035       1
 build_3c_integral_block_auto_r      24 11.0    0.000    0.000    0.022    0.035       0
 mp_sum_root_rm                       4 10.0    0.027    0.035    0.027    0.035       3
 compute_fm_W_freq                   30  8.0    0.000    0.000    0.033    0.034       2
 mp_sum_im3                           5  9.0    0.015    0.034    0.015    0.034       3
 compute_fm_chi_Gamma_freq           30  8.0    0.024    0.026    0.033    0.033       3
 local_gemm                        3512 12.8    0.013    0.030    0.013    0.030       0
 pw_multiply_with                     2  9.5    0.029    0.030    0.029    0.030       2
 rirs_grid_build_clusters             1  8.0    0.010    0.019    0.015    0.030       0
 build_G_ao                         121  8.5    0.004    0.004    0.029    0.029       3
 operator2                        24608 15.0    0.022    0.029    0.022    0.029       0
 mp_sendrecv_dv                      18 10.0    0.020    0.029    0.020    0.029       2
 cp_ddapc_init                        1  5.0    0.000    0.000    0.028    0.028       2
 cp_ddapc_create                      1  6.0    0.000    0.000    0.028    0.028       0
 compute_int_3c                       2  9.0    0.020    0.021    0.027    0.028       3
 ddapc_eval_gfunc                     1  7.0    0.027    0.028    0.027    0.028       0
 solve_AB_eigenproblem                2 10.0    0.009    0.018    0.013    0.027       0
 eval_pw_TabLR                        1  2.0    0.012    0.013    0.025    0.026       3
 rs_grid_zero                         3 11.0    0.024    0.025    0.024    0.025       0
 copy_fm_to_dbcsr                   161  9.3    0.017    0.018    0.021    0.021       3
 fft_wrap_pw1pw2_40                   4 10.8    0.001    0.002    0.018    0.019       3
 mp_bcast_am_src                     27  7.0    0.013    0.019    0.013    0.019       3
 ab_contract                      25594 14.7    0.014    0.018    0.014    0.018       0
 pw_scale                             5  9.8    0.015    0.018    0.015    0.018       2
 pw_poisson_rebuild                   2  9.5    0.016    0.017    0.016    0.017       0
 write_mo_set_to_restart              1  5.0    0.003    0.013    0.011    0.016       0
 eval_bandstructure_properties        1  5.0    0.000    0.000    0.012    0.015       0
 cp_cfm_geeig                         1  6.0    0.000    0.000    0.012    0.015       1
 diamat_all                          12 11.2    0.008    0.015    0.008    0.015       0
 grid_integrate_task_list             2 10.5    0.013    0.014    0.013    0.014       3
 cp_cfm_cholesky_decompose            2  7.0    0.010    0.013    0.010    0.013       1
 G_occ_vir                          121  9.5    0.002    0.002    0.011    0.012       2
 mp_sum_iv                          142 10.0    0.008    0.011    0.008    0.011       2
 extract_masked_blocks              244  9.6    0.010    0.011    0.010    0.011       1
 delete_unnecessary_files             1  8.0    0.000    0.000    0.003    0.011       0
 compute_QP_energies                  1  8.0    0.000    0.000    0.009    0.011       1
 safe_delete                         60  9.0    0.003    0.011    0.003    0.011       0
 fill_fm_Sigma_c_Gamma_time           1  9.0    0.000    0.000    0.011    0.011       3
 mp_sum_l                            21  4.2    0.007    0.010    0.007    0.010       1
 compute_reference_M_PQ_inv_fac       8 10.7    0.000    0.000    0.006    0.010       0
 -------------------------------------------------------------------------------

 The number of warnings for this run is : 4
 
 -------------------------------------------------------------------------------
  **** **** ******  **  PROGRAM ENDED AT                 2026-10-03 12:05:16.992
 ***** ** ***  *** **   PROGRAM RAN ON                                  n2cn0251
 **    ****   ******    PROGRAM RAN BY                                  eprop2d1
 ***** **    ** ** **   PROGRAM PROCESS ID                               1397108
  **** **  *******  **  PROGRAM STOPPED IN /scratch/hpc-prf-metdyn/eprop2d1_Jan/
                                           53_benchmark_RI_opt/418_gw100_fig5_fu
                                           ll_epsfilter_1e12_20261002/calculatio
                                           ns/rc0p5/ri2_rs05/25_C2H2
