 DBCSR| CPU Multiplication driver                                           XSMM (U)
 DBCSR| Multrec recursion limit                                              512 (U)
 DBCSR| Multiplication stack size                                           1000 (D)
 DBCSR| Maximum elements for images                                    UNLIMITED (U)
 DBCSR| Multiplicative factor virtual images                                   1 (U)
 DBCSR| Use multiplication densification                                       T (D)
 DBCSR| Multiplication size stacks                                             3 (U)
 DBCSR| Use memory pool for CPU allocation                                     F (U)
 DBCSR| Number of 3D layers                                               SINGLE (U)
 DBCSR| Use MPI memory allocation                                              F (U)
 DBCSR| Use RMA algorithm                                                      F (U)
 DBCSR| Use Communication thread                                               T (U)
 DBCSR| Communication thread load                                             30 (D)
 DBCSR| MPI: My process id                                                     3
 DBCSR| MPI: Number of processes                                               8
 DBCSR| OMP: Current number of threads                                        16
 DBCSR| OMP: Max number of threads                                            16
 DBCSR| Split modifier for TAS multiplication algorithm                  1.0E+00 (U)


  **** **** ******  **  PROGRAM STARTED AT               2026-09-15 20:19:39.640
 ***** ** ***  *** **   PROGRAM STARTED ON                              n2cn0335
 **    ****   ******    PROGRAM STARTED BY                              eprop2d1
 ***** **    ** ** **   PROGRAM PROCESS ID                                204076
  **** **  *******  **  PROGRAM STARTED IN /scratch/hpc-prf-metdyn/eprop2d1_Jan/
                                           53_benchmark_RI_opt/106_GW100_GTH_RIR
                                           S_riao5_7_c7/calculations/14_P2/riao5
                                           /leb_r03

 CP2K| version string:                 CP2K version 2026.2 (Development Version)
 CP2K| source code revision number:                                      unknown
 CP2K| cp2kflags: omp libint fftw3 libxc parallel scalapack openblas            
 CP2K| is freely available from                            https://www.cp2k.org/
 CP2K| Program compiled at                                   2026-09-15 17:57:52
 CP2K| Program compiled on                                              n2login6
 CP2K| Program compiled for                                               x86_64
 CP2K| Data directory path    /scratch/hpc-prf-metdyn/eprop2d1_Jan/53_benchmark_
 CP2K| Input file name                                                 input.inp
 
 eprop2d1@n2cn0335 has created rank and process                      0    204076
 
 eprop2d1@n2cn0335 is running                                        1 processes

 GLOBAL| Force Environment number                                              1
 GLOBAL| Basis set file name            /scratch/hpc-prf-metdyn/eprop2d1_Jan/53_
 GLOBAL| Potential file name            /scratch/hpc-prf-metdyn/eprop2d1_Jan/53_
 GLOBAL| MM Potential file name                                     MM_POTENTIAL
 GLOBAL| Coordinate file name                                      __STD_INPUT__
 GLOBAL| Method name                                                        CP2K
 GLOBAL| Project name                                 gw100_106_14_P2_a5_leb_r03
 GLOBAL| Run type                                                         ENERGY
 GLOBAL| FFT library                                                       FFTW3
 GLOBAL| Diagonalization library                                       ScaLAPACK
 GLOBAL| Cholesky decomposition library                                ScaLAPACK
 GLOBAL| DGEMM library                                                      BLAS
 GLOBAL| Direct generalized diagonalization requested                          F
 GLOBAL| Orthonormality check for eigenvectors                          DISABLED
 GLOBAL| Matrix multiplication library                                 ScaLAPACK
 GLOBAL| All-to-all communication in single precision                          F
 GLOBAL| Grid backend                                                       AUTO
 GLOBAL| Global print level                                                  LOW
 GLOBAL| MPI I/O enabled                                                       T
 GLOBAL| Total number of message passing processes                             1
 GLOBAL| Number of distributed systems (nodes)                                 1
 GLOBAL| Number of threads for this process                                   16
 GLOBAL| This output is from process                                           0
 GLOBAL| OpenMP stack size per thread (OMP_STACKSIZE)                       128M
 GLOBAL| CPU model name                          AMD EPYC 7763 64-Core Processor

 MEMORY| system memory details [Kb]
 MEMORY|                        rank 0           min           max       average
 MEMORY| MemTotal            263897628     263897628     263897628     263897628
 MEMORY| MemFree             155072024     155072024     155072024     155072024
 MEMORY| Buffers                208420        208420        208420        208420
 MEMORY| Cached                6795804       6795804       6795804       6795804
 MEMORY| Slab                  1423656       1423656       1423656       1423656
 MEMORY| SReclaimable           293960        293960        293960        293960
 MEMORY| MemLikelyFree       162370208     162370208     162370208     162370208


 GENERATE|  Preliminary Number of Bonds generated:                             0
 GENERATE|  Achieved consistency in connectivity generation.

 *******************************************************************************
 *******************************************************************************
 **                                                                           **
 **     #####                         ##              ##                      **
 **    ##   ##            ##          ##              ##                      **
 **   ##     ##                       ##            ######                    **
 **   ##     ##  ##   ##  ##   #####  ##  ##   ####   ##    #####    #####    **
 **   ##     ##  ##   ##  ##  ##      ## ##   ##      ##   ##   ##  ##   ##   **
 **   ##  ## ##  ##   ##  ##  ##      ####     ###    ##   ######   ######    **
 **    ##  ###   ##   ##  ##  ##      ## ##      ##   ##   ##       ##        **
 **     #######   #####   ##   #####  ##  ##  ####    ##    #####   ##        **
 **           ##                                                    ##        **
 **                                                                           **
 **                                                ... make the atoms dance   **
 **                                                                           **
 **            Copyright (C) by CP2K developers group (2000-2026)             **
 **                      J. Chem. Phys. 152, 194103 (2020)                    **
 **                                                                           **
 *******************************************************************************


 TOTAL NUMBERS AND MAXIMUM NUMBERS

  Total number of            - Atomic kinds:                                   1
                             - Atoms:                                          2
                             - Shell sets:                                     2
                             - Shells:                                        10
                             - Primitive Cartesian functions:                 10
                             - Cartesian basis functions:                     28
                             - Spherical basis functions:                     26

  Maximum angular momentum of- Orbital basis functions:                        2
                             - Local part of the GTH pseudopotential:          0
                             - Non-local part of the GTH pseudopotential:      2


 SCF PARAMETERS         Density guess:                                    ATOMIC
                        --------------------------------------------------------
                        max_scf:                                             500
                        max_scf_history:                                       0
                        max_diis:                                              4
                        --------------------------------------------------------
                        eps_scf:                                        1.00E-08
                        eps_scf_history:                                0.00E+00
                        eps_diis:                                       0.00E+00
                        eps_eigval:                                     1.00E-05
                        --------------------------------------------------------
                        level_shift [a.u.]:                             0.000000
                        --------------------------------------------------------
                        Outer loop SCF in use 
                        No variables optimised in outer loop
                        eps_scf                                         1.00E-08
                        max_scf                                               20
                        No outer loop optimization
                        step_size                                       5.00E-01

 Extrapolation method: initial_guess

 Number of electrons:                                                         10
 Number of occupied orbitals:                                                  5
 Number of molecular orbitals:                                                 5

 Number of orbital functions:                                                 26
 Number of independent orbital functions:                                     26


 SCF WAVEFUNCTION OPTIMIZATION

  ----------------------------------- OT ---------------------------------------
  Minimizer      : DIIS                : direct inversion
                                         in the iterative subspace
                                         using   7 DIIS vectors
                                         safer DIIS on
  Preconditioner : FULL_KINETIC        : inversion of T + eS
  Lattice FFT   : OFF
  Precond_solver : DEFAULT
  stepsize       :    0.15000000                  energy_gap     :    0.20000000
  eps_taylor     :   0.10000E-15                  max_taylor     :             4
  ----------------------------------- OT ---------------------------------------

  Step     Update method      Time    Convergence         Total energy    Change
  ------------------------------------------------------------------------------
  Decoupling Energy:                                               0.0000563552
     1 OT DIIS     0.15E+00    5.5     0.10541166       -12.6052969812 -1.26E+01
  Decoupling Energy:                                               0.0000173708
     2 OT DIIS     0.15E+00    6.8     0.06030417       -12.7657739838 -1.60E-01
  Decoupling Energy:                                               0.0000108101
     3 OT DIIS     0.15E+00    6.8     0.04318347       -12.8474164488 -8.16E-02
  Decoupling Energy:                                               0.0000084649
     4 OT DIIS     0.15E+00    6.8     0.03590194       -12.9092634293 -6.18E-02
  Decoupling Energy:                                               0.0000063029
     5 OT DIIS     0.15E+00    6.8     0.03224693       -12.9620500513 -5.28E-02
  Decoupling Energy:                                               0.0000010071
     6 OT DIIS     0.15E+00    6.8     0.02501579       -13.0261009071 -6.41E-02
  Decoupling Energy:                                               0.0000002576
     7 OT DIIS     0.15E+00    6.8     0.01377796       -13.0685043536 -4.24E-02
  Decoupling Energy:                                               0.0000000749
     8 OT DIIS     0.15E+00    6.8     0.00629028       -13.0791819436 -1.07E-02
  Decoupling Energy:                                               0.0000004473
     9 OT DIIS     0.15E+00    6.8     0.00438301       -13.0812690050 -2.09E-03
  Decoupling Energy:                                               0.0000005421
    10 OT DIIS     0.15E+00    6.8     0.00601784       -13.0809675593  3.01E-04
  Decoupling Energy:                                               0.0000000172
    11 OT DIIS     0.15E+00    6.8     0.00141577       -13.0818879835 -9.20E-04
  Decoupling Energy:                                               0.0000000027
    12 OT DIIS     0.15E+00    6.8     0.00070934       -13.0819687598 -8.08E-05
  Decoupling Energy:                                               0.0000000009
    13 OT DIIS     0.15E+00    6.8     0.00038017       -13.0819886266 -1.99E-05
  Decoupling Energy:                                               0.0000000000
    14 OT DIIS     0.15E+00    6.8     0.00022301       -13.0819938331 -5.21E-06
  Decoupling Energy:                                               0.0000000000
    15 OT DIIS     0.15E+00    6.8     0.00013468       -13.0819965350 -2.70E-06
  Decoupling Energy:                                               0.0000000000
    16 OT DIIS     0.15E+00    6.8     0.00009656       -13.0819974167 -8.82E-07
  Decoupling Energy:                                               0.0000000000
    17 OT DIIS     0.15E+00    6.8     0.00005047       -13.0819981189 -7.02E-07
  Decoupling Energy:                                               0.0000000000
    18 OT DIIS     0.15E+00    6.8     0.00003071       -13.0819982698 -1.51E-07
  Decoupling Energy:                                               0.0000000000
    19 OT DIIS     0.15E+00    6.8     0.00001626       -13.0819983263 -5.65E-08
  Decoupling Energy:                                              -0.0000000000
    20 OT DIIS     0.15E+00    6.8     0.00001127       -13.0819983382 -1.19E-08
  Decoupling Energy:                                               0.0000000000
    21 OT DIIS     0.15E+00    6.8     0.00000658       -13.0819983450 -6.80E-09
  Decoupling Energy:                                               0.0000000000
    22 OT DIIS     0.15E+00    6.8     0.00000406       -13.0819983473 -2.26E-09
  Decoupling Energy:                                               0.0000000000
    23 OT DIIS     0.15E+00    6.8     0.00000210       -13.0819983483 -1.06E-09
  Decoupling Energy:                                              -0.0000000000
    24 OT DIIS     0.15E+00    6.8     0.00000143       -13.0819983485 -2.05E-10
  Decoupling Energy:                                               0.0000000000
    25 OT DIIS     0.15E+00    6.8     0.00000100       -13.0819983486 -8.73E-11
  Decoupling Energy:                                               0.0000000000
    26 OT DIIS     0.15E+00    6.8     0.00000069       -13.0819983487 -5.28E-11
  Decoupling Energy:                                              -0.0000000000
    27 OT DIIS     0.15E+00    6.8     0.00000039       -13.0819983487 -3.58E-11
  Decoupling Energy:                                              -0.0000000000
    28 OT DIIS     0.15E+00    6.8     0.00000019       -13.0819983487 -1.19E-11
  Decoupling Energy:                                              -0.0000000000
    29 OT DIIS     0.15E+00    6.8     0.00000015       -13.0819983487 -1.17E-12
  Decoupling Energy:                                              -0.0000000000
    30 OT DIIS     0.15E+00    6.8     0.00000011       -13.0819983487 -8.28E-13
  Decoupling Energy:                                              -0.0000000000
    31 OT DIIS     0.15E+00    6.8     0.00000008       -13.0819983487 -6.52E-13
  Decoupling Energy:                                               0.0000000000
    32 OT DIIS     0.15E+00    6.8     0.00000005       -13.0819983487 -3.93E-13
  Decoupling Energy:                                               0.0000000000
    33 OT DIIS     0.15E+00    6.8     0.00000004       -13.0819983487 -1.81E-13
  Decoupling Energy:                                               0.0000000000
    34 OT DIIS     0.15E+00    6.8     0.00000002       -13.0819983487 -3.20E-14
  Decoupling Energy:                                              -0.0000000000
    35 OT DIIS     0.15E+00    6.8     0.00000001       -13.0819983487 -9.06E-14
  Decoupling Energy:                                               0.0000000000
    36 OT DIIS     0.15E+00    6.8     8.6466E-09       -13.0819983487  3.20E-14

  *** SCF run converged in    36 steps ***


  Electronic density on regular grids:        -10.0000000000       -0.0000000000
  Core density on regular grids:               10.0000000000       -0.0000000000
  Total charge density on r-space grids:       -0.0000000000
  Total charge density g-space grids:          -0.0000000000

  Overlap energy of the core charge distribution:               0.00000002817810
  Self energy of the core charge distribution:                -32.80171997370677
  Core Hamiltonian energy:                                      6.92659007020483
  Hartree energy:                                              15.98961486455957
  Exchange-correlation energy:                                 -3.19648333794784

  Total energy:                                               -13.08199834871211

  outer SCF iter =    1 RMS gradient =   0.86E-08 energy =        -13.0819983487
  outer SCF loop converged in   1 iterations or   36 steps

  
 -------------------------------------------------------------------------------
 -                                                                             -
 -                          BANDSTRUCTURE CALCULATION                          -
 -                                                                             -
 -------------------------------------------------------------------------------
  
 Number of occupied molecular orbitals (MOs) = Number of occupied bands        5
 Number of unoccupied (= virtual) MOs = Number of unoccupied bands            21
 Number of Gaussian basis functions for MOs                                   26
  
 -------------------------------------------------------------------------------
 -                                                                             -
 -                                GW CALCULATION                               -
 -                                                                             -
 -------------------------------------------------------------------------------
  
 Input: Number of time/freq. points                                           30
 Input: ω_max for fitting Σ(iω) (eV)                                        10.0
 Input: Filter threshold for sparse tensor operations                    1.0E-07
 Input: Apply Hedin shift                                                      F
 Input: Available memory per MPI process                                  8.0 GB
 
 Input: RI-RS Tikhonov regularization                                   1.00E-04
 Input: AO grid hard cutoff radius                                        8.00 Å
 Input: MPI ranks per atom in Z_lP solve                                      -1
 Input: Keep sparsity in χ/G/W panels                                          T
 Input: GW flavour                                                          G0W0
 
 Input: RI-RS grid optimization activated                                      T
 Input: Initial RI-RS grid                                              CHOLESKY
 Input: RS points per AO function                                         3.0000
 Input: Initial RS candidates per AO function                            30.0000
 Input: Additional Lebedev degree                                              2
 Input: Cholesky selection matrix                                        D_PRIME
 Input: Cholesky candidate domain                                      FULL_ATOM
 Input: Initial radial quadrature                                       GAPW_LOG
 Input: Cutoff radius for atomic clusters                                  5.0 Å
 Input: Maximum grid optimization iterations                                 300
 Input: L-BFGS history size                                                    7
 Input: L-BFGS relative-function factor                              0.00000E+00
 Input: L-BFGS projected-gradient tolerance                          1.00000E-09
 
 Input: AUTO_RI basis optimization activated:                                  T
 Input: AUTO_RI requested RI/AO ratio:                                       5.0
 Input: AUTO_RI frontier orbital window:                                  5.0 eV
 Input: AUTO_RI neighbor radius:                                           3.0 Å
 
 Cutoff radius for the truncated Coulomb operator in RI metric:            7.0 Å
 Regularization parameter of RI                                          0.0E+00
 Regularization parameter of minimax grids                               1.0E-06
 
 AUTO_RI| Number of automatic RI functions for χ, ε, W:                      130
 AUTO_RI| Total RI basis optimization time:                                0.1 s
  Decoupling Energy:                                              -0.0000000000
 
 SCF direct band gap (eV)                                                   3.89
 Max. SCF eigval diff. (eV)                                                61.03
 E-Range for minimax grid                                                  15.67
 Number of Padé parameters for analytic continuation:                         16
 
 RI-RS basis radii (Å):
     Kind  Elem     r_AO (Å)     r_RI (Å)
        1    P         6.7861        4.8519
 
 RI-RS initialization: atomic kind                                             1
 RI-RS initialization: Lebedev degree                                          9
 RI-RS initialization: radial shells                                          11
 RI-RS initialization: candidates per atom                                   418
 RI-RS initialization: retained points per atom                               39
 RI-RS initialization: largest cluster candidate count                       836
 RI-RS initialization: most pivots in one cluster                             78
 RI-RS initialization: most stored AO values in one cluster                21398
 RI-RS initialization: wall time [s]                                       0.003
 Started RI-RS grid optimization
 RI-RS grid initial normalized error                          1.001014219607E-02
 RI-RS grid optimization completed, execution time:                        0.8 s
 Normalized 3C error:                                                    1.3E-04
 Maximum absolute 3C error:                                              3.2E-02
 Optimized points outside molecular Voronoi cells:                             2 / 78
 Total grid points used for RI-RS:                                            78
 
 RI-RS grid row-blocks of Φ_μ(r_l)                                             4
 RI-RS grid points per block (max)                                            32
 
 Percentage of non-zero matrix elements in Φ_μ(r_l)                     100.00 %
 
 RI-RS memory estimate per MPI process:
   Available memory per process (system)                               167.70 GB
   Required for Z_lP (dense upper bound; actual is sparser)              0.00 GB
   Required for χ, W, Σ panels (peak per panel step)                     0.00 GB
   Required for Z_lP solve peak (D_local+φ, worst-case atom)             0.00 GB
   Worst-case local-grid number of grid points:                               78
   Worst-case memory D_local:                                            0.00 GB
 
 Started computing Z_lP
 Computed Z_lP (MPI rank 0) for atom          1 /  2,    Execution time    0.0 s
 Computed Z_lP (MPI rank 0) for atom          2 /  2,    Execution time    0.0 s
 Computed Z_lP (all MPI ranks) for all atoms,            Execution time    0.0 s

 Number of batches for χ, Σ matrices                                           1
 
 Percentage of non-zero matrix elements in Z_lP                         100.00 %
 Percentage of non-zero matrix elements in G_ll', χ_ll', W_ll'          100.00 %
 Percentage of non-zero matrix elements in χ_PQ for time point 1        100.00 %
 
 Computed χ(iτ,k=0) for time point            1 / 30,    Execution time    0.0 s
 Computed χ(iτ,k=0) for time point            2 / 30,    Execution time    0.0 s
 Computed χ(iτ,k=0) for time point            3 / 30,    Execution time    0.0 s
 Computed χ(iτ,k=0) for time point            4 / 30,    Execution time    0.0 s
 Computed χ(iτ,k=0) for time point            5 / 30,    Execution time    0.0 s
 Computed χ(iτ,k=0) for time point            6 / 30,    Execution time    0.0 s
 Computed χ(iτ,k=0) for time point            7 / 30,    Execution time    0.0 s
 Computed χ(iτ,k=0) for time point            8 / 30,    Execution time    0.0 s
 Computed χ(iτ,k=0) for time point            9 / 30,    Execution time    0.0 s
 Computed χ(iτ,k=0) for time point           10 / 30,    Execution time    0.0 s
 Computed χ(iτ,k=0) for time point           11 / 30,    Execution time    0.0 s
 Computed χ(iτ,k=0) for time point           12 / 30,    Execution time    0.0 s
 Computed χ(iτ,k=0) for time point           13 / 30,    Execution time    0.0 s
 Computed χ(iτ,k=0) for time point           14 / 30,    Execution time    0.0 s
 Computed χ(iτ,k=0) for time point           15 / 30,    Execution time    0.0 s
 Computed χ(iτ,k=0) for time point           16 / 30,    Execution time    0.0 s
 Computed χ(iτ,k=0) for time point           17 / 30,    Execution time    0.0 s
 Computed χ(iτ,k=0) for time point           18 / 30,    Execution time    0.0 s
 Computed χ(iτ,k=0) for time point           19 / 30,    Execution time    0.0 s
 Computed χ(iτ,k=0) for time point           20 / 30,    Execution time    0.0 s
 Computed χ(iτ,k=0) for time point           21 / 30,    Execution time    0.0 s
 Computed χ(iτ,k=0) for time point           22 / 30,    Execution time    0.0 s
 Computed χ(iτ,k=0) for time point           23 / 30,    Execution time    0.0 s
 Computed χ(iτ,k=0) for time point           24 / 30,    Execution time    0.0 s
 Computed χ(iτ,k=0) for time point           25 / 30,    Execution time    0.0 s
 Computed χ(iτ,k=0) for time point           26 / 30,    Execution time    0.0 s
 Computed χ(iτ,k=0) for time point           27 / 30,    Execution time    0.0 s
 Computed χ(iτ,k=0) for time point           28 / 30,    Execution time    0.0 s
 Computed χ(iτ,k=0) for time point           29 / 30,    Execution time    0.0 s
 Computed χ(iτ,k=0) for time point           30 / 30,    Execution time    0.0 s
 
 Computed W(iτ),                                         Execution time    0.1 s
 
 Computed Σ^x(k=0),                                      Execution time    0.0 s
 
 Computed Σ^c(iτ) for time point              1 / 30,    Execution time    0.0 s
 Computed Σ^c(iτ) for time point              2 / 30,    Execution time    0.0 s
 Computed Σ^c(iτ) for time point              3 / 30,    Execution time    0.0 s
 Computed Σ^c(iτ) for time point              4 / 30,    Execution time    0.0 s
 Computed Σ^c(iτ) for time point              5 / 30,    Execution time    0.0 s
 Computed Σ^c(iτ) for time point              6 / 30,    Execution time    0.0 s
 Computed Σ^c(iτ) for time point              7 / 30,    Execution time    0.0 s
 Computed Σ^c(iτ) for time point              8 / 30,    Execution time    0.0 s
 Computed Σ^c(iτ) for time point              9 / 30,    Execution time    0.0 s
 Computed Σ^c(iτ) for time point             10 / 30,    Execution time    0.0 s
 Computed Σ^c(iτ) for time point             11 / 30,    Execution time    0.0 s
 Computed Σ^c(iτ) for time point             12 / 30,    Execution time    0.0 s
 Computed Σ^c(iτ) for time point             13 / 30,    Execution time    0.0 s
 Computed Σ^c(iτ) for time point             14 / 30,    Execution time    0.0 s
 Computed Σ^c(iτ) for time point             15 / 30,    Execution time    0.0 s
 Computed Σ^c(iτ) for time point             16 / 30,    Execution time    0.0 s
 Computed Σ^c(iτ) for time point             17 / 30,    Execution time    0.0 s
 Computed Σ^c(iτ) for time point             18 / 30,    Execution time    0.0 s
 Computed Σ^c(iτ) for time point             19 / 30,    Execution time    0.0 s
 Computed Σ^c(iτ) for time point             20 / 30,    Execution time    0.0 s
 Computed Σ^c(iτ) for time point             21 / 30,    Execution time    0.0 s
 Computed Σ^c(iτ) for time point             22 / 30,    Execution time    0.0 s
 Computed Σ^c(iτ) for time point             23 / 30,    Execution time    0.0 s
 Computed Σ^c(iτ) for time point             24 / 30,    Execution time    0.0 s
 Computed Σ^c(iτ) for time point             25 / 30,    Execution time    0.0 s
 Computed Σ^c(iτ) for time point             26 / 30,    Execution time    0.0 s
 Computed Σ^c(iτ) for time point             27 / 30,    Execution time    0.0 s
 Computed Σ^c(iτ) for time point             28 / 30,    Execution time    0.0 s
 Computed Σ^c(iτ) for time point             29 / 30,    Execution time    0.0 s
 Computed Σ^c(iτ) for time point             30 / 30,    Execution time    0.0 s
 
 SCF valence band maximum (eV):                                           -7.296
 SCF conduction band minimum (eV):                                        -3.403
 SCF indirect band gap (eV):                                               3.894
 SCF direct band gap (eV):                                                 3.894
 
 G0W0 valence band maximum (eV):                                          -9.606
 G0W0 conduction band minimum (eV):                                        0.395
 G0W0 indirect band gap (eV):                                             10.001
 G0W0 direct band gap (eV):                                               10.001
 
 Hartree-Fock with SCF orbitals valence band maximum (eV):                -9.968
 Hartree-Fock with SCF orbitals conduction band minimum (eV)               0.790
 Hartree-Fock with SCF orbitals indirect band gap (eV):                   10.757
 Hartree-Fock with SCF orbitals direct band gap (eV):                     10.757

 ENERGY| Total FORCE_EVAL ( QS ) energy [hartree]            -13.081998348712107

 -------------------------------------------------------------------------------
 -                                                                             -
 -                                DBCSR STATISTICS                             -
 -                                                                             -
 -------------------------------------------------------------------------------
 COUNTER                                    TOTAL       BLAS       SMM       ACC
 flops     5 x     5 x     5                79500     100.0%      0.0%      0.0%     
 flops     7 x     7 x    26               173264     100.0%      0.0%      0.0%     
 flops     5 x     5 x    26               185900     100.0%      0.0%      0.0%     
 flops    13 x    13 x     5               187590     100.0%      0.0%      0.0%     
 flops    13 x     5 x     5               232700     100.0%      0.0%      0.0%     
 flops    13 x     5 x    26               250120     100.0%      0.0%      0.0%     
 flops     7 x    13 x     7               276458     100.0%      0.0%      0.0%     
 flops    13 x    13 x     7               511056     100.0%      0.0%      0.0%     
 flops    13 x     5 x    13               534040     100.0%      0.0%      0.0%     
 flops     7 x     7 x    13               560560     100.0%      0.0%      0.0%     
 flops     7 x     7 x   130               815360     100.0%      0.0%      0.0%     
 flops     7 x    65 x     7               828100     100.0%      0.0%      0.0%     
 flops    32 x     7 x    26               838656     100.0%      0.0%      0.0%     
 flops     7 x    32 x    26               838656     100.0%      0.0%      0.0%     
 flops    32 x    13 x     7              1327872     100.0%      0.0%      0.0%     
 flops     7 x    13 x    32              1351168     100.0%      0.0%      0.0%     
 flops     7 x    13 x    13              1381744     100.0%      0.0%      0.0%     
 flops    13 x    13 x    32              2379520     100.0%      0.0%      0.0%     
 flops    32 x     7 x    13              2562560     100.0%      0.0%      0.0%     
 flops     7 x    32 x    13              2562560     100.0%      0.0%      0.0%     
 flops    32 x     7 x   130              3727360     100.0%      0.0%      0.0%     
 flops     7 x    32 x   130              3727360     100.0%      0.0%      0.0%     
 flops    32 x    65 x     7              3785600     100.0%      0.0%      0.0%     
 flops    32 x    32 x    26              3833856     100.0%      0.0%      0.0%     
 flops     7 x    65 x    32              3960320     100.0%      0.0%      0.0%     
 flops    32 x    13 x    32              6230016     100.0%      0.0%      0.0%     
 flops    32 x    13 x    13              6316544     100.0%      0.0%      0.0%     
 flops    65 x    65 x     7              7098000     100.0%      0.0%      0.0%     
 flops     7 x    65 x    65              7571200     100.0%      0.0%      0.0%     
 flops    32 x    32 x    13             11714560     100.0%      0.0%      0.0%     
 flops    32 x    32 x   130             17039360     100.0%      0.0%      0.0%     
 flops    32 x    65 x    32             18104320     100.0%      0.0%      0.0%     
 flops    65 x    65 x    32             32448000     100.0%      0.0%      0.0%     
 flops    32 x    65 x    65             34611200     100.0%      0.0%      0.0%     
 flops inhomo. stacks                           0       0.0%      0.0%      0.0%
 flops total                       178.045080E+06     100.0%      0.0%      0.0%
 flops max/rank                    178.045080E+06     100.0%      0.0%      0.0%
 matmuls inhomo. stacks                         0       0.0%      0.0%      0.0%
 matmuls total                               7163     100.0%      0.0%      0.0%
 number of processed stacks                  2727     100.0%      0.0%      0.0%
 average stack size                                     2.6       0.0       0.0
 marketing flops                   335.618304E+06
 -------------------------------------------------------------------------------
 # multiplications                           5361
 max memory usage/rank              21.651153E+09
 # max total images/rank                        1
 # max 3D layers                                1
 # MPI messages exchanged                       0
 -------------------------------------------------------------------------------
 -                                                                             -
 -                      DBCSR MESSAGE PASSING PERFORMANCE                      -
 -                                                                             -
 -------------------------------------------------------------------------------
 ROUTINE             CALLS      AVE VOLUME [Bytes]
 MP_Bcast               35                     12.
 MP_Allreduce         5909                      9.
 MP_Alltoall          5933                   9412.
 MP_ISend             4696                     75.
 MP_IRecv             4696                     75.
 -------------------------------------------------------------------------------

 -------------------------------------------------------------------------------
 -                                                                             -
 -                                GRID STATISTICS                              -
 -                                                                             -
 -------------------------------------------------------------------------------
 LP    KERNEL             BACKEND                              COUNT     PERCENT
 4     collocate ortho    CPU                                  20487      24.79%
 4     integrate ortho    CPU                                  20487      24.79%
 5     collocate ortho    CPU                                  12792      15.48%
 5     integrate ortho    CPU                                  12792      15.48%
 6     collocate ortho    CPU                                   8036       9.72%
 6     integrate ortho    CPU                                   8036       9.72%
 0     collocate general  CPU                                      5       0.01%
 -------------------------------------------------------------------------------

 -------------------------------------------------------------------------------
 -                                                                             -
 -                          OFFLOAD MEMPOOL STATISTICS                         -
 -                                                                             -
 -------------------------------------------------------------------------------
 Memory consumption                Number of allocations  Used [MiB]  Size [MiB]
 Host                                                  6         260    21762643
 -------------------------------------------------------------------------------

 MEMORY| Estimated peak process memory [MiB]                               12012

 -------------------------------------------------------------------------------
 -                                                                             -
 -                         MESSAGE PASSING PERFORMANCE                         -
 -                                                                             -
 -------------------------------------------------------------------------------

 ROUTINE             CALLS      AVE VOLUME [Bytes]
 MP_Group                5
 MP_Bcast              479                    875.
 MP_Allreduce         3406                    288.
 MP_Sync                47
 MP_comm_split          44
 -------------------------------------------------------------------------------


 -------------------------------------------------------------------------------
 -                                                                             -
 -                           R E F E R E N C E S                               -
 -                                                                             -
 -------------------------------------------------------------------------------
 
 CP2K version 2026.2 (Development Version), the CP2K developers group (2026).
 CP2K is freely available from https://www.cp2k.org/ .
 
 M. Iannuzzi, J. Wilhelm, F. Stein, A. Bussy, H. Elgabarty, D. Golze, A. Hehn, 
 M. Graml, S. Marek, B. Sertcan Gökmen, C. Schran, H. Forbert, R. Z. 
 Khaliullin, A. Kozhevnikov, M. Taillefumier, R. Meli, V. V. Rybkin, M. Brehm, 
 R. Schade, O. Schütt, J. V. Pototschnig, H. Mirhosseini, A. Knüpfer, D. Marx, 
 M. Krack, J. Hutter, T. D. Kühne.
 J. Phys. Chem. B 130, 1237-1310 (2026).
 The CP2K Program Package Made Simple.
 https://doi.org/10.1021/acs.jpcb.5c05851

 M. Graml, K. Zollner, D. Hernangómez-Pérez, P. E. Faria Junior, J. Wilhelm.
 J. Chem. Theory Comput. 20, 2202-2208 (2024).
 Low-scaling GW algorithm applied to twisted transition-metal dichalcogenide 
 heterobilayers.
 https://doi.org/10.1021/acs.jctc.3c01230

 T. D. Kühne, M. Iannuzzi, M. Del Ben, V. V. Rybkin, P. Seewald, F. Stein, T. 
 Laino, R. Z. Khaliullin, O. Schütt, F. Schiffmann, D. Golze, J. Wilhelm, S. 
 Chulkov, M. H. Bani-Hashemian, V. Weber, U. Borstnik, M. Taillefumier, A. S. 
 Jakobovits, A. Lazzaro, H. Pabst, T. Müller, R. Schade, M. Guidon, S. 
 Andermatt, N. Holmberg, G. K. Schenter, A. Hehn, A. Bussy, F. Belleflamme, G. 
 Tabacchi, A. Glöß, M. Lass, I. Bethune, C. J. Mundy, C. Plessl, M. Watkins, 
 J. VandeVondele, M. Krack, J. Hutter.
 J. Chem. Phys. 152, 194103 (2020).
 CP2K: An electronic structure and molecular dynamics software package - 
 Quickstep: Efficient and accurate electronic structure calculations.
 https://doi.org/10.1063/5.0007045

 O. Schuett, P. Messmer, J. Hutter, J. VandeVondele.
 Electronic Structure Calculations on Graphics Processing Units, 173-190 (2016).
 GPU-Accelerated Sparse Matrix-Matrix Multiplication for Linear Scaling Density 
 Functional Theory.
 https://doi.org/10.1002/9781118670712.ch8

 U. Borstnik, J. VandeVondele, V. Weber, J. Hutter.
 Parallel Comput. 40, 47-58 (2014).
 Sparse matrix multiplication: The distributed block-compressed sparse row 
 library.
 https://doi.org/10.1016/j.parco.2014.03.012

 J. VandeVondele, J. Hutter.
 J. Chem. Phys. 127, 114105 (2007).
 Gaussian basis sets for accurate calculations on molecular systems in gas and 
 condensed phases.
 https://doi.org/10.1063/1.2770708

 J. VandeVondele, M. Krack, F. Mohamed, M. Parrinello, T. Chassaing, J. Hutter.
 Comput. Phys. Commun. 167, 103-128 (2005).
 QUICKSTEP: Fast and accurate density functional calculations using a mixed 
 Gaussian and plane waves approach.
 https://doi.org/10.1016/j.cpc.2004.12.014

 M. Krack.
 Theor. Chem. Acc. 114, 145-152 (2005).
 Pseudopotentials for H to Kr optimized for gradient-corrected 
 exchange-correlation functionals.
 https://doi.org/10.1007/s00214-005-0655-y

 M. Frigo, S. G. Johnson.
 Proc. IEEE 93, 216-231 (2005).
 The design and implementation of FFTW3.
 https://doi.org/10.1109/JPROC.2004.840301

 J. VandeVondele, J. Hutter.
 J. Chem. Phys. 118, 4365-4369 (2003).
 An efficient orbital transformation method for electronic structure 
 calculations.
 https://doi.org/10.1063/1.1543154

 C. Hartwigsen, S. Goedecker, J. Hutter.
 Phys. Rev. B 58, 3641-3662 (1998).
 Relativistic separable dual-space Gaussian pseudopotentials from H to Rn.
 https://doi.org/10.1103/PhysRevB.58.3641

 G. Lippert, J. Hutter, M. Parrinello.
 Mol. Phys. 92, 477-487 (1997).
 A hybrid Gaussian and plane wave density functional scheme.
 https://doi.org/10.1080/002689797170220

 S. Goedecker, M. Teter, J. Hutter.
 Phys. Rev. B 54, 1703-1710 (1996).
 Separable dual-space Gaussian pseudopotentials.
 https://doi.org/10.1103/PhysRevB.54.1703

 J. P. Perdew, K. Burke, M. Ernzerhof.
 Phys. Rev. Lett. 77, 3865-3868 (1996).
 Generalized gradient approximation made simple.
 https://doi.org/10.1103/PhysRevLett.77.3865

 P. E. Blöchl.
 J. Chem. Phys. 103, 7422-7428 (1995).
 Electrostatic decoupling of periodic images of plane‐wave‐expanded 
 densities and derived atomic point charges.
 https://doi.org/10.1063/1.470314

 R. H. Byrd, P. H. Lu, J. Nocedal, C. Y. Zhu.
 SIAM J. Sci. Comput. 16, 1190-1208 (1995).
 A Limited Memory Algorithm for Bound Constrained Optimization.
 https://doi.org/10.1137/0916069


 -------------------------------------------------------------------------------
 -                                                                             -
 -                                T I M I N G                                  -
 -                                                                             -
 -------------------------------------------------------------------------------
 SUBROUTINE                       CALLS  ASD         SELF TIME        TOTAL TIME MAXRANK
                                MAXIMUM       AVERAGE  MAXIMUM  AVERAGE  MAXIMUM
 CP2K                                 1  1.0    0.028    0.028  259.576  259.576       0
 qs_energies                          1  2.0    0.012    0.012  251.869  251.869       0
 scf_env_do_scf                       1  3.0    0.001    0.001  246.079  246.079       0
 scf_env_do_scf_inner_loop           36  4.0    0.007    0.007  240.556  240.556       0
 qs_ks_build_kohn_sham_matrix        37  7.0    0.032    0.032  194.421  194.421       0
 qs_ks_update_qs_env                 37  5.0    0.001    0.001  192.772  192.772       0
 rebuild_ks_matrix                   36  6.0    0.000    0.000  192.769  192.769       0
 fft_wrap_pw1pw2                    623 10.3    0.013    0.013  153.467  153.467       0
 fft_wrap_pw1pw2_300                401 11.8    7.492    7.492  148.088  148.088       0
 qs_vxc_create                       37  8.0    0.001    0.001  132.498  132.498       0
 xc_vxc_pw_create                    36  9.0    5.376    5.376  132.497  132.497       0
 xc_pw_derive                       216 11.0    0.002    0.002   96.409   96.409       0
 fft3d_s                            624 12.3   90.786   90.786   90.818   90.818       0
 xc_pw_divergence                    36 10.0    0.001    0.001   65.384   65.384       0
 xc_rho_set_and_dset_create          36 10.0    2.930    2.930   59.973   59.973       0
 qs_rho_update_rho_low               37  5.0    0.000    0.000   54.411   54.411       0
 calculate_rho_elec                  37  6.0    3.712    3.712   54.411   54.411       0
 density_rs2pw                       37  7.0    0.002    0.002   33.362   33.362       0
 pw_scatter_s                       329 12.8   29.028   29.028   29.028   29.028       0
 qs_ks_ddapc                         37  8.0    0.001    0.001   20.450   20.450       0
 sum_up_and_integrate                37  8.0    0.001    0.001   19.526   19.526       0
 pw_poisson_solve                    37  8.0    0.001    0.001   19.482   19.482       0
 pw_derive                          327 11.3   19.347   19.347   19.347   19.347       0
 integrate_v_rspace                  37  9.0    0.002    0.002   18.582   18.582       0
 potential_pw2rs                     37 10.0    0.132    0.132   18.484   18.484       0
 grid_collocate_task_list            37  7.0   17.337   17.337   17.337   17.337       0
 pw_gather_s                        294 11.8   15.270   15.270   15.270   15.270       0
 pw_copy                            588 10.6   14.411   14.411   14.411   14.411       0
 pw_integral_ab_c1d_c1d_gs           74  9.5   10.912   10.912   10.912   10.912       0
 pw_poisson_set                      38  8.9    0.001    0.001   10.291   10.291       0
 pw_axpy                            375  9.1    7.992    7.992    7.992    7.992       0
 qs_init_subsys                       1  2.0    0.001    0.001    7.570    7.570       0
 qs_env_setup                         1  3.0    0.001    0.001    7.567    7.567       0
 qs_env_rebuild_pw_env                2  3.5    0.001    0.001    7.557    7.557       0
 pw_env_rebuild                       1  5.0    0.098    0.098    7.556    7.556       0
 pw_grid_setup                        5  5.2    0.007    0.007    7.456    7.456       0
 pw_grid_setup_internal               5  6.2    0.299    0.299    7.449    7.449       0
 pw_grid_sort                         5  7.2    5.340    5.340    6.821    6.821       0
 cp_ddapc_apply_CD                   37  9.0    0.003    0.003    6.784    6.784       0
 xc_functional_eval                  36 11.0    0.001    0.001    6.190    6.190       0
 pbe_lda_eval                        36 12.0    6.189    6.189    6.189    6.189       0
 init_scf_loop                        1  4.0    0.010    0.010    5.522    5.522       0
 pw_copy_to_array                   294 11.8    5.329    5.329    5.329    5.329       0
 pw_copy_from_array                 329 12.8    5.133    5.133    5.133    5.133       0
 fft_wrap_pw1pw2_100                 74 10.5    0.346    0.346    4.879    4.879       0
 qs_energies_properties               1  3.0    0.000    0.000    3.367    3.367       0
 post_scf_bandstructure               1  4.0    0.000    0.000    3.367    3.367       0
 gw                                   1  5.0    0.000    0.000    3.365    3.365       0
 pw_zero                            200  9.7    2.779    2.779    2.779    2.779       0
 create_and_init_bs_env_for_gw        1  6.0    0.012    0.012    2.150    2.150       0
 init_scf_run                         1  3.0    0.004    0.004    1.688    1.688       0
 scf_env_initial_rho_setup            1  4.0    0.003    0.003    1.683    1.683       0
 compute_V_xc                         1  7.0    0.000    0.000    1.652    1.652       0
 pw_scale                           145  9.8    1.549    1.549    1.549    1.549       0
 sort_shells                          5  8.2    1.481    1.481    1.481    1.481       0
 get_ddapc                           37 10.0    0.001    0.001    1.280    1.280       0
 pw_multiply_with                    37  9.0    1.217    1.217    1.217    1.217       0
 gw_calc_non_periodic_ri_rs           1  6.0    0.000    0.000    1.216    1.216       0
 transfer_rs2pw                     149  8.0    0.003    0.003    0.829    0.829       0
 ri_rs_grid_assembler                 1  7.0    0.000    0.000    0.819    0.819       0
 optimize_ri_rs_grid                  1  8.0    0.000    0.000    0.816    0.816       0
 transfer_pw2rs                     148 11.0    0.001    0.001    0.794    0.794       0
 rirs_grid_LBFGS                      1  9.0    0.050    0.050    0.776    0.776       0
 evaluate_rirs_grid_cluster         602 10.0    0.114    0.114    0.726    0.726       0
 qs_energies_init_hamiltonians        1  3.0    0.009    0.009    0.721    0.721       0
 qs_env_update_s_mstruct              1  4.0    0.005    0.005    0.670    0.670       0
 transfer_rs2pw_300                  38  8.9    0.663    0.663    0.663    0.663       0
 transfer_pw2rs_300                  37 12.0    0.629    0.629    0.629    0.629       0
 xc_pw_smooth                        36 10.0    0.000    0.000    0.575    0.575       0
 calculate_rho_core                   1  5.0    0.105    0.105    0.549    0.549       0
 qs_scf_new_mos                      36  5.0    0.000    0.000    0.424    0.424       0
 qs_scf_loop_do_ot                   36  6.0    0.000    0.000    0.424    0.424       0
 ot_scf_mini                         36  7.0    0.011    0.011    0.408    0.408       0
 fft_wrap_pw1pw2_40                  74 10.5    0.032    0.032    0.397    0.397       0
 setup_time_and_frequency_minim       1  7.0    0.000    0.000    0.318    0.318       0
 pw_grid_assign                       5  7.2    0.305    0.305    0.305    0.305       0
 ot_mini                             36  8.0    0.000    0.000    0.277    0.277       0
 -------------------------------------------------------------------------------

 The number of warnings for this run is : 1
 
 -------------------------------------------------------------------------------
  **** **** ******  **  PROGRAM ENDED AT                 2026-09-15 20:23:59.242
 ***** ** ***  *** **   PROGRAM RAN ON                                  n2cn0335
 **    ****   ******    PROGRAM RAN BY                                  eprop2d1
 ***** **    ** ** **   PROGRAM PROCESS ID                                204076
  **** **  *******  **  PROGRAM STOPPED IN /scratch/hpc-prf-metdyn/eprop2d1_Jan/
                                           53_benchmark_RI_opt/106_GW100_GTH_RIR
                                           S_riao5_7_c7/calculations/14_P2/riao5
                                           /leb_r03
