 DBCSR| CPU Multiplication driver                                           XSMM (U)
 DBCSR| Multrec recursion limit                                              512 (U)
 DBCSR| Multiplication stack size                                           1000 (D)
 DBCSR| Maximum elements for images                                    UNLIMITED (U)
 DBCSR| Multiplicative factor virtual images                                   1 (U)
 DBCSR| Use multiplication densification                                       T (D)
 DBCSR| Multiplication size stacks                                             3 (U)
 DBCSR| Use memory pool for CPU allocation                                     F (U)
 DBCSR| Number of 3D layers                                               SINGLE (U)
 DBCSR| Use MPI memory allocation                                              F (U)
 DBCSR| Use RMA algorithm                                                      F (U)
 DBCSR| Use Communication thread                                               T (U)
 DBCSR| Communication thread load                                             60 (D)
 DBCSR| MPI: My process id                                                     0
 DBCSR| MPI: Number of processes                                              16
 DBCSR| OMP: Current number of threads                                         8
 DBCSR| OMP: Max number of threads                                             8
 DBCSR| Split modifier for TAS multiplication algorithm                  1.0E+00 (U)


  **** **** ******  **  PROGRAM STARTED AT               2026-10-03 12:14:43.954
 ***** ** ***  *** **   PROGRAM STARTED ON                              n2cn0342
 **    ****   ******    PROGRAM STARTED BY                              eprop2d1
 ***** **    ** ** **   PROGRAM PROCESS ID                               1312998
  **** **  *******  **  PROGRAM STARTED IN /scratch/hpc-prf-metdyn/eprop2d1_Jan/
                                           53_benchmark_RI_opt/418_gw100_fig5_fu
                                           ll_epsfilter_1e12_20261002/calculatio
                                           ns/rc3p0/ri4_rs10/83_SO2

 CP2K| version string:                 CP2K version 2026.2 (Development Version)
 CP2K| source code revision number:                                   0671c5aa6c
 CP2K| cp2kflags: omp libint fftw3 libxc parallel scalapack openblas            
 CP2K| is freely available from                            https://www.cp2k.org/
 CP2K| Program compiled at                                   2026-09-20 09:25:26
 CP2K| Program compiled on                                              n2login5
 CP2K| Program compiled for                                               x86_64
 CP2K| Data directory path    /scratch/hpc-prf-metdyn/eprop2d1_Jan/53_benchmark_
 CP2K| Input file name                                                 input.inp
 
 eprop2d1@n2cn0342 has created rank and process                      0   1312998
 eprop2d1@n2cn0342 has created rank and process                      1   1312999
 eprop2d1@n2cn0342 has created rank and process                      2   1313000
 
 eprop2d1@n2cn0342 is running                                        3 processes

 GLOBAL| Force Environment number                                              1
 GLOBAL| Basis set file name            /scratch/hpc-prf-metdyn/eprop2d1_Jan/53_
 GLOBAL| Potential file name            /scratch/hpc-prf-metdyn/eprop2d1_Jan/53_
 GLOBAL| MM Potential file name                                     MM_POTENTIAL
 GLOBAL| Coordinate file name                                      __STD_INPUT__
 GLOBAL| Method name                                                        CP2K
 GLOBAL| Project name                                             g418_c410_m083
 GLOBAL| Run type                                                         ENERGY
 GLOBAL| FFT library                                                       FFTW3
 GLOBAL| Diagonalization library                                       ScaLAPACK
 GLOBAL| Cholesky decomposition library                                ScaLAPACK
 GLOBAL| DGEMM library                                                      BLAS
 GLOBAL| Direct generalized diagonalization requested                          F
 GLOBAL| Orthonormality check for eigenvectors                          DISABLED
 GLOBAL| Matrix multiplication library                                 ScaLAPACK
 GLOBAL| All-to-all communication in single precision                          F
 GLOBAL| Grid backend                                                       AUTO
 GLOBAL| Global print level                                                  LOW
 GLOBAL| MPI I/O enabled                                                       T
 GLOBAL| Total number of message passing processes                             3
 GLOBAL| Number of distributed systems (nodes)                                 1
 GLOBAL| Number of threads for this process                                    8
 GLOBAL| This output is from process                                           0
 GLOBAL| OpenMP stack size per thread (OMP_STACKSIZE)                       512M
 GLOBAL| CPU model name                          AMD EPYC 7763 64-Core Processor

 MEMORY| system memory details [Kb]
 MEMORY|                        rank 0           min           max       average
 MEMORY| MemTotal            263897624     263897624     263897624     263897624
 MEMORY| MemFree             218333820     218333820     218333820     218333820
 MEMORY| Buffers                 21440         21440         21440         21440
 MEMORY| Cached                7191308       7191308       7191308       7191308
 MEMORY| Slab                  1719744       1719744       1719744       1719744
 MEMORY| SReclaimable           288384        288384        288384        288384
 MEMORY| MemLikelyFree       225834952     225834952     225834952     225834952


 GENERATE|  Preliminary Number of Bonds generated:                             0
 GENERATE|  Achieved consistency in connectivity generation.

 *******************************************************************************
 *******************************************************************************
 **                                                                           **
 **     #####                         ##              ##                      **
 **    ##   ##            ##          ##              ##                      **
 **   ##     ##                       ##            ######                    **
 **   ##     ##  ##   ##  ##   #####  ##  ##   ####   ##    #####    #####    **
 **   ##     ##  ##   ##  ##  ##      ## ##   ##      ##   ##   ##  ##   ##   **
 **   ##  ## ##  ##   ##  ##  ##      ####     ###    ##   ######   ######    **
 **    ##  ###   ##   ##  ##  ##      ## ##      ##   ##   ##       ##        **
 **     #######   #####   ##   #####  ##  ##  ####    ##    #####   ##        **
 **           ##                                                    ##        **
 **                                                                           **
 **                                                ... make the atoms dance   **
 **                                                                           **
 **            Copyright (C) by CP2K developers group (2000-2026)             **
 **                      J. Chem. Phys. 152, 194103 (2020)                    **
 **                                                                           **
 *******************************************************************************


 TOTAL NUMBERS AND MAXIMUM NUMBERS

  Total number of            - Atomic kinds:                                   2
                             - Atoms:                                          3
                             - Shell sets:                                     3
                             - Shells:                                        27
                             - Primitive Cartesian functions:                 20
                             - Cartesian basis functions:                    102
                             - Spherical basis functions:                     87

  Maximum angular momentum of- Orbital basis functions:                        3
                             - Local part of the GTH pseudopotential:          2
                             - Non-local part of the GTH pseudopotential:      2


 SCF PARAMETERS         Density guess:                                   RESTART
                        --------------------------------------------------------
                        max_scf:                                             500
                        max_scf_history:                                       0
                        max_diis:                                              4
                        --------------------------------------------------------
                        eps_scf:                                        1.00E-08
                        eps_scf_history:                                0.00E+00
                        eps_diis:                                       0.00E+00
                        eps_eigval:                                     1.00E-05
                        --------------------------------------------------------
                        level_shift [a.u.]:                             0.000000
                        --------------------------------------------------------
                        Outer loop SCF in use 
                        No variables optimised in outer loop
                        eps_scf                                         1.00E-08
                        max_scf                                               20
                        No outer loop optimization
                        step_size                                       5.00E-01

 Extrapolation method: initial_guess

 Number of electrons:                                                         18
 Number of occupied orbitals:                                                  9
 Number of molecular orbitals:                                                 9

 Number of orbital functions:                                                 87
 Number of independent orbital functions:                                     87


 SCF WAVEFUNCTION OPTIMIZATION

  ----------------------------------- OT ---------------------------------------
  Minimizer      : DIIS                : direct inversion
                                         in the iterative subspace
                                         using   7 DIIS vectors
                                         safer DIIS on
  Preconditioner : FULL_KINETIC        : inversion of T + eS
  Lattice FFT   : OFF
  Precond_solver : DEFAULT
  stepsize       :    0.15000000                  energy_gap     :    0.20000000
  eps_taylor     :   0.10000E-15                  max_taylor     :             4
  ----------------------------------- OT ---------------------------------------

  Step     Update method      Time    Convergence         Total energy    Change
  ------------------------------------------------------------------------------
  Decoupling Energy:                                               0.0000288525
     1 OT DIIS     0.15E+00    3.8     5.9312E-09       -42.2460647362 -4.22E+01

  *** SCF run converged in     1 steps ***


  Electronic density on regular grids:        -18.0000000000       -0.0000000000
  Core density on regular grids:               18.0000000000       -0.0000000000
  Total charge density on r-space grids:       -0.0000000000
  Total charge density g-space grids:          -0.0000000000

  Overlap energy of the core charge distribution:               0.00000070530808
  Self energy of the core charge distribution:               -107.23196773861588
  Core Hamiltonian energy:                                     29.21054664302855
  Hartree energy:                                              45.03497809406220
  Exchange-correlation energy:                                 -9.25962243999856

  Total energy:                                               -42.24606473621560

  outer SCF iter =    1 RMS gradient =   0.59E-08 energy =        -42.2460647362
  outer SCF loop converged in   1 iterations or    1 steps

  
 -------------------------------------------------------------------------------
 -                                                                             -
 -                          BANDSTRUCTURE CALCULATION                          -
 -                                                                             -
 -------------------------------------------------------------------------------
  
 Number of occupied molecular orbitals (MOs) = Number of occupied bands        9
 Number of unoccupied (= virtual) MOs = Number of unoccupied bands            78
 Number of Gaussian basis functions for MOs                                   87
  
 -------------------------------------------------------------------------------
 -                                                                             -
 -                                GW CALCULATION                               -
 -                                                                             -
 -------------------------------------------------------------------------------
  
 Input: Number of time/freq. points                                           30
 Input: ω_max for fitting Σ(iω) (eV)                                        10.0
 Input: Filter threshold for sparse tensor operations                    1.0E-12
 Input: Apply Hedin shift                                                      F
 Detected: Available memory per MPI process                              67.3 GB
 
 Input: RI-RS Tikhonov regularization                                   1.00E-04
 Input: AO grid hard cutoff radius                                        8.00 Å
 Input: MPI ranks per atom in Z_lP solve                                      -1
 Input: Keep sparsity in χ/G/W panels                                          T
 Input: GW flavour                                                          G0W0
 
 Input: RI-RS grid optimization activated                                      T
 Input: RS points per AO function                                           10.0
 Input: Cutoff radius for atomic clusters                                  3.0 Å
 Input: Maximum grid optimization iterations                                 300
 
 Input: AUTO_RI basis optimization activated:                                  T
 Input: AUTO_RI number of RI functions per AO function:                      4.0
 Input: AUTO_RI frontier orbital window:                                  5.0 eV
 Input: AUTO_RI neighbor radius:                                           3.0 Å
 
 Cutoff radius for the truncated Coulomb operator in RI metric:            7.0 Å
 Regularization parameter of RI                                          0.0E+00
 Regularization parameter of minimax grids                               1.0E-06
 
 AUTO_RI| Number of automatic RI functions for χ, ε, W:                      340
 AUTO_RI| Total RI basis optimization time:                                1.5 s
  Decoupling Energy:                                               0.0000288525
 
 SCF direct band gap (eV)                                                   3.71
 Max. SCF eigval diff. (eV)                                               284.56
 E-Range for minimax grid                                                  76.77
 Number of Padé parameters for analytic continuation:                         16
 
 RI-RS basis radii (Å):
     Kind  Elem     r_AO (Å)     r_RI (Å)
        1    S         8.7963        6.1196
        2    O        12.8635        8.6829
 
 Started RI-RS grid optimization
 RI-RS grid initial normalized error                          3.086005054116E-05
 RI-RS grid optimization completed, execution time:                       39.8 s
 Normalized 3C error:                                                    6.9E-09
 Maximum absolute 3C error:                                              5.6E-04
 Optimized points outside molecular Voronoi cells:                            40 / 870
 Total grid points used for RI-RS:                                           870
 
 RI-RS grid row-blocks of ϕ_μ(r_l)                                            30
 RI-RS grid points per block (max)                                            32
 
 Percentage of non-zero matrix elements in ϕ_μ(r_l)                     100.00 %
 
 RI-RS memory estimate per MPI process:
   Available memory per process (system)                                82.71 GB
   Required for Z_lP (dense upper bound; actual is sparser)              0.00 GB
   Required for χ, W, Σ panels (peak per panel step)                     0.01 GB
   Required for Z_lP solve peak (D_local+ϕ, worst-case atom)             0.01 GB
   Worst-case local-grid number of grid points:                              870
   Worst-case memory D_local:                                            0.01 GB
 
 Started computing Z_lP
 Computed Z_lP (MPI rank 0) for atom          1 /  1,    Execution time    0.1 s
 Computed Z_lP (all MPI ranks) for all atoms,            Execution time    0.1 s

 Memory per MPI process after computing Z_lP:
 Available memory per MPI process                               82.7 GB
 Used memory per MPI process                                     1.9 GB
 Number of batches for χ, Σ matrices                                           1
 
 Percentage of non-zero matrix elements in Z_lP                         100.00 %
 Percentage of non-zero matrix elements in G_ll', χ_ll', W_ll'          100.00 %
 Percentage of non-zero matrix elements in χ_PQ for time point 1        100.00 %
 
 Computed χ(iτ,k=0) for time point            1 / 30,    Execution time    0.0 s
 Computed χ(iτ,k=0) for time point            2 / 30,    Execution time    0.0 s
 Computed χ(iτ,k=0) for time point            3 / 30,    Execution time    0.0 s
 Computed χ(iτ,k=0) for time point            4 / 30,    Execution time    0.0 s
 Computed χ(iτ,k=0) for time point            5 / 30,    Execution time    0.0 s
 Computed χ(iτ,k=0) for time point            6 / 30,    Execution time    0.0 s
 Computed χ(iτ,k=0) for time point            7 / 30,    Execution time    0.0 s
 Computed χ(iτ,k=0) for time point            8 / 30,    Execution time    0.0 s
 Computed χ(iτ,k=0) for time point            9 / 30,    Execution time    0.0 s
 Computed χ(iτ,k=0) for time point           10 / 30,    Execution time    0.0 s
 Computed χ(iτ,k=0) for time point           11 / 30,    Execution time    0.0 s
 Computed χ(iτ,k=0) for time point           12 / 30,    Execution time    0.0 s
 Computed χ(iτ,k=0) for time point           13 / 30,    Execution time    0.0 s
 Computed χ(iτ,k=0) for time point           14 / 30,    Execution time    0.0 s
 Computed χ(iτ,k=0) for time point           15 / 30,    Execution time    0.0 s
 Computed χ(iτ,k=0) for time point           16 / 30,    Execution time    0.0 s
 Computed χ(iτ,k=0) for time point           17 / 30,    Execution time    0.0 s
 Computed χ(iτ,k=0) for time point           18 / 30,    Execution time    0.0 s
 Computed χ(iτ,k=0) for time point           19 / 30,    Execution time    0.0 s
 Computed χ(iτ,k=0) for time point           20 / 30,    Execution time    0.0 s
 Computed χ(iτ,k=0) for time point           21 / 30,    Execution time    0.0 s
 Computed χ(iτ,k=0) for time point           22 / 30,    Execution time    0.0 s
 Computed χ(iτ,k=0) for time point           23 / 30,    Execution time    0.0 s
 Computed χ(iτ,k=0) for time point           24 / 30,    Execution time    0.0 s
 Computed χ(iτ,k=0) for time point           25 / 30,    Execution time    0.0 s
 Computed χ(iτ,k=0) for time point           26 / 30,    Execution time    0.0 s
 Computed χ(iτ,k=0) for time point           27 / 30,    Execution time    0.0 s
 Computed χ(iτ,k=0) for time point           28 / 30,    Execution time    0.0 s
 Computed χ(iτ,k=0) for time point           29 / 30,    Execution time    0.0 s
 Computed χ(iτ,k=0) for time point           30 / 30,    Execution time    0.0 s
 
 Cholesky decomposition failed, using diagonalization.
 Discarded eigenmodes:                                                         2
 Computed W(iτ),                                         Execution time    0.2 s
 
 Computed Σ^x(k=0),                                      Execution time    0.0 s
 
 Computed Σ^c(iτ) for time point              1 / 30,    Execution time    0.0 s
 Computed Σ^c(iτ) for time point              2 / 30,    Execution time    0.0 s
 Computed Σ^c(iτ) for time point              3 / 30,    Execution time    0.0 s
 Computed Σ^c(iτ) for time point              4 / 30,    Execution time    0.0 s
 Computed Σ^c(iτ) for time point              5 / 30,    Execution time    0.0 s
 Computed Σ^c(iτ) for time point              6 / 30,    Execution time    0.0 s
 Computed Σ^c(iτ) for time point              7 / 30,    Execution time    0.0 s
 Computed Σ^c(iτ) for time point              8 / 30,    Execution time    0.0 s
 Computed Σ^c(iτ) for time point              9 / 30,    Execution time    0.0 s
 Computed Σ^c(iτ) for time point             10 / 30,    Execution time    0.0 s
 Computed Σ^c(iτ) for time point             11 / 30,    Execution time    0.0 s
 Computed Σ^c(iτ) for time point             12 / 30,    Execution time    0.0 s
 Computed Σ^c(iτ) for time point             13 / 30,    Execution time    0.0 s
 Computed Σ^c(iτ) for time point             14 / 30,    Execution time    0.0 s
 Computed Σ^c(iτ) for time point             15 / 30,    Execution time    0.0 s
 Computed Σ^c(iτ) for time point             16 / 30,    Execution time    0.0 s
 Computed Σ^c(iτ) for time point             17 / 30,    Execution time    0.0 s
 Computed Σ^c(iτ) for time point             18 / 30,    Execution time    0.0 s
 Computed Σ^c(iτ) for time point             19 / 30,    Execution time    0.0 s
 Computed Σ^c(iτ) for time point             20 / 30,    Execution time    0.0 s
 Computed Σ^c(iτ) for time point             21 / 30,    Execution time    0.0 s
 Computed Σ^c(iτ) for time point             22 / 30,    Execution time    0.0 s
 Computed Σ^c(iτ) for time point             23 / 30,    Execution time    0.0 s
 Computed Σ^c(iτ) for time point             24 / 30,    Execution time    0.0 s
 Computed Σ^c(iτ) for time point             25 / 30,    Execution time    0.0 s
 Computed Σ^c(iτ) for time point             26 / 30,    Execution time    0.0 s
 Computed Σ^c(iτ) for time point             27 / 30,    Execution time    0.0 s
 Computed Σ^c(iτ) for time point             28 / 30,    Execution time    0.0 s
 Computed Σ^c(iτ) for time point             29 / 30,    Execution time    0.0 s
 Computed Σ^c(iτ) for time point             30 / 30,    Execution time    0.0 s
 
 SCF valence band maximum (eV):                                           -8.049
 SCF conduction band minimum (eV):                                        -4.342
 SCF indirect band gap (eV):                                               3.707
 SCF direct band gap (eV):                                                 3.707
 
 G0W0 valence band maximum (eV):                                         -11.537
 G0W0 conduction band minimum (eV):                                       -0.586
 G0W0 indirect band gap (eV):                                             10.952
 G0W0 direct band gap (eV):                                               10.952
 
 Hartree-Fock with SCF orbitals valence band maximum (eV):               -13.177
 Hartree-Fock with SCF orbitals conduction band minimum (eV)               0.603
 Hartree-Fock with SCF orbitals indirect band gap (eV):                   13.780
 Hartree-Fock with SCF orbitals direct band gap (eV):                     13.780

 ENERGY| Total FORCE_EVAL ( QS ) energy [hartree]            -42.246064736215601

 -------------------------------------------------------------------------------
 -                                                                             -
 -                                DBCSR STATISTICS                             -
 -                                                                             -
 -------------------------------------------------------------------------------
 COUNTER                                    TOTAL       BLAS       SMM       ACC
 flops     9 x     9 x     9                 1458     100.0%      0.0%      0.0%     
 flops     9 x     9 x    29                42282     100.0%      0.0%      0.0%     
 flops    29 x     9 x     9                56376     100.0%      0.0%      0.0%     
 flops     2 x   109 x     2               170912     100.0%      0.0%      0.0%     
 flops     2 x   115 x     2               180320     100.0%      0.0%      0.0%     
 flops     2 x     2 x   109               180504     100.0%      0.0%      0.0%     
 flops    29 x    29 x     9               181656     100.0%      0.0%      0.0%     
 flops     2 x   116 x     2               182816     100.0%      0.0%      0.0%     
 flops     2 x     2 x   115               190440     100.0%      0.0%      0.0%     
 flops     2 x     2 x   116               192096     100.0%      0.0%      0.0%     
 flops     2 x    29 x     2               235944     100.0%      0.0%      0.0%     
 flops     2 x     2 x    29               627096     100.0%      0.0%      0.0%     
 flops    29 x     9 x    29              1089936     100.0%      0.0%      0.0%     
 flops   109 x   109 x     2              3136584     100.0%      0.0%      0.0%     
 flops   109 x   115 x     2              3309240     100.0%      0.0%      0.0%     
 flops   115 x   109 x     2              3309240     100.0%      0.0%      0.0%     
 flops   116 x   109 x     2              3338016     100.0%      0.0%      0.0%     
 flops   109 x   116 x     2              3338016     100.0%      0.0%      0.0%     
 flops     2 x   109 x   109              3421728     100.0%      0.0%      0.0%     
 flops   115 x   115 x     2              3491400     100.0%      0.0%      0.0%     
 flops   116 x   115 x     2              3521760     100.0%      0.0%      0.0%     
 flops   115 x   116 x     2              3521760     100.0%      0.0%      0.0%     
 flops    29 x    29 x     2              3552384     100.0%      0.0%      0.0%     
 flops   116 x   116 x     2              3552384     100.0%      0.0%      0.0%     
 flops     2 x   109 x   115              3610080     100.0%      0.0%      0.0%     
 flops     2 x   115 x   109              3610080     100.0%      0.0%      0.0%     
 flops     2 x   109 x   116              3641472     100.0%      0.0%      0.0%     
 flops     2 x   116 x   109              3641472     100.0%      0.0%      0.0%     
 flops     2 x   115 x   115              3808800     100.0%      0.0%      0.0%     
 flops     2 x   115 x   116              3841920     100.0%      0.0%      0.0%     
 flops     2 x   116 x   115              3841920     100.0%      0.0%      0.0%     
 flops     2 x   116 x   116              3875328     100.0%      0.0%      0.0%     
 flops     2 x    29 x    29              9173628     100.0%      0.0%      0.0%     
 flops    32 x   109 x     2             25490304     100.0%      0.0%      0.0%     
 flops     2 x   109 x    32             25755392     100.0%      0.0%      0.0%     
 flops     2 x    32 x   109             25992576     100.0%      0.0%      0.0%     
 flops    32 x     2 x   109             26620416     100.0%      0.0%      0.0%     
 flops    32 x   115 x     2             26908160     100.0%      0.0%      0.0%     
 flops    32 x   116 x     2             27082752     100.0%      0.0%      0.0%     
 flops     2 x   115 x    32             27158400     100.0%      0.0%      0.0%     
 flops     2 x   116 x    32             27394560     100.0%      0.0%      0.0%     
 flops     2 x    32 x   115             27423360     100.0%      0.0%      0.0%     
 flops     2 x    32 x   116             27661824     100.0%      0.0%      0.0%     
 flops    32 x     2 x   115             28174080     100.0%      0.0%      0.0%     
 flops    32 x     2 x   116             28374528     100.0%      0.0%      0.0%     
 flops    32 x    29 x     2             35182336     100.0%      0.0%      0.0%     
 flops     2 x    29 x    32             36013824     100.0%      0.0%      0.0%     
 flops    32 x     2 x    29             91103616     100.0%      0.0%      0.0%     
 flops     2 x    32 x    29             91103616     100.0%      0.0%      0.0%     
 flops   109 x   109 x    32            470677696     100.0%      0.0%      0.0%     
 flops   109 x   115 x    32            478135040     100.0%      0.0%      0.0%     
 flops   109 x   116 x    32            483911168     100.0%      0.0%      0.0%     
 flops    32 x   109 x   109            492728832     100.0%      0.0%      0.0%     
 flops   115 x   109 x    32            496586560     100.0%      0.0%      0.0%     
 flops   116 x   109 x    32            500904704     100.0%      0.0%      0.0%     
 flops   115 x   115 x    32            504454400     100.0%      0.0%      0.0%     
 flops   116 x   115 x    32            508840960     100.0%      0.0%      0.0%     
 flops   115 x   116 x    32            510548480     100.0%      0.0%      0.0%     
 flops   116 x   116 x    32            514988032     100.0%      0.0%      0.0%     
 flops    32 x   109 x   115            519851520     100.0%      0.0%      0.0%     
 flops    32 x   115 x   109            519851520     100.0%      0.0%      0.0%     
 flops    32 x   109 x   116            524371968     100.0%      0.0%      0.0%     
 flops    32 x   116 x   109            524371968     100.0%      0.0%      0.0%     
 flops    29 x    29 x    32            529305216     100.0%      0.0%      0.0%     
 flops    32 x   115 x   115            548467200     100.0%      0.0%      0.0%     
 flops    32 x   115 x   116            553236480     100.0%      0.0%      0.0%     
 flops    32 x   116 x   115            553236480     100.0%      0.0%      0.0%     
 flops    32 x   116 x   116            558047232     100.0%      0.0%      0.0%     
 flops    32 x    29 x    29           1321002432     100.0%      0.0%      0.0%     
 flops    32 x   109 x    32           3744716800     100.0%      0.0%      0.0%     
 flops    32 x    32 x   109           3833339904     100.0%      0.0%      0.0%     
 flops    32 x   115 x    32           3951790080     100.0%      0.0%      0.0%     
 flops    32 x   116 x    32           3983777792     100.0%      0.0%      0.0%     
 flops    32 x    32 x   115           4057067520     100.0%      0.0%      0.0%     
 flops    32 x    32 x   116           4085932032     100.0%      0.0%      0.0%     
 flops    32 x    29 x    32           5291411456     100.0%      0.0%      0.0%     
 flops    32 x    32 x    29          13118920704     100.0%      0.0%      0.0%     
 flops inhomo. stacks                           0       0.0%      0.0%      0.0%
 flops total                        53.837783E+09     100.0%      0.0%      0.0%
 flops max/rank                     18.089502E+09     100.0%      0.0%      0.0%
 matmuls inhomo. stacks                         0       0.0%      0.0%      0.0%
 matmuls total                             558212     100.0%      0.0%      0.0%
 number of processed stacks                 52918     100.0%      0.0%      0.0%
 average stack size                                    10.5       0.0       0.0
 marketing flops                    70.034096E+09
 -------------------------------------------------------------------------------
 # multiplications                           3030
 max memory usage/rank              27.558965E+09
 # max total images/rank                        3
 # max 3D layers                                1
 # MPI messages exchanged                    3030
 MPI messages size (bytes):
  total size                         1.664554E+09
  min size                           0.000000E+00
  max size                           2.018400E+06
  average size                     549.357688E+03
 MPI breakdown and total messages size (bytes):
             size <=      128                 286                        0
       128 < size <=     8192                  32                   114048
      8192 < size <=    32768                  48                   968832
     32768 < size <=   131072                   0                        0
    131072 < size <=  4194304                2664               1663457248
   4194304 < size <= 16777216                   0                        0
  16777216 < size                               0                        0
 -------------------------------------------------------------------------------

 *** WARNING in dbcsr_mm.F:301 :: Using a non-square number of MPI ranks ***
 *** might lead to poor performance. Used ranks: 3 Suggested: 4 4        ***

 -------------------------------------------------------------------------------
 -                                                                             -
 -                      DBCSR MESSAGE PASSING PERFORMANCE                      -
 -                                                                             -
 -------------------------------------------------------------------------------
 ROUTINE             CALLS      AVE VOLUME [Bytes]
 MP_Bcast               78                     12.
 MP_Allreduce         2280                     26.
 MP_Alltoall          3385                  33368.
 MP_ISend             4848                 131577.
 MP_IRecv             4828                 133008.
 -------------------------------------------------------------------------------

 -------------------------------------------------------------------------------
 -                                                                             -
 -                                GRID STATISTICS                              -
 -                                                                             -
 -------------------------------------------------------------------------------
 LP    KERNEL             BACKEND                              COUNT     PERCENT
 6     collocate ortho    CPU                                   3132      49.86%
 6     integrate ortho    CPU                                   3132      49.86%
 0     collocate general  CPU                                     18       0.29%
 -------------------------------------------------------------------------------

 -------------------------------------------------------------------------------
 -                                                                             -
 -                          OFFLOAD MEMPOOL STATISTICS                         -
 -                                                                             -
 -------------------------------------------------------------------------------
 Memory consumption                Number of allocations  Used [MiB]  Size [MiB]
 Host                                                  6         260    21948082
 -------------------------------------------------------------------------------

 MEMORY| Estimated peak process memory [MiB]                                5934

 -------------------------------------------------------------------------------
 -                                                                             -
 -                         MESSAGE PASSING PERFORMANCE                         -
 -                                                                             -
 -------------------------------------------------------------------------------

 ROUTINE             CALLS      AVE VOLUME [Bytes]
 MP_Group                5
 MP_Bcast              387                 308454.
 MP_Allreduce         1483                   6442.
 MP_Sync                11
 MP_Alltoall            28              350609097.
 MP_SendRecv            18               28188444.
 MP_ISendRecv           16               22712000.
 MP_Wait                16
 MP_comm_split          11
 -------------------------------------------------------------------------------


 -------------------------------------------------------------------------------
 -                                                                             -
 -                           R E F E R E N C E S                               -
 -                                                                             -
 -------------------------------------------------------------------------------
 
 CP2K version 2026.2 (Development Version), the CP2K developers group (2026).
 CP2K is freely available from https://www.cp2k.org/ .
 
 M. Iannuzzi, J. Wilhelm, F. Stein, A. Bussy, H. Elgabarty, D. Golze, A. Hehn, 
 M. Graml, S. Marek, B. Sertcan Gökmen, C. Schran, H. Forbert, R. Z. 
 Khaliullin, A. Kozhevnikov, M. Taillefumier, R. Meli, V. V. Rybkin, M. Brehm, 
 R. Schade, O. Schütt, J. V. Pototschnig, H. Mirhosseini, A. Knüpfer, D. Marx, 
 M. Krack, J. Hutter, T. D. Kühne.
 J. Phys. Chem. B 130, 1237-1310 (2026).
 The CP2K Program Package Made Simple.
 https://doi.org/10.1021/acs.jpcb.5c05851

 M. Graml, K. Zollner, D. Hernangómez-Pérez, P. E. Faria Junior, J. Wilhelm.
 J. Chem. Theory Comput. 20, 2202-2208 (2024).
 Low-scaling GW algorithm applied to twisted transition-metal dichalcogenide 
 heterobilayers.
 https://doi.org/10.1021/acs.jctc.3c01230

 T. D. Kühne, M. Iannuzzi, M. Del Ben, V. V. Rybkin, P. Seewald, F. Stein, T. 
 Laino, R. Z. Khaliullin, O. Schütt, F. Schiffmann, D. Golze, J. Wilhelm, S. 
 Chulkov, M. H. Bani-Hashemian, V. Weber, U. Borstnik, M. Taillefumier, A. S. 
 Jakobovits, A. Lazzaro, H. Pabst, T. Müller, R. Schade, M. Guidon, S. 
 Andermatt, N. Holmberg, G. K. Schenter, A. Hehn, A. Bussy, F. Belleflamme, G. 
 Tabacchi, A. Glöß, M. Lass, I. Bethune, C. J. Mundy, C. Plessl, M. Watkins, 
 J. VandeVondele, M. Krack, J. Hutter.
 J. Chem. Phys. 152, 194103 (2020).
 CP2K: An electronic structure and molecular dynamics software package - 
 Quickstep: Efficient and accurate electronic structure calculations.
 https://doi.org/10.1063/5.0007045

 O. Schuett, P. Messmer, J. Hutter, J. VandeVondele.
 Electronic Structure Calculations on Graphics Processing Units, 173-190 (2016).
 GPU-Accelerated Sparse Matrix-Matrix Multiplication for Linear Scaling Density 
 Functional Theory.
 https://doi.org/10.1002/9781118670712.ch8

 U. Borstnik, J. VandeVondele, V. Weber, J. Hutter.
 Parallel Comput. 40, 47-58 (2014).
 Sparse matrix multiplication: The distributed block-compressed sparse row 
 library.
 https://doi.org/10.1016/j.parco.2014.03.012

 J. VandeVondele, J. Hutter.
 J. Chem. Phys. 127, 114105 (2007).
 Gaussian basis sets for accurate calculations on molecular systems in gas and 
 condensed phases.
 https://doi.org/10.1063/1.2770708

 J. VandeVondele, M. Krack, F. Mohamed, M. Parrinello, T. Chassaing, J. Hutter.
 Comput. Phys. Commun. 167, 103-128 (2005).
 QUICKSTEP: Fast and accurate density functional calculations using a mixed 
 Gaussian and plane waves approach.
 https://doi.org/10.1016/j.cpc.2004.12.014

 M. Krack.
 Theor. Chem. Acc. 114, 145-152 (2005).
 Pseudopotentials for H to Kr optimized for gradient-corrected 
 exchange-correlation functionals.
 https://doi.org/10.1007/s00214-005-0655-y

 M. Frigo, S. G. Johnson.
 Proc. IEEE 93, 216-231 (2005).
 The design and implementation of FFTW3.
 https://doi.org/10.1109/JPROC.2004.840301

 J. VandeVondele, J. Hutter.
 J. Chem. Phys. 118, 4365-4369 (2003).
 An efficient orbital transformation method for electronic structure 
 calculations.
 https://doi.org/10.1063/1.1543154

 C. Hartwigsen, S. Goedecker, J. Hutter.
 Phys. Rev. B 58, 3641-3662 (1998).
 Relativistic separable dual-space Gaussian pseudopotentials from H to Rn.
 https://doi.org/10.1103/PhysRevB.58.3641

 G. Lippert, J. Hutter, M. Parrinello.
 Mol. Phys. 92, 477-487 (1997).
 A hybrid Gaussian and plane wave density functional scheme.
 https://doi.org/10.1080/002689797170220

 S. Goedecker, M. Teter, J. Hutter.
 Phys. Rev. B 54, 1703-1710 (1996).
 Separable dual-space Gaussian pseudopotentials.
 https://doi.org/10.1103/PhysRevB.54.1703

 J. P. Perdew, K. Burke, M. Ernzerhof.
 Phys. Rev. Lett. 77, 3865-3868 (1996).
 Generalized gradient approximation made simple.
 https://doi.org/10.1103/PhysRevLett.77.3865

 P. E. Blöchl.
 J. Chem. Phys. 103, 7422-7428 (1995).
 Electrostatic decoupling of periodic images of plane‐wave‐expanded 
 densities and derived atomic point charges.
 https://doi.org/10.1063/1.470314

 R. H. Byrd, P. H. Lu, J. Nocedal, C. Y. Zhu.
 SIAM J. Sci. Comput. 16, 1190-1208 (1995).
 A Limited Memory Algorithm for Bound Constrained Optimization.
 https://doi.org/10.1137/0916069


 -------------------------------------------------------------------------------
 -                                                                             -
 -                                T I M I N G                                  -
 -                                                                             -
 -------------------------------------------------------------------------------
 SUBROUTINE                       CALLS  ASD         SELF TIME        TOTAL TIME MAXRANK
                                MAXIMUM       AVERAGE  MAXIMUM  AVERAGE  MAXIMUM
 CP2K                                 1  1.0    0.008    0.017   54.343   54.347       0
 qs_energies                          1  2.0    0.000    0.000   52.060   52.060       0
 qs_energies_properties               1  3.0    0.000    0.000   45.038   45.038       2
 post_scf_bandstructure               1  4.0    0.000    0.000   45.038   45.038       2
 run_gw                               1  5.0    0.000    0.000   45.023   45.031       2
 gw_calc_ri_rs_non_periodic           1  6.0    0.000    0.000   42.127   42.149       0
 optimize_ri_rs_grid                  1  7.0    0.000    0.000   41.200   41.226       0
 rirs_grid_LBFGS                      1  8.0    1.380    1.387   39.794   39.820       0
 evaluate_rirs_grid_cluster         230  9.0    3.388    3.455   38.023   38.342       2
 rirs_cluster_gradient_coordina     230 10.0   11.284   11.408   11.284   11.408       0
 rirs_cluster_gradient_products     230 10.0   10.017   10.137   10.017   10.137       1
 rirs_cluster_D_ll                  230 10.0    5.417    5.476    5.417    5.476       1
 scf_env_do_scf                       1  3.0    0.000    0.000    5.109    5.109       0
 qs_ks_build_kohn_sham_matrix         2  7.5    0.004    0.006    4.993    4.993       2
 fft_wrap_pw1pw2                     28 10.0    0.001    0.001    4.508    4.617       0
 fft_wrap_pw1pw2_300                 16 11.2    0.200    0.228    4.255    4.305       0
 init_scf_loop                        1  4.0    0.000    0.000    3.806    3.806       0
 qs_ks_update_qs_env                  2  5.0    0.000    0.000    3.802    3.803       0
 rebuild_ks_matrix                    1  6.0    0.000    0.000    3.802    3.802       1
 fft3d_ps                            28 12.0    1.716    1.958    3.180    3.550       1
 rirs_cluster_residual              230 10.0    3.053    3.093    3.053    3.093       1
 create_and_init_bs_env_for_gw        1  6.0    0.007    0.008    2.896    2.910       0
 qs_rho_update_rho_low                2  5.0    0.000    0.000    2.704    2.704       1
 calculate_rho_elec                   2  6.0    0.068    0.068    2.704    2.704       0
 qs_vxc_create                        2  8.5    0.000    0.000    2.577    2.622       1
 xc_vxc_pw_create                     1  9.0    0.053    0.054    2.577    2.622       0
 rirs_cluster_d_lP                  230 10.0    2.543    2.553    2.543    2.553       1
 rirs_cluster_AO_products           230 10.0    2.320    2.343    2.320    2.343       1
 xc_pw_derive                         6 11.0    0.000    0.000    1.928    2.032       0
 qs_init_subsys                       1  2.0    0.001    0.001    2.023    2.023       0
 qs_env_setup                         1  3.0    0.000    0.000    2.021    2.022       0
 qs_env_rebuild_pw_env                2  3.5    0.000    0.000    2.021    2.022       0
 pw_env_rebuild                       1  5.0    0.000    0.000    2.021    2.022       0
 pw_grid_setup                        5  5.2    0.000    0.000    2.015    2.015       1
 pw_grid_setup_internal               5  6.2    0.029    0.029    2.015    2.015       1
 density_rs2pw                        2  7.0    0.000    0.000    1.685    1.923       0
 mp_alltoall_z22v                    28 14.0    0.879    1.840    0.879    1.840       2
 pw_grid_sort                         5  7.2    1.196    1.209    1.750    1.787       2
 generate_auto_ri_basis               1  7.0    0.000    0.000    1.453    1.453       1
 init_scf_run                         1  3.0    0.000    0.000    1.433    1.433       0
 scf_env_initial_rho_setup            1  4.0    0.000    0.000    1.433    1.433       0
 mp_sum_d                           643  4.3    0.544    1.365    0.544    1.365       2
 xc_pw_divergence                     1 10.0    0.000    0.000    1.264    1.317       1
 xc_rho_set_and_dset_create           1 10.0    0.044    0.052    1.220    1.307       1
 scf_env_do_scf_inner_loop            1  4.0    0.000    0.000    1.302    1.303       0
 rirs_grid_build_clusters             1  8.0    0.629    0.655    1.167    1.210       1
 compute_V_xc                         1  7.0    0.000    0.000    1.191    1.191       2
 x_to_yz                             14 13.8    0.330    0.380    0.749    1.154       1
 yz_to_x                             14 12.2    0.251    0.283    0.710    1.110       1
 grid_collocate_task_list             2  7.0    0.924    1.073    0.924    1.073       1
 compute_AB_optimized_RI_basis        1  8.0    0.000    0.000    0.998    0.998       0
 compute_AB_optimized_RI_basis_       1  9.0    0.000    0.000    0.952    0.998       2
 sum_up_and_integrate                 2  8.5    0.000    0.000    0.957    0.983       1
 integrate_v_rspace                   2  9.5    0.000    0.000    0.942    0.974       2
 potential_pw2rs                      2 10.5    0.003    0.004    0.906    0.940       1
 compute_B_PQ_AB                      1 10.0    0.195    0.202    0.892    0.939       1
 transfer_rs2pw                       9  7.8    0.000    0.000    0.555    0.848       0
 qs_ks_ddapc                          2  8.5    0.000    0.000    0.746    0.788       0
 transfer_rs2pw_300                   3  8.3    0.243    0.251    0.475    0.780       0
 abc_contract_xsmm                  930  9.5    0.745    0.775    0.745    0.775       1
 pw_poisson_solve                     2  8.5    0.000    0.000    0.613    0.673       0
 sort_shells                          5  8.2    0.554    0.578    0.554    0.578       2
 mp_sendrecv_dv                      18  9.8    0.271    0.573    0.271    0.573       2
 contract_B_PQ                        6 11.7    0.448    0.476    0.517    0.558       1
 pw_gather_p                         14 11.2    0.466    0.481    0.466    0.481       0
 qs_energies_init_hamiltonians        1  3.0    0.000    0.000    0.480    0.480       1
 qs_env_update_s_mstruct              1  4.0    0.000    0.000    0.477    0.477       2
 pw_derive                           12 11.2    0.399    0.468    0.399    0.468       1
 pw_copy                             28 10.5    0.394    0.462    0.394    0.462       0
 pw_scatter_p                        14 12.8    0.389    0.448    0.389    0.448       0
 calculate_rho_core                   1  5.0    0.034    0.034    0.430    0.440       1
 pw_poisson_set                       3  8.3    0.000    0.000    0.326    0.386       0
 compute_Sigma_c_and_QP_energie       1  7.0    0.000    0.000    0.346    0.354       2
 cp_ddapc_apply_CD                    2  9.5    0.000    0.000    0.231    0.345       0
 compute_Sigma_c                      1  8.0    0.002    0.002    0.332    0.332       0
 pw_integral_ab_c1d_c1d_gs            4 10.0    0.245    0.252    0.276    0.322       0
 compute_M_pq_inv_and_V_pq            1  8.0    0.000    0.000    0.321    0.321       1
 contract_grid_panels_sigma_c        30  9.0    0.254    0.257    0.297    0.297       0
 compute_B_PQ_exchange                3 10.7    0.000    0.000    0.273    0.290       2
 compute_contracted_RI_matrix         2  9.0    0.000    0.000    0.285    0.285       1
 compute_optimized_RI_matrix_bl       4 10.0    0.047    0.063    0.209    0.282       1
 compute_B_PQ_transition              3 10.7    0.000    0.000    0.244    0.269       1
 initialize_ri_rs_grid                1  8.0    0.202    0.226    0.239    0.265       0
 fft_wrap_pw1pw2_100                  4 10.8    0.009    0.010    0.220    0.263       1
 compute_W                            1  7.0    0.000    0.000    0.235    0.235       0
 transfer_pw2rs                       8 11.5    0.000    0.000    0.235    0.235       2
 compute_M_PQ_AB                     40 11.0    0.000    0.000    0.173    0.231       1
 compute_M_PQ                        40 12.0    0.000    0.000    0.173    0.231       1
 int_operators_r12_ab_os             40 13.0    0.000    0.000    0.173    0.231       1
 int_operator_ab_os_low              40 14.0    0.052    0.068    0.173    0.231       1
 create_qs_kind_set                   1  2.0    0.000    0.000    0.225    0.229       2
 read_qs_kind                         2  3.0    0.105    0.108    0.225    0.229       0
 xc_functional_eval                   1 11.0    0.000    0.000    0.139    0.225       0
 pbe_lda_eval                         1 12.0    0.139    0.225    0.139    0.225       1
 setup_time_and_frequency_minim       1  7.0    0.000    0.000    0.211    0.224       0
 build_minimax_time_frequency_g       1  8.0    0.000    0.000    0.211    0.224       0
 fit_l_sq_weights                     3  9.0    0.211    0.224    0.211    0.224       1
 get_ddapc                            2 10.5    0.000    0.000    0.103    0.218       0
 get_mat_chi_Gamma_tau                1  7.0    0.000    0.001    0.199    0.199       0
 pw_axpy                             25  6.6    0.168    0.195    0.168    0.195       1
 contract_grid_panels                31  8.0    0.168    0.168    0.193    0.193       0
 transfer_pw2rs_300                   2 12.5    0.135    0.153    0.187    0.191       1
 copy_dbcsr_to_fm                   104  9.5    0.101    0.186    0.103    0.187       2
 pw_copy_to_array                    14 11.2    0.155    0.179    0.155    0.179       0
 mp_sum_dm                           10 10.1    0.071    0.156    0.071    0.156       2
 compute_fm_W_freq                   30  8.0    0.000    0.000    0.148    0.148       0
 pw_grid_assign                       5  7.2    0.124    0.146    0.142    0.146       2
 parallel_gemm_fm_gemm              431  9.6    0.000    0.000    0.135    0.136       2
 cp_fm_gemm                         434 10.5    0.135    0.136    0.135    0.136       2
 compute_Z_lP                         1  7.0    0.000    0.000    0.135    0.135       0
 compute_Z_lP_auto_ri                 1  8.0    0.000    0.000    0.135    0.135       1
 compute_AA_optimized_RI_basis        1  8.0    0.000    0.000    0.134    0.134       0
 parser_read_line                 55230  4.0    0.010    0.010    0.120    0.125       0
 compute_d_lp_auto_ri_batch           1  9.0    0.000    0.000    0.112    0.123       0
 compute_d_lp_auto_ri_atom            1 10.0    0.045    0.066    0.111    0.123       0
 pw_copy_from_array                  14 12.8    0.105    0.121    0.105    0.121       0
 parser_read_line_low                58  5.0    0.023    0.063    0.110    0.116       0
 broadcast_input_information         58  6.0    0.011    0.020    0.087    0.113       0
 pw_grid_remap                        4  8.0    0.019    0.019    0.090    0.112       0
 mp_waitall_1                        16 13.5    0.069    0.107    0.069    0.107       2
 operator2                        26937 15.0    0.077    0.102    0.077    0.102       1
 mp_sum_im3                           5  9.0    0.071    0.093    0.071    0.093       1
 mp_bcast_dm                          8  9.5    0.037    0.088    0.037    0.088       2
 local_gemm                        2472 12.8    0.069    0.082    0.069    0.082       1
 mp_bcast_i_src                     237  7.0    0.055    0.082    0.055    0.082       1
 compute_B_PQ_AA                      3  9.0    0.000    0.000    0.039    0.075       1
 transfer_rs2pw_100                   2  9.0    0.034    0.038    0.067    0.074       2
 compute_int_3c                       2  9.0    0.043    0.048    0.063    0.069       0
 cp_ddapc_init                        1  5.0    0.000    0.000    0.046    0.066       1
 cp_ddapc_create                      1  6.0    0.000    0.000    0.046    0.066       1
 pw_zero                             25  4.7    0.058    0.066    0.058    0.066       1
 solve_AB_eigenproblem                1 10.0    0.044    0.047    0.059    0.062       2
 ab_contract                      28242 14.7    0.045    0.062    0.045    0.062       1
 mp_sum_root_rm                       3 10.0    0.025    0.059    0.025    0.059       2
 mp_sum_iv                          144 10.0    0.035    0.054    0.035    0.054       0
 -------------------------------------------------------------------------------

 The number of warnings for this run is : 0
 
 -------------------------------------------------------------------------------
  **** **** ******  **  PROGRAM ENDED AT                 2026-10-03 12:15:38.330
 ***** ** ***  *** **   PROGRAM RAN ON                                  n2cn0342
 **    ****   ******    PROGRAM RAN BY                                  eprop2d1
 ***** **    ** ** **   PROGRAM PROCESS ID                               1312998
  **** **  *******  **  PROGRAM STOPPED IN /scratch/hpc-prf-metdyn/eprop2d1_Jan/
                                           53_benchmark_RI_opt/418_gw100_fig5_fu
                                           ll_epsfilter_1e12_20261002/calculatio
                                           ns/rc3p0/ri4_rs10/83_SO2
