 DBCSR| CPU Multiplication driver                                           XSMM (U)
 DBCSR| Multrec recursion limit                                              512 (U)
 DBCSR| Multiplication stack size                                           1000 (D)
 DBCSR| Maximum elements for images                                    UNLIMITED (U)
 DBCSR| Multiplicative factor virtual images                                   1 (U)
 DBCSR| Use multiplication densification                                       T (D)
 DBCSR| Multiplication size stacks                                             3 (U)
 DBCSR| Use memory pool for CPU allocation                                     F (U)
 DBCSR| Number of 3D layers                                               SINGLE (U)
 DBCSR| Use MPI memory allocation                                              F (U)
 DBCSR| Use RMA algorithm                                                      F (U)
 DBCSR| Use Communication thread                                               T (U)
 DBCSR| Communication thread load                                             64 (D)
 DBCSR| MPI: My process id                                                     0
 DBCSR| MPI: Number of processes                                              16
 DBCSR| OMP: Current number of threads                                         7
 DBCSR| OMP: Max number of threads                                             7
 DBCSR| Split modifier for TAS multiplication algorithm                  1.0E+00 (U)


  **** **** ******  **  PROGRAM STARTED AT               2026-10-03 18:52:40.992
 ***** ** ***  *** **   PROGRAM STARTED ON                              n2cn0767
 **    ****   ******    PROGRAM STARTED BY                              eprop2d1
 ***** **    ** ** **   PROGRAM PROCESS ID                               1329124
  **** **  *******  **  PROGRAM STARTED IN /scratch/hpc-prf-metdyn/eprop2d1_Jan/
                                           53_benchmark_RI_opt/418_gw100_fig5_fu
                                           ll_epsfilter_1e12_20261002/calculatio
                                           ns/rc5p0/ri3_rs04/29_C8H8

 CP2K| version string:                 CP2K version 2026.2 (Development Version)
 CP2K| source code revision number:                                   0671c5aa6c
 CP2K| cp2kflags: omp libint fftw3 libxc parallel scalapack openblas            
 CP2K| is freely available from                            https://www.cp2k.org/
 CP2K| Program compiled at                                   2026-09-20 09:25:26
 CP2K| Program compiled on                                              n2login5
 CP2K| Program compiled for                                               x86_64
 CP2K| Data directory path    /scratch/hpc-prf-metdyn/eprop2d1_Jan/53_benchmark_
 CP2K| Input file name        /scratch/hpc-prf-metdyn/eprop2d1_Jan/53_benchmark_
 
 eprop2d1@n2cn0767 has created rank and process                      0   1329124
 eprop2d1@n2cn0767 has created rank and process                      1   1329125
 eprop2d1@n2cn0767 has created rank and process                      2   1329126
 eprop2d1@n2cn0767 has created rank and process                      3   1329127
 eprop2d1@n2cn0767 has created rank and process                      4   1329128
 eprop2d1@n2cn0767 has created rank and process                      5   1329129
 eprop2d1@n2cn0767 has created rank and process                      6   1329130
 eprop2d1@n2cn0767 has created rank and process                      7   1329131
 eprop2d1@n2cn0767 has created rank and process                      8   1329132
 eprop2d1@n2cn0767 has created rank and process                      9   1329133
 eprop2d1@n2cn0767 has created rank and process                     10   1329134
 eprop2d1@n2cn0767 has created rank and process                     11   1329135
 eprop2d1@n2cn0767 has created rank and process                     12   1329136
 eprop2d1@n2cn0767 has created rank and process                     13   1329137
 eprop2d1@n2cn0767 has created rank and process                     14   1329138
 eprop2d1@n2cn0767 has created rank and process                     15   1329139
 
 eprop2d1@n2cn0767 is running                                       16 processes

 GLOBAL| Force Environment number                                              1
 GLOBAL| Basis set file name            /scratch/hpc-prf-metdyn/eprop2d1_Jan/53_
 GLOBAL| Potential file name            /scratch/hpc-prf-metdyn/eprop2d1_Jan/53_
 GLOBAL| MM Potential file name                                     MM_POTENTIAL
 GLOBAL| Coordinate file name                                      __STD_INPUT__
 GLOBAL| Method name                                                        CP2K
 GLOBAL| Project name                                             g418_e304_m029
 GLOBAL| Run type                                                         ENERGY
 GLOBAL| FFT library                                                       FFTW3
 GLOBAL| Diagonalization library                                       ScaLAPACK
 GLOBAL| Cholesky decomposition library                                ScaLAPACK
 GLOBAL| DGEMM library                                                      BLAS
 GLOBAL| Direct generalized diagonalization requested                          F
 GLOBAL| Orthonormality check for eigenvectors                          DISABLED
 GLOBAL| Matrix multiplication library                                 ScaLAPACK
 GLOBAL| All-to-all communication in single precision                          F
 GLOBAL| Grid backend                                                       AUTO
 GLOBAL| Global print level                                                  LOW
 GLOBAL| MPI I/O enabled                                                       T
 GLOBAL| Total number of message passing processes                            16
 GLOBAL| Number of distributed systems (nodes)                                 1
 GLOBAL| Number of threads for this process                                    7
 GLOBAL| This output is from process                                           0
 GLOBAL| OpenMP stack size per thread (OMP_STACKSIZE)                       512M
 GLOBAL| CPU model name                          AMD EPYC 7763 64-Core Processor

 MEMORY| system memory details [Kb]
 MEMORY|                        rank 0           min           max       average
 MEMORY| MemTotal            263897552     263897552     263897552     263897552
 MEMORY| MemFree             248508068     248508068     248508068     248508068
 MEMORY| Buffers                335492        335492        335492        335492
 MEMORY| Cached                7356360       7356360       7356360       7356360
 MEMORY| Slab                  1627872       1627872       1627872       1627872
 MEMORY| SReclaimable           284956        284956        284956        284956
 MEMORY| MemLikelyFree       256484876     256484876     256484876     256484876


 GENERATE|  Preliminary Number of Bonds generated:                             0
 GENERATE|  Achieved consistency in connectivity generation.

 *******************************************************************************
 *******************************************************************************
 **                                                                           **
 **     #####                         ##              ##                      **
 **    ##   ##            ##          ##              ##                      **
 **   ##     ##                       ##            ######                    **
 **   ##     ##  ##   ##  ##   #####  ##  ##   ####   ##    #####    #####    **
 **   ##     ##  ##   ##  ##  ##      ## ##   ##      ##   ##   ##  ##   ##   **
 **   ##  ## ##  ##   ##  ##  ##      ####     ###    ##   ######   ######    **
 **    ##  ###   ##   ##  ##  ##      ## ##      ##   ##   ##       ##        **
 **     #######   #####   ##   #####  ##  ##  ####    ##    #####   ##        **
 **           ##                                                    ##        **
 **                                                                           **
 **                                                ... make the atoms dance   **
 **                                                                           **
 **            Copyright (C) by CP2K developers group (2000-2026)             **
 **                      J. Chem. Phys. 152, 194103 (2020)                    **
 **                                                                           **
 *******************************************************************************


 TOTAL NUMBERS AND MAXIMUM NUMBERS

  Total number of            - Atomic kinds:                                   2
                             - Atoms:                                         16
                             - Shell sets:                                    16
                             - Shells:                                       112
                             - Primitive Cartesian functions:                104
                             - Cartesian basis functions:                    344
                             - Spherical basis functions:                    304

  Maximum angular momentum of- Orbital basis functions:                        3
                             - Local part of the GTH pseudopotential:          2
                             - Non-local part of the GTH pseudopotential:      0


 SCF PARAMETERS         Density guess:                                   RESTART
                        --------------------------------------------------------
                        max_scf:                                             500
                        max_scf_history:                                       0
                        max_diis:                                              4
                        --------------------------------------------------------
                        eps_scf:                                        1.00E-08
                        eps_scf_history:                                0.00E+00
                        eps_diis:                                       0.00E+00
                        eps_eigval:                                     1.00E-05
                        --------------------------------------------------------
                        level_shift [a.u.]:                             0.000000
                        --------------------------------------------------------
                        Outer loop SCF in use 
                        No variables optimised in outer loop
                        eps_scf                                         1.00E-08
                        max_scf                                               20
                        No outer loop optimization
                        step_size                                       5.00E-01

 Extrapolation method: initial_guess

 Number of electrons:                                                         40
 Number of occupied orbitals:                                                 20
 Number of molecular orbitals:                                                20

 Number of orbital functions:                                                304
 Number of independent orbital functions:                                    304


 SCF WAVEFUNCTION OPTIMIZATION

  ----------------------------------- OT ---------------------------------------
  Minimizer      : DIIS                : direct inversion
                                         in the iterative subspace
                                         using   7 DIIS vectors
                                         safer DIIS on
  Preconditioner : FULL_KINETIC        : inversion of T + eS
  Lattice FFT   : OFF
  Precond_solver : DEFAULT
  stepsize       :    0.15000000                  energy_gap     :    0.20000000
  eps_taylor     :   0.10000E-15                  max_taylor     :             4
  ----------------------------------- OT ---------------------------------------

  Step     Update method      Time    Convergence         Total energy    Change
  ------------------------------------------------------------------------------
  Decoupling Energy:                                               0.0000000001
     1 OT DIIS     0.15E+00    1.9     0.00000003       -50.1776941124 -5.02E+01
  Decoupling Energy:                                               0.0000000001
     2 OT DIIS     0.15E+00    2.2     0.00000002       -50.1776941124 -4.62E-13
  Decoupling Energy:                                               0.0000000001
     3 OT DIIS     0.15E+00    2.2     0.00000001       -50.1776941124 -8.17E-13
  Decoupling Energy:                                               0.0000000001
     4 OT DIIS     0.15E+00    2.2     0.00000001       -50.1776941124 -3.34E-13
  Decoupling Energy:                                               0.0000000001
     5 OT DIIS     0.15E+00    2.2     8.0419E-09       -50.1776941124 -3.98E-13

  *** SCF run converged in     5 steps ***


  Electronic density on regular grids:        -40.0000000000        0.0000000000
  Core density on regular grids:               40.0000000000       -0.0000000000
  Total charge density on r-space grids:       -0.0000000000
  Total charge density g-space grids:          -0.0000000000

  Overlap energy of the core charge distribution:               0.00000546445659
  Self energy of the core charge distribution:               -117.96385508507682
  Core Hamiltonian energy:                                     37.21049710349963
  Hartree energy:                                              47.27259225711730
  Exchange-correlation energy:                                -16.69693385236915

  Total energy:                                               -50.17769411237244

  outer SCF iter =    1 RMS gradient =   0.80E-08 energy =        -50.1776941124
  outer SCF loop converged in   1 iterations or    5 steps

  
 -------------------------------------------------------------------------------
 -                                                                             -
 -                          BANDSTRUCTURE CALCULATION                          -
 -                                                                             -
 -------------------------------------------------------------------------------
  
 Number of occupied molecular orbitals (MOs) = Number of occupied bands       20
 Number of unoccupied (= virtual) MOs = Number of unoccupied bands           284
 Number of Gaussian basis functions for MOs                                  304
  
 -------------------------------------------------------------------------------
 -                                                                             -
 -                                GW CALCULATION                               -
 -                                                                             -
 -------------------------------------------------------------------------------
  
 Input: Number of time/freq. points                                           30
 Input: ω_max for fitting Σ(iω) (eV)                                        10.0
 Input: Filter threshold for sparse tensor operations                    1.0E-12
 Input: Apply Hedin shift                                                      F
 Detected: Available memory per MPI process                              13.8 GB
 
 Input: RI-RS Tikhonov regularization                                   1.00E-04
 Input: AO grid hard cutoff radius                                        8.00 Å
 Input: MPI ranks per atom in Z_lP solve                                      -1
 Input: Keep sparsity in χ/G/W panels                                          T
 Input: GW flavour                                                          G0W0
 
 Input: RI-RS grid optimization activated                                      T
 Input: RS points per AO function                                            4.0
 Input: Cutoff radius for atomic clusters                                  5.0 Å
 Input: Maximum grid optimization iterations                                 300
 
 Input: AUTO_RI basis optimization activated:                                  T
 Input: AUTO_RI number of RI functions per AO function:                      3.0
 Input: AUTO_RI frontier orbital window:                                  5.0 eV
 Input: AUTO_RI neighbor radius:                                           3.0 Å
 
 Cutoff radius for the truncated Coulomb operator in RI metric:            7.0 Å
 Regularization parameter of RI                                          0.0E+00
 Regularization parameter of minimax grids                               1.0E-06
 
 AUTO_RI| Number of automatic RI functions for χ, ε, W:                      912
 AUTO_RI| Total RI basis optimization time:                                3.0 s
  Decoupling Energy:                                               0.0000000001
 
 SCF direct band gap (eV)                                                   2.99
 Max. SCF eigval diff. (eV)                                               267.82
 E-Range for minimax grid                                                  89.66
 Number of Padé parameters for analytic continuation:                         16
 
 RI-RS basis radii (Å):
     Kind  Elem     r_AO (Å)     r_RI (Å)
        1    C        15.9835       10.1279
        2    H        13.9082        8.7963
 
 Started RI-RS grid optimization
 RI-RS grid initial normalized error                          3.663095131680E-02
 RI-RS grid optimization completed, execution time:                     1774.9 s
 Normalized 3C error:                                                    6.5E-07
 Maximum absolute 3C error:                                              9.6E-03
 Optimized points outside molecular Voronoi cells:                           468 / 1216
 Total grid points used for RI-RS:                                          1216
 
 RI-RS grid row-blocks of ϕ_μ(r_l)                                            48
 RI-RS grid points per block (max)                                            32
 
 Percentage of non-zero matrix elements in ϕ_μ(r_l)                     100.00 %
 
 RI-RS memory estimate per MPI process:
   Available memory per process (system)                                15.85 GB
   Required for Z_lP (dense upper bound; actual is sparser)              0.00 GB
   Required for χ, W, Σ panels (peak per panel step)                     0.00 GB
   Required for Z_lP solve peak (D_local+ϕ, worst-case atom)             0.02 GB
   Worst-case local-grid number of grid points:                             1216
   Worst-case memory D_local:                                            0.01 GB
 
 Started computing Z_lP
 Computed Z_lP (MPI rank 0) for atom          1 /  1,    Execution time    0.8 s
 Computed Z_lP (all MPI ranks) for all atoms,            Execution time    0.9 s

 Memory per MPI process after computing Z_lP:
 Available memory per MPI process                               15.7 GB
 Used memory per MPI process                                     1.0 GB
 Number of batches for χ, Σ matrices                                           1
 
 Percentage of non-zero matrix elements in Z_lP                         100.00 %
 Percentage of non-zero matrix elements in G_ll', χ_ll', W_ll'          100.00 %
 Percentage of non-zero matrix elements in χ_PQ for time point 1        100.00 %
 
 Computed χ(iτ,k=0) for time point            1 / 30,    Execution time    0.1 s
 Computed χ(iτ,k=0) for time point            2 / 30,    Execution time    0.0 s
 Computed χ(iτ,k=0) for time point            3 / 30,    Execution time    0.0 s
 Computed χ(iτ,k=0) for time point            4 / 30,    Execution time    0.0 s
 Computed χ(iτ,k=0) for time point            5 / 30,    Execution time    0.0 s
 Computed χ(iτ,k=0) for time point            6 / 30,    Execution time    0.0 s
 Computed χ(iτ,k=0) for time point            7 / 30,    Execution time    0.0 s
 Computed χ(iτ,k=0) for time point            8 / 30,    Execution time    0.0 s
 Computed χ(iτ,k=0) for time point            9 / 30,    Execution time    0.0 s
 Computed χ(iτ,k=0) for time point           10 / 30,    Execution time    0.0 s
 Computed χ(iτ,k=0) for time point           11 / 30,    Execution time    0.0 s
 Computed χ(iτ,k=0) for time point           12 / 30,    Execution time    0.0 s
 Computed χ(iτ,k=0) for time point           13 / 30,    Execution time    0.0 s
 Computed χ(iτ,k=0) for time point           14 / 30,    Execution time    0.0 s
 Computed χ(iτ,k=0) for time point           15 / 30,    Execution time    0.0 s
 Computed χ(iτ,k=0) for time point           16 / 30,    Execution time    0.0 s
 Computed χ(iτ,k=0) for time point           17 / 30,    Execution time    0.0 s
 Computed χ(iτ,k=0) for time point           18 / 30,    Execution time    0.0 s
 Computed χ(iτ,k=0) for time point           19 / 30,    Execution time    0.0 s
 Computed χ(iτ,k=0) for time point           20 / 30,    Execution time    0.0 s
 Computed χ(iτ,k=0) for time point           21 / 30,    Execution time    0.0 s
 Computed χ(iτ,k=0) for time point           22 / 30,    Execution time    0.0 s
 Computed χ(iτ,k=0) for time point           23 / 30,    Execution time    0.0 s
 Computed χ(iτ,k=0) for time point           24 / 30,    Execution time    0.0 s
 Computed χ(iτ,k=0) for time point           25 / 30,    Execution time    0.0 s
 Computed χ(iτ,k=0) for time point           26 / 30,    Execution time    0.0 s
 Computed χ(iτ,k=0) for time point           27 / 30,    Execution time    0.0 s
 Computed χ(iτ,k=0) for time point           28 / 30,    Execution time    0.0 s
 Computed χ(iτ,k=0) for time point           29 / 30,    Execution time    0.0 s
 Computed χ(iτ,k=0) for time point           30 / 30,    Execution time    0.0 s
 
 Computed W(iτ),                                         Execution time    1.1 s
 
 Computed Σ^x(k=0),                                      Execution time    0.0 s
 
 Computed Σ^c(iτ) for time point              1 / 30,    Execution time    0.0 s
 Computed Σ^c(iτ) for time point              2 / 30,    Execution time    0.0 s
 Computed Σ^c(iτ) for time point              3 / 30,    Execution time    0.0 s
 Computed Σ^c(iτ) for time point              4 / 30,    Execution time    0.0 s
 Computed Σ^c(iτ) for time point              5 / 30,    Execution time    0.0 s
 Computed Σ^c(iτ) for time point              6 / 30,    Execution time    0.0 s
 Computed Σ^c(iτ) for time point              7 / 30,    Execution time    0.0 s
 Computed Σ^c(iτ) for time point              8 / 30,    Execution time    0.0 s
 Computed Σ^c(iτ) for time point              9 / 30,    Execution time    0.0 s
 Computed Σ^c(iτ) for time point             10 / 30,    Execution time    0.0 s
 Computed Σ^c(iτ) for time point             11 / 30,    Execution time    0.0 s
 Computed Σ^c(iτ) for time point             12 / 30,    Execution time    0.0 s
 Computed Σ^c(iτ) for time point             13 / 30,    Execution time    0.0 s
 Computed Σ^c(iτ) for time point             14 / 30,    Execution time    0.0 s
 Computed Σ^c(iτ) for time point             15 / 30,    Execution time    0.0 s
 Computed Σ^c(iτ) for time point             16 / 30,    Execution time    0.0 s
 Computed Σ^c(iτ) for time point             17 / 30,    Execution time    0.0 s
 Computed Σ^c(iτ) for time point             18 / 30,    Execution time    0.0 s
 Computed Σ^c(iτ) for time point             19 / 30,    Execution time    0.0 s
 Computed Σ^c(iτ) for time point             20 / 30,    Execution time    0.0 s
 Computed Σ^c(iτ) for time point             21 / 30,    Execution time    0.0 s
 Computed Σ^c(iτ) for time point             22 / 30,    Execution time    0.0 s
 Computed Σ^c(iτ) for time point             23 / 30,    Execution time    0.0 s
 Computed Σ^c(iτ) for time point             24 / 30,    Execution time    0.0 s
 Computed Σ^c(iτ) for time point             25 / 30,    Execution time    0.0 s
 Computed Σ^c(iτ) for time point             26 / 30,    Execution time    0.0 s
 Computed Σ^c(iτ) for time point             27 / 30,    Execution time    0.0 s
 Computed Σ^c(iτ) for time point             28 / 30,    Execution time    0.0 s
 Computed Σ^c(iτ) for time point             29 / 30,    Execution time    0.0 s
 Computed Σ^c(iτ) for time point             30 / 30,    Execution time    0.0 s
 
 SCF valence band maximum (eV):                                           -5.287
 SCF conduction band minimum (eV):                                        -2.300
 SCF indirect band gap (eV):                                               2.987
 SCF direct band gap (eV):                                                 2.987
 
 G0W0 valence band maximum (eV):                                          -7.718
 G0W0 conduction band minimum (eV):                                        0.396
 G0W0 indirect band gap (eV):                                              8.114
 G0W0 direct band gap (eV):                                                8.114
 
 Hartree-Fock with SCF orbitals valence band maximum (eV):                -7.802
 Hartree-Fock with SCF orbitals conduction band minimum (eV)               1.962
 Hartree-Fock with SCF orbitals indirect band gap (eV):                    9.763
 Hartree-Fock with SCF orbitals direct band gap (eV):                      9.763

 ENERGY| Total FORCE_EVAL ( QS ) energy [hartree]            -50.177694112372443

 -------------------------------------------------------------------------------
 -                                                                             -
 -                                DBCSR STATISTICS                             -
 -                                                                             -
 -------------------------------------------------------------------------------
 COUNTER                                    TOTAL       BLAS       SMM       ACC
 flops    20 x    20 x    20                80000       0.0%    100.0%      0.0%     
 flops     9 x    20 x    20               864000       0.0%    100.0%      0.0%     
 flops    58 x    20 x    20              1113600       0.0%    100.0%      0.0%     
 flops    38 x    20 x    20              1459200       0.0%    100.0%      0.0%     
 flops    29 x    20 x    20              1670400       0.0%    100.0%      0.0%     
 flops     4 x    57 x     4              2588256       0.0%    100.0%      0.0%     
 flops     9 x    20 x     9              2903040       0.0%    100.0%      0.0%     
 flops     4 x    69 x     4              3141984       0.0%    100.0%      0.0%     
 flops     4 x    71 x     4              3208064       0.0%    100.0%      0.0%     
 flops     9 x    20 x    76              3283200       0.0%    100.0%      0.0%     
 flops     4 x    39 x     4              3523104       0.0%    100.0%      0.0%     
 flops     4 x    40 x     4              3590400       0.0%    100.0%      0.0%     
 flops     4 x    83 x     4              3752928       0.0%    100.0%      0.0%     
 flops    58 x    20 x    76              4231680       0.0%    100.0%      0.0%     
 flops    57 x    57 x     4              4548600       0.0%    100.0%      0.0%     
 flops     4 x     9 x     4              5475456       0.0%    100.0%      0.0%     
 flops    57 x    69 x     4              5506200       0.0%    100.0%      0.0%     
 flops    69 x    57 x     4              5506200       0.0%    100.0%      0.0%     
 flops    38 x    20 x    76              5544960       0.0%    100.0%      0.0%     
 flops    57 x    71 x     4              5665800       0.0%    100.0%      0.0%     
 flops    71 x    57 x     4              5665800       0.0%    100.0%      0.0%     
 flops    39 x    57 x     4              6224400       0.0%    100.0%      0.0%     
 flops    57 x    39 x     4              6224400       0.0%    100.0%      0.0%     
 flops    29 x    20 x    76              6347520       0.0%    100.0%      0.0%     
 flops    57 x    80 x     4              6384000       0.0%    100.0%      0.0%     
 flops    57 x    40 x     4              6384000       0.0%    100.0%      0.0%     
 flops    80 x    57 x     4              6384000       0.0%    100.0%      0.0%     
 flops    40 x    57 x     4              6384000       0.0%    100.0%      0.0%     
 flops     4 x    36 x     4              6492672       0.0%    100.0%      0.0%     
 flops    69 x    69 x     4              6665400       0.0%    100.0%      0.0%     
 flops     4 x    57 x    39              6829056       0.0%    100.0%      0.0%     
 flops    71 x    69 x     4              6858600       0.0%    100.0%      0.0%     
 flops    69 x    71 x     4              6858600       0.0%    100.0%      0.0%     
 flops     4 x    57 x    40              7004160       0.0%    100.0%      0.0%     
 flops    71 x    71 x     4              7057400       0.0%    100.0%      0.0%     
 flops    39 x    69 x     4              7534800       0.0%    100.0%      0.0%     
 flops    69 x    39 x     4              7534800       0.0%    100.0%      0.0%     
 flops    40 x    69 x     4              7728000       0.0%    100.0%      0.0%     
 flops    69 x    40 x     4              7728000       0.0%    100.0%      0.0%     
 flops    80 x    69 x     4              7728000       0.0%    100.0%      0.0%     
 flops    69 x    80 x     4              7728000       0.0%    100.0%      0.0%     
 flops    39 x    71 x     4              7753200       0.0%    100.0%      0.0%     
 flops    71 x    39 x     4              7753200       0.0%    100.0%      0.0%     
 flops    80 x    71 x     4              7952000       0.0%    100.0%      0.0%     
 flops    71 x    80 x     4              7952000       0.0%    100.0%      0.0%     
 flops    40 x    71 x     4              7952000       0.0%    100.0%      0.0%     
 flops    71 x    40 x     4              7952000       0.0%    100.0%      0.0%     
 flops     4 x    69 x    39              8266752       0.0%    100.0%      0.0%     
 flops     4 x    69 x    40              8478720       0.0%    100.0%      0.0%     
 flops     4 x    71 x    39              8506368       0.0%    100.0%      0.0%     
 flops    39 x    39 x     4              8517600       0.0%    100.0%      0.0%     
 flops     4 x    71 x    40              8724480       0.0%    100.0%      0.0%     
 flops    39 x    80 x     4              8736000       0.0%    100.0%      0.0%     
 flops    39 x    40 x     4              8736000       0.0%    100.0%      0.0%     
 flops    80 x    39 x     4              8736000       0.0%    100.0%      0.0%     
 flops    40 x    39 x     4              8736000       0.0%    100.0%      0.0%     
 flops    40 x    40 x     4              8960000       0.0%    100.0%      0.0%     
 flops    80 x    80 x     4              8960000       0.0%    100.0%      0.0%     
 flops    80 x    40 x     4              8960000       0.0%    100.0%      0.0%     
 flops    40 x    80 x     4              8960000       0.0%    100.0%      0.0%     
 flops     4 x    39 x    39              9345024       0.0%    100.0%      0.0%     
 flops    29 x    20 x     9              9354240       0.0%    100.0%      0.0%     
 flops     9 x    20 x    29              9354240       0.0%    100.0%      0.0%     
 flops     4 x    39 x    40              9584640       0.0%    100.0%      0.0%     
 flops     4 x    40 x    39              9584640       0.0%    100.0%      0.0%     
 flops     4 x    40 x    40              9830400       0.0%    100.0%      0.0%     
 flops     4 x    83 x    39              9944064       0.0%    100.0%      0.0%     
 flops     4 x    83 x    40             10199040       0.0%    100.0%      0.0%     
 flops     4 x     4 x   213             10469376       0.0%    100.0%      0.0%     
 flops     4 x     4 x   226             11108352       0.0%    100.0%      0.0%     
 flops     4 x     4 x     9             11239488       0.0%    100.0%      0.0%     
 flops     4 x     4 x   230             11304960       0.0%    100.0%      0.0%     
 flops    36 x    57 x     4             11491200       0.0%    100.0%      0.0%     
 flops    57 x    36 x     4             11491200       0.0%    100.0%      0.0%     
 flops     4 x    57 x    36             12607488       0.0%    100.0%      0.0%     
 flops     9 x     9 x     4             12841416       0.0%    100.0%      0.0%     
 flops    20 x    57 x     4             13351680       0.0%    100.0%      0.0%     
 flops     4 x    57 x    20             13360800       0.0%    100.0%      0.0%     
 flops    36 x    69 x     4             13910400       0.0%    100.0%      0.0%     
 flops    69 x    36 x     4             13910400       0.0%    100.0%      0.0%     
 flops    36 x    71 x     4             14313600       0.0%    100.0%      0.0%     
 flops    71 x    36 x     4             14313600       0.0%    100.0%      0.0%     
 flops     4 x     4 x    76             14942208       0.0%    100.0%      0.0%     
 flops     4 x    69 x    36             15261696       0.0%    100.0%      0.0%     
 flops     4 x    71 x    36             15704064       0.0%    100.0%      0.0%     
 flops    39 x    36 x     4             15724800       0.0%    100.0%      0.0%     
 flops    36 x    39 x     4             15724800       0.0%    100.0%      0.0%     
 flops    40 x    36 x     4             16128000       0.0%    100.0%      0.0%     
 flops    36 x    40 x     4             16128000       0.0%    100.0%      0.0%     
 flops    36 x    80 x     4             16128000       0.0%    100.0%      0.0%     
 flops    80 x    36 x     4             16128000       0.0%    100.0%      0.0%     
 flops    20 x    69 x     4             16162560       0.0%    100.0%      0.0%     
 flops     4 x    69 x    20             16173600       0.0%    100.0%      0.0%     
 flops     4 x    71 x    20             16631040       0.0%    100.0%      0.0%     
 flops    20 x    71 x     4             16631040       0.0%    100.0%      0.0%     
 flops     4 x    39 x    36             17252352       0.0%    100.0%      0.0%     
 flops     4 x    36 x    39             17252352       0.0%    100.0%      0.0%     
 flops     4 x    36 x    40             17694720       0.0%    100.0%      0.0%     
 flops     4 x    40 x    36             17694720       0.0%    100.0%      0.0%     
 flops     4 x    29 x     4             17997632       0.0%    100.0%      0.0%     
 flops     4 x    39 x    20             18227040       0.0%    100.0%      0.0%     
 flops    20 x    39 x     4             18264480       0.0%    100.0%      0.0%     
 flops     4 x    83 x    36             18358272       0.0%    100.0%      0.0%     
 flops     4 x    40 x    20             18713600       0.0%    100.0%      0.0%     
 flops    20 x    40 x     4             18739200       0.0%    100.0%      0.0%     
 flops     4 x    83 x    20             19441920       0.0%    100.0%      0.0%     
 flops    20 x    83 x     4             19441920       0.0%    100.0%      0.0%     
 flops    57 x    57 x    20             23912640       0.0%    100.0%      0.0%     
 flops    20 x     9 x     4             28550880       0.0%    100.0%      0.0%     
 flops    57 x    69 x    20             28946880       0.0%    100.0%      0.0%     
 flops    69 x    57 x    20             28946880       0.0%    100.0%      0.0%     
 flops    36 x    36 x     4             29030400       0.0%    100.0%      0.0%     
 flops     4 x     9 x    20             29138400       0.0%    100.0%      0.0%     
 flops    57 x    71 x    20             29785920       0.0%    100.0%      0.0%     
 flops    71 x    57 x    20             29785920       0.0%    100.0%      0.0%     
 flops    29 x    20 x    29             30141440       0.0%    100.0%      0.0%     
 flops     4 x    36 x    36             31850496       0.0%    100.0%      0.0%     
 flops    39 x    57 x    20             32722560       0.0%    100.0%      0.0%     
 flops    57 x    39 x    20             32722560       0.0%    100.0%      0.0%     
 flops    57 x    40 x    20             33470400       0.0%    100.0%      0.0%     
 flops     4 x     9 x     9             33488640       0.0%    100.0%      0.0%     
 flops    57 x    80 x    20             33561600       0.0%    100.0%      0.0%     
 flops    80 x    57 x    20             33561600       0.0%    100.0%      0.0%     
 flops    40 x    57 x    20             33561600       0.0%    100.0%      0.0%     
 flops     4 x    36 x    20             33684480       0.0%    100.0%      0.0%     
 flops    20 x    36 x     4             33730560       0.0%    100.0%      0.0%     
 flops    20 x    57 x    39             34145280       0.0%    100.0%      0.0%     
 flops    20 x    57 x    40             35020800       0.0%    100.0%      0.0%     
 flops    69 x    69 x    20             35040960       0.0%    100.0%      0.0%     
 flops    71 x    69 x    20             36056640       0.0%    100.0%      0.0%     
 flops    69 x    71 x    20             36056640       0.0%    100.0%      0.0%     
 flops     4 x     4 x    29             36530720       0.0%    100.0%      0.0%     
 flops    71 x    71 x    20             37101760       0.0%    100.0%      0.0%     
 flops    39 x    69 x    20             39611520       0.0%    100.0%      0.0%     
 flops    69 x    39 x    20             39611520       0.0%    100.0%      0.0%     
 flops    69 x    40 x    20             40516800       0.0%    100.0%      0.0%     
 flops    40 x    69 x    20             40627200       0.0%    100.0%      0.0%     
 flops    80 x    69 x    20             40627200       0.0%    100.0%      0.0%     
 flops    69 x    80 x    20             40627200       0.0%    100.0%      0.0%     
 flops    39 x    71 x    20             40759680       0.0%    100.0%      0.0%     
 flops    71 x    39 x    20             40759680       0.0%    100.0%      0.0%     
 flops    20 x    69 x    39             41333760       0.0%    100.0%      0.0%     
 flops     9 x    29 x     4             41588784       0.0%    100.0%      0.0%     
 flops    29 x     9 x     4             41626368       0.0%    100.0%      0.0%     
 flops    71 x    40 x    20             41691200       0.0%    100.0%      0.0%     
 flops    80 x    71 x    20             41804800       0.0%    100.0%      0.0%     
 flops    71 x    80 x    20             41804800       0.0%    100.0%      0.0%     
 flops    40 x    71 x    20             41804800       0.0%    100.0%      0.0%     
 flops    20 x    69 x    40             42393600       0.0%    100.0%      0.0%     
 flops    20 x    71 x    39             42531840       0.0%    100.0%      0.0%     
 flops    20 x    71 x    40             43622400       0.0%    100.0%      0.0%     
 flops    39 x    39 x    20             44778240       0.0%    100.0%      0.0%     
 flops    39 x    40 x    20             45801600       0.0%    100.0%      0.0%     
 flops    39 x    80 x    20             45926400       0.0%    100.0%      0.0%     
 flops    80 x    39 x    20             45926400       0.0%    100.0%      0.0%     
 flops    40 x    39 x    20             45926400       0.0%    100.0%      0.0%     
 flops    20 x    39 x    39             46725120       0.0%    100.0%      0.0%     
 flops    40 x    40 x    20             46976000       0.0%    100.0%      0.0%     
 flops    80 x    40 x    20             46976000       0.0%    100.0%      0.0%     
 flops    80 x    80 x    20             47104000       0.0%    100.0%      0.0%     
 flops    40 x    80 x    20             47104000       0.0%    100.0%      0.0%     
 flops    20 x    39 x    40             47923200       0.0%    100.0%      0.0%     
 flops    20 x    40 x    39             47923200       0.0%    100.0%      0.0%     
 flops    20 x    40 x    40             49152000       0.0%    100.0%      0.0%     
 flops    20 x    83 x    39             49720320       0.0%    100.0%      0.0%     
 flops    20 x    83 x    40             50995200       0.0%    100.0%      0.0%     
 flops     4 x    20 x   213             52346880       0.0%    100.0%      0.0%     
 flops    20 x     4 x   213             52346880       0.0%    100.0%      0.0%     
 flops     4 x    20 x   226             55541760       0.0%    100.0%      0.0%     
 flops    20 x     4 x   226             55541760       0.0%    100.0%      0.0%     
 flops     4 x    20 x   230             56524800       0.0%    100.0%      0.0%     
 flops    20 x     4 x   230             56524800       0.0%    100.0%      0.0%     
 flops     4 x    20 x     9             56584800       0.0%    100.0%      0.0%     
 flops    20 x     4 x     9             56770560       0.0%    100.0%      0.0%     
 flops    57 x    36 x    20             60328800       0.0%    100.0%      0.0%     
 flops    36 x    57 x    20             60410880       0.0%    100.0%      0.0%     
 flops    20 x    57 x    36             63037440       0.0%    100.0%      0.0%     
 flops     9 x     9 x    20             68636160       0.0%    100.0%      0.0%     
 flops    20 x    57 x    20             68673600       0.0%    100.0%      0.0%     
 flops    69 x    36 x    20             73029600       0.0%    100.0%      0.0%     
 flops    36 x    69 x    20             73128960       0.0%    100.0%      0.0%     
 flops     4 x    20 x    76             74711040       0.0%    100.0%      0.0%     
 flops    20 x     4 x    76             74711040       0.0%    100.0%      0.0%     
 flops    71 x    36 x    20             75146400       0.0%    100.0%      0.0%     
 flops    36 x    71 x    20             75248640       0.0%    100.0%      0.0%     
 flops    20 x    69 x    36             76308480       0.0%    100.0%      0.0%     
 flops    20 x    71 x    36             78520320       0.0%    100.0%      0.0%     
 flops    39 x    36 x    20             82555200       0.0%    100.0%      0.0%     
 flops    36 x    39 x    20             82667520       0.0%    100.0%      0.0%     
 flops    20 x    69 x    20             83296800       0.0%    100.0%      0.0%     
 flops    36 x    40 x    20             84556800       0.0%    100.0%      0.0%     
 flops    40 x    36 x    20             84672000       0.0%    100.0%      0.0%     
 flops    80 x    36 x    20             84672000       0.0%    100.0%      0.0%     
 flops    36 x    80 x    20             84787200       0.0%    100.0%      0.0%     
 flops    32 x    57 x     4             85290240       0.0%    100.0%      0.0%     
 flops     4 x    57 x    32             85538304       0.0%    100.0%      0.0%     
 flops    20 x    71 x    20             85768000       0.0%    100.0%      0.0%     
 flops    20 x    39 x    36             86261760       0.0%    100.0%      0.0%     
 flops    20 x    36 x    39             86261760       0.0%    100.0%      0.0%     
 flops    20 x    36 x    40             88473600       0.0%    100.0%      0.0%     
 flops    20 x    40 x    36             88473600       0.0%    100.0%      0.0%     
 flops    20 x    83 x    36             91791360       0.0%    100.0%      0.0%     
 flops    20 x    39 x    20             93256800       0.0%    100.0%      0.0%     
 flops    20 x    29 x     4             93389280       0.0%    100.0%      0.0%     
 flops    20 x    40 x    20             95456000       0.0%    100.0%      0.0%     
 flops     4 x    29 x    20             95857760       0.0%    100.0%      0.0%     
 flops    20 x    83 x    20            100330400       0.0%    100.0%      0.0%     
 flops    32 x    69 x     4            103193088       0.0%    100.0%      0.0%     
 flops     4 x    69 x    32            103617024       0.0%    100.0%      0.0%     
 flops    32 x    71 x     4            106256896       0.0%    100.0%      0.0%     
 flops     4 x    71 x    32            106602240       0.0%    100.0%      0.0%     
 flops     4 x     9 x    29            107974656       0.0%    100.0%      0.0%     
 flops     4 x    29 x     9            107974656       0.0%    100.0%      0.0%     
 flops    32 x    39 x     4            116383488       0.0%    100.0%      0.0%     
 flops     4 x    39 x    32            116922624       0.0%    100.0%      0.0%     
 flops    32 x    40 x     4            119521280       0.0%    100.0%      0.0%     
 flops     4 x    40 x    32            119920640       0.0%    100.0%      0.0%     
 flops    32 x    83 x     4            124279552       0.0%    100.0%      0.0%     
 flops     4 x    83 x    32            124598272       0.0%    100.0%      0.0%     
 flops    29 x    29 x     4            134344704       0.0%    100.0%      0.0%     
 flops    20 x     9 x    20            151156800       0.0%    100.0%      0.0%     
 flops    57 x    57 x    32            151585344       0.0%    100.0%      0.0%     
 flops    36 x    36 x    20            152409600       0.0%    100.0%      0.0%     
 flops    20 x    36 x    36            159252480       0.0%    100.0%      0.0%     
 flops    20 x     9 x     9            167546880       0.0%    100.0%      0.0%     
 flops    20 x    36 x    20            171964800       0.0%    100.0%      0.0%     
 flops    32 x     9 x     4            182578176       0.0%    100.0%      0.0%     
 flops     4 x    20 x    29            182927360       0.0%    100.0%      0.0%     
 flops    57 x    69 x    32            183498048       0.0%    100.0%      0.0%     
 flops    69 x    57 x    32            183498048       0.0%    100.0%      0.0%     
 flops    20 x     4 x    29            183688320       0.0%    100.0%      0.0%     
 flops     4 x     9 x    32            186776064       0.0%    100.0%      0.0%     
 flops    57 x    71 x    32            188816832       0.0%    100.0%      0.0%     
 flops    71 x    57 x    32            188816832       0.0%    100.0%      0.0%     
 flops    57 x    39 x    32            207148032       0.0%    100.0%      0.0%     
 flops    39 x    57 x    32            207432576       0.0%    100.0%      0.0%     
 flops    57 x    40 x    32            212459520       0.0%    100.0%      0.0%     
 flops    57 x    80 x    32            212751360       0.0%    100.0%      0.0%     
 flops    80 x    57 x    32            212751360       0.0%    100.0%      0.0%     
 flops    40 x    57 x    32            212751360       0.0%    100.0%      0.0%     
 flops    32 x    36 x     4            214926336       0.0%    100.0%      0.0%     
 flops     4 x    36 x    32            215783424       0.0%    100.0%      0.0%     
 flops    32 x    57 x    39            218529792       0.0%    100.0%      0.0%     
 flops    29 x     9 x    20            220910400       0.0%    100.0%      0.0%     
 flops     9 x    29 x    20            221160960       0.0%    100.0%      0.0%     
 flops    69 x    69 x    32            222129216       0.0%    100.0%      0.0%     
 flops    32 x    57 x    40            224133120       0.0%    100.0%      0.0%     
 flops    71 x    69 x    32            228567744       0.0%    100.0%      0.0%     
 flops    69 x    71 x    32            228567744       0.0%    100.0%      0.0%     
 flops    71 x    71 x    32            235192896       0.0%    100.0%      0.0%     
 flops    69 x    39 x    32            250758144       0.0%    100.0%      0.0%     
 flops    39 x    69 x    32            251102592       0.0%    100.0%      0.0%     
 flops    69 x    40 x    32            257187840       0.0%    100.0%      0.0%     
 flops    40 x    69 x    32            257541120       0.0%    100.0%      0.0%     
 flops    80 x    69 x    32            257541120       0.0%    100.0%      0.0%     
 flops    69 x    80 x    32            257541120       0.0%    100.0%      0.0%     
 flops    71 x    39 x    32            258026496       0.0%    100.0%      0.0%     
 flops    39 x    71 x    32            258380928       0.0%    100.0%      0.0%     
 flops    20 x    20 x   213            261734400       0.0%    100.0%      0.0%     
 flops    32 x    69 x    39            264536064       0.0%    100.0%      0.0%     
 flops    71 x    40 x    32            264642560       0.0%    100.0%      0.0%     
 flops    80 x    71 x    32            265006080       0.0%    100.0%      0.0%     
 flops    71 x    80 x    32            265006080       0.0%    100.0%      0.0%     
 flops    40 x    71 x    32            265006080       0.0%    100.0%      0.0%     
 flops    32 x    69 x    40            271319040       0.0%    100.0%      0.0%     
 flops    32 x    71 x    39            272203776       0.0%    100.0%      0.0%     
 flops    20 x    20 x   226            277708800       0.0%    100.0%      0.0%     
 flops    32 x    71 x    40            279183360       0.0%    100.0%      0.0%     
 flops    20 x    20 x   230            282624000       0.0%    100.0%      0.0%     
 flops    39 x    39 x    32            283465728       0.0%    100.0%      0.0%     
 flops    20 x    20 x     9            283852800       0.0%    100.0%      0.0%     
 flops    39 x    40 x    32            290734080       0.0%    100.0%      0.0%     
 flops    80 x    39 x    32            290734080       0.0%    100.0%      0.0%     
 flops    40 x    39 x    32            290734080       0.0%    100.0%      0.0%     
 flops    39 x    80 x    32            291133440       0.0%    100.0%      0.0%     
 flops    40 x    40 x    32            298188800       0.0%    100.0%      0.0%     
 flops    80 x    40 x    32            298188800       0.0%    100.0%      0.0%     
 flops    80 x    80 x    32            298598400       0.0%    100.0%      0.0%     
 flops    40 x    80 x    32            298598400       0.0%    100.0%      0.0%     
 flops    32 x    39 x    39            299040768       0.0%    100.0%      0.0%     
 flops    32 x    40 x    39            306708480       0.0%    100.0%      0.0%     
 flops    32 x    39 x    40            306708480       0.0%    100.0%      0.0%     
 flops    32 x    40 x    40            314572800       0.0%    100.0%      0.0%     
 flops    32 x    83 x    39            318210048       0.0%    100.0%      0.0%     
 flops    32 x    83 x    40            326369280       0.0%    100.0%      0.0%     
 flops    32 x     4 x   213            335020032       0.0%    100.0%      0.0%     
 flops     4 x    32 x   213            335020032       0.0%    100.0%      0.0%     
 flops    32 x     4 x   226            355467264       0.0%    100.0%      0.0%     
 flops     4 x    32 x   226            355467264       0.0%    100.0%      0.0%     
 flops     4 x    29 x    29            361670368       0.0%    100.0%      0.0%     
 flops    32 x     4 x   230            361758720       0.0%    100.0%      0.0%     
 flops     4 x    32 x   230            361758720       0.0%    100.0%      0.0%     
 flops     4 x    32 x     9            362022912       0.0%    100.0%      0.0%     
 flops    32 x     4 x     9            363329280       0.0%    100.0%      0.0%     
 flops    20 x    20 x    76            378176000       0.0%    100.0%      0.0%     
 flops    57 x    36 x    32            382427136       0.0%    100.0%      0.0%     
 flops    36 x    57 x    32            382952448       0.0%    100.0%      0.0%     
 flops    32 x    57 x    36            403439616       0.0%    100.0%      0.0%     
 flops     9 x     9 x    32            430126848       0.0%    100.0%      0.0%     
 flops    32 x    57 x    20            438854400       0.0%    100.0%      0.0%     
 flops    20 x    57 x    32            440897280       0.0%    100.0%      0.0%     
 flops    69 x    36 x    32            462938112       0.0%    100.0%      0.0%     
 flops    36 x    69 x    32            463574016       0.0%    100.0%      0.0%     
 flops    71 x    36 x    32            476356608       0.0%    100.0%      0.0%     
 flops    36 x    71 x    32            477010944       0.0%    100.0%      0.0%     
 flops    32 x     4 x    76            478150656       0.0%    100.0%      0.0%     
 flops     4 x    32 x    76            478150656       0.0%    100.0%      0.0%     
 flops    32 x    69 x    36            488374272       0.0%    100.0%      0.0%     
 flops    20 x    29 x    20            488940000       0.0%    100.0%      0.0%     
 flops    32 x    71 x    36            502530048       0.0%    100.0%      0.0%     
 flops    39 x    36 x    32            523321344       0.0%    100.0%      0.0%     
 flops    36 x    39 x    32            523321344       0.0%    100.0%      0.0%     
 flops    32 x    69 x    20            531598080       0.0%    100.0%      0.0%     
 flops    20 x    69 x    32            534071040       0.0%    100.0%      0.0%     
 flops    40 x    36 x    32            536739840       0.0%    100.0%      0.0%     
 flops    36 x    40 x    32            536739840       0.0%    100.0%      0.0%     
 flops    80 x    36 x    32            536739840       0.0%    100.0%      0.0%     
 flops    36 x    80 x    32            537477120       0.0%    100.0%      0.0%     
 flops    20 x     9 x    29            539873280       0.0%    100.0%      0.0%     
 flops    20 x    29 x     9            539873280       0.0%    100.0%      0.0%     
 flops    32 x    71 x    20            549824000       0.0%    100.0%      0.0%     
 flops    20 x    71 x    32            550096640       0.0%    100.0%      0.0%     
 flops    32 x    36 x    39            552075264       0.0%    100.0%      0.0%     
 flops    32 x    39 x    36            552075264       0.0%    100.0%      0.0%     
 flops    32 x    36 x    40            566231040       0.0%    100.0%      0.0%     
 flops    32 x    40 x    36            566231040       0.0%    100.0%      0.0%     
 flops    32 x    83 x    36            587464704       0.0%    100.0%      0.0%     
 flops    20 x    39 x    32            597592320       0.0%    100.0%      0.0%     
 flops    32 x    29 x     4            598426368       0.0%    100.0%      0.0%     
 flops    32 x    39 x    20            598790400       0.0%    100.0%      0.0%     
 flops    32 x    40 x    20            611891200       0.0%    100.0%      0.0%     
 flops    20 x    40 x    32            612454400       0.0%    100.0%      0.0%     
 flops     4 x    29 x    32            612791808       0.0%    100.0%      0.0%     
 flops    20 x    83 x    32            642433280       0.0%    100.0%      0.0%     
 flops    32 x    83 x    20            642539520       0.0%    100.0%      0.0%     
 flops    29 x    29 x    20            713437120       0.0%    100.0%      0.0%     
 flops    20 x    20 x    29            926515200       0.0%    100.0%      0.0%     
 flops    20 x     9 x    32            963993600       0.0%    100.0%      0.0%     
 flops    32 x     9 x    20            965733120       0.0%    100.0%      0.0%     
 flops    36 x    36 x    32            966131712       0.0%    100.0%      0.0%     
 flops    32 x    36 x    36           1019215872       0.0%    100.0%      0.0%     
 flops    32 x     9 x     9           1072300032       0.0%    100.0%      0.0%     
 flops    20 x    36 x    32           1103016960       0.0%    100.0%      0.0%     
 flops    32 x    36 x    20           1103063040       0.0%    100.0%      0.0%     
 flops     4 x    32 x    29           1170735104       0.0%    100.0%      0.0%     
 flops    32 x     4 x    29           1183600896       0.0%    100.0%      0.0%     
 flops    29 x     9 x    32           1386031104       0.0%    100.0%      0.0%     
 flops     9 x    29 x    32           1400363136       0.0%    100.0%      0.0%     
 flops    32 x    20 x   213           1675100160       0.0%    100.0%      0.0%     
 flops    20 x    32 x   213           1675100160       0.0%    100.0%      0.0%     
 flops    32 x    20 x   226           1777336320       0.0%    100.0%      0.0%     
 flops    20 x    32 x   226           1777336320       0.0%    100.0%      0.0%     
 flops    20 x    29 x    29           1808486400       0.0%    100.0%      0.0%     
 flops    32 x    20 x   230           1808793600       0.0%    100.0%      0.0%     
 flops    20 x    32 x   230           1808793600       0.0%    100.0%      0.0%     
 flops    32 x    20 x     9           1816657920       0.0%    100.0%      0.0%     
 flops    20 x    32 x     9           1816657920       0.0%    100.0%      0.0%     
 flops    32 x    20 x    76           2390753280       0.0%    100.0%      0.0%     
 flops    20 x    32 x    76           2390753280       0.0%    100.0%      0.0%     
 flops    32 x    57 x    32           2819291136       0.0%    100.0%      0.0%     
 flops    32 x    29 x    20           3135823360       0.0%    100.0%      0.0%     
 flops    20 x    29 x    32           3143952640       0.0%    100.0%      0.0%     
 flops    32 x    69 x    32           3412260864       0.0%    100.0%      0.0%     
 flops    32 x     9 x    29           3455188992       0.0%    100.0%      0.0%     
 flops    32 x    29 x     9           3455188992       0.0%    100.0%      0.0%     
 flops    32 x    71 x    32           3512475648       0.0%    100.0%      0.0%     
 flops    32 x    39 x    32           3829143552       0.0%    100.0%      0.0%     
 flops    32 x    40 x    32           3933306880       0.0%    100.0%      0.0%     
 flops    32 x    83 x    32           4104433664       0.0%    100.0%      0.0%     
 flops    29 x    29 x    32           4516048896       0.0%    100.0%      0.0%     
 flops    20 x    32 x    29           5934448640       0.0%    100.0%      0.0%     
 flops    32 x    20 x    29           6000967680       0.0%    100.0%      0.0%     
 flops    32 x     9 x    32           6173134848       0.0%    100.0%      0.0%     
 flops    32 x    36 x    32           7077150720       0.0%    100.0%      0.0%     
 flops    32 x    32 x   213          10720641024       0.0%    100.0%      0.0%     
 flops    32 x    32 x   226          11374952448       0.0%    100.0%      0.0%     
 flops    32 x    29 x    29          11574312960       0.0%    100.0%      0.0%     
 flops    32 x    32 x   230          11576279040       0.0%    100.0%      0.0%     
 flops    32 x    32 x     9          11626610688       0.0%    100.0%      0.0%     
 flops    32 x    32 x    76          15300820992       0.0%    100.0%      0.0%     
 flops    32 x    29 x    32          20107220992       0.0%    100.0%      0.0%     
 flops    32 x    32 x    29          38483165184       0.0%    100.0%      0.0%     
 flops inhomo. stacks                201609851648     100.0%      0.0%      0.0%
 flops total                       479.847581E+09      42.0%     58.0%      0.0%
 flops max/rank                     37.671097E+09      34.6%     65.4%      0.0%
 matmuls inhomo. stacks                    576678     100.0%      0.0%      0.0%
 matmuls total                            7987489       7.2%     92.8%      0.0%
 number of processed stacks                838323       3.3%     96.7%      0.0%
 average stack size                                    20.8       9.1       0.0
 marketing flops                   492.546654E+09
 -------------------------------------------------------------------------------
 # multiplications                            561
 max memory usage/rank              23.593230E+09
 # max total images/rank                        1
 # max 3D layers                                1
 # MPI messages exchanged                   53856
 MPI messages size (bytes):
  total size                        12.477430E+09
  min size                           0.000000E+00
  max size                           1.179648E+06
  average size                     231.681328E+03
 MPI breakdown and total messages size (bytes):
             size <=      128                9105                        0
       128 < size <=     8192                 102                   326400
      8192 < size <=    32768                1335                 19239936
     32768 < size <=   131072                6114                297292128
    131072 < size <=  4194304               37200              12160570752
   4194304 < size <= 16777216                   0                        0
  16777216 < size                               0                        0
 -------------------------------------------------------------------------------
 -                                                                             -
 -                      DBCSR MESSAGE PASSING PERFORMANCE                      -
 -                                                                             -
 -------------------------------------------------------------------------------
 ROUTINE             CALLS      AVE VOLUME [Bytes]
 MP_Bcast              383                     12.
 MP_Allreduce         3154                     18.
 MP_Alltoall          3553                  45625.
 MP_ISend            11362                  93249.
 MP_IRecv            11362                  85900.
 -------------------------------------------------------------------------------

 -------------------------------------------------------------------------------
 -                                                                             -
 -                                GRID STATISTICS                              -
 -                                                                             -
 -------------------------------------------------------------------------------
 LP    KERNEL             BACKEND                              COUNT     PERCENT
 4     collocate ortho    CPU                                   1056      22.66%
 4     integrate ortho    CPU                                   1056      22.66%
 6     collocate ortho    CPU                                    828      17.77%
 6     integrate ortho    CPU                                    828      17.77%
 2     collocate ortho    CPU                                    438       9.40%
 2     integrate ortho    CPU                                    438       9.40%
 0     collocate general  CPU                                     16       0.34%
 -------------------------------------------------------------------------------

 -------------------------------------------------------------------------------
 -                                                                             -
 -                          OFFLOAD MEMPOOL STATISTICS                         -
 -                                                                             -
 -------------------------------------------------------------------------------
 Memory consumption                Number of allocations  Used [MiB]  Size [MiB]
 Host                                                  6          93    22158101
 -------------------------------------------------------------------------------

 MEMORY| Estimated peak process memory [MiB]                                2027

 -------------------------------------------------------------------------------
 -                                                                             -
 -                         MESSAGE PASSING PERFORMANCE                         -
 -                                                                             -
 -------------------------------------------------------------------------------

 ROUTINE             CALLS      AVE VOLUME [Bytes]
 MP_Group                5
 MP_Bcast              288                 202654.
 MP_Allreduce         2032                  13489.
 MP_Sync                10
 MP_Alltoall           122               96424114.
 MP_SendRecv           180                 526336.
 MP_ISendRecv          180                 526336.
 MP_Wait               755
 MP_comm_split          10
 MP_ISend              500                2076374.
 MP_IRecv              500                2077411.
 -------------------------------------------------------------------------------


 -------------------------------------------------------------------------------
 -                                                                             -
 -                           R E F E R E N C E S                               -
 -                                                                             -
 -------------------------------------------------------------------------------
 
 CP2K version 2026.2 (Development Version), the CP2K developers group (2026).
 CP2K is freely available from https://www.cp2k.org/ .
 
 M. Iannuzzi, J. Wilhelm, F. Stein, A. Bussy, H. Elgabarty, D. Golze, A. Hehn, 
 M. Graml, S. Marek, B. Sertcan Gökmen, C. Schran, H. Forbert, R. Z. 
 Khaliullin, A. Kozhevnikov, M. Taillefumier, R. Meli, V. V. Rybkin, M. Brehm, 
 R. Schade, O. Schütt, J. V. Pototschnig, H. Mirhosseini, A. Knüpfer, D. Marx, 
 M. Krack, J. Hutter, T. D. Kühne.
 J. Phys. Chem. B 130, 1237-1310 (2026).
 The CP2K Program Package Made Simple.
 https://doi.org/10.1021/acs.jpcb.5c05851

 M. Graml, K. Zollner, D. Hernangómez-Pérez, P. E. Faria Junior, J. Wilhelm.
 J. Chem. Theory Comput. 20, 2202-2208 (2024).
 Low-scaling GW algorithm applied to twisted transition-metal dichalcogenide 
 heterobilayers.
 https://doi.org/10.1021/acs.jctc.3c01230

 T. D. Kühne, M. Iannuzzi, M. Del Ben, V. V. Rybkin, P. Seewald, F. Stein, T. 
 Laino, R. Z. Khaliullin, O. Schütt, F. Schiffmann, D. Golze, J. Wilhelm, S. 
 Chulkov, M. H. Bani-Hashemian, V. Weber, U. Borstnik, M. Taillefumier, A. S. 
 Jakobovits, A. Lazzaro, H. Pabst, T. Müller, R. Schade, M. Guidon, S. 
 Andermatt, N. Holmberg, G. K. Schenter, A. Hehn, A. Bussy, F. Belleflamme, G. 
 Tabacchi, A. Glöß, M. Lass, I. Bethune, C. J. Mundy, C. Plessl, M. Watkins, 
 J. VandeVondele, M. Krack, J. Hutter.
 J. Chem. Phys. 152, 194103 (2020).
 CP2K: An electronic structure and molecular dynamics software package - 
 Quickstep: Efficient and accurate electronic structure calculations.
 https://doi.org/10.1063/5.0007045

 O. Schuett, P. Messmer, J. Hutter, J. VandeVondele.
 Electronic Structure Calculations on Graphics Processing Units, 173-190 (2016).
 GPU-Accelerated Sparse Matrix-Matrix Multiplication for Linear Scaling Density 
 Functional Theory.
 https://doi.org/10.1002/9781118670712.ch8

 U. Borstnik, J. VandeVondele, V. Weber, J. Hutter.
 Parallel Comput. 40, 47-58 (2014).
 Sparse matrix multiplication: The distributed block-compressed sparse row 
 library.
 https://doi.org/10.1016/j.parco.2014.03.012

 J. VandeVondele, J. Hutter.
 J. Chem. Phys. 127, 114105 (2007).
 Gaussian basis sets for accurate calculations on molecular systems in gas and 
 condensed phases.
 https://doi.org/10.1063/1.2770708

 J. VandeVondele, M. Krack, F. Mohamed, M. Parrinello, T. Chassaing, J. Hutter.
 Comput. Phys. Commun. 167, 103-128 (2005).
 QUICKSTEP: Fast and accurate density functional calculations using a mixed 
 Gaussian and plane waves approach.
 https://doi.org/10.1016/j.cpc.2004.12.014

 M. Krack.
 Theor. Chem. Acc. 114, 145-152 (2005).
 Pseudopotentials for H to Kr optimized for gradient-corrected 
 exchange-correlation functionals.
 https://doi.org/10.1007/s00214-005-0655-y

 M. Frigo, S. G. Johnson.
 Proc. IEEE 93, 216-231 (2005).
 The design and implementation of FFTW3.
 https://doi.org/10.1109/JPROC.2004.840301

 J. VandeVondele, J. Hutter.
 J. Chem. Phys. 118, 4365-4369 (2003).
 An efficient orbital transformation method for electronic structure 
 calculations.
 https://doi.org/10.1063/1.1543154

 C. Hartwigsen, S. Goedecker, J. Hutter.
 Phys. Rev. B 58, 3641-3662 (1998).
 Relativistic separable dual-space Gaussian pseudopotentials from H to Rn.
 https://doi.org/10.1103/PhysRevB.58.3641

 G. Lippert, J. Hutter, M. Parrinello.
 Mol. Phys. 92, 477-487 (1997).
 A hybrid Gaussian and plane wave density functional scheme.
 https://doi.org/10.1080/002689797170220

 S. Goedecker, M. Teter, J. Hutter.
 Phys. Rev. B 54, 1703-1710 (1996).
 Separable dual-space Gaussian pseudopotentials.
 https://doi.org/10.1103/PhysRevB.54.1703

 J. P. Perdew, K. Burke, M. Ernzerhof.
 Phys. Rev. Lett. 77, 3865-3868 (1996).
 Generalized gradient approximation made simple.
 https://doi.org/10.1103/PhysRevLett.77.3865

 P. E. Blöchl.
 J. Chem. Phys. 103, 7422-7428 (1995).
 Electrostatic decoupling of periodic images of plane‐wave‐expanded 
 densities and derived atomic point charges.
 https://doi.org/10.1063/1.470314

 R. H. Byrd, P. H. Lu, J. Nocedal, C. Y. Zhu.
 SIAM J. Sci. Comput. 16, 1190-1208 (1995).
 A Limited Memory Algorithm for Bound Constrained Optimization.
 https://doi.org/10.1137/0916069


 -------------------------------------------------------------------------------
 -                                                                             -
 -                                T I M I N G                                  -
 -                                                                             -
 -------------------------------------------------------------------------------
 SUBROUTINE                       CALLS  ASD         SELF TIME        TOTAL TIME MAXRANK
                                MAXIMUM       AVERAGE  MAXIMUM  AVERAGE  MAXIMUM
 CP2K                                 1  1.0    0.071    0.080 1829.726 1829.728       0
 qs_energies                          1  2.0    0.019    0.019 1828.868 1828.868       0
 qs_energies_properties               1  3.0    0.006    0.007 1816.628 1816.629       4
 post_scf_bandstructure               1  4.0    0.001    0.001 1816.622 1816.622       2
 run_gw                               1  5.0    0.000    0.000 1816.466 1816.477       8
 gw_calc_ri_rs_non_periodic           1  6.0    0.013    0.015 1812.483 1812.669       7
 optimize_ri_rs_grid                  1  7.0    0.001    0.001 1808.807 1808.984       9
 rirs_grid_LBFGS                      1  8.0    8.269    9.113 1776.265 1778.931       6
 evaluate_rirs_grid_cluster         301  9.0   57.252   68.280 1497.667 1760.414       2
 rirs_cluster_gradient_products     301 10.0  522.910  617.755  522.910  617.755       3
 mp_sum_d                           836  5.1  270.497  556.047  270.497  556.047      14
 rirs_cluster_residual              301 10.0  220.147  266.841  220.147  266.841       1
 rirs_cluster_gradient_coordina     301 10.0  210.247  261.034  210.247  261.034       8
 rirs_cluster_d_lP                  301 10.0  190.498  227.614  190.498  227.614       3
 rirs_cluster_D_ll                  301 10.0  163.285  201.972  163.285  201.972       4
 rirs_cluster_AO_products           301 10.0  133.328  165.081  133.328  165.081       1
 rirs_grid_build_clusters             1  8.0   16.587   20.557   26.328   32.826       1
 abc_contract_xsmm                90778  9.0    9.995   12.613    9.995   12.613       1
 scf_env_do_scf                       1  3.0    0.001    0.001   11.253   11.253       0
 scf_env_do_scf_inner_loop            5  4.0    0.002    0.002    9.413    9.416      11
 qs_ks_build_kohn_sham_matrix         6  7.2    0.024    0.035    8.972    8.973      15
 qs_ks_update_qs_env                  6  5.0    0.000    0.001    8.467    8.468       8
 rebuild_ks_matrix                    5  6.0    0.000    0.001    8.466    8.467       1
 fft_wrap_pw1pw2                     96 10.2    0.003    0.004    7.638    8.064       2
 fft_wrap_pw1pw2_300                 60 11.7    0.379    0.520    7.356    7.863      10
 initialize_ri_rs_grid                1  8.0    3.130    6.017    6.213    6.388       1
 fft3d_ps                            96 12.2    2.631    3.372    5.827    6.180      10
 qs_vxc_create                        6  8.2    0.003    0.004    5.877    5.942      13
 xc_vxc_pw_create                     5  9.0    0.092    0.125    5.874    5.938      10
 mp_bcast_dm                         71  9.2    3.403    5.546    3.403    5.546       8
 xc_pw_derive                        30 11.0    0.000    0.000    4.381    4.811      11
 create_and_init_bs_env_for_gw        1  6.0    0.014    0.031    3.983    4.210       9
 xc_pw_divergence                     5 10.0    0.000    0.000    2.916    3.283       2
 qs_rho_update_rho_low                6  5.0    0.000    0.000    3.181    3.183       7
 calculate_rho_elec                   6  6.0    0.066    0.068    3.181    3.182      12
 mp_alltoall_z22v                    96 14.2    2.025    3.095    2.025    3.095      15
 generate_auto_ri_basis               1  7.0    0.000    0.001    3.011    3.012       9
 xc_rho_set_and_dset_create           5 10.0    0.089    0.181    2.763    2.997      10
 yz_to_x                             46 12.7    0.484    0.612    1.509    2.204      11
 density_rs2pw                        6  7.0    0.001    0.001    1.961    2.035      13
 x_to_yz                             50 13.8    0.681    0.853    1.681    1.950      10
 init_scf_loop                        1  4.0    0.008    0.008    1.836    1.836      13
 -------------------------------------------------------------------------------

 The number of warnings for this run is : 0
 
 -------------------------------------------------------------------------------
  **** **** ******  **  PROGRAM ENDED AT                 2026-10-03 19:23:12.625
 ***** ** ***  *** **   PROGRAM RAN ON                                  n2cn0767
 **    ****   ******    PROGRAM RAN BY                                  eprop2d1
 ***** **    ** ** **   PROGRAM PROCESS ID                               1329124
  **** **  *******  **  PROGRAM STOPPED IN /scratch/hpc-prf-metdyn/eprop2d1_Jan/
                                           53_benchmark_RI_opt/418_gw100_fig5_fu
                                           ll_epsfilter_1e12_20261002/calculatio
                                           ns/rc5p0/ri3_rs04/29_C8H8
