 DBCSR| CPU Multiplication driver                                           XSMM (U)
 DBCSR| Multrec recursion limit                                              512 (U)
 DBCSR| Multiplication stack size                                           1000 (D)
 DBCSR| Maximum elements for images                                    UNLIMITED (U)
 DBCSR| Multiplicative factor virtual images                                   1 (U)
 DBCSR| Use multiplication densification                                       T (D)
 DBCSR| Multiplication size stacks                                             3 (U)
 DBCSR| Use memory pool for CPU allocation                                     F (U)
 DBCSR| Number of 3D layers                                               SINGLE (U)
 DBCSR| Use MPI memory allocation                                              F (U)
 DBCSR| Use RMA algorithm                                                      F (U)
 DBCSR| Use Communication thread                                               T (U)
 DBCSR| Communication thread load                                             57 (D)
 DBCSR| MPI: My process id                                                     8
 DBCSR| MPI: Number of processes                                              13
 DBCSR| OMP: Current number of threads                                         9
 DBCSR| OMP: Max number of threads                                             9
 DBCSR| Split modifier for TAS multiplication algorithm                  1.0E+00 (U)


  **** **** ******  **  PROGRAM STARTED AT               2026-10-03 12:07:36.808
 ***** ** ***  *** **   PROGRAM STARTED ON                              n2cn0250
 **    ****   ******    PROGRAM STARTED BY                              eprop2d1
 ***** **    ** ** **   PROGRAM PROCESS ID                               2156741
  **** **  *******  **  PROGRAM STARTED IN /scratch/hpc-prf-metdyn/eprop2d1_Jan/
                                           53_benchmark_RI_opt/418_gw100_fig5_fu
                                           ll_epsfilter_1e12_20261002/calculatio
                                           ns/rc5p0/ri5_rs06/09_Na4

 CP2K| version string:                 CP2K version 2026.2 (Development Version)
 CP2K| source code revision number:                                   0671c5aa6c
 CP2K| cp2kflags: omp libint fftw3 libxc parallel scalapack openblas            
 CP2K| is freely available from                            https://www.cp2k.org/
 CP2K| Program compiled at                                   2026-09-20 09:25:26
 CP2K| Program compiled on                                              n2login5
 CP2K| Program compiled for                                               x86_64
 CP2K| Data directory path    /scratch/hpc-prf-metdyn/eprop2d1_Jan/53_benchmark_
 CP2K| Input file name                                                 input.inp
 
 eprop2d1@n2cn0250 has created rank and process                      0   2156741
 eprop2d1@n2cn0250 has created rank and process                      1   2156742
 eprop2d1@n2cn0250 has created rank and process                      2   2156743
 eprop2d1@n2cn0250 has created rank and process                      3   2156744
 eprop2d1@n2cn0250 has created rank and process                      4   2156745
 
 eprop2d1@n2cn0250 is running                                        5 processes

 GLOBAL| Force Environment number                                              1
 GLOBAL| Basis set file name            /scratch/hpc-prf-metdyn/eprop2d1_Jan/53_
 GLOBAL| Potential file name            /scratch/hpc-prf-metdyn/eprop2d1_Jan/53_
 GLOBAL| MM Potential file name                                     MM_POTENTIAL
 GLOBAL| Coordinate file name                                      __STD_INPUT__
 GLOBAL| Method name                                                        CP2K
 GLOBAL| Project name                                             g418_e506_m009
 GLOBAL| Run type                                                         ENERGY
 GLOBAL| FFT library                                                       FFTW3
 GLOBAL| Diagonalization library                                       ScaLAPACK
 GLOBAL| Cholesky decomposition library                                ScaLAPACK
 GLOBAL| DGEMM library                                                      BLAS
 GLOBAL| Direct generalized diagonalization requested                          F
 GLOBAL| Orthonormality check for eigenvectors                          DISABLED
 GLOBAL| Matrix multiplication library                                 ScaLAPACK
 GLOBAL| All-to-all communication in single precision                          F
 GLOBAL| Grid backend                                                       AUTO
 GLOBAL| Global print level                                                  LOW
 GLOBAL| MPI I/O enabled                                                       T
 GLOBAL| Total number of message passing processes                             5
 GLOBAL| Number of distributed systems (nodes)                                 1
 GLOBAL| Number of threads for this process                                    9
 GLOBAL| This output is from process                                           0
 GLOBAL| OpenMP stack size per thread (OMP_STACKSIZE)                       512M
 GLOBAL| CPU model name                          AMD EPYC 7763 64-Core Processor

 MEMORY| system memory details [Kb]
 MEMORY|                        rank 0           min           max       average
 MEMORY| MemTotal            263897612     263897612     263897612     263897612
 MEMORY| MemFree             206349820     206349820     206349820     206349820
 MEMORY| Buffers                388784        388784        388784        388784
 MEMORY| Cached                8052760       8052760       8052760       8052760
 MEMORY| Slab                  1793540       1793540       1793540       1793540
 MEMORY| SReclaimable           371736        371736        371736        371736
 MEMORY| MemLikelyFree       215163100     215163100     215163100     215163100


 GENERATE|  Preliminary Number of Bonds generated:                             0
 GENERATE|  Achieved consistency in connectivity generation.

 *******************************************************************************
 *******************************************************************************
 **                                                                           **
 **     #####                         ##              ##                      **
 **    ##   ##            ##          ##              ##                      **
 **   ##     ##                       ##            ######                    **
 **   ##     ##  ##   ##  ##   #####  ##  ##   ####   ##    #####    #####    **
 **   ##     ##  ##   ##  ##  ##      ## ##   ##      ##   ##   ##  ##   ##   **
 **   ##  ## ##  ##   ##  ##  ##      ####     ###    ##   ######   ######    **
 **    ##  ###   ##   ##  ##  ##      ## ##      ##   ##   ##       ##        **
 **     #######   #####   ##   #####  ##  ##  ####    ##    #####   ##        **
 **           ##                                                    ##        **
 **                                                                           **
 **                                                ... make the atoms dance   **
 **                                                                           **
 **            Copyright (C) by CP2K developers group (2000-2026)             **
 **                      J. Chem. Phys. 152, 194103 (2020)                    **
 **                                                                           **
 *******************************************************************************


 TOTAL NUMBERS AND MAXIMUM NUMBERS

  Total number of            - Atomic kinds:                                   1
                             - Atoms:                                          4
                             - Shell sets:                                     4
                             - Shells:                                        32
                             - Primitive Cartesian functions:                 32
                             - Cartesian basis functions:                     76
                             - Spherical basis functions:                     72

  Maximum angular momentum of- Orbital basis functions:                        2
                             - Local part of the GTH pseudopotential:          2
                             - Non-local part of the GTH pseudopotential:      1


 SCF PARAMETERS         Density guess:                                   RESTART
                        --------------------------------------------------------
                        max_scf:                                             500
                        max_scf_history:                                       0
                        max_diis:                                              4
                        --------------------------------------------------------
                        eps_scf:                                        1.00E-08
                        eps_scf_history:                                0.00E+00
                        eps_diis:                                       0.00E+00
                        eps_eigval:                                     1.00E-05
                        --------------------------------------------------------
                        level_shift [a.u.]:                             0.000000
                        --------------------------------------------------------
                        Outer loop SCF in use 
                        No variables optimised in outer loop
                        eps_scf                                         1.00E-08
                        max_scf                                               20
                        No outer loop optimization
                        step_size                                       5.00E-01

 Extrapolation method: initial_guess

 Number of electrons:                                                         36
 Number of occupied orbitals:                                                 18
 Number of molecular orbitals:                                                18

 Number of orbital functions:                                                 72
 Number of independent orbital functions:                                     72


 SCF WAVEFUNCTION OPTIMIZATION

  ----------------------------------- OT ---------------------------------------
  Minimizer      : DIIS                : direct inversion
                                         in the iterative subspace
                                         using   7 DIIS vectors
                                         safer DIIS on
  Preconditioner : FULL_KINETIC        : inversion of T + eS
  Lattice FFT   : OFF
  Precond_solver : DEFAULT
  stepsize       :    0.15000000                  energy_gap     :    0.20000000
  eps_taylor     :   0.10000E-15                  max_taylor     :             4
  ----------------------------------- OT ---------------------------------------

  Step     Update method      Time    Convergence         Total energy    Change
  ------------------------------------------------------------------------------
  Decoupling Energy:                                              -0.0000019254
     1 OT DIIS     0.15E+00    4.0     0.00000002      -191.3692337892 -1.91E+02
  Decoupling Energy:                                              -0.0000019254
     2 OT DIIS     0.15E+00    5.1     0.00000002      -191.3692337892 -8.53E-14
  Decoupling Energy:                                              -0.0000019254
     3 OT DIIS     0.15E+00    5.0     0.00000002      -191.3692337892 -2.84E-14
  Decoupling Energy:                                              -0.0000019254
     4 OT DIIS     0.15E+00    5.1     0.00000002      -191.3692337892 -5.68E-14
  Decoupling Energy:                                              -0.0000019254
     5 OT DIIS     0.15E+00    5.1     0.00000001      -191.3692337892 -8.53E-14
  Decoupling Energy:                                              -0.0000019254
     6 OT DIIS     0.15E+00    5.1     7.8597E-09      -191.3692337892  0.00E+00

  *** SCF run converged in     6 steps ***


  Electronic density on regular grids:        -35.9999997676        0.0000002324
  Core density on regular grids:               36.0000000000       -0.0000000000
  Total charge density on r-space grids:        0.0000002324
  Total charge density g-space grids:           0.0000002324

  Overlap energy of the core charge distribution:               0.00000000000000
  Self energy of the core charge distribution:               -507.77062519298073
  Core Hamiltonian energy:                                    141.44836162032087
  Hartree energy:                                             203.73177198298177
  Exchange-correlation energy:                                -28.77874219956924

  Total energy:                                              -191.36923378924732

  outer SCF iter =    1 RMS gradient =   0.79E-08 energy =       -191.3692337892
  outer SCF loop converged in   1 iterations or    6 steps

  
 -------------------------------------------------------------------------------
 -                                                                             -
 -                          BANDSTRUCTURE CALCULATION                          -
 -                                                                             -
 -------------------------------------------------------------------------------
  
 Number of occupied molecular orbitals (MOs) = Number of occupied bands       18
 Number of unoccupied (= virtual) MOs = Number of unoccupied bands            54
 Number of Gaussian basis functions for MOs                                   72
  
 -------------------------------------------------------------------------------
 -                                                                             -
 -                                GW CALCULATION                               -
 -                                                                             -
 -------------------------------------------------------------------------------
  
 Input: Number of time/freq. points                                           30
 Input: ω_max for fitting Σ(iω) (eV)                                        10.0
 Input: Filter threshold for sparse tensor operations                    1.0E-12
 Input: Apply Hedin shift                                                      F
 Detected: Available memory per MPI process                              35.3 GB
 
 Input: RI-RS Tikhonov regularization                                   1.00E-04
 Input: AO grid hard cutoff radius                                        8.00 Å
 Input: MPI ranks per atom in Z_lP solve                                      -1
 Input: Keep sparsity in χ/G/W panels                                          T
 Input: GW flavour                                                          G0W0
 
 Input: RI-RS grid optimization activated                                      T
 Input: RS points per AO function                                            6.0
 Input: Cutoff radius for atomic clusters                                  5.0 Å
 Input: Maximum grid optimization iterations                                 300
 
 Input: AUTO_RI basis optimization activated:                                  T
 Input: AUTO_RI number of RI functions per AO function:                      5.0
 Input: AUTO_RI frontier orbital window:                                  5.0 eV
 Input: AUTO_RI neighbor radius:                                           3.0 Å
 
 Cutoff radius for the truncated Coulomb operator in RI metric:            7.0 Å
 Regularization parameter of RI                                          0.0E+00
 Regularization parameter of minimax grids                               1.0E-06
 
 AUTO_RI| Number of automatic RI functions for χ, ε, W:                      228
 AUTO_RI| Total RI basis optimization time:                                0.0 s
  Decoupling Energy:                                              -0.0000019254
 
 SCF direct band gap (eV)                                                   0.61
 Max. SCF eigval diff. (eV)                                               172.31
 E-Range for minimax grid                                                 283.34
 Number of Padé parameters for analytic continuation:                         16
 
 RI-RS basis radii (Å):
     Kind  Elem     r_AO (Å)     r_RI (Å)
        1    Na       13.7238        8.8179
 
 Started RI-RS grid optimization
 RI-RS grid initial normalized error                          6.914119585509E-04
 RI-RS grid optimization completed, execution time:                       12.1 s
 Normalized 3C error:                                                    2.2E-07
 Maximum absolute 3C error:                                              2.3E-03
 Optimized points outside molecular Voronoi cells:                            26 / 432
 Total grid points used for RI-RS:                                           432
 
 RI-RS grid row-blocks of ϕ_μ(r_l)                                            16
 RI-RS grid points per block (max)                                            32
 
 Percentage of non-zero matrix elements in ϕ_μ(r_l)                     100.00 %
 
 RI-RS memory estimate per MPI process:
   Available memory per process (system)                                49.80 GB
   Required for Z_lP (dense upper bound; actual is sparser)              0.00 GB
   Required for χ, W, Σ panels (peak per panel step)                     0.00 GB
   Required for Z_lP solve peak (D_local+ϕ, worst-case atom)             0.00 GB
   Worst-case local-grid number of grid points:                              432
   Worst-case memory D_local:                                            0.00 GB
 
 Started computing Z_lP
 Computed Z_lP (MPI rank 0) for atom          1 /  1,    Execution time    0.0 s
 Computed Z_lP (all MPI ranks) for all atoms,            Execution time    0.0 s

 Memory per MPI process after computing Z_lP:
 Available memory per MPI process                               49.8 GB
 Used memory per MPI process                                     1.4 GB
 Number of batches for χ, Σ matrices                                           1
 
 Percentage of non-zero matrix elements in Z_lP                         100.00 %
 Percentage of non-zero matrix elements in G_ll', χ_ll', W_ll'          100.00 %
 Percentage of non-zero matrix elements in χ_PQ for time point 1        100.00 %
 
 Computed χ(iτ,k=0) for time point            1 / 30,    Execution time    0.0 s
 Computed χ(iτ,k=0) for time point            2 / 30,    Execution time    0.0 s
 Computed χ(iτ,k=0) for time point            3 / 30,    Execution time    0.0 s
 Computed χ(iτ,k=0) for time point            4 / 30,    Execution time    0.0 s
 Computed χ(iτ,k=0) for time point            5 / 30,    Execution time    0.0 s
 Computed χ(iτ,k=0) for time point            6 / 30,    Execution time    0.0 s
 Computed χ(iτ,k=0) for time point            7 / 30,    Execution time    0.0 s
 Computed χ(iτ,k=0) for time point            8 / 30,    Execution time    0.0 s
 Computed χ(iτ,k=0) for time point            9 / 30,    Execution time    0.0 s
 Computed χ(iτ,k=0) for time point           10 / 30,    Execution time    0.0 s
 Computed χ(iτ,k=0) for time point           11 / 30,    Execution time    0.0 s
 Computed χ(iτ,k=0) for time point           12 / 30,    Execution time    0.0 s
 Computed χ(iτ,k=0) for time point           13 / 30,    Execution time    0.0 s
 Computed χ(iτ,k=0) for time point           14 / 30,    Execution time    0.0 s
 Computed χ(iτ,k=0) for time point           15 / 30,    Execution time    0.0 s
 Computed χ(iτ,k=0) for time point           16 / 30,    Execution time    0.0 s
 Computed χ(iτ,k=0) for time point           17 / 30,    Execution time    0.0 s
 Computed χ(iτ,k=0) for time point           18 / 30,    Execution time    0.0 s
 Computed χ(iτ,k=0) for time point           19 / 30,    Execution time    0.0 s
 Computed χ(iτ,k=0) for time point           20 / 30,    Execution time    0.0 s
 Computed χ(iτ,k=0) for time point           21 / 30,    Execution time    0.0 s
 Computed χ(iτ,k=0) for time point           22 / 30,    Execution time    0.0 s
 Computed χ(iτ,k=0) for time point           23 / 30,    Execution time    0.0 s
 Computed χ(iτ,k=0) for time point           24 / 30,    Execution time    0.0 s
 Computed χ(iτ,k=0) for time point           25 / 30,    Execution time    0.0 s
 Computed χ(iτ,k=0) for time point           26 / 30,    Execution time    0.0 s
 Computed χ(iτ,k=0) for time point           27 / 30,    Execution time    0.0 s
 Computed χ(iτ,k=0) for time point           28 / 30,    Execution time    0.0 s
 Computed χ(iτ,k=0) for time point           29 / 30,    Execution time    0.0 s
 Computed χ(iτ,k=0) for time point           30 / 30,    Execution time    0.0 s
 
 Computed W(iτ),                                         Execution time    0.2 s
 
 Computed Σ^x(k=0),                                      Execution time    0.0 s
 
 Computed Σ^c(iτ) for time point              1 / 30,    Execution time    0.0 s
 Computed Σ^c(iτ) for time point              2 / 30,    Execution time    0.0 s
 Computed Σ^c(iτ) for time point              3 / 30,    Execution time    0.0 s
 Computed Σ^c(iτ) for time point              4 / 30,    Execution time    0.0 s
 Computed Σ^c(iτ) for time point              5 / 30,    Execution time    0.0 s
 Computed Σ^c(iτ) for time point              6 / 30,    Execution time    0.0 s
 Computed Σ^c(iτ) for time point              7 / 30,    Execution time    0.0 s
 Computed Σ^c(iτ) for time point              8 / 30,    Execution time    0.0 s
 Computed Σ^c(iτ) for time point              9 / 30,    Execution time    0.0 s
 Computed Σ^c(iτ) for time point             10 / 30,    Execution time    0.0 s
 Computed Σ^c(iτ) for time point             11 / 30,    Execution time    0.0 s
 Computed Σ^c(iτ) for time point             12 / 30,    Execution time    0.0 s
 Computed Σ^c(iτ) for time point             13 / 30,    Execution time    0.0 s
 Computed Σ^c(iτ) for time point             14 / 30,    Execution time    0.0 s
 Computed Σ^c(iτ) for time point             15 / 30,    Execution time    0.0 s
 Computed Σ^c(iτ) for time point             16 / 30,    Execution time    0.0 s
 Computed Σ^c(iτ) for time point             17 / 30,    Execution time    0.0 s
 Computed Σ^c(iτ) for time point             18 / 30,    Execution time    0.0 s
 Computed Σ^c(iτ) for time point             19 / 30,    Execution time    0.0 s
 Computed Σ^c(iτ) for time point             20 / 30,    Execution time    0.0 s
 Computed Σ^c(iτ) for time point             21 / 30,    Execution time    0.0 s
 Computed Σ^c(iτ) for time point             22 / 30,    Execution time    0.0 s
 Computed Σ^c(iτ) for time point             23 / 30,    Execution time    0.0 s
 Computed Σ^c(iτ) for time point             24 / 30,    Execution time    0.0 s
 Computed Σ^c(iτ) for time point             25 / 30,    Execution time    0.0 s
 Computed Σ^c(iτ) for time point             26 / 30,    Execution time    0.0 s
 Computed Σ^c(iτ) for time point             27 / 30,    Execution time    0.0 s
 Computed Σ^c(iτ) for time point             28 / 30,    Execution time    0.0 s
 Computed Σ^c(iτ) for time point             29 / 30,    Execution time    0.0 s
 Computed Σ^c(iτ) for time point             30 / 30,    Execution time    0.0 s
 
 SCF valence band maximum (eV):                                           -2.642
 SCF conduction band minimum (eV):                                        -2.034
 SCF indirect band gap (eV):                                               0.608
 SCF direct band gap (eV):                                                 0.608
 
 G0W0 valence band maximum (eV):                                          -3.999
 G0W0 conduction band minimum (eV):                                       -0.689
 G0W0 indirect band gap (eV):                                              3.310
 G0W0 direct band gap (eV):                                                3.310
 
 Hartree-Fock with SCF orbitals valence band maximum (eV):                -3.562
 Hartree-Fock with SCF orbitals conduction band minimum (eV)               0.533
 Hartree-Fock with SCF orbitals indirect band gap (eV):                    4.095
 Hartree-Fock with SCF orbitals direct band gap (eV):                      4.095

 ENERGY| Total FORCE_EVAL ( QS ) energy [hartree]           -191.369233789247318

 -------------------------------------------------------------------------------
 -                                                                             -
 -                                DBCSR STATISTICS                             -
 -                                                                             -
 -------------------------------------------------------------------------------
 COUNTER                                    TOTAL       BLAS       SMM       ACC
 flops    18 x    18 x    18              7604928     100.0%      0.0%      0.0%     
 flops    12 x    18 x    12             16174080     100.0%      0.0%      0.0%     
 flops    18 x    18 x    12             24261120     100.0%      0.0%      0.0%     
 flops    12 x    57 x    12             28366848     100.0%      0.0%      0.0%     
 flops    12 x    12 x    57             29417472     100.0%      0.0%      0.0%     
 flops    12 x    12 x    18             38807424     100.0%      0.0%      0.0%     
 flops    12 x    18 x    18             58226688     100.0%      0.0%      0.0%     
 flops    32 x    18 x    12            128950272     100.0%      0.0%      0.0%     
 flops    12 x    18 x    32            129489408     100.0%      0.0%      0.0%     
 flops    57 x    57 x    12            132247296     100.0%      0.0%      0.0%     
 flops    12 x    57 x    57            135990144     100.0%      0.0%      0.0%     
 flops    18 x    18 x    32            193052160     100.0%      0.0%      0.0%     
 flops    12 x    57 x    32            226715904     100.0%      0.0%      0.0%     
 flops    32 x    57 x    12            226934784     100.0%      0.0%      0.0%     
 flops    32 x    12 x    57            234464256     100.0%      0.0%      0.0%     
 flops    12 x    32 x    57            235339776     100.0%      0.0%      0.0%     
 flops    32 x    12 x    18            310528512     100.0%      0.0%      0.0%     
 flops    12 x    32 x    18            310542336     100.0%      0.0%      0.0%     
 flops    32 x    18 x    18            465813504     100.0%      0.0%      0.0%     
 flops    32 x    18 x    32           1034661888     100.0%      0.0%      0.0%     
 flops    57 x    57 x    32           1072949760     100.0%      0.0%      0.0%     
 flops    32 x    57 x    57           1087921152     100.0%      0.0%      0.0%     
 flops    32 x    57 x    32           1815478272     100.0%      0.0%      0.0%     
 flops    32 x    32 x    57           1875714048     100.0%      0.0%      0.0%     
 flops    32 x    32 x    18           2484338688     100.0%      0.0%      0.0%     
 flops inhomo. stacks                           0       0.0%      0.0%      0.0%
 flops total                        12.303991E+09     100.0%      0.0%      0.0%
 flops max/rank                      3.083236E+09     100.0%      0.0%      0.0%
 matmuls inhomo. stacks                         0       0.0%      0.0%      0.0%
 matmuls total                             282788     100.0%      0.0%      0.0%
 number of processed stacks                134655     100.0%      0.0%      0.0%
 average stack size                                     2.1       0.0       0.0
 marketing flops                    13.645194E+09
 -------------------------------------------------------------------------------
 # multiplications                           2875
 max memory usage/rank              25.120707E+09
 # max total images/rank                        5
 # max 3D layers                                1
 # MPI messages exchanged                   11500
 MPI messages size (bytes):
  total size                         1.109686E+09
  min size                           0.000000E+00
  max size                         373.248000E+03
  average size                      96.494391E+03
 MPI breakdown and total messages size (bytes):
             size <=      128                2264                        0
       128 < size <=     8192                 392                  1016064
      8192 < size <=    32768                 512                  5308416
     32768 < size <=   131072                5028                297603072
    131072 < size <=  4194304                3304                805757952
   4194304 < size <= 16777216                   0                        0
  16777216 < size                               0                        0
 -------------------------------------------------------------------------------

 *** WARNING in dbcsr_mm.F:301 :: Using a non-square number of MPI ranks ***
 *** might lead to poor performance. Used ranks: 5 Suggested: 4 9        ***

 -------------------------------------------------------------------------------
 -                                                                             -
 -                      DBCSR MESSAGE PASSING PERFORMANCE                      -
 -                                                                             -
 -------------------------------------------------------------------------------
 ROUTINE             CALLS      AVE VOLUME [Bytes]
 MP_Bcast               26                     12.
 MP_Allreduce         2514                     16.
 MP_Alltoall          3595                  10862.
 MP_ISend             8988                  29743.
 MP_IRecv             8322                  28274.
 -------------------------------------------------------------------------------

 -------------------------------------------------------------------------------
 -                                                                             -
 -                                GRID STATISTICS                              -
 -                                                                             -
 -------------------------------------------------------------------------------
 LP    KERNEL             BACKEND                              COUNT     PERCENT
 4     collocate ortho    CPU                                  18935      49.87%
 4     integrate ortho    CPU                                  18935      49.87%
 0     collocate general  CPU                                    100       0.26%
 -------------------------------------------------------------------------------

 -------------------------------------------------------------------------------
 -                                                                             -
 -                          OFFLOAD MEMPOOL STATISTICS                         -
 -                                                                             -
 -------------------------------------------------------------------------------
 Memory consumption                Number of allocations  Used [MiB]  Size [MiB]
 Host                                                  6         171    22349202
 -------------------------------------------------------------------------------

 MEMORY| Estimated peak process memory [MiB]                                5152

 -------------------------------------------------------------------------------
 -                                                                             -
 -                         MESSAGE PASSING PERFORMANCE                         -
 -                                                                             -
 -------------------------------------------------------------------------------

 ROUTINE             CALLS      AVE VOLUME [Bytes]
 MP_Group                5
 MP_Bcast              235                 244862.
 MP_Allreduce         1947                   3351.
 MP_Sync                10
 MP_Alltoall           141              313552811.
 MP_SendRecv            56                1693440.
 MP_ISendRecv           56                1693440.
 MP_Wait               317
 MP_comm_split          10
 MP_ISend              203               11836532.
 MP_IRecv              203               11836532.
 -------------------------------------------------------------------------------


 -------------------------------------------------------------------------------
 -                                                                             -
 -                           R E F E R E N C E S                               -
 -                                                                             -
 -------------------------------------------------------------------------------
 
 CP2K version 2026.2 (Development Version), the CP2K developers group (2026).
 CP2K is freely available from https://www.cp2k.org/ .
 
 M. Iannuzzi, J. Wilhelm, F. Stein, A. Bussy, H. Elgabarty, D. Golze, A. Hehn, 
 M. Graml, S. Marek, B. Sertcan Gökmen, C. Schran, H. Forbert, R. Z. 
 Khaliullin, A. Kozhevnikov, M. Taillefumier, R. Meli, V. V. Rybkin, M. Brehm, 
 R. Schade, O. Schütt, J. V. Pototschnig, H. Mirhosseini, A. Knüpfer, D. Marx, 
 M. Krack, J. Hutter, T. D. Kühne.
 J. Phys. Chem. B 130, 1237-1310 (2026).
 The CP2K Program Package Made Simple.
 https://doi.org/10.1021/acs.jpcb.5c05851

 M. Graml, K. Zollner, D. Hernangómez-Pérez, P. E. Faria Junior, J. Wilhelm.
 J. Chem. Theory Comput. 20, 2202-2208 (2024).
 Low-scaling GW algorithm applied to twisted transition-metal dichalcogenide 
 heterobilayers.
 https://doi.org/10.1021/acs.jctc.3c01230

 T. D. Kühne, M. Iannuzzi, M. Del Ben, V. V. Rybkin, P. Seewald, F. Stein, T. 
 Laino, R. Z. Khaliullin, O. Schütt, F. Schiffmann, D. Golze, J. Wilhelm, S. 
 Chulkov, M. H. Bani-Hashemian, V. Weber, U. Borstnik, M. Taillefumier, A. S. 
 Jakobovits, A. Lazzaro, H. Pabst, T. Müller, R. Schade, M. Guidon, S. 
 Andermatt, N. Holmberg, G. K. Schenter, A. Hehn, A. Bussy, F. Belleflamme, G. 
 Tabacchi, A. Glöß, M. Lass, I. Bethune, C. J. Mundy, C. Plessl, M. Watkins, 
 J. VandeVondele, M. Krack, J. Hutter.
 J. Chem. Phys. 152, 194103 (2020).
 CP2K: An electronic structure and molecular dynamics software package - 
 Quickstep: Efficient and accurate electronic structure calculations.
 https://doi.org/10.1063/5.0007045

 O. Schuett, P. Messmer, J. Hutter, J. VandeVondele.
 Electronic Structure Calculations on Graphics Processing Units, 173-190 (2016).
 GPU-Accelerated Sparse Matrix-Matrix Multiplication for Linear Scaling Density 
 Functional Theory.
 https://doi.org/10.1002/9781118670712.ch8

 U. Borstnik, J. VandeVondele, V. Weber, J. Hutter.
 Parallel Comput. 40, 47-58 (2014).
 Sparse matrix multiplication: The distributed block-compressed sparse row 
 library.
 https://doi.org/10.1016/j.parco.2014.03.012

 J. VandeVondele, J. Hutter.
 J. Chem. Phys. 127, 114105 (2007).
 Gaussian basis sets for accurate calculations on molecular systems in gas and 
 condensed phases.
 https://doi.org/10.1063/1.2770708

 J. VandeVondele, M. Krack, F. Mohamed, M. Parrinello, T. Chassaing, J. Hutter.
 Comput. Phys. Commun. 167, 103-128 (2005).
 QUICKSTEP: Fast and accurate density functional calculations using a mixed 
 Gaussian and plane waves approach.
 https://doi.org/10.1016/j.cpc.2004.12.014

 M. Krack.
 Theor. Chem. Acc. 114, 145-152 (2005).
 Pseudopotentials for H to Kr optimized for gradient-corrected 
 exchange-correlation functionals.
 https://doi.org/10.1007/s00214-005-0655-y

 M. Frigo, S. G. Johnson.
 Proc. IEEE 93, 216-231 (2005).
 The design and implementation of FFTW3.
 https://doi.org/10.1109/JPROC.2004.840301

 J. VandeVondele, J. Hutter.
 J. Chem. Phys. 118, 4365-4369 (2003).
 An efficient orbital transformation method for electronic structure 
 calculations.
 https://doi.org/10.1063/1.1543154

 C. Hartwigsen, S. Goedecker, J. Hutter.
 Phys. Rev. B 58, 3641-3662 (1998).
 Relativistic separable dual-space Gaussian pseudopotentials from H to Rn.
 https://doi.org/10.1103/PhysRevB.58.3641

 G. Lippert, J. Hutter, M. Parrinello.
 Mol. Phys. 92, 477-487 (1997).
 A hybrid Gaussian and plane wave density functional scheme.
 https://doi.org/10.1080/002689797170220

 S. Goedecker, M. Teter, J. Hutter.
 Phys. Rev. B 54, 1703-1710 (1996).
 Separable dual-space Gaussian pseudopotentials.
 https://doi.org/10.1103/PhysRevB.54.1703

 J. P. Perdew, K. Burke, M. Ernzerhof.
 Phys. Rev. Lett. 77, 3865-3868 (1996).
 Generalized gradient approximation made simple.
 https://doi.org/10.1103/PhysRevLett.77.3865

 P. E. Blöchl.
 J. Chem. Phys. 103, 7422-7428 (1995).
 Electrostatic decoupling of periodic images of plane‐wave‐expanded 
 densities and derived atomic point charges.
 https://doi.org/10.1063/1.470314

 R. H. Byrd, P. H. Lu, J. Nocedal, C. Y. Zhu.
 SIAM J. Sci. Comput. 16, 1190-1208 (1995).
 A Limited Memory Algorithm for Bound Constrained Optimization.
 https://doi.org/10.1137/0916069


 -------------------------------------------------------------------------------
 -                                                                             -
 -                                T I M I N G                                  -
 -                                                                             -
 -------------------------------------------------------------------------------
 SUBROUTINE                       CALLS  ASD         SELF TIME        TOTAL TIME MAXRANK
                                MAXIMUM       AVERAGE  MAXIMUM  AVERAGE  MAXIMUM
 CP2K                                 1  1.0    0.007    0.018   49.436   49.436       0
 qs_energies                          1  2.0    0.000    0.000   47.565   47.565       0
 scf_env_do_scf                       1  3.0    0.000    0.000   30.557   30.557       0
 scf_env_do_scf_inner_loop            6  4.0    0.000    0.001   26.535   26.536       0
 qs_ks_build_kohn_sham_matrix         7  7.1    0.008    0.009   25.018   25.018       1
 qs_ks_update_qs_env                  7  5.0    0.000    0.000   23.839   23.839       0
 rebuild_ks_matrix                    6  6.0    0.000    0.000   23.838   23.838       3
 fft_wrap_pw1pw2                    113 10.3    0.004    0.005   21.568   22.615       4
 fft_wrap_pw1pw2_300                 71 11.7    1.200    1.698   20.766   21.628       4
 qs_vxc_create                        7  8.1    0.000    0.000   16.559   16.655       3
 xc_vxc_pw_create                     6  9.0    0.328    0.369   16.559   16.655       2
 fft3d_ps                           113 12.3    8.597    8.943   15.538   16.587       3
 qs_energies_properties               1  3.0    0.000    0.000   15.366   15.366       0
 post_scf_bandstructure               1  4.0    0.000    0.000   15.366   15.366       0
 run_gw                               1  5.0    0.000    0.000   15.348   15.360       0
 gw_calc_ri_rs_non_periodic           1  6.0    0.000    0.000   13.190   13.584       0
 xc_pw_derive                        36 11.0    0.001    0.001   12.427   13.328       3
 optimize_ri_rs_grid                  1  7.0    0.000    0.000   12.541   12.923       0
 mp_sum_d                           824  5.4    5.497   12.499    5.497   12.499       4
 rirs_grid_LBFGS                      1  8.0    0.364    0.525   12.131   12.225       0
 evaluate_rirs_grid_cluster         301  9.0    0.811    1.414    6.508   11.322       2
 xc_pw_divergence                     6 10.0    0.000    0.000    8.404    9.183       4
 xc_rho_set_and_dset_create           6 10.0    0.252    0.364    7.647    8.429       2
 qs_rho_update_rho_low                7  5.0    0.000    0.000    7.830    7.830       0
 calculate_rho_elec                   7  6.0    0.243    0.245    7.830    7.830       3
 density_rs2pw                        7  7.0    0.001    0.001    5.315    5.371       3
 mp_alltoall_z22v                   113 14.3    3.474    5.261    3.474    5.261       0
 yz_to_x                             54 12.7    1.293    1.453    3.406    4.687       1
 rirs_cluster_gradient_coordina     301 10.0    2.475    4.304    2.475    4.304       2
 init_scf_loop                        1  4.0    0.000    0.000    4.021    4.021       0
 x_to_yz                             59 13.8    2.169    2.325    3.531    4.016       1
 sum_up_and_integrate                 7  8.1    0.000    0.001    3.447    3.464       2
 integrate_v_rspace                   7  9.1    0.000    0.000    3.351    3.370       4
 potential_pw2rs                      7 10.1    0.010    0.014    3.331    3.351       4
 qs_ks_ddapc                          7  8.1    0.000    0.000    2.617    2.666       2
 create_and_init_bs_env_for_gw        1  6.0    0.007    0.012    2.158    2.548       0
 grid_collocate_task_list             7  7.0    2.208    2.295    2.208    2.295       1
 pw_poisson_solve                     7  8.1    0.000    0.000    2.097    2.135       2
 pw_scatter_p                        59 12.8    1.892    2.051    1.892    2.051       2
 pw_derive                           57 11.3    1.884    2.031    1.884    2.031       2
 pw_gather_p                         54 11.7    1.782    1.983    1.782    1.983       0
 rirs_cluster_gradient_products     301 10.0    1.153    1.934    1.153    1.934       0
 qs_init_subsys                       1  2.0    0.000    0.001    1.728    1.729       0
 qs_env_setup                         1  3.0    0.000    0.000    1.727    1.728       0
 qs_env_rebuild_pw_env                2  3.5    0.000    0.000    1.727    1.728       0
 pw_env_rebuild                       1  5.0    0.000    0.000    1.727    1.728       0
 pw_grid_setup                        5  5.2    0.000    0.000    1.723    1.724       2
 pw_grid_setup_internal               5  6.2    0.028    0.029    1.723    1.724       1
 xc_functional_eval                   6 11.0    0.000    0.000    1.048    1.722       3
 pbe_lda_eval                         6 12.0    1.048    1.722    1.048    1.722       2
 pw_copy                            108 10.5    1.547    1.592    1.547    1.592       3
 pw_grid_sort                         5  7.2    1.021    1.033    1.528    1.545       4
 setup_time_and_frequency_minim       1  7.0    0.000    0.000    0.903    1.294       0
 build_minimax_time_frequency_g       1  8.0    0.000    0.000    0.903    1.294       2
 fit_l_sq_weights                     3  9.0    0.903    1.294    0.903    1.294       4
 pw_poisson_set                       8  8.8    0.000    0.000    1.198    1.237       2
 compute_V_xc                         1  7.0    0.000    0.000    1.180    1.180       0
 init_scf_run                         1  3.0    0.000    0.000    1.175    1.175       0
 scf_env_initial_rho_setup            1  4.0    0.000    0.000    1.175    1.175       0
 rirs_cluster_D_ll                  301 10.0    0.663    1.117    0.663    1.117       0
 rirs_cluster_AO_products           301 10.0    0.526    1.098    0.526    1.098       0
 pw_integral_ab_c1d_c1d_gs           14  9.6    0.836    0.902    0.929    0.965       0
 transfer_rs2pw                      29  7.9    0.001    0.001    0.836    0.949       2
 rirs_cluster_residual              301 10.0    0.505    0.905    0.505    0.905       0
 transfer_pw2rs                      28 11.1    0.001    0.001    0.889    0.890       3
 fft_wrap_pw1pw2_100                 14 10.6    0.045    0.079    0.667    0.846       4
 mp_waitany                         203 11.4    0.689    0.840    0.689    0.840       4
 pw_axpy                             75  8.4    0.762    0.839    0.762    0.839       2
 cp_ddapc_apply_CD                    7  9.1    0.000    0.001    0.643    0.743       0
 transfer_rs2pw_300                   8  8.8    0.310    0.356    0.666    0.741       0
 initialize_ri_rs_grid                1  8.0    0.023    0.037    0.293    0.729       0
 mp_bcast_dm                         11 10.7    0.270    0.709    0.270    0.709       1
 transfer_pw2rs_300                   7 12.1    0.307    0.350    0.686    0.697       0
 rirs_cluster_d_lP                  301 10.0    0.376    0.676    0.376    0.676       2
 pw_copy_to_array                    54 11.7    0.626    0.663    0.626    0.663       2
 pw_copy_from_array                  59 12.8    0.471    0.598    0.471    0.598       3
 sort_shells                          5  8.2    0.507    0.515    0.507    0.515       0
 qs_energies_init_hamiltonians        1  3.0    0.000    0.000    0.466    0.466       4
 qs_env_update_s_mstruct              1  4.0    0.000    0.000    0.465    0.465       0
 calculate_rho_core                   1  5.0    0.035    0.035    0.419    0.426       2
 compute_Sigma_c_and_QP_energie       1  7.0    0.000    0.000    0.293    0.305       2
 compute_Sigma_c                      1  8.0    0.002    0.002    0.280    0.280       0
 pw_zero                             50  7.5    0.253    0.277    0.253    0.277       2
 get_ddapc                            7 10.1    0.000    0.000    0.165    0.265       4
 mp_waitall_1                       114 12.3    0.162    0.251    0.162    0.251       4
 contract_grid_panels_sigma_c        30  9.0    0.226    0.231    0.245    0.246       4
 rirs_grid_build_clusters             1  8.0    0.076    0.133    0.117    0.206       0
 transfer_pw2rs_100                   7 12.1    0.047    0.051    0.153    0.175       0
 get_mat_chi_Gamma_tau                1  7.0    0.000    0.001    0.166    0.166       0
 compute_W                            1  7.0    0.000    0.000    0.159    0.159       0
 contract_grid_panels                31  8.0    0.142    0.145    0.155    0.156       4
 transfer_rs2pw_100                   7  9.0    0.036    0.045    0.118    0.156       0
 pw_multiply_with                     7  9.1    0.140    0.145    0.140    0.145       2
 pw_scale                            25  9.8    0.104    0.131    0.104    0.131       2
 pw_grid_assign                       5  7.2    0.118    0.120    0.121    0.122       0
 create_qs_kind_set                   1  2.0    0.000    0.000    0.113    0.116       0
 read_qs_kind                         1  3.0    0.047    0.048    0.113    0.116       0
 fft_wrap_pw1pw2_40                  14 10.6    0.008    0.009    0.103    0.115       4
 rs_grid_zero                        15 12.7    0.106    0.110    0.106    0.110       1
 parallel_gemm_fm_gemm              431  9.6    0.000    0.000    0.090    0.090       2
 cp_fm_gemm                         434 10.5    0.090    0.090    0.090    0.090       4
 compute_fm_W_freq                   30  8.0    0.000    0.000    0.088    0.088       4
 abc_contract_xsmm                 1232  9.0    0.043    0.077    0.043    0.077       2
 parser_read_line                 26150  4.0    0.005    0.005    0.067    0.070       0
 xc_pw_smooth                         6 10.0    0.000    0.000    0.052    0.068       3
 parser_read_line_low                28  5.0    0.007    0.031    0.062    0.065       0
 broadcast_input_information         28  6.0    0.008    0.011    0.055    0.064       1
 copy_dbcsr_to_fm                   104  9.5    0.031    0.056    0.033    0.058       2
 pw_grid_remap                        4  8.0    0.020    0.021    0.041    0.054       3
 -------------------------------------------------------------------------------

 The number of warnings for this run is : 0
 
 -------------------------------------------------------------------------------
  **** **** ******  **  PROGRAM ENDED AT                 2026-10-03 12:08:26.282
 ***** ** ***  *** **   PROGRAM RAN ON                                  n2cn0250
 **    ****   ******    PROGRAM RAN BY                                  eprop2d1
 ***** **    ** ** **   PROGRAM PROCESS ID                               2156741
  **** **  *******  **  PROGRAM STOPPED IN /scratch/hpc-prf-metdyn/eprop2d1_Jan/
                                           53_benchmark_RI_opt/418_gw100_fig5_fu
                                           ll_epsfilter_1e12_20261002/calculatio
                                           ns/rc5p0/ri5_rs06/09_Na4
