 DBCSR| CPU Multiplication driver                                           XSMM (U)
 DBCSR| Multrec recursion limit                                              512 (U)
 DBCSR| Multiplication stack size                                           1000 (D)
 DBCSR| Maximum elements for images                                    UNLIMITED (U)
 DBCSR| Multiplicative factor virtual images                                   1 (U)
 DBCSR| Use multiplication densification                                       T (D)
 DBCSR| Multiplication size stacks                                             3 (U)
 DBCSR| Use memory pool for CPU allocation                                     F (U)
 DBCSR| Number of 3D layers                                               SINGLE (U)
 DBCSR| Use MPI memory allocation                                              F (U)
 DBCSR| Use RMA algorithm                                                      F (U)
 DBCSR| Use Communication thread                                               T (U)
 DBCSR| Communication thread load                                             53 (D)
 DBCSR| MPI: My process id                                                     0
 DBCSR| MPI: Number of processes                                              11
 DBCSR| OMP: Current number of threads                                        10
 DBCSR| OMP: Max number of threads                                            10
 DBCSR| Split modifier for TAS multiplication algorithm                  1.0E+00 (U)


  **** **** ******  **  PROGRAM STARTED AT               2026-10-03 18:52:56.330
 ***** ** ***  *** **   PROGRAM STARTED ON                              n2cn0309
 **    ****   ******    PROGRAM STARTED BY                              eprop2d1
 ***** **    ** ** **   PROGRAM PROCESS ID                               2457528
  **** **  *******  **  PROGRAM STARTED IN /scratch/hpc-prf-metdyn/eprop2d1_Jan/
                                           53_benchmark_RI_opt/418_gw100_fig5_fu
                                           ll_epsfilter_1e12_20261002/calculatio
                                           ns/rc5p0/ri4_rs10/30_C5H6

 CP2K| version string:                 CP2K version 2026.2 (Development Version)
 CP2K| source code revision number:                                   0671c5aa6c
 CP2K| cp2kflags: omp libint fftw3 libxc parallel scalapack openblas            
 CP2K| is freely available from                            https://www.cp2k.org/
 CP2K| Program compiled at                                   2026-09-20 09:25:26
 CP2K| Program compiled on                                              n2login5
 CP2K| Program compiled for                                               x86_64
 CP2K| Data directory path    /scratch/hpc-prf-metdyn/eprop2d1_Jan/53_benchmark_
 CP2K| Input file name        /scratch/hpc-prf-metdyn/eprop2d1_Jan/53_benchmark_
 
 eprop2d1@n2cn0309 has created rank and process                      0   2457528
 eprop2d1@n2cn0309 has created rank and process                      1   2457529
 eprop2d1@n2cn0309 has created rank and process                      2   2457530
 eprop2d1@n2cn0309 has created rank and process                      3   2457531
 eprop2d1@n2cn0309 has created rank and process                      4   2457532
 eprop2d1@n2cn0309 has created rank and process                      5   2457533
 eprop2d1@n2cn0309 has created rank and process                      6   2457534
 eprop2d1@n2cn0309 has created rank and process                      7   2457535
 eprop2d1@n2cn0309 has created rank and process                      8   2457536
 eprop2d1@n2cn0309 has created rank and process                      9   2457537
 eprop2d1@n2cn0309 has created rank and process                     10   2457538
 
 eprop2d1@n2cn0309 is running                                       11 processes

 GLOBAL| Force Environment number                                              1
 GLOBAL| Basis set file name            /scratch/hpc-prf-metdyn/eprop2d1_Jan/53_
 GLOBAL| Potential file name            /scratch/hpc-prf-metdyn/eprop2d1_Jan/53_
 GLOBAL| MM Potential file name                                     MM_POTENTIAL
 GLOBAL| Coordinate file name                                      __STD_INPUT__
 GLOBAL| Method name                                                        CP2K
 GLOBAL| Project name                                             g418_e410_m030
 GLOBAL| Run type                                                         ENERGY
 GLOBAL| FFT library                                                       FFTW3
 GLOBAL| Diagonalization library                                       ScaLAPACK
 GLOBAL| Cholesky decomposition library                                ScaLAPACK
 GLOBAL| DGEMM library                                                      BLAS
 GLOBAL| Direct generalized diagonalization requested                          F
 GLOBAL| Orthonormality check for eigenvectors                          DISABLED
 GLOBAL| Matrix multiplication library                                 ScaLAPACK
 GLOBAL| All-to-all communication in single precision                          F
 GLOBAL| Grid backend                                                       AUTO
 GLOBAL| Global print level                                                  LOW
 GLOBAL| MPI I/O enabled                                                       T
 GLOBAL| Total number of message passing processes                            11
 GLOBAL| Number of distributed systems (nodes)                                 1
 GLOBAL| Number of threads for this process                                   10
 GLOBAL| This output is from process                                           0
 GLOBAL| OpenMP stack size per thread (OMP_STACKSIZE)                       512M
 GLOBAL| CPU model name                          AMD EPYC 7763 64-Core Processor

 MEMORY| system memory details [Kb]
 MEMORY|                        rank 0           min           max       average
 MEMORY| MemTotal            263897572     263897572     263897572     263897572
 MEMORY| MemFree             246684772     246684772     246684772     246684772
 MEMORY| Buffers                208376        208376        208376        208376
 MEMORY| Cached                9373096       9373096       9373096       9373096
 MEMORY| Slab                  2475264       2475264       2475264       2475264
 MEMORY| SReclaimable           517652        517652        517652        517652
 MEMORY| MemLikelyFree       256783896     256783896     256783896     256783896


 GENERATE|  Preliminary Number of Bonds generated:                             0
 GENERATE|  Achieved consistency in connectivity generation.

 *******************************************************************************
 *******************************************************************************
 **                                                                           **
 **     #####                         ##              ##                      **
 **    ##   ##            ##          ##              ##                      **
 **   ##     ##                       ##            ######                    **
 **   ##     ##  ##   ##  ##   #####  ##  ##   ####   ##    #####    #####    **
 **   ##     ##  ##   ##  ##  ##      ## ##   ##      ##   ##   ##  ##   ##   **
 **   ##  ## ##  ##   ##  ##  ##      ####     ###    ##   ######   ######    **
 **    ##  ###   ##   ##  ##  ##      ## ##      ##   ##   ##       ##        **
 **     #######   #####   ##   #####  ##  ##  ####    ##    #####   ##        **
 **           ##                                                    ##        **
 **                                                                           **
 **                                                ... make the atoms dance   **
 **                                                                           **
 **            Copyright (C) by CP2K developers group (2000-2026)             **
 **                      J. Chem. Phys. 152, 194103 (2020)                    **
 **                                                                           **
 *******************************************************************************


 TOTAL NUMBERS AND MAXIMUM NUMBERS

  Total number of            - Atomic kinds:                                   2
                             - Atoms:                                         11
                             - Shell sets:                                    11
                             - Shells:                                        75
                             - Primitive Cartesian functions:                 71
                             - Cartesian basis functions:                    224
                             - Spherical basis functions:                    199

  Maximum angular momentum of- Orbital basis functions:                        3
                             - Local part of the GTH pseudopotential:          2
                             - Non-local part of the GTH pseudopotential:      0


 SCF PARAMETERS         Density guess:                                   RESTART
                        --------------------------------------------------------
                        max_scf:                                             500
                        max_scf_history:                                       0
                        max_diis:                                              4
                        --------------------------------------------------------
                        eps_scf:                                        1.00E-08
                        eps_scf_history:                                0.00E+00
                        eps_diis:                                       0.00E+00
                        eps_eigval:                                     1.00E-05
                        --------------------------------------------------------
                        level_shift [a.u.]:                             0.000000
                        --------------------------------------------------------
                        Outer loop SCF in use 
                        No variables optimised in outer loop
                        eps_scf                                         1.00E-08
                        max_scf                                               20
                        No outer loop optimization
                        step_size                                       5.00E-01

 Extrapolation method: initial_guess

 Number of electrons:                                                         26
 Number of occupied orbitals:                                                 13
 Number of molecular orbitals:                                                13

 Number of orbital functions:                                                199
 Number of independent orbital functions:                                    199


 SCF WAVEFUNCTION OPTIMIZATION

  ----------------------------------- OT ---------------------------------------
  Minimizer      : DIIS                : direct inversion
                                         in the iterative subspace
                                         using   7 DIIS vectors
                                         safer DIIS on
  Preconditioner : FULL_KINETIC        : inversion of T + eS
  Lattice FFT   : OFF
  Precond_solver : DEFAULT
  stepsize       :    0.15000000                  energy_gap     :    0.20000000
  eps_taylor     :   0.10000E-15                  max_taylor     :             4
  ----------------------------------- OT ---------------------------------------

  Step     Update method      Time    Convergence         Total energy    Change
  ------------------------------------------------------------------------------
  Decoupling Energy:                                               0.0000002596
     1 OT DIIS     0.15E+00    1.3     0.00000002       -31.9698220551 -3.20E+01
  Decoupling Energy:                                               0.0000002596
     2 OT DIIS     0.15E+00    1.6     0.00000001       -31.9698220551 -2.13E-13
  Decoupling Energy:                                               0.0000002596
     3 OT DIIS     0.15E+00    1.6     9.1273E-09       -31.9698220551 -8.53E-14

  *** SCF run converged in     3 steps ***


  Electronic density on regular grids:        -26.0000000000        0.0000000000
  Core density on regular grids:               26.0000000000       -0.0000000000
  Total charge density on r-space grids:       -0.0000000000
  Total charge density g-space grids:          -0.0000000000

  Overlap energy of the core charge distribution:               0.00000341974744
  Self energy of the core charge distribution:                -75.13788338704239
  Core Hamiltonian energy:                                     23.82451999314225
  Hartree energy:                                              30.17102863406068
  Exchange-correlation energy:                                -10.82749071503202

  Total energy:                                               -31.96982205512403

  outer SCF iter =    1 RMS gradient =   0.91E-08 energy =        -31.9698220551
  outer SCF loop converged in   1 iterations or    3 steps

  
 -------------------------------------------------------------------------------
 -                                                                             -
 -                          BANDSTRUCTURE CALCULATION                          -
 -                                                                             -
 -------------------------------------------------------------------------------
  
 Number of occupied molecular orbitals (MOs) = Number of occupied bands       13
 Number of unoccupied (= virtual) MOs = Number of unoccupied bands           186
 Number of Gaussian basis functions for MOs                                  199
  
 -------------------------------------------------------------------------------
 -                                                                             -
 -                                GW CALCULATION                               -
 -                                                                             -
 -------------------------------------------------------------------------------
  
 Input: Number of time/freq. points                                           30
 Input: ω_max for fitting Σ(iω) (eV)                                        10.0
 Input: Filter threshold for sparse tensor operations                    1.0E-12
 Input: Apply Hedin shift                                                      F
 Detected: Available memory per MPI process                              19.8 GB
 
 Input: RI-RS Tikhonov regularization                                   1.00E-04
 Input: AO grid hard cutoff radius                                        8.00 Å
 Input: MPI ranks per atom in Z_lP solve                                      -1
 Input: Keep sparsity in χ/G/W panels                                          T
 Input: GW flavour                                                          G0W0
 
 Input: RI-RS grid optimization activated                                      T
 Input: RS points per AO function                                           10.0
 Input: Cutoff radius for atomic clusters                                  5.0 Å
 Input: Maximum grid optimization iterations                                 300
 
 Input: AUTO_RI basis optimization activated:                                  T
 Input: AUTO_RI number of RI functions per AO function:                      4.0
 Input: AUTO_RI frontier orbital window:                                  5.0 eV
 Input: AUTO_RI neighbor radius:                                           3.0 Å
 
 Cutoff radius for the truncated Coulomb operator in RI metric:            7.0 Å
 Regularization parameter of RI                                          0.0E+00
 Regularization parameter of minimax grids                               1.0E-06
 
 AUTO_RI| Number of automatic RI functions for χ, ε, W:                      796
 AUTO_RI| Total RI basis optimization time:                                2.7 s
  Decoupling Energy:                                               0.0000002596
 
 SCF direct band gap (eV)                                                   3.92
 Max. SCF eigval diff. (eV)                                               265.70
 E-Range for minimax grid                                                  67.80
 Number of Padé parameters for analytic continuation:                         16
 
 RI-RS basis radii (Å):
     Kind  Elem     r_AO (Å)     r_RI (Å)
        1    C        15.9835       10.1279
        2    H        13.9082        8.7963
 
 Started RI-RS grid optimization
 RI-RS grid initial normalized error                          3.924299388073E-04
 RI-RS grid optimization completed, execution time:                      363.0 s
 Normalized 3C error:                                                    1.2E-08
 Maximum absolute 3C error:                                              9.0E-04
 Optimized points outside molecular Voronoi cells:                           287 / 1990
 Total grid points used for RI-RS:                                          1990
 
 RI-RS grid row-blocks of ϕ_μ(r_l)                                            68
 RI-RS grid points per block (max)                                            32
 
 Percentage of non-zero matrix elements in ϕ_μ(r_l)                     100.00 %
 
 RI-RS memory estimate per MPI process:
   Available memory per process (system)                                23.37 GB
   Required for Z_lP (dense upper bound; actual is sparser)              0.00 GB
   Required for χ, W, Σ panels (peak per panel step)                     0.01 GB
   Required for Z_lP solve peak (D_local+ϕ, worst-case atom)             0.05 GB
   Worst-case local-grid number of grid points:                             1990
   Worst-case memory D_local:                                            0.03 GB
 
 Started computing Z_lP
 Computed Z_lP (MPI rank 0) for atom          1 /  1,    Execution time    0.4 s
 Computed Z_lP (all MPI ranks) for all atoms,            Execution time    0.5 s

 Memory per MPI process after computing Z_lP:
 Available memory per MPI process                               23.3 GB
 Used memory per MPI process                                     1.0 GB
 Number of batches for χ, Σ matrices                                           1
 
 Percentage of non-zero matrix elements in Z_lP                         100.00 %
 Percentage of non-zero matrix elements in G_ll', χ_ll', W_ll'          100.00 %
 Percentage of non-zero matrix elements in χ_PQ for time point 1        100.00 %
 
 Computed χ(iτ,k=0) for time point            1 / 30,    Execution time    0.1 s
 Computed χ(iτ,k=0) for time point            2 / 30,    Execution time    0.0 s
 Computed χ(iτ,k=0) for time point            3 / 30,    Execution time    0.0 s
 Computed χ(iτ,k=0) for time point            4 / 30,    Execution time    0.0 s
 Computed χ(iτ,k=0) for time point            5 / 30,    Execution time    0.0 s
 Computed χ(iτ,k=0) for time point            6 / 30,    Execution time    0.0 s
 Computed χ(iτ,k=0) for time point            7 / 30,    Execution time    0.0 s
 Computed χ(iτ,k=0) for time point            8 / 30,    Execution time    0.0 s
 Computed χ(iτ,k=0) for time point            9 / 30,    Execution time    0.0 s
 Computed χ(iτ,k=0) for time point           10 / 30,    Execution time    0.0 s
 Computed χ(iτ,k=0) for time point           11 / 30,    Execution time    0.0 s
 Computed χ(iτ,k=0) for time point           12 / 30,    Execution time    0.0 s
 Computed χ(iτ,k=0) for time point           13 / 30,    Execution time    0.0 s
 Computed χ(iτ,k=0) for time point           14 / 30,    Execution time    0.0 s
 Computed χ(iτ,k=0) for time point           15 / 30,    Execution time    0.0 s
 Computed χ(iτ,k=0) for time point           16 / 30,    Execution time    0.0 s
 Computed χ(iτ,k=0) for time point           17 / 30,    Execution time    0.0 s
 Computed χ(iτ,k=0) for time point           18 / 30,    Execution time    0.0 s
 Computed χ(iτ,k=0) for time point           19 / 30,    Execution time    0.0 s
 Computed χ(iτ,k=0) for time point           20 / 30,    Execution time    0.0 s
 Computed χ(iτ,k=0) for time point           21 / 30,    Execution time    0.0 s
 Computed χ(iτ,k=0) for time point           22 / 30,    Execution time    0.0 s
 Computed χ(iτ,k=0) for time point           23 / 30,    Execution time    0.0 s
 Computed χ(iτ,k=0) for time point           24 / 30,    Execution time    0.0 s
 Computed χ(iτ,k=0) for time point           25 / 30,    Execution time    0.0 s
 Computed χ(iτ,k=0) for time point           26 / 30,    Execution time    0.0 s
 Computed χ(iτ,k=0) for time point           27 / 30,    Execution time    0.0 s
 Computed χ(iτ,k=0) for time point           28 / 30,    Execution time    0.0 s
 Computed χ(iτ,k=0) for time point           29 / 30,    Execution time    0.0 s
 Computed χ(iτ,k=0) for time point           30 / 30,    Execution time    0.0 s
 
 Computed W(iτ),                                         Execution time    1.4 s
 
 Computed Σ^x(k=0),                                      Execution time    0.1 s
 
 Computed Σ^c(iτ) for time point              1 / 30,    Execution time    0.1 s
 Computed Σ^c(iτ) for time point              2 / 30,    Execution time    0.1 s
 Computed Σ^c(iτ) for time point              3 / 30,    Execution time    0.1 s
 Computed Σ^c(iτ) for time point              4 / 30,    Execution time    0.1 s
 Computed Σ^c(iτ) for time point              5 / 30,    Execution time    0.1 s
 Computed Σ^c(iτ) for time point              6 / 30,    Execution time    0.1 s
 Computed Σ^c(iτ) for time point              7 / 30,    Execution time    0.1 s
 Computed Σ^c(iτ) for time point              8 / 30,    Execution time    0.1 s
 Computed Σ^c(iτ) for time point              9 / 30,    Execution time    0.1 s
 Computed Σ^c(iτ) for time point             10 / 30,    Execution time    0.1 s
 Computed Σ^c(iτ) for time point             11 / 30,    Execution time    0.1 s
 Computed Σ^c(iτ) for time point             12 / 30,    Execution time    0.1 s
 Computed Σ^c(iτ) for time point             13 / 30,    Execution time    0.1 s
 Computed Σ^c(iτ) for time point             14 / 30,    Execution time    0.1 s
 Computed Σ^c(iτ) for time point             15 / 30,    Execution time    0.1 s
 Computed Σ^c(iτ) for time point             16 / 30,    Execution time    0.1 s
 Computed Σ^c(iτ) for time point             17 / 30,    Execution time    0.1 s
 Computed Σ^c(iτ) for time point             18 / 30,    Execution time    0.1 s
 Computed Σ^c(iτ) for time point             19 / 30,    Execution time    0.1 s
 Computed Σ^c(iτ) for time point             20 / 30,    Execution time    0.1 s
 Computed Σ^c(iτ) for time point             21 / 30,    Execution time    0.1 s
 Computed Σ^c(iτ) for time point             22 / 30,    Execution time    0.1 s
 Computed Σ^c(iτ) for time point             23 / 30,    Execution time    0.1 s
 Computed Σ^c(iτ) for time point             24 / 30,    Execution time    0.1 s
 Computed Σ^c(iτ) for time point             25 / 30,    Execution time    0.0 s
 Computed Σ^c(iτ) for time point             26 / 30,    Execution time    0.0 s
 Computed Σ^c(iτ) for time point             27 / 30,    Execution time    0.0 s
 Computed Σ^c(iτ) for time point             28 / 30,    Execution time    0.0 s
 Computed Σ^c(iτ) for time point             29 / 30,    Execution time    0.0 s
 Computed Σ^c(iτ) for time point             30 / 30,    Execution time    0.0 s

 *** WARNING in post_scf_bandstructure_utils.F:3161 :: G0W0 reorders the   ***
 *** empty levels: the SCF conduction band minimum (SCF LUMO) is level 14, ***
 *** whereas the G0W0 conduction band minimum (G0W0 LUMO) is level 15. The ***
 *** SCF and G0W0 band edges printed below therefore belong to different   ***
 *** orbitals; see the eigenvalues in the file bandstructure_SCF_and_G0W0. ***

 
 SCF valence band maximum (eV):                                           -5.382
 SCF conduction band minimum (eV):                                        -1.463
 SCF indirect band gap (eV):                                               3.919
 SCF direct band gap (eV):                                                 3.919
 
 G0W0 valence band maximum (eV):                                          -8.011
 G0W0 conduction band minimum (eV):                                        1.216
 G0W0 indirect band gap (eV):                                              9.227
 G0W0 direct band gap (eV):                                                9.227
 
 Hartree-Fock with SCF orbitals valence band maximum (eV):                -8.081
 Hartree-Fock with SCF orbitals conduction band minimum (eV)               1.943
 Hartree-Fock with SCF orbitals indirect band gap (eV):                   10.025
 Hartree-Fock with SCF orbitals direct band gap (eV):                     10.025

 ENERGY| Total FORCE_EVAL ( QS ) energy [hartree]            -31.969822055124034

 -------------------------------------------------------------------------------
 -                                                                             -
 -                                DBCSR STATISTICS                             -
 -                                                                             -
 -------------------------------------------------------------------------------
 COUNTER                                    TOTAL       BLAS       SMM       ACC
 flops    13 x    13 x    13                13182       0.0%    100.0%      0.0%     
 flops     9 x    13 x    13                85176       0.0%    100.0%      0.0%     
 flops    18 x    13 x    13               170352       0.0%    100.0%      0.0%     
 flops     9 x     9 x    13               176904       0.0%    100.0%      0.0%     
 flops    13 x    13 x     9               200772       0.0%    100.0%      0.0%     
 flops    18 x    13 x     9               202176       0.0%    100.0%      0.0%     
 flops     2 x    52 x     2               218816       0.0%    100.0%      0.0%     
 flops     2 x     2 x    52               237120       0.0%    100.0%      0.0%     
 flops     2 x    57 x     2               239856       0.0%    100.0%      0.0%     
 flops     2 x    76 x     2               320416       0.0%    100.0%      0.0%     
 flops     2 x    88 x     2               371008       0.0%    100.0%      0.0%     
 flops     2 x     9 x     2               383976       0.0%    100.0%      0.0%     
 flops     9 x    29 x    13               407160       0.0%    100.0%      0.0%     
 flops    29 x     9 x    13               407160       0.0%    100.0%      0.0%     
 flops     2 x    98 x     2               413168       0.0%    100.0%      0.0%     
 flops     2 x    50 x     2               419200       0.0%    100.0%      0.0%     
 flops     2 x   102 x     2               430032       0.0%    100.0%      0.0%     
 flops     2 x   103 x     2               434248       0.0%    100.0%      0.0%     
 flops     2 x     2 x    50               452000       0.0%    100.0%      0.0%     
 flops     2 x    60 x     2               503040       0.0%    100.0%      0.0%     
 flops    13 x    13 x    29               539110       0.0%    100.0%      0.0%     
 flops     2 x     2 x    60               542400       0.0%    100.0%      0.0%     
 flops    18 x    13 x    29               542880       0.0%    100.0%      0.0%     
 flops    29 x    13 x    13               686140       0.0%    100.0%      0.0%     
 flops     9 x    13 x     9               859248       0.0%    100.0%      0.0%     
 flops     2 x     2 x     9              1034928       0.0%    100.0%      0.0%     
 flops     2 x    29 x     2              1049104       0.0%    100.0%      0.0%     
 flops    52 x    52 x     2              1157312       0.0%    100.0%      0.0%     
 flops    52 x    57 x     2              1280448       0.0%    100.0%      0.0%     
 flops     2 x    52 x    52              1297920       0.0%    100.0%      0.0%     
 flops    29 x    29 x    13              1311960       0.0%    100.0%      0.0%     
 flops     2 x    57 x    52              1410864       0.0%    100.0%      0.0%     
 flops    52 x    76 x     2              1707264       0.0%    100.0%      0.0%     
 flops     2 x    76 x    52              1881152       0.0%    100.0%      0.0%     
 flops    52 x    88 x     2              1976832       0.0%    100.0%      0.0%     
 flops     9 x     9 x     2              2163672       0.0%    100.0%      0.0%     
 flops     2 x    88 x    52              2196480       0.0%    100.0%      0.0%     
 flops    52 x    98 x     2              2201472       0.0%    100.0%      0.0%     
 flops    50 x    52 x     2              2225600       0.0%    100.0%      0.0%     
 flops    52 x    50 x     2              2236000       0.0%    100.0%      0.0%     
 flops    52 x   102 x     2              2291328       0.0%    100.0%      0.0%     
 flops     9 x    13 x    29              2307240       0.0%    100.0%      0.0%     
 flops    52 x   103 x     2              2313792       0.0%    100.0%      0.0%     
 flops     2 x    98 x    52              2446080       0.0%    100.0%      0.0%     
 flops    50 x    57 x     2              2462400       0.0%    100.0%      0.0%     
 flops     2 x    52 x    50              2475200       0.0%    100.0%      0.0%     
 flops     2 x    50 x    52              2475200       0.0%    100.0%      0.0%     
 flops     2 x   102 x    52              2524704       0.0%    100.0%      0.0%     
 flops     2 x   103 x    52              2570880       0.0%    100.0%      0.0%     
 flops    60 x    52 x     2              2670720       0.0%    100.0%      0.0%     
 flops    52 x    60 x     2              2695680       0.0%    100.0%      0.0%     
 flops     2 x    57 x    50              2713200       0.0%    100.0%      0.0%     
 flops     2 x     2 x    29              2798384       0.0%    100.0%      0.0%     
 flops    29 x    13 x     9              2850120       0.0%    100.0%      0.0%     
 flops    60 x    57 x     2              2954880       0.0%    100.0%      0.0%     
 flops     2 x    60 x    52              2970240       0.0%    100.0%      0.0%     
 flops     2 x    52 x    60              2995200       0.0%    100.0%      0.0%     
 flops     2 x    57 x    60              3255840       0.0%    100.0%      0.0%     
 flops    50 x    76 x     2              3283200       0.0%    100.0%      0.0%     
 flops    26 x    52 x     2              3455712       0.0%    100.0%      0.0%     
 flops     2 x    52 x    26              3542240       0.0%    100.0%      0.0%     
 flops     2 x    76 x    50              3556800       0.0%    100.0%      0.0%     
 flops     2 x    26 x    52              3699072       0.0%    100.0%      0.0%     
 flops    26 x    57 x     2              3782064       0.0%    100.0%      0.0%     
 flops    50 x    88 x     2              3801600       0.0%    100.0%      0.0%     
 flops    26 x     2 x    52              3812640       0.0%    100.0%      0.0%     
 flops     2 x    57 x    26              3882840       0.0%    100.0%      0.0%     
 flops    60 x    76 x     2              3939840       0.0%    100.0%      0.0%     
 flops     2 x    88 x    50              4188800       0.0%    100.0%      0.0%     
 flops     2 x    76 x    60              4195200       0.0%    100.0%      0.0%     
 flops    50 x    98 x     2              4233600       0.0%    100.0%      0.0%     
 flops    50 x    50 x     2              4300000       0.0%    100.0%      0.0%     
 flops    50 x   102 x     2              4406400       0.0%    100.0%      0.0%     
 flops    50 x   103 x     2              4449600       0.0%    100.0%      0.0%     
 flops    60 x    88 x     2              4561920       0.0%    100.0%      0.0%     
 flops     2 x    98 x    50              4704000       0.0%    100.0%      0.0%     
 flops     2 x    50 x    50              4720000       0.0%    100.0%      0.0%     
 flops     2 x   102 x    50              4855200       0.0%    100.0%      0.0%     
 flops     2 x   103 x    50              4923400       0.0%    100.0%      0.0%     
 flops    26 x    76 x     2              5066464       0.0%    100.0%      0.0%     
 flops     2 x    88 x    60              5068800       0.0%    100.0%      0.0%     
 flops    60 x    98 x     2              5080320       0.0%    100.0%      0.0%     
 flops    60 x    50 x     2              5160000       0.0%    100.0%      0.0%     
 flops    50 x    60 x     2              5184000       0.0%    100.0%      0.0%     
 flops     2 x    76 x    26              5232448       0.0%    100.0%      0.0%     
 flops    60 x   102 x     2              5287680       0.0%    100.0%      0.0%     
 flops    60 x   103 x     2              5339520       0.0%    100.0%      0.0%     
 flops     2 x    60 x    50              5616000       0.0%    100.0%      0.0%     
 flops     2 x     9 x     9              5616864       0.0%    100.0%      0.0%     
 flops     2 x    50 x    60              5640000       0.0%    100.0%      0.0%     
 flops     2 x    98 x    60              5644800       0.0%    100.0%      0.0%     
 flops    29 x     9 x     2              5809860       0.0%    100.0%      0.0%     
 flops     2 x   102 x    60              5850720       0.0%    100.0%      0.0%     
 flops    26 x    88 x     2              5884736       0.0%    100.0%      0.0%     
 flops     9 x    29 x     2              5900688       0.0%    100.0%      0.0%     
 flops     2 x   103 x    60              5932800       0.0%    100.0%      0.0%     
 flops     2 x    88 x    26              6067776       0.0%    100.0%      0.0%     
 flops    60 x    60 x     2              6220800       0.0%    100.0%      0.0%     
 flops    26 x     9 x     2              6236568       0.0%    100.0%      0.0%     
 flops     2 x     9 x    26              6294600       0.0%    100.0%      0.0%     
 flops    26 x    98 x     2              6522880       0.0%    100.0%      0.0%     
 flops    26 x    50 x     2              6604000       0.0%    100.0%      0.0%     
 flops     2 x    98 x    26              6726720       0.0%    100.0%      0.0%     
 flops    26 x   102 x     2              6799728       0.0%    100.0%      0.0%     
 flops     2 x    50 x    26              6806800       0.0%    100.0%      0.0%     
 flops     2 x    60 x    60              6854400       0.0%    100.0%      0.0%     
 flops    26 x   103 x     2              6887816       0.0%    100.0%      0.0%     
 flops     2 x   102 x    26              7001280       0.0%    100.0%      0.0%     
 flops     2 x    26 x    50              7051200       0.0%    100.0%      0.0%     
 flops     2 x   103 x    26              7059208       0.0%    100.0%      0.0%     
 flops    26 x     2 x    50              7410000       0.0%    100.0%      0.0%     
 flops    29 x    13 x    29              7653100       0.0%    100.0%      0.0%     
 flops    26 x    60 x     2              7937280       0.0%    100.0%      0.0%     
 flops     2 x    60 x    26              8161920       0.0%    100.0%      0.0%     
 flops     2 x    26 x    60              8461440       0.0%    100.0%      0.0%     
 flops    26 x     2 x    60              8985600       0.0%    100.0%      0.0%     
 flops     2 x    29 x     9             15263280       0.0%    100.0%      0.0%     
 flops     2 x     9 x    29             15294600       0.0%    100.0%      0.0%     
 flops    29 x    29 x     2             15844440       0.0%    100.0%      0.0%     
 flops     2 x    26 x     9             16196544       0.0%    100.0%      0.0%     
 flops    26 x     2 x     9             16282656       0.0%    100.0%      0.0%     
 flops    26 x    29 x     2             17034368       0.0%    100.0%      0.0%     
 flops     2 x    29 x    26             17097704       0.0%    100.0%      0.0%     
 flops    52 x    52 x    26             17857216       0.0%    100.0%      0.0%     
 flops    26 x    52 x    52             20247552       0.0%    100.0%      0.0%     
 flops    52 x    57 x    26             20344896       0.0%    100.0%      0.0%     
 flops    26 x    57 x    52             22194432       0.0%    100.0%      0.0%     
 flops    52 x    76 x    26             27126528       0.0%    100.0%      0.0%     
 flops    26 x    76 x    52             29592576       0.0%    100.0%      0.0%     
 flops    52 x    88 x    26             31409664       0.0%    100.0%      0.0%     
 flops    26 x    88 x    52             34265088       0.0%    100.0%      0.0%     
 flops    50 x    52 x    26             34340800       0.0%    100.0%      0.0%     
 flops     9 x     9 x    26             34824816       0.0%    100.0%      0.0%     
 flops    52 x    98 x    26             34978944       0.0%    100.0%      0.0%     
 flops    52 x    50 x    26             35016800       0.0%    100.0%      0.0%     
 flops    52 x   102 x    26             36406656       0.0%    100.0%      0.0%     
 flops    52 x   103 x    26             36763584       0.0%    100.0%      0.0%     
 flops    26 x    98 x    52             38158848       0.0%    100.0%      0.0%     
 flops    26 x    52 x    50             38937600       0.0%    100.0%      0.0%     
 flops    26 x    50 x    52             38937600       0.0%    100.0%      0.0%     
 flops    50 x    57 x    26             39124800       0.0%    100.0%      0.0%     
 flops    26 x   102 x    52             39716352       0.0%    100.0%      0.0%     
 flops    26 x   103 x    52             40105728       0.0%    100.0%      0.0%     
 flops    32 x    52 x     2             40581632       0.0%    100.0%      0.0%     
 flops    60 x    52 x    26             41208960       0.0%    100.0%      0.0%     
 flops     2 x    52 x    32             41586688       0.0%    100.0%      0.0%     
 flops     2 x    29 x    29             42167740       0.0%    100.0%      0.0%     
 flops    52 x    60 x    26             42182400       0.0%    100.0%      0.0%     
 flops    26 x    57 x    50             42681600       0.0%    100.0%      0.0%     
 flops     2 x    32 x    52             43250688       0.0%    100.0%      0.0%     
 flops    32 x     2 x    52             43630080       0.0%    100.0%      0.0%     
 flops     2 x    26 x    29             43792320       0.0%    100.0%      0.0%     
 flops    26 x     2 x    29             43900896       0.0%    100.0%      0.0%     
 flops    32 x    57 x     2             44534784       0.0%    100.0%      0.0%     
 flops     2 x    57 x    32             45607296       0.0%    100.0%      0.0%     
 flops    26 x    60 x    52             46725120       0.0%    100.0%      0.0%     
 flops    26 x    52 x    60             46725120       0.0%    100.0%      0.0%     
 flops    60 x    57 x    26             46949760       0.0%    100.0%      0.0%     
 flops    26 x    57 x    60             51217920       0.0%    100.0%      0.0%     
 flops    50 x    76 x    26             52166400       0.0%    100.0%      0.0%     
 flops    26 x    52 x    26             55680768       0.0%    100.0%      0.0%     
 flops    26 x    76 x    50             55723200       0.0%    100.0%      0.0%     
 flops    26 x    26 x    52             59477184       0.0%    100.0%      0.0%     
 flops    32 x    76 x     2             59710464       0.0%    100.0%      0.0%     
 flops    50 x    88 x    26             60403200       0.0%    100.0%      0.0%     
 flops    26 x    57 x    26             61034688       0.0%    100.0%      0.0%     
 flops     2 x    76 x    32             61315584       0.0%    100.0%      0.0%     
 flops    60 x    76 x    26             62599680       0.0%    100.0%      0.0%     
 flops    26 x    76 x    60             65445120       0.0%    100.0%      0.0%     
 flops    26 x    88 x    50             65894400       0.0%    100.0%      0.0%     
 flops    50 x    98 x    26             67267200       0.0%    100.0%      0.0%     
 flops    50 x    50 x    26             67340000       0.0%    100.0%      0.0%     
 flops    32 x    88 x     2             69037056       0.0%    100.0%      0.0%     
 flops    50 x   102 x    26             70012800       0.0%    100.0%      0.0%     
 flops    50 x   103 x    26             70699200       0.0%    100.0%      0.0%     
 flops     2 x    88 x    32             70940672       0.0%    100.0%      0.0%     
 flops    60 x    88 x    26             72483840       0.0%    100.0%      0.0%     
 flops    32 x     9 x     2             73003392       0.0%    100.0%      0.0%     
 flops    26 x    98 x    50             73382400       0.0%    100.0%      0.0%     
 flops    26 x    50 x    50             74100000       0.0%    100.0%      0.0%     
 flops     2 x     9 x    32             74232576       0.0%    100.0%      0.0%     
 flops    26 x   102 x    50             76377600       0.0%    100.0%      0.0%     
 flops    32 x    98 x     2             76982528       0.0%    100.0%      0.0%     
 flops    26 x   103 x    50             77126400       0.0%    100.0%      0.0%     
 flops    32 x    50 x     2             77996800       0.0%    100.0%      0.0%     
 flops     2 x    98 x    32             79027200       0.0%    100.0%      0.0%     
 flops    26 x    88 x    60             79073280       0.0%    100.0%      0.0%     
 flops     2 x    50 x    32             79923200       0.0%    100.0%      0.0%     
 flops    32 x   102 x     2             80229120       0.0%    100.0%      0.0%     
 flops    60 x    98 x    26             80720640       0.0%    100.0%      0.0%     
 flops    60 x    50 x    26             80808000       0.0%    100.0%      0.0%     
 flops    32 x   103 x     2             80831104       0.0%    100.0%      0.0%     
 flops    50 x    60 x    26             81120000       0.0%    100.0%      0.0%     
 flops    26 x    76 x    26             81379584       0.0%    100.0%      0.0%     
 flops     2 x   102 x    32             82161408       0.0%    100.0%      0.0%     
 flops     2 x    32 x    50             82444800       0.0%    100.0%      0.0%     
 flops     2 x   103 x    32             82993280       0.0%    100.0%      0.0%     
 flops    60 x   102 x    26             84015360       0.0%    100.0%      0.0%     
 flops    32 x     2 x    50             84320000       0.0%    100.0%      0.0%     
 flops    60 x   103 x    26             84839040       0.0%    100.0%      0.0%     
 flops    26 x     9 x     9             87879168       0.0%    100.0%      0.0%     
 flops    26 x    60 x    50             87984000       0.0%    100.0%      0.0%     
 flops    26 x    50 x    60             87984000       0.0%    100.0%      0.0%     
 flops    26 x    98 x    60             88058880       0.0%    100.0%      0.0%     
 flops    26 x   102 x    60             91653120       0.0%    100.0%      0.0%     
 flops    26 x   103 x    60             92551680       0.0%    100.0%      0.0%     
 flops    29 x     9 x    26             93511080       0.0%    100.0%      0.0%     
 flops    32 x    60 x     2             93826560       0.0%    100.0%      0.0%     
 flops    26 x    88 x    26             94228992       0.0%    100.0%      0.0%     
 flops     9 x    29 x    26             95275440       0.0%    100.0%      0.0%     
 flops     2 x    60 x    32             95961600       0.0%    100.0%      0.0%     
 flops    60 x    60 x    26             97344000       0.0%    100.0%      0.0%     
 flops     2 x    32 x    60             98933760       0.0%    100.0%      0.0%     
 flops    32 x     2 x    60            101299200       0.0%    100.0%      0.0%     
 flops    26 x     9 x    26            101468952       0.0%    100.0%      0.0%     
 flops    26 x    98 x    26            104936832       0.0%    100.0%      0.0%     
 flops    26 x    50 x    26            107078400       0.0%    100.0%      0.0%     
 flops    26 x    60 x    60            107827200       0.0%    100.0%      0.0%     
 flops    26 x   102 x    26            109219968       0.0%    100.0%      0.0%     
 flops    26 x   103 x    26            110290752       0.0%    100.0%      0.0%     
 flops    26 x    26 x    50            115596000       0.0%    100.0%      0.0%     
 flops    26 x    60 x    26            128494080       0.0%    100.0%      0.0%     
 flops    26 x    26 x    60            140175360       0.0%    100.0%      0.0%     
 flops     2 x    32 x     9            189618048       0.0%    100.0%      0.0%     
 flops    32 x     2 x     9            190899072       0.0%    100.0%      0.0%     
 flops    32 x    29 x     2            199182208       0.0%    100.0%      0.0%     
 flops     2 x    29 x    32            201294336       0.0%    100.0%      0.0%     
 flops    52 x    52 x    32            214589440       0.0%    100.0%      0.0%     
 flops    32 x    52 x    52            236740608       0.0%    100.0%      0.0%     
 flops    52 x    57 x    32            237689088       0.0%    100.0%      0.0%     
 flops    26 x    29 x     9            238595760       0.0%    100.0%      0.0%     
 flops    26 x     9 x    29            238595760       0.0%    100.0%      0.0%     
 flops    26 x    26 x     9            254749248       0.0%    100.0%      0.0%     
 flops    29 x    29 x    26            255832200       0.0%    100.0%      0.0%     
 flops    32 x    57 x    52            259504128       0.0%    100.0%      0.0%     
 flops    26 x    29 x    26            273554216       0.0%    100.0%      0.0%     
 flops    52 x    76 x    32            316918784       0.0%    100.0%      0.0%     
 flops    32 x    76 x    52            346005504       0.0%    100.0%      0.0%     
 flops    52 x    88 x    32            366958592       0.0%    100.0%      0.0%     
 flops    32 x    88 x    52            400637952       0.0%    100.0%      0.0%     
 flops     9 x     9 x    32            408955392       0.0%    100.0%      0.0%     
 flops    52 x    98 x    32            408984576       0.0%    100.0%      0.0%     
 flops    50 x    52 x    32            412672000       0.0%    100.0%      0.0%     
 flops    52 x    50 x    32            414835200       0.0%    100.0%      0.0%     
 flops    52 x   102 x    32            425338368       0.0%    100.0%      0.0%     
 flops    52 x   103 x    32            429851136       0.0%    100.0%      0.0%     
 flops    32 x    98 x    52            446164992       0.0%    100.0%      0.0%     
 flops    32 x    52 x    50            455270400       0.0%    100.0%      0.0%     
 flops    32 x    50 x    52            455270400       0.0%    100.0%      0.0%     
 flops    50 x    57 x    32            457094400       0.0%    100.0%      0.0%     
 flops    32 x   102 x    52            464375808       0.0%    100.0%      0.0%     
 flops    32 x   103 x    52            468928512       0.0%    100.0%      0.0%     
 flops    60 x    52 x    32            495206400       0.0%    100.0%      0.0%     
 flops    32 x    57 x    50            499046400       0.0%    100.0%      0.0%     
 flops    52 x    60 x    32            499599360       0.0%    100.0%      0.0%     
 flops     2 x    32 x    29            514078592       0.0%    100.0%      0.0%     
 flops    32 x     2 x    29            522783232       0.0%    100.0%      0.0%     
 flops    32 x    60 x    52            546324480       0.0%    100.0%      0.0%     
 flops    32 x    52 x    60            546324480       0.0%    100.0%      0.0%     
 flops    60 x    57 x    32            548513280       0.0%    100.0%      0.0%     
 flops    32 x    57 x    60            598855680       0.0%    100.0%      0.0%     
 flops    50 x    76 x    32            609459200       0.0%    100.0%      0.0%     
 flops    26 x    52 x    32            650777088       0.0%    100.0%      0.0%     
 flops    32 x    76 x    50            651532800       0.0%    100.0%      0.0%     
 flops    26 x    29 x    29            657816744       0.0%    100.0%      0.0%     
 flops    32 x    52 x    26            664102400       0.0%    100.0%      0.0%     
 flops    32 x    26 x    52            680629248       0.0%    100.0%      0.0%     
 flops    26 x    26 x    29            686845744       0.0%    100.0%      0.0%     
 flops    26 x    32 x    52            695425536       0.0%    100.0%      0.0%     
 flops    50 x    88 x    32            705689600       0.0%    100.0%      0.0%     
 flops    26 x    57 x    32            713636352       0.0%    100.0%      0.0%     
 flops    32 x    57 x    26            730898688       0.0%    100.0%      0.0%     
 flops    60 x    76 x    32            731351040       0.0%    100.0%      0.0%     
 flops    32 x    76 x    60            765204480       0.0%    100.0%      0.0%     
 flops    32 x    88 x    50            770457600       0.0%    100.0%      0.0%     
 flops    50 x    98 x    32            786508800       0.0%    100.0%      0.0%     
 flops    50 x    50 x    32            797760000       0.0%    100.0%      0.0%     
 flops    50 x   102 x    32            817958400       0.0%    100.0%      0.0%     
 flops    50 x   103 x    32            826636800       0.0%    100.0%      0.0%     
 flops    60 x    88 x    32            846827520       0.0%    100.0%      0.0%     
 flops    32 x    98 x    50            858009600       0.0%    100.0%      0.0%     
 flops    32 x    50 x    50            866400000       0.0%    100.0%      0.0%     
 flops    32 x   102 x    50            893030400       0.0%    100.0%      0.0%     
 flops    32 x   103 x    50            901785600       0.0%    100.0%      0.0%     
 flops    32 x    88 x    60            924549120       0.0%    100.0%      0.0%     
 flops    60 x    98 x    32            943810560       0.0%    100.0%      0.0%     
 flops    60 x    50 x    32            957312000       0.0%    100.0%      0.0%     
 flops    26 x    76 x    32            957585408       0.0%    100.0%      0.0%     
 flops    50 x    60 x    32            960768000       0.0%    100.0%      0.0%     
 flops    32 x    76 x    26            979084288       0.0%    100.0%      0.0%     
 flops    60 x   102 x    32            981550080       0.0%    100.0%      0.0%     
 flops    60 x   103 x    32            991964160       0.0%    100.0%      0.0%     
 flops    32 x    60 x    50           1028736000       0.0%    100.0%      0.0%     
 flops    32 x    50 x    60           1028736000       0.0%    100.0%      0.0%     
 flops    32 x    98 x    60           1029611520       0.0%    100.0%      0.0%     
 flops    32 x     9 x     9           1031190912       0.0%    100.0%      0.0%     
 flops    32 x   102 x    60           1071636480       0.0%    100.0%      0.0%     
 flops    32 x   103 x    60           1082142720       0.0%    100.0%      0.0%     
 flops    29 x     9 x    32           1098120960       0.0%    100.0%      0.0%     
 flops    26 x    88 x    32           1108929536       0.0%    100.0%      0.0%     
 flops     9 x    29 x    32           1110882816       0.0%    100.0%      0.0%     
 flops    32 x    88 x    26           1133237248       0.0%    100.0%      0.0%     
 flops    60 x    60 x    32           1152921600       0.0%    100.0%      0.0%     
 flops    32 x     9 x    26           1184586624       0.0%    100.0%      0.0%     
 flops    26 x     9 x    32           1192718592       0.0%    100.0%      0.0%     
 flops    26 x    98 x    32           1235107328       0.0%    100.0%      0.0%     
 flops    26 x    50 x    32           1252160000       0.0%    100.0%      0.0%     
 flops    32 x    60 x    60           1260748800       0.0%    100.0%      0.0%     
 flops    32 x    98 x    26           1262666496       0.0%    100.0%      0.0%     
 flops    32 x    50 x    26           1280947200       0.0%    100.0%      0.0%     
 flops    26 x   102 x    32           1285689600       0.0%    100.0%      0.0%     
 flops    26 x   103 x    32           1297780224       0.0%    100.0%      0.0%     
 flops    32 x   102 x    26           1313694720       0.0%    100.0%      0.0%     
 flops    32 x    26 x    50           1315392000       0.0%    100.0%      0.0%     
 flops    32 x   103 x    26           1326574080       0.0%    100.0%      0.0%     
 flops    26 x    32 x    50           1351584000       0.0%    100.0%      0.0%     
 flops    26 x    60 x    32           1503690240       0.0%    100.0%      0.0%     
 flops    32 x    60 x    26           1543626240       0.0%    100.0%      0.0%     
 flops    32 x    26 x    60           1580267520       0.0%    100.0%      0.0%     
 flops    26 x    32 x    60           1638973440       0.0%    100.0%      0.0%     
 flops    32 x    29 x     9           2789735040       0.0%    100.0%      0.0%     
 flops    32 x     9 x    29           2789735040       0.0%    100.0%      0.0%     
 flops    26 x    32 x     9           2980643328       0.0%    100.0%      0.0%     
 flops    29 x    29 x    32           2982926080       0.0%    100.0%      0.0%     
 flops    32 x    26 x     9           2985255936       0.0%    100.0%      0.0%     
 flops    32 x    29 x    26           3208975744       0.0%    100.0%      0.0%     
 flops    26 x    29 x    32           3228036864       0.0%    100.0%      0.0%     
 flops    32 x    29 x    29           7691395776       0.0%    100.0%      0.0%     
 flops    32 x    52 x    32           7766007808       0.0%    100.0%      0.0%     
 flops    32 x    32 x    52           7958126592       0.0%    100.0%      0.0%     
 flops    26 x    32 x    29           8031728640       0.0%    100.0%      0.0%     
 flops    32 x    26 x    29           8158834944       0.0%    100.0%      0.0%     
 flops    32 x    57 x    32           8509470720       0.0%    100.0%      0.0%     
 flops    32 x    76 x    32          11409620992       0.0%    100.0%      0.0%     
 flops    32 x    88 x    32          13208436736       0.0%    100.0%      0.0%     
 flops    32 x     9 x    32          13947107328       0.0%    100.0%      0.0%     
 flops    32 x    98 x    32          14711201792       0.0%    100.0%      0.0%     
 flops    32 x    50 x    32          14923980800       0.0%    100.0%      0.0%     
 flops    32 x   102 x    32          15310614528       0.0%    100.0%      0.0%     
 flops    32 x    32 x    50          15379968000       0.0%    100.0%      0.0%     
 flops    32 x   103 x    32          15457976320       0.0%    100.0%      0.0%     
 flops    32 x    60 x    32          17906933760       0.0%    100.0%      0.0%     
 flops    32 x    32 x    60          18476974080       0.0%    100.0%      0.0%     
 flops    32 x    32 x     9          34979401728       0.0%    100.0%      0.0%     
 flops    32 x    29 x    32          37809481728       0.0%    100.0%      0.0%     
 flops    32 x    32 x    29          95843661824       0.0%    100.0%      0.0%     
 flops inhomo. stacks                233239666752     100.0%      0.0%      0.0%
 flops total                       703.012973E+09      33.2%     66.8%      0.0%
 flops max/rank                     80.416238E+09      31.9%     68.1%      0.0%
 matmuls inhomo. stacks                    845857     100.0%      0.0%      0.0%
 matmuls total                           10768440       7.9%     92.1%      0.0%
 number of processed stacks               1190745       4.0%     96.0%      0.0%
 average stack size                                    17.9       8.7       0.0
 marketing flops                   853.960032E+09
 -------------------------------------------------------------------------------
 # multiplications                            533
 max memory usage/rank              25.170256E+09
 # max total images/rank                       11
 # max 3D layers                                1
 # MPI messages exchanged                   58630
 MPI messages size (bytes):
  total size                        43.138154E+09
  min size                           0.000000E+00
  max size                           3.088480E+06
  average size                     735.769312E+03
 MPI breakdown and total messages size (bytes):
             size <=      128                7060                        0
       128 < size <=     8192                1240                  2317120
      8192 < size <=    32768                1040                 16397280
     32768 < size <=   131072                 780                 38873120
    131072 < size <=  4194304               48510              43080893440
   4194304 < size <= 16777216                   0                        0
  16777216 < size                               0                        0
 -------------------------------------------------------------------------------

 *** WARNING in dbcsr_mm.F:301 :: Using a non-square number of MPI ranks ***
 *** might lead to poor performance. Used ranks: 11 Suggested: 9 25      ***

 -------------------------------------------------------------------------------
 -                                                                             -
 -                      DBCSR MESSAGE PASSING PERFORMANCE                      -
 -                                                                             -
 -------------------------------------------------------------------------------
 ROUTINE             CALLS      AVE VOLUME [Bytes]
 MP_Bcast              347                     12.
 MP_Allreduce         2948                     44.
 MP_Alltoall          3469                  64816.
 MP_ISend            17850                 232268.
 MP_IRecv            17550                 230241.
 -------------------------------------------------------------------------------

 -------------------------------------------------------------------------------
 -                                                                             -
 -                                GRID STATISTICS                              -
 -                                                                             -
 -------------------------------------------------------------------------------
 LP    KERNEL             BACKEND                              COUNT     PERCENT
 4     collocate ortho    CPU                                    644      23.86%
 4     integrate ortho    CPU                                    644      23.86%
 6     collocate ortho    CPU                                    488      18.08%
 6     integrate ortho    CPU                                    488      18.08%
 2     collocate ortho    CPU                                    212       7.85%
 2     integrate ortho    CPU                                    212       7.85%
 0     collocate general  CPU                                     11       0.41%
 -------------------------------------------------------------------------------

 -------------------------------------------------------------------------------
 -                                                                             -
 -                          OFFLOAD MEMPOOL STATISTICS                         -
 -                                                                             -
 -------------------------------------------------------------------------------
 Memory consumption                Number of allocations  Used [MiB]  Size [MiB]
 Host                                                  6          95    21711896
 -------------------------------------------------------------------------------

 MEMORY| Estimated peak process memory [MiB]                                2308

 -------------------------------------------------------------------------------
 -                                                                             -
 -                         MESSAGE PASSING PERFORMANCE                         -
 -                                                                             -
 -------------------------------------------------------------------------------

 ROUTINE             CALLS      AVE VOLUME [Bytes]
 MP_Group                5
 MP_Bcast              256                 227362.
 MP_Allreduce         1086                  22549.
 MP_Sync                10
 MP_Alltoall            84               90151763.
 MP_SendRecv            80                 552960.
 MP_ISendRecv           80                 552960.
 MP_Wait               359
 MP_comm_split          10
 MP_ISend              237                3220739.
 MP_IRecv              237                3220739.
 -------------------------------------------------------------------------------


 -------------------------------------------------------------------------------
 -                                                                             -
 -                           R E F E R E N C E S                               -
 -                                                                             -
 -------------------------------------------------------------------------------
 
 CP2K version 2026.2 (Development Version), the CP2K developers group (2026).
 CP2K is freely available from https://www.cp2k.org/ .
 
 M. Iannuzzi, J. Wilhelm, F. Stein, A. Bussy, H. Elgabarty, D. Golze, A. Hehn, 
 M. Graml, S. Marek, B. Sertcan Gökmen, C. Schran, H. Forbert, R. Z. 
 Khaliullin, A. Kozhevnikov, M. Taillefumier, R. Meli, V. V. Rybkin, M. Brehm, 
 R. Schade, O. Schütt, J. V. Pototschnig, H. Mirhosseini, A. Knüpfer, D. Marx, 
 M. Krack, J. Hutter, T. D. Kühne.
 J. Phys. Chem. B 130, 1237-1310 (2026).
 The CP2K Program Package Made Simple.
 https://doi.org/10.1021/acs.jpcb.5c05851

 M. Graml, K. Zollner, D. Hernangómez-Pérez, P. E. Faria Junior, J. Wilhelm.
 J. Chem. Theory Comput. 20, 2202-2208 (2024).
 Low-scaling GW algorithm applied to twisted transition-metal dichalcogenide 
 heterobilayers.
 https://doi.org/10.1021/acs.jctc.3c01230

 T. D. Kühne, M. Iannuzzi, M. Del Ben, V. V. Rybkin, P. Seewald, F. Stein, T. 
 Laino, R. Z. Khaliullin, O. Schütt, F. Schiffmann, D. Golze, J. Wilhelm, S. 
 Chulkov, M. H. Bani-Hashemian, V. Weber, U. Borstnik, M. Taillefumier, A. S. 
 Jakobovits, A. Lazzaro, H. Pabst, T. Müller, R. Schade, M. Guidon, S. 
 Andermatt, N. Holmberg, G. K. Schenter, A. Hehn, A. Bussy, F. Belleflamme, G. 
 Tabacchi, A. Glöß, M. Lass, I. Bethune, C. J. Mundy, C. Plessl, M. Watkins, 
 J. VandeVondele, M. Krack, J. Hutter.
 J. Chem. Phys. 152, 194103 (2020).
 CP2K: An electronic structure and molecular dynamics software package - 
 Quickstep: Efficient and accurate electronic structure calculations.
 https://doi.org/10.1063/5.0007045

 O. Schuett, P. Messmer, J. Hutter, J. VandeVondele.
 Electronic Structure Calculations on Graphics Processing Units, 173-190 (2016).
 GPU-Accelerated Sparse Matrix-Matrix Multiplication for Linear Scaling Density 
 Functional Theory.
 https://doi.org/10.1002/9781118670712.ch8

 U. Borstnik, J. VandeVondele, V. Weber, J. Hutter.
 Parallel Comput. 40, 47-58 (2014).
 Sparse matrix multiplication: The distributed block-compressed sparse row 
 library.
 https://doi.org/10.1016/j.parco.2014.03.012

 J. VandeVondele, J. Hutter.
 J. Chem. Phys. 127, 114105 (2007).
 Gaussian basis sets for accurate calculations on molecular systems in gas and 
 condensed phases.
 https://doi.org/10.1063/1.2770708

 J. VandeVondele, M. Krack, F. Mohamed, M. Parrinello, T. Chassaing, J. Hutter.
 Comput. Phys. Commun. 167, 103-128 (2005).
 QUICKSTEP: Fast and accurate density functional calculations using a mixed 
 Gaussian and plane waves approach.
 https://doi.org/10.1016/j.cpc.2004.12.014

 M. Krack.
 Theor. Chem. Acc. 114, 145-152 (2005).
 Pseudopotentials for H to Kr optimized for gradient-corrected 
 exchange-correlation functionals.
 https://doi.org/10.1007/s00214-005-0655-y

 M. Frigo, S. G. Johnson.
 Proc. IEEE 93, 216-231 (2005).
 The design and implementation of FFTW3.
 https://doi.org/10.1109/JPROC.2004.840301

 J. VandeVondele, J. Hutter.
 J. Chem. Phys. 118, 4365-4369 (2003).
 An efficient orbital transformation method for electronic structure 
 calculations.
 https://doi.org/10.1063/1.1543154

 C. Hartwigsen, S. Goedecker, J. Hutter.
 Phys. Rev. B 58, 3641-3662 (1998).
 Relativistic separable dual-space Gaussian pseudopotentials from H to Rn.
 https://doi.org/10.1103/PhysRevB.58.3641

 G. Lippert, J. Hutter, M. Parrinello.
 Mol. Phys. 92, 477-487 (1997).
 A hybrid Gaussian and plane wave density functional scheme.
 https://doi.org/10.1080/002689797170220

 S. Goedecker, M. Teter, J. Hutter.
 Phys. Rev. B 54, 1703-1710 (1996).
 Separable dual-space Gaussian pseudopotentials.
 https://doi.org/10.1103/PhysRevB.54.1703

 J. P. Perdew, K. Burke, M. Ernzerhof.
 Phys. Rev. Lett. 77, 3865-3868 (1996).
 Generalized gradient approximation made simple.
 https://doi.org/10.1103/PhysRevLett.77.3865

 P. E. Blöchl.
 J. Chem. Phys. 103, 7422-7428 (1995).
 Electrostatic decoupling of periodic images of plane‐wave‐expanded 
 densities and derived atomic point charges.
 https://doi.org/10.1063/1.470314

 R. H. Byrd, P. H. Lu, J. Nocedal, C. Y. Zhu.
 SIAM J. Sci. Comput. 16, 1190-1208 (1995).
 A Limited Memory Algorithm for Bound Constrained Optimization.
 https://doi.org/10.1137/0916069


 -------------------------------------------------------------------------------
 -                                                                             -
 -                                T I M I N G                                  -
 -                                                                             -
 -------------------------------------------------------------------------------
 SUBROUTINE                       CALLS  ASD         SELF TIME        TOTAL TIME MAXRANK
                                MAXIMUM       AVERAGE  MAXIMUM  AVERAGE  MAXIMUM
 CP2K                                 1  1.0    0.080    0.081  395.871  395.872       0
 qs_energies                          1  2.0    0.010    0.010  394.976  394.976       6
 qs_energies_properties               1  3.0    0.007    0.007  389.135  389.135       7
 post_scf_bandstructure               1  4.0    0.001    0.001  389.128  389.129       6
 run_gw                               1  5.0    0.000    0.000  389.033  389.042       0
 gw_calc_ri_rs_non_periodic           1  6.0    0.010    0.011  385.466  385.584       4
 optimize_ri_rs_grid                  1  7.0    0.001    0.001  380.423  380.534       8
 rirs_grid_LBFGS                      1  8.0    2.700    3.087  362.989  363.040       5
 evaluate_rirs_grid_cluster         127  9.0   20.129   21.667  348.553  359.930       9
 rirs_cluster_gradient_products     127 10.0  120.170  126.206  120.170  126.206       0
 rirs_cluster_D_ll                  127 10.0   63.234   66.913   63.234   66.913       3
 rirs_cluster_gradient_coordina     127 10.0   61.361   65.104   61.361   65.104      10
 rirs_cluster_residual              127 10.0   33.193   34.530   33.193   34.530       3
 rirs_cluster_d_lP                  127 10.0   29.328   30.825   29.328   30.825       3
 mp_sum_d                           621  3.6   11.792   30.107   11.792   30.107      10
 rirs_cluster_AO_products           127 10.0   21.138   22.267   21.138   22.267       9
 initialize_ri_rs_grid                1  8.0    4.429    9.437    9.719    9.828       3
 mp_bcast_dm                         52  9.2    5.589    9.364    5.589    9.364      10
 rirs_grid_build_clusters             1  8.0    4.906    4.924    7.715    7.782       3
 scf_env_do_scf                       1  3.0    0.000    0.000    5.003    5.003       5
 qs_ks_build_kohn_sham_matrix         4  7.2    0.016    0.021    3.913    3.913      10
 create_and_init_bs_env_for_gw        1  6.0    0.009    0.022    3.567    3.848       6
 scf_env_do_scf_inner_loop            3  4.0    0.001    0.001    3.710    3.711       7
 qs_ks_update_qs_env                  4  5.0    0.000    0.000    3.541    3.541      10
 rebuild_ks_matrix                    3  6.0    0.000    0.000    3.541    3.541       0
 fft_wrap_pw1pw2                     62 10.2    0.002    0.002    3.300    3.433       3
 fft_wrap_pw1pw2_300                 38 11.6    0.178    0.228    3.150    3.317       3
 abc_contract_xsmm                29683  9.0    2.960    3.145    2.960    3.145       3
 generate_auto_ri_basis               1  7.0    0.000    0.000    2.746    2.747       1
 fft3d_ps                            62 12.2    1.265    1.454    2.457    2.718       9
 dbcsr_multiply_generic             533  9.6    0.032    0.034    2.634    2.660       3
 qs_vxc_create                        4  8.2    0.000    0.001    2.395    2.433       4
 xc_vxc_pw_create                     3  9.0    0.050    0.058    2.395    2.432       6
 multiply_cannon                    533 10.6    0.040    0.043    1.870    1.947       3
 xc_pw_derive                        18 11.0    0.000    0.000    1.765    1.916       9
 compute_Sigma_c_and_QP_energie       1  7.0    0.000    0.000    1.863    1.873       6
 compute_Sigma_c                      1  8.0    0.000    0.001    1.790    1.790       0
 qs_rho_update_rho_low                4  5.0    0.005    0.006    1.781    1.783       0
 calculate_rho_elec                   4  6.0    0.045    0.046    1.775    1.777       5
 multiply_cannon_loop               533 11.6    0.037    0.041    1.684    1.740       9
 contract_grid_panels_sigma_c        30  9.0    0.001    0.002    1.698    1.701       3
 mp_alltoall_z22v                    62 14.2    0.774    1.597    0.774    1.597      10
 compute_W                            1  7.0    0.000    0.001    1.430    1.430      10
 compute_AB_optimized_RI_basis        1  8.0    0.000    0.001    1.356    1.356       3
 compute_AB_optimized_RI_basis_       1  9.0    0.000    0.000    1.339    1.354       9
 mp_sum_dm                           76 10.9    0.713    1.305    0.713    1.305       6
 xc_pw_divergence                     3 10.0    0.000    0.000    1.166    1.301       3
 init_scf_loop                        1  4.0    0.009    0.009    1.292    1.292       7
 compute_B_PQ_AB                      4 10.0    0.197    0.335    0.759    1.286       2
 xc_rho_set_and_dset_create           3 10.0    0.044    0.084    1.144    1.226       3
 mp_waitall_1                     34234 13.8    0.893    1.171    0.893    1.171       5
 density_rs2pw                        4  7.0    0.001    0.001    0.977    1.157       1
 get_mat_chi_Gamma_tau                1  7.0    0.000    0.001    1.093    1.094       0
 contract_grid_panels                31  8.0    0.001    0.001    1.061    1.065       9
 multiply_cannon_metrocomm3        5863 12.6    0.010    0.011    0.781    1.047       7
 compute_fm_W_freq                   30  8.0    0.005    0.005    1.029    1.036      10
 cp_fm_get_submatrix                 72 10.0    0.001    0.001    0.540    1.008       7
 yz_to_x                             30 12.6    0.179    0.209    0.561    0.990       7
 multiply_cannon_multrec           5863 12.6    0.687    0.980    0.691    0.984       0
 cp_fm_gemm                         434 10.5    0.920    0.937    0.920    0.937       9
 parallel_gemm_fm_gemm              431  9.6    0.001    0.001    0.920    0.937       1
 x_to_yz                             32 13.8    0.232    0.273    0.624    0.917       9
 compute_M_pq_inv_and_V_pq            1  8.0    0.000    0.000    0.868    0.869      10
 compute_contracted_RI_matrix         2  9.0    0.001    0.001    0.767    0.768       2
 grid_collocate_task_list             4  7.0    0.719    0.764    0.719    0.764       0
 compute_optimized_RI_matrix_bl      12 10.0    0.090    0.105    0.681    0.762       3
 contract_B_PQ                       18 11.9    0.398    0.683    0.430    0.737       2
 sum_up_and_integrate                 4  8.2    0.000    0.001    0.681    0.696       5
 integrate_v_rspace                   4  9.2    0.000    0.000    0.671    0.690       9
 compute_M_PQ_AB                    472 11.0    0.001    0.001    0.610    0.678       8
 compute_M_PQ                       472 12.0    0.001    0.001    0.609    0.678       4
 int_operators_r12_ab_os            472 13.0    0.000    0.000    0.609    0.677       4
 int_operator_ab_os_low             472 14.0    0.239    0.266    0.608    0.677       4
 potential_pw2rs                      4 10.2    0.002    0.004    0.643    0.662       3
 setup_time_and_frequency_minim       1  7.0    0.000    0.001    0.371    0.660       5
 build_minimax_time_frequency_g       1  8.0    0.001    0.002    0.371    0.660       2
 fit_l_sq_weights                     3  9.0    0.370    0.660    0.370    0.660       3
 init_scf_run                         1  3.0    0.000    0.000    0.569    0.570       8
 scf_env_initial_rho_setup            1  4.0    0.001    0.001    0.569    0.569       0
 qs_init_subsys                       1  2.0    0.010    0.010    0.546    0.546       7
 compute_Z_lP                         1  7.0    0.000    0.001    0.535    0.535       6
 compute_Z_lP_auto_ri                 1  8.0    0.011    0.012    0.535    0.535      10
 make_m2s                          1066 10.6    0.018    0.018    0.493    0.533       3
 qs_env_setup                         1  3.0    0.004    0.004    0.532    0.532       3
 qs_env_rebuild_pw_env                2  3.5    0.000    0.000    0.523    0.523       5
 pw_env_rebuild                       1  5.0    0.009    0.009    0.523    0.523       6
 compute_AA_optimized_RI_basis        1  8.0    0.000    0.000    0.522    0.522       3
 pw_grid_setup                        5  5.2    0.001    0.001    0.506    0.506       8
 pw_grid_setup_internal               5  6.2    0.010    0.010    0.505    0.505       5
 transfer_rs2pw                      17  7.9    0.000    0.000    0.274    0.491       9
 make_images                       1066 11.6    0.087    0.116    0.436    0.469       0
 mp_waitany                         237 11.4    0.236    0.468    0.236    0.468       5
 qs_ks_ddapc                          4  8.2    0.000    0.000    0.440    0.454       3
 pw_grid_sort                         5  7.2    0.299    0.304    0.431    0.437       6
 transfer_rs2pw_300                   5  8.6    0.087    0.094    0.213    0.430       1
 compute_d_lp_auto_ri_batch           1  9.0    0.005    0.006    0.276    0.422       4
 compute_d_lp_auto_ri_atom            1 10.0    0.164    0.387    0.270    0.417       2
 -------------------------------------------------------------------------------

 The number of warnings for this run is : 2
 
 -------------------------------------------------------------------------------
  **** **** ******  **  PROGRAM ENDED AT                 2026-10-03 18:59:34.344
 ***** ** ***  *** **   PROGRAM RAN ON                                  n2cn0309
 **    ****   ******    PROGRAM RAN BY                                  eprop2d1
 ***** **    ** ** **   PROGRAM PROCESS ID                               2457528
  **** **  *******  **  PROGRAM STOPPED IN /scratch/hpc-prf-metdyn/eprop2d1_Jan/
                                           53_benchmark_RI_opt/418_gw100_fig5_fu
                                           ll_epsfilter_1e12_20261002/calculatio
                                           ns/rc5p0/ri4_rs10/30_C5H6
