 DBCSR| CPU Multiplication driver                                           XSMM (U)
 DBCSR| Multrec recursion limit                                              512 (U)
 DBCSR| Multiplication stack size                                           1000 (D)
 DBCSR| Maximum elements for images                                    UNLIMITED (U)
 DBCSR| Multiplicative factor virtual images                                   1 (U)
 DBCSR| Use multiplication densification                                       T (D)
 DBCSR| Multiplication size stacks                                             3 (U)
 DBCSR| Use memory pool for CPU allocation                                     F (U)
 DBCSR| Number of 3D layers                                               SINGLE (U)
 DBCSR| Use MPI memory allocation                                              F (U)
 DBCSR| Use RMA algorithm                                                      F (U)
 DBCSR| Use Communication thread                                               T (U)
 DBCSR| Communication thread load                                             60 (D)
 DBCSR| MPI: My process id                                                     0
 DBCSR| MPI: Number of processes                                              16
 DBCSR| OMP: Current number of threads                                         8
 DBCSR| OMP: Max number of threads                                             8
 DBCSR| Split modifier for TAS multiplication algorithm                  1.0E+00 (U)


  **** **** ******  **  PROGRAM STARTED AT               2026-09-17 07:16:46.102
 ***** ** ***  *** **   PROGRAM STARTED ON                              n2cn0301
 **    ****   ******    PROGRAM STARTED BY                              eprop2d1
 ***** **    ** ** **   PROGRAM PROCESS ID                                275445
  **** **  *******  **  PROGRAM STARTED IN /scratch/hpc-prf-metdyn/eprop2d1_Jan/
                                           53_benchmark_RI_opt/111_GW100_GTH_Leb
                                           edev_riao245_rc3/calculations/09_Na4_
                                           riao2_r09

 CP2K| version string:                 CP2K version 2026.2 (Development Version)
 CP2K| source code revision number:                                      unknown
 CP2K| cp2kflags: omp libint fftw3 libxc parallel scalapack openblas            
 CP2K| is freely available from                            https://www.cp2k.org/
 CP2K| Program compiled at                                   2026-09-15 17:57:52
 CP2K| Program compiled on                                              n2login6
 CP2K| Program compiled for                                               x86_64
 CP2K| Data directory path    /scratch/hpc-prf-metdyn/eprop2d1_Jan/53_benchmark_
 CP2K| Input file name        /scratch/hpc-prf-metdyn/eprop2d1_Jan/53_benchmark_
 
 eprop2d1@n2cn0301 has created rank and process                      0    275445
 eprop2d1@n2cn0301 has created rank and process                      1    275446
 eprop2d1@n2cn0301 has created rank and process                      2    275447
 eprop2d1@n2cn0301 has created rank and process                      3    275448
 eprop2d1@n2cn0301 has created rank and process                      4    275449
 eprop2d1@n2cn0301 has created rank and process                      5    275450
 eprop2d1@n2cn0301 has created rank and process                      6    275451
 eprop2d1@n2cn0301 has created rank and process                      7    275452
 eprop2d1@n2cn0301 has created rank and process                      8    275453
 eprop2d1@n2cn0301 has created rank and process                      9    275454
 eprop2d1@n2cn0301 has created rank and process                     10    275455
 eprop2d1@n2cn0301 has created rank and process                     11    275456
 eprop2d1@n2cn0301 has created rank and process                     12    275457
 eprop2d1@n2cn0301 has created rank and process                     13    275458
 eprop2d1@n2cn0301 has created rank and process                     14    275459
 eprop2d1@n2cn0301 has created rank and process                     15    275460
 
 eprop2d1@n2cn0301 is running                                       16 processes

 GLOBAL| Force Environment number                                              1
 GLOBAL| Basis set file name            /scratch/hpc-prf-metdyn/eprop2d1_Jan/53_
 GLOBAL| Potential file name            /scratch/hpc-prf-metdyn/eprop2d1_Jan/53_
 GLOBAL| MM Potential file name                                     MM_POTENTIAL
 GLOBAL| Coordinate file name                                      __STD_INPUT__
 GLOBAL| Method name                                                        CP2K
 GLOBAL| Project name                                gw100_106_09_Na4_a3_leb_r09
 GLOBAL| Run type                                                         ENERGY
 GLOBAL| FFT library                                                       FFTW3
 GLOBAL| Diagonalization library                                       ScaLAPACK
 GLOBAL| Cholesky decomposition library                                ScaLAPACK
 GLOBAL| DGEMM library                                                      BLAS
 GLOBAL| Direct generalized diagonalization requested                          F
 GLOBAL| Orthonormality check for eigenvectors                          DISABLED
 GLOBAL| Matrix multiplication library                                 ScaLAPACK
 GLOBAL| All-to-all communication in single precision                          F
 GLOBAL| Grid backend                                                       AUTO
 GLOBAL| Global print level                                                  LOW
 GLOBAL| MPI I/O enabled                                                       T
 GLOBAL| Total number of message passing processes                            16
 GLOBAL| Number of distributed systems (nodes)                                 1
 GLOBAL| Number of threads for this process                                    8
 GLOBAL| This output is from process                                           0
 GLOBAL| OpenMP stack size per thread (OMP_STACKSIZE)                       128M
 GLOBAL| CPU model name                          AMD EPYC 7763 64-Core Processor

 MEMORY| system memory details [Kb]
 MEMORY|                        rank 0           min           max       average
 MEMORY| MemTotal            263897584     263897584     263897584     263897584
 MEMORY| MemFree             243034148     243034148     243034148     243034148
 MEMORY| Buffers                201836        201836        201836        201836
 MEMORY| Cached               13754660      13754660      13754660      13754660
 MEMORY| Slab                  1337368       1337368       1337368       1337368
 MEMORY| SReclaimable           263616        263616        263616        263616
 MEMORY| MemLikelyFree       257254260     257254260     257254260     257254260


 GENERATE|  Preliminary Number of Bonds generated:                             0
 GENERATE|  Achieved consistency in connectivity generation.

 *******************************************************************************
 *******************************************************************************
 **                                                                           **
 **     #####                         ##              ##                      **
 **    ##   ##            ##          ##              ##                      **
 **   ##     ##                       ##            ######                    **
 **   ##     ##  ##   ##  ##   #####  ##  ##   ####   ##    #####    #####    **
 **   ##     ##  ##   ##  ##  ##      ## ##   ##      ##   ##   ##  ##   ##   **
 **   ##  ## ##  ##   ##  ##  ##      ####     ###    ##   ######   ######    **
 **    ##  ###   ##   ##  ##  ##      ## ##      ##   ##   ##       ##        **
 **     #######   #####   ##   #####  ##  ##  ####    ##    #####   ##        **
 **           ##                                                    ##        **
 **                                                                           **
 **                                                ... make the atoms dance   **
 **                                                                           **
 **            Copyright (C) by CP2K developers group (2000-2026)             **
 **                      J. Chem. Phys. 152, 194103 (2020)                    **
 **                                                                           **
 *******************************************************************************


 TOTAL NUMBERS AND MAXIMUM NUMBERS

  Total number of            - Atomic kinds:                                   1
                             - Atoms:                                          4
                             - Shell sets:                                     4
                             - Shells:                                        24
                             - Primitive Cartesian functions:                 32
                             - Cartesian basis functions:                     60
                             - Spherical basis functions:                     56

  Maximum angular momentum of- Orbital basis functions:                        2
                             - Local part of the GTH pseudopotential:          2
                             - Non-local part of the GTH pseudopotential:      1


 SCF PARAMETERS         Density guess:                                    ATOMIC
                        --------------------------------------------------------
                        max_scf:                                             500
                        max_scf_history:                                       0
                        max_diis:                                              4
                        --------------------------------------------------------
                        eps_scf:                                        1.00E-08
                        eps_scf_history:                                0.00E+00
                        eps_diis:                                       0.00E+00
                        eps_eigval:                                     1.00E-05
                        --------------------------------------------------------
                        level_shift [a.u.]:                             0.000000
                        --------------------------------------------------------
                        Outer loop SCF in use 
                        No variables optimised in outer loop
                        eps_scf                                         1.00E-08
                        max_scf                                               20
                        No outer loop optimization
                        step_size                                       5.00E-01

 Extrapolation method: initial_guess

 Number of electrons:                                                         36
 Number of occupied orbitals:                                                 18
 Number of molecular orbitals:                                                18

 Number of orbital functions:                                                 56
 Number of independent orbital functions:                                     56


 SCF WAVEFUNCTION OPTIMIZATION

  ----------------------------------- OT ---------------------------------------
  Minimizer      : DIIS                : direct inversion
                                         in the iterative subspace
                                         using   7 DIIS vectors
                                         safer DIIS on
  Preconditioner : FULL_KINETIC        : inversion of T + eS
  Lattice FFT   : OFF
  Precond_solver : DEFAULT
  stepsize       :    0.15000000                  energy_gap     :    0.20000000
  eps_taylor     :   0.10000E-15                  max_taylor     :             4
  ----------------------------------- OT ---------------------------------------

  Step     Update method      Time    Convergence         Total energy    Change
  ------------------------------------------------------------------------------
  Decoupling Energy:                                               0.0012904415
     1 OT DIIS     0.15E+00    1.3     0.13401882      -186.9719304001 -1.87E+02
  Decoupling Energy:                                               0.0006561364
     2 OT DIIS     0.15E+00    1.7     0.11486018      -188.1468020442 -1.17E+00
  Decoupling Energy:                                               0.0004218747
     3 OT DIIS     0.15E+00    1.7     0.07573822      -188.6709418906 -5.24E-01
  Decoupling Energy:                                               0.0001896676
     4 OT DIIS     0.15E+00    1.7     0.05720162      -189.0118522866 -3.41E-01
  Decoupling Energy:                                               0.0000389684
     5 OT DIIS     0.15E+00    1.7     0.04824669      -189.3138108780 -3.02E-01
  Decoupling Energy:                                               0.0000090110
     6 OT DIIS     0.15E+00    1.7     0.04064484      -189.5621995014 -2.48E-01
  Decoupling Energy:                                               0.0000174997
     7 OT DIIS     0.15E+00    1.7     0.03541970      -189.7730180527 -2.11E-01
  Decoupling Energy:                                               0.0000246802
     8 OT DIIS     0.15E+00    1.7     0.03326177      -189.9808366290 -2.08E-01
  Decoupling Energy:                                               0.0000445349
     9 OT DIIS     0.15E+00    1.7     0.02989765      -190.2848254821 -3.04E-01
  Decoupling Energy:                                               0.0000740257
    10 OT DIIS     0.15E+00    1.7     0.02542358      -190.6356981055 -3.51E-01
  Decoupling Energy:                                               0.0000892641
    11 OT DIIS     0.15E+00    1.7     0.01922580      -190.9118670396 -2.76E-01
  Decoupling Energy:                                               0.0000779005
    12 OT DIIS     0.15E+00    1.7     0.01424382      -191.0241750487 -1.12E-01
  Decoupling Energy:                                               0.0000664928
    13 OT DIIS     0.15E+00    1.7     0.01138519      -191.0673702943 -4.32E-02
  Decoupling Energy:                                               0.0000573794
    14 OT DIIS     0.15E+00    1.6     0.00894951      -191.0870248292 -1.97E-02
  Decoupling Energy:                                               0.0000497046
    15 OT DIIS     0.15E+00    1.7     0.00711645      -191.0997295782 -1.27E-02
  Decoupling Energy:                                               0.0000431789
    16 OT DIIS     0.15E+00    1.7     0.00543487      -191.1080377172 -8.31E-03
  Decoupling Energy:                                               0.0000366524
    17 OT DIIS     0.15E+00    1.7     0.00428860      -191.1138828736 -5.85E-03
  Decoupling Energy:                                               0.0000325923
    18 OT DIIS     0.15E+00    1.7     0.00328298      -191.1167925348 -2.91E-03
  Decoupling Energy:                                               0.0000300662
    19 OT DIIS     0.15E+00    1.7     0.00281908      -191.1186153355 -1.82E-03
  Decoupling Energy:                                               0.0000281902
    20 OT DIIS     0.15E+00    1.7     0.00250782      -191.1199070046 -1.29E-03
  Decoupling Energy:                                               0.0000260523
    21 OT DIIS     0.15E+00    1.7     0.00228854      -191.1210868624 -1.18E-03
  Decoupling Energy:                                               0.0000242766
    22 OT DIIS     0.15E+00    1.7     0.00209211      -191.1220351398 -9.48E-04
  Decoupling Energy:                                               0.0000226858
    23 OT DIIS     0.15E+00    1.7     0.00173287      -191.1227568935 -7.22E-04
  Decoupling Energy:                                               0.0000214052
    24 OT DIIS     0.15E+00    1.7     0.00149062      -191.1231462650 -3.89E-04
  Decoupling Energy:                                               0.0000204800
    25 OT DIIS     0.15E+00    1.7     0.00124195      -191.1234919625 -3.46E-04
  Decoupling Energy:                                               0.0000198185
    26 OT DIIS     0.15E+00    1.7     0.00112013      -191.1237565971 -2.65E-04
  Decoupling Energy:                                               0.0000191644
    27 OT DIIS     0.15E+00    1.7     0.00103325      -191.1240430879 -2.86E-04
  Decoupling Energy:                                               0.0000186443
    28 OT DIIS     0.15E+00    1.7     0.00096998      -191.1243029114 -2.60E-04
  Decoupling Energy:                                               0.0000182361
    29 OT DIIS     0.15E+00    1.7     0.00089310      -191.1245374869 -2.35E-04
  Decoupling Energy:                                               0.0000179586
    30 OT DIIS     0.15E+00    1.6     0.00085070      -191.1247372225 -2.00E-04
  Decoupling Energy:                                               0.0000177592
    31 OT DIIS     0.15E+00    1.7     0.00076678      -191.1248852792 -1.48E-04
  Decoupling Energy:                                               0.0000177318
    32 OT DIIS     0.15E+00    1.7     0.00072151      -191.1250092043 -1.24E-04
  Decoupling Energy:                                               0.0000176868
    33 OT DIIS     0.15E+00    1.7     0.00067021      -191.1251347340 -1.26E-04
  Decoupling Energy:                                               0.0000177106
    34 OT DIIS     0.15E+00    1.7     0.00063808      -191.1252561594 -1.21E-04
  Decoupling Energy:                                               0.0000177863
    35 OT DIIS     0.15E+00    1.7     0.00060803      -191.1253781299 -1.22E-04
  Decoupling Energy:                                               0.0000178888
    36 OT DIIS     0.15E+00    1.7     0.00059395      -191.1254827840 -1.05E-04
  Decoupling Energy:                                               0.0000179862
    37 OT DIIS     0.15E+00    1.7     0.00058075      -191.1255725499 -8.98E-05
  Decoupling Energy:                                               0.0000181043
    38 OT DIIS     0.15E+00    1.7     0.00057444      -191.1256631283 -9.06E-05
  Decoupling Energy:                                               0.0000182141
    39 OT DIIS     0.15E+00    1.7     0.00056566      -191.1257413512 -7.82E-05
  Decoupling Energy:                                               0.0000183242
    40 OT DIIS     0.15E+00    1.7     0.00056225      -191.1258323602 -9.10E-05
  Decoupling Energy:                                               0.0000184221
    41 OT DIIS     0.15E+00    1.7     0.00055347      -191.1259159097 -8.35E-05
  Decoupling Energy:                                               0.0000185149
    42 OT DIIS     0.15E+00    1.7     0.00054878      -191.1260032963 -8.74E-05
  Decoupling Energy:                                               0.0000185973
    43 OT DIIS     0.15E+00    1.7     0.00054490      -191.1260920788 -8.88E-05
  Decoupling Energy:                                               0.0000186637
    44 OT DIIS     0.15E+00    1.7     0.00054304      -191.1261763205 -8.42E-05
  Decoupling Energy:                                               0.0000187203
    45 OT DIIS     0.15E+00    1.7     0.00054153      -191.1262628714 -8.66E-05
  Decoupling Energy:                                               0.0000187806
    46 OT DIIS     0.15E+00    1.7     0.00054086      -191.1263736847 -1.11E-04
  Decoupling Energy:                                               0.0000188269
    47 OT DIIS     0.15E+00    1.7     0.00053980      -191.1264787774 -1.05E-04
  Decoupling Energy:                                               0.0000188616
    48 OT DIIS     0.15E+00    1.7     0.00053871      -191.1265913076 -1.13E-04
  Decoupling Energy:                                               0.0000188836
    49 OT DIIS     0.15E+00    1.7     0.00053756      -191.1266759731 -8.47E-05
  Decoupling Energy:                                               0.0000188970
    50 OT DIIS     0.15E+00    1.7     0.00053680      -191.1267583977 -8.24E-05
  Decoupling Energy:                                               0.0000189032
    51 OT DIIS     0.15E+00    1.7     0.00053631      -191.1268260914 -6.77E-05
  Decoupling Energy:                                               0.0000189055
    52 OT DIIS     0.15E+00    1.7     0.00053616      -191.1268803522 -5.43E-05
  Decoupling Energy:                                               0.0000189056
    53 OT DIIS     0.15E+00    1.7     0.00053608      -191.1269206067 -4.03E-05
  Decoupling Energy:                                               0.0000189050
    54 OT DIIS     0.15E+00    1.7     0.00053607      -191.1269442674 -2.37E-05
  Decoupling Energy:                                               0.0000189044
    55 OT SD       0.15E+00    1.7     0.00053607      -191.1269465508 -2.28E-06
  Decoupling Energy:                                               0.0000189027
    56 OT SD       0.15E+00    1.7     0.00053618      -191.1269900033 -4.35E-05
  Decoupling Energy:                                               0.0000189006
    57 OT SD       0.15E+00    1.7     0.00053638      -191.1270334705 -4.35E-05
  Decoupling Energy:                                               0.0000188982
    58 OT SD       0.15E+00    1.7     0.00053681      -191.1270769553 -4.35E-05
  Decoupling Energy:                                               0.0000188957
    59 OT SD       0.15E+00    1.7     0.00053800      -191.1271204484 -4.35E-05
  Decoupling Energy:                                               0.0000188928
    60 OT SD       0.15E+00    1.7     0.00054205      -191.1271638967 -4.34E-05
  Decoupling Energy:                                               0.0000188903
    61 OT SD       0.15E+00    1.7     0.00055692      -191.1272070786 -4.32E-05
  Decoupling Energy:                                               0.0000188866
    62 OT SD       0.15E+00    1.7     0.00061090      -191.1272491161 -4.20E-05
  Decoupling Energy:                                               0.0000188845
    63 OT SD       0.15E+00    1.7     0.00078676      -191.1272865601 -3.74E-05
  Decoupling Energy:                                               0.0000188774
    64 OT SD       0.15E+00    1.7     0.00125738      -191.1273058818 -1.93E-05
  Decoupling Energy:                                               0.0000188730
    65 OT SD       0.15E+00    1.7     0.00231359      -191.1272539938  5.19E-05
  Decoupling Energy:                                               0.0000188357
    66 OT SD       0.15E+00    1.7     0.00448928      -191.1269224987  3.31E-04
  Decoupling Energy:                                               0.0000187512
    67 OT DIIS     0.15E+00    1.7     0.00884612      -191.1254929871  1.43E-03
  Decoupling Energy:                                               0.0000178209
    68 OT DIIS     0.15E+00    1.7     0.00055432      -191.1253862044  1.07E-04
  Decoupling Energy:                                               0.0000181842
    69 OT DIIS     0.15E+00    1.7     0.00053610      -191.1256260149 -2.40E-04
  Decoupling Energy:                                               0.0000183190
    70 OT SD       0.15E+00    1.7     0.00053384      -191.1258192609 -1.93E-04
  Decoupling Energy:                                               0.0000183815
    71 OT SD       0.15E+00    1.7     0.00053274      -191.1258619637 -4.27E-05
  Decoupling Energy:                                               0.0000184312
    72 OT SD       0.15E+00    1.7     0.00053839      -191.1259042612 -4.23E-05
  Decoupling Energy:                                               0.0000184698
    73 OT DIIS     0.15E+00    1.7     0.00056233      -191.1259459673 -4.17E-05
  Decoupling Energy:                                               0.0000184963
    74 OT DIIS     0.15E+00    1.7     0.00052885      -191.1259790616 -3.31E-05
  Decoupling Energy:                                               0.0000184945
    75 OT SD       0.15E+00    1.7     0.00052763      -191.1260301424 -5.11E-05
  Decoupling Energy:                                               0.0000185127
    76 OT DIIS     0.15E+00    1.7     0.00052835      -191.1260721516 -4.20E-05
  Decoupling Energy:                                               0.0000184904
    77 OT DIIS     0.15E+00    1.7     0.00052705      -191.1261035490 -3.14E-05
  Decoupling Energy:                                               0.0000184770
    78 OT DIIS     0.15E+00    1.7     0.00052703      -191.1261261775 -2.26E-05
  Decoupling Energy:                                               0.0000184964
    79 OT SD       0.15E+00    1.7     0.00052716      -191.1261570246 -3.08E-05
  Decoupling Energy:                                               0.0000185122
    80 OT SD       0.15E+00    1.7     0.00052737      -191.1261990455 -4.20E-05
  Decoupling Energy:                                               0.0000185267
    81 OT SD       0.15E+00    1.7     0.00052765      -191.1262410958 -4.21E-05
  Decoupling Energy:                                               0.0000185398
    82 OT SD       0.15E+00    1.7     0.00052813      -191.1262831745 -4.21E-05
  Decoupling Energy:                                               0.0000185521
    83 OT SD       0.15E+00    1.7     0.00052929      -191.1263252703 -4.21E-05
  Decoupling Energy:                                               0.0000185627
    84 OT SD       0.15E+00    1.7     0.00053291      -191.1263673358 -4.21E-05
  Decoupling Energy:                                               0.0000185733
    85 OT SD       0.15E+00    1.7     0.00054570      -191.1264091856 -4.18E-05
  Decoupling Energy:                                               0.0000185812
    86 OT SD       0.15E+00    1.7     0.00059134      -191.1264501033 -4.09E-05
  Decoupling Energy:                                               0.0000185912
    87 OT SD       0.15E+00    1.7     0.00074073      -191.1264873148 -3.72E-05
  Decoupling Energy:                                               0.0000185936
    88 OT SD       0.15E+00    1.7     0.00114824      -191.1265100472 -2.27E-05
  Decoupling Energy:                                               0.0000186039
    89 OT SD       0.15E+00    1.7     0.00207606      -191.1264763446  3.37E-05
  Decoupling Energy:                                               0.0000185783
    90 OT SD       0.15E+00    1.7     0.00399635      -191.1262224716  2.54E-04
  Decoupling Energy:                                               0.0000185458
    91 OT SD       0.15E+00    1.7     0.00784237      -191.1251084202  1.11E-03
  Decoupling Energy:                                               0.0000182224
    92 OT DIIS     0.15E+00    1.7     0.01547476      -191.1206313186  4.48E-03
  Decoupling Energy:                                               0.0000151398
    93 OT DIIS     0.15E+00    1.7     0.00067543      -191.1231881174 -2.56E-03
  Decoupling Energy:                                               0.0000155983
    94 OT DIIS     0.15E+00    1.7     0.00064684      -191.1234644932 -2.76E-04
  Decoupling Energy:                                               0.0000184618
    95 OT SD       0.15E+00    1.7     0.00053127      -191.1262105348 -2.75E-03
  Decoupling Energy:                                               0.0000184869
    96 OT SD       0.15E+00    1.7     0.00053557      -191.1262524595 -4.19E-05
  Decoupling Energy:                                               0.0000185056
    97 OT SD       0.15E+00    1.7     0.00054839      -191.1262941341 -4.17E-05
  Decoupling Energy:                                               0.0000185233
    98 OT SD       0.15E+00    1.7     0.00058463      -191.1263351029 -4.10E-05
  Decoupling Energy:                                               0.0000185348
    99 OT SD       0.15E+00    1.7     0.00068555      -191.1263737626 -3.87E-05
  Decoupling Energy:                                               0.0000185527
   100 OT SD       0.15E+00    1.7     0.00094166      -191.1264047563 -3.10E-05
  Decoupling Energy:                                               0.0000185507
   101 OT SD       0.15E+00    1.7     0.00151052      -191.1264098311 -5.07E-06
  Decoupling Energy:                                               0.0000185816
   102 OT SD       0.15E+00    1.7     0.00265711      -191.1263257518  8.41E-05
  Decoupling Energy:                                               0.0000185348
   103 OT SD       0.15E+00    1.7     0.00486913      -191.1259297612  3.96E-04
  Decoupling Energy:                                               0.0000186081
   104 OT DIIS     0.15E+00    1.7     0.00909613      -191.1244285542  1.50E-03
  Decoupling Energy:                                               0.0000151615
   105 OT DIIS     0.15E+00    1.7     0.00065923      -191.1232855521  1.14E-03
  Decoupling Energy:                                               0.0000164077
   106 OT DIIS     0.15E+00    1.7     0.00058475      -191.1240602913 -7.75E-04
  Decoupling Energy:                                               0.0000178097
   107 OT DIIS     0.15E+00    1.7     0.00053896      -191.1252416201 -1.18E-03
  Decoupling Energy:                                               0.0000181499
   108 OT SD       0.15E+00    1.7     0.00053057      -191.1257098174 -4.68E-04
  Decoupling Energy:                                               0.0000182068
   109 OT DIIS     0.15E+00    1.7     0.00053142      -191.1257515767 -4.18E-05
  Decoupling Energy:                                               0.0000181853
   110 OT DIIS     0.15E+00    1.7     0.00053084      -191.1258176240 -6.60E-05
  Decoupling Energy:                                               0.0000182367
   111 OT SD       0.15E+00    1.7     0.00052941      -191.1258876909 -7.01E-05
  Decoupling Energy:                                               0.0000182842
   112 OT SD       0.15E+00    1.7     0.00052765      -191.1259296302 -4.19E-05
  Decoupling Energy:                                               0.0000183236
   113 OT SD       0.15E+00    1.7     0.00052926      -191.1259713294 -4.17E-05
  Decoupling Energy:                                               0.0000183555
   114 OT SD       0.15E+00    1.7     0.00053420      -191.1260129280 -4.16E-05
  Decoupling Energy:                                               0.0000183848
   115 OT SD       0.15E+00    1.7     0.00054753      -191.1260542901 -4.14E-05
  Decoupling Energy:                                               0.0000184079
   116 OT SD       0.15E+00    1.7     0.00058395      -191.1260949397 -4.06E-05
  Decoupling Energy:                                               0.0000184310
   117 OT SD       0.15E+00    1.7     0.00068160      -191.1261333726 -3.84E-05
  Decoupling Energy:                                               0.0000184475
   118 OT SD       0.15E+00    1.7     0.00092291      -191.1261647309 -3.14E-05
  Decoupling Energy:                                               0.0000184663
   119 OT SD       0.15E+00    1.7     0.00145293      -191.1261728317 -8.10E-06
  Decoupling Energy:                                               0.0000184741
   120 OT SD       0.15E+00    1.7     0.00251833      -191.1261023411  7.05E-05
  Decoupling Energy:                                               0.0000184852
   121 OT SD       0.15E+00    1.7     0.00457470      -191.1257594280  3.43E-04
  Decoupling Energy:                                               0.0000184612
   122 OT DIIS     0.15E+00    1.7     0.00851056      -191.1244537980  1.31E-03
  Decoupling Energy:                                               0.0000161695
   123 OT DIIS     0.15E+00    1.7     0.00057169      -191.1239315493  5.22E-04
  Decoupling Energy:                                               0.0000166506
   124 OT DIIS     0.15E+00    1.7     0.00055937      -191.1242600879 -3.29E-04
  Decoupling Energy:                                               0.0000178138
   125 OT DIIS     0.15E+00    1.7     0.00053090      -191.1252426173 -9.83E-04
  Decoupling Energy:                                               0.0000183207
   126 OT SD       0.15E+00    1.7     0.00052697      -191.1259562687 -7.14E-04
  Decoupling Energy:                                               0.0000183544
   127 OT SD       0.15E+00    1.7     0.00052802      -191.1259979659 -4.17E-05
  Decoupling Energy:                                               0.0000183806
   128 OT SD       0.15E+00    1.7     0.00053229      -191.1260395662 -4.16E-05
  Decoupling Energy:                                               0.0000184063
   129 OT SD       0.15E+00    1.7     0.00054509      -191.1260809422 -4.14E-05
  Decoupling Energy:                                               0.0000184234
   130 OT SD       0.15E+00    1.7     0.00058406      -191.1261215427 -4.06E-05
  Decoupling Energy:                                               0.0000184483
   131 OT SD       0.15E+00    1.7     0.00069817      -191.1261594653 -3.79E-05
  Decoupling Energy:                                               0.0000184532
   132 OT SD       0.15E+00    1.7     0.00099429      -191.1261880767 -2.86E-05
  Decoupling Energy:                                               0.0000184914
   133 OT SD       0.15E+00    1.7     0.00165598      -191.1261839072  4.17E-06
  Decoupling Energy:                                               0.0000184728
   134 OT SD       0.15E+00    1.7     0.00299590      -191.1260628136  1.21E-04
  Decoupling Energy:                                               0.0000185863
   135 OT SD       0.15E+00    1.7     0.00560606      -191.1255201236  5.43E-04
  Decoupling Energy:                                               0.0000185633
   136 OT DIIS     0.15E+00    1.7     0.01063114      -191.1234411906  2.08E-03
  Decoupling Energy:                                               0.0000154644
   137 OT DIIS     0.15E+00    1.7     0.00061616      -191.1234285087  1.27E-05
  Decoupling Energy:                                               0.0000166997
   138 OT DIIS     0.15E+00    1.7     0.00056108      -191.1242100874 -7.82E-04
  Decoupling Energy:                                               0.0000180442
   139 OT DIIS     0.15E+00    1.7     0.00053404      -191.1254009673 -1.19E-03
  Decoupling Energy:                                               0.0000182150
   140 OT SD       0.15E+00    1.7     0.00052895      -191.1256873193 -2.86E-04
  Decoupling Energy:                                               0.0000182521
   141 OT DIIS     0.15E+00    1.7     0.00053208      -191.1257288140 -4.15E-05
  Decoupling Energy:                                               0.0000182714
   142 OT DIIS     0.15E+00    1.7     0.00052751      -191.1258120551 -8.32E-05
  Decoupling Energy:                                               0.0000183102
   143 OT SD       0.15E+00    1.7     0.00052723      -191.1259024814 -9.04E-05
  Decoupling Energy:                                               0.0000183401
   144 OT SD       0.15E+00    1.7     0.00052676      -191.1259442092 -4.17E-05
  Decoupling Energy:                                               0.0000183651
   145 OT SD       0.15E+00    1.7     0.00052928      -191.1259857773 -4.16E-05
  Decoupling Energy:                                               0.0000183875
   146 OT SD       0.15E+00    1.7     0.00053664      -191.1260272190 -4.14E-05
  Decoupling Energy:                                               0.0000184067
   147 OT SD       0.15E+00    1.7     0.00055814      -191.1260682639 -4.10E-05
  Decoupling Energy:                                               0.0000184257
   148 OT SD       0.15E+00    1.7     0.00062162      -191.1261079703 -3.97E-05
  Decoupling Energy:                                               0.0000184386
   149 OT SD       0.15E+00    1.7     0.00079806      -191.1261430765 -3.51E-05
  Decoupling Energy:                                               0.0000184585
   150 OT SD       0.15E+00    1.7     0.00122830      -191.1261619838 -1.89E-05
  Decoupling Energy:                                               0.0000184603
   151 OT SD       0.15E+00    1.7     0.00215292      -191.1261224144  3.96E-05
  Decoupling Energy:                                               0.0000184965
   152 OT SD       0.15E+00    1.7     0.00401446      -191.1258675683  2.55E-04
  Decoupling Energy:                                               0.0000184761
   153 OT DIIS     0.15E+00    1.7     0.00767576      -191.1248067697  1.06E-03
  Decoupling Energy:                                               0.0000158710
   154 OT DIIS     0.15E+00    1.7     0.00059213      -191.1236276698  1.18E-03
  Decoupling Energy:                                               0.0000163165
   155 OT DIIS     0.15E+00    1.7     0.00057879      -191.1239138338 -2.86E-04
  Decoupling Energy:                                               0.0000175977
   156 OT DIIS     0.15E+00    1.7     0.00053838      -191.1249320023 -1.02E-03
  Decoupling Energy:                                               0.0000183507
   157 OT DIIS     0.15E+00    1.7     0.00052692      -191.1259691780 -1.04E-03
  Decoupling Energy:                                               0.0000183271
   158 OT DIIS     0.15E+00    1.7     0.00052759      -191.1259907267 -2.15E-05
  Decoupling Energy:                                               0.0000183739
   159 OT SD       0.15E+00    1.7     0.00052671      -191.1261145981 -1.24E-04
  Decoupling Energy:                                               0.0000183986
   160 OT SD       0.15E+00    1.7     0.00052606      -191.1261564223 -4.18E-05
  Decoupling Energy:                                               0.0000184187
   161 OT SD       0.15E+00    1.7     0.00052691      -191.1261981675 -4.17E-05
  Decoupling Energy:                                               0.0000184347
   162 OT SD       0.15E+00    1.7     0.00052982      -191.1262398838 -4.17E-05
  Decoupling Energy:                                               0.0000184495
   163 OT SD       0.15E+00    1.7     0.00053962      -191.1262814447 -4.16E-05
  Decoupling Energy:                                               0.0000184607
   164 OT SD       0.15E+00    1.7     0.00057339      -191.1263223453 -4.09E-05
  Decoupling Energy:                                               0.0000184729
   165 OT SD       0.15E+00    1.7     0.00068366      -191.1263606863 -3.83E-05
  Decoupling Energy:                                               0.0000184794
   166 OT SD       0.15E+00    1.7     0.00099336      -191.1263892984 -2.86E-05
  Decoupling Energy:                                               0.0000184937
   167 OT SD       0.15E+00    1.7     0.00171843      -191.1263809011  8.40E-06
  Decoupling Energy:                                               0.0000184903
   168 OT SD       0.15E+00    1.7     0.00323405      -191.1262310515  1.50E-04
  Decoupling Energy:                                               0.0000185253
   169 OT SD       0.15E+00    1.7     0.00626646      -191.1255374372  6.94E-04
  Decoupling Energy:                                               0.0000184972
   170 OT DIIS     0.15E+00    1.7     0.01226599      -191.1227461317  2.79E-03
  Decoupling Energy:                                               0.0000131590
   171 OT DIIS     0.15E+00    1.7     0.00088135      -191.1221291689  6.17E-04
  Decoupling Energy:                                               0.0000144086
   172 OT DIIS     0.15E+00    1.7     0.00075460      -191.1228024797 -6.73E-04
  Decoupling Energy:                                               0.0000178441
   173 OT SD       0.15E+00    1.7     0.00054521      -191.1253230625 -2.52E-03
  Decoupling Energy:                                               0.0000179170
   174 OT SD       0.15E+00    1.7     0.00055905      -191.1253642944 -4.12E-05
  Decoupling Energy:                                               0.0000179849
   175 OT SD       0.15E+00    1.7     0.00062668      -191.1254033805 -3.91E-05
  Decoupling Energy:                                               0.0000180351
   176 OT DIIS     0.15E+00    1.7     0.00083030      -191.1254368157 -3.34E-05
  Decoupling Energy:                                               0.0000178654
   177 OT DIIS     0.15E+00    1.7     0.00054886      -191.1255419785 -1.05E-04
  Decoupling Energy:                                               0.0000178652
   178 OT SD       0.15E+00    1.7     0.00056014      -191.1258193003 -2.77E-04
  Decoupling Energy:                                               0.0000179549
   179 OT SD       0.15E+00    3.1     0.00054239      -191.1258631741 -4.39E-05
  Decoupling Energy:                                               0.0000180301
   180 OT SD       0.15E+00    1.8     0.00055773      -191.1259045667 -4.14E-05
  Decoupling Energy:                                               0.0000180858
   181 OT SD       0.15E+00    1.7     0.00062307      -191.1259442126 -3.96E-05
  Decoupling Energy:                                               0.0000181417
   182 OT SD       0.15E+00    1.7     0.00083204      -191.1259780631 -3.39E-05
  Decoupling Energy:                                               0.0000181752
   183 OT DIIS     0.15E+00    1.7     0.00137560      -191.1259892806 -1.12E-05
  Decoupling Energy:                                               0.0000181691
   184 OT DIIS     0.15E+00    1.7     0.00052429      -191.1259697097  1.96E-05
  Decoupling Energy:                                               0.0000181910
   185 OT DIIS     0.15E+00    1.7     0.00052437      -191.1260207880 -5.11E-05
  Decoupling Energy:                                               0.0000182675
   186 OT SD       0.15E+00    1.7     0.00052424      -191.1260256060 -4.82E-06
  Decoupling Energy:                                               0.0000182923
   187 OT SD       0.15E+00    1.7     0.00052479      -191.1260671281 -4.15E-05
  Decoupling Energy:                                               0.0000183138
   188 OT SD       0.15E+00    1.7     0.00052612      -191.1261086617 -4.15E-05
  Decoupling Energy:                                               0.0000183341
   189 OT SD       0.15E+00    1.7     0.00053005      -191.1261501583 -4.15E-05
  Decoupling Energy:                                               0.0000183504
   190 OT SD       0.15E+00    1.7     0.00054284      -191.1261914412 -4.13E-05
  Decoupling Energy:                                               0.0000183686
   191 OT SD       0.15E+00    1.7     0.00058536      -191.1262318712 -4.04E-05
  Decoupling Energy:                                               0.0000183782
   192 OT SD       0.15E+00    1.7     0.00071817      -191.1262691005 -3.72E-05
  Decoupling Energy:                                               0.0000183983
   193 OT SD       0.15E+00    1.7     0.00107443      -191.1262943805 -2.53E-05
  Decoupling Energy:                                               0.0000183913
   194 OT SD       0.15E+00    1.7     0.00188353      -191.1262746746  1.97E-05
  Decoupling Energy:                                               0.0000184158
   195 OT SD       0.15E+00    1.7     0.00355404      -191.1260839768  1.91E-04
  Decoupling Energy:                                               0.0000183165
   196 OT SD       0.15E+00    1.7     0.00688613      -191.1252372639  8.47E-04
  Decoupling Energy:                                               0.0000182045
   197 OT DIIS     0.15E+00    1.7     0.01348114      -191.1218578993  3.38E-03
  Decoupling Energy:                                               0.0000134293
   198 OT DIIS     0.15E+00    1.7     0.00081108      -191.1223498983 -4.92E-04
  Decoupling Energy:                                               0.0000139466
   199 OT DIIS     0.15E+00    1.7     0.00077761      -191.1226226982 -2.73E-04
  Decoupling Energy:                                               0.0000182774
   200 OT DIIS     0.15E+00    1.7     0.00052992      -191.1261740960 -3.55E-03
  Decoupling Energy:                                               0.0000182593
   201 OT DIIS     0.15E+00    1.7     0.00053844      -191.1265144624 -3.40E-04
  Decoupling Energy:                                               0.0000181597
   202 OT SD       0.15E+00    1.7     0.00054750      -191.1267462774 -2.32E-04
  Decoupling Energy:                                               0.0000182149
   203 OT SD       0.15E+00    1.7     0.00053686      -191.1267899418 -4.37E-05
  Decoupling Energy:                                               0.0000182566
   204 OT SD       0.15E+00    1.7     0.00054455      -191.1268321938 -4.23E-05
  Decoupling Energy:                                               0.0000182874
   205 OT SD       0.15E+00    1.7     0.00057377      -191.1268737141 -4.15E-05
  Decoupling Energy:                                               0.0000183136
   206 OT SD       0.15E+00    1.7     0.00066359      -191.1269131713 -3.95E-05
  Decoupling Energy:                                               0.0000183345
   207 OT SD       0.15E+00    1.7     0.00090744      -191.1269455129 -3.23E-05
  Decoupling Energy:                                               0.0000183531
   208 OT SD       0.15E+00    1.7     0.00147312      -191.1269526913 -7.18E-06
  Decoupling Energy:                                               0.0000183769
   209 OT SD       0.15E+00    1.7     0.00264294      -191.1268695946  8.31E-05
  Decoupling Energy:                                               0.0000184162
   210 OT SD       0.15E+00    1.7     0.00494612      -191.1264582678  4.11E-04
  Decoupling Energy:                                               0.0000185384
   211 OT DIIS     0.15E+00    1.7     0.00941946      -191.1248381292  1.62E-03
  Decoupling Energy:                                               0.0000176859
   212 OT SD       0.15E+00    1.7     0.00052966      -191.1258790788 -1.04E-03
  Decoupling Energy:                                               0.0000177798
   213 OT SD       0.15E+00    1.7     0.00052747      -191.1259209783 -4.19E-05
  Decoupling Energy:                                               0.0000178611
   214 OT SD       0.15E+00    1.7     0.00053050      -191.1259624336 -4.15E-05
  Decoupling Energy:                                               0.0000179244
   215 OT SD       0.15E+00    1.7     0.00054229      -191.1260035445 -4.11E-05
  Decoupling Energy:                                               0.0000179844
   216 OT SD       0.15E+00    1.7     0.00058060      -191.1260438221 -4.03E-05
  Decoupling Energy:                                               0.0000180253
   217 OT DIIS     0.15E+00    1.7     0.00069835      -191.1260812941 -3.75E-05
  Decoupling Energy:                                               0.0000180553
   218 OT SD       0.15E+00    1.7     0.00052337      -191.1260993477 -1.81E-05
  Decoupling Energy:                                               0.0000180918
   219 OT SD       0.15E+00    1.7     0.00052353      -191.1261407684 -4.14E-05
  Decoupling Energy:                                               0.0000181241
   220 OT SD       0.15E+00    1.7     0.00052374      -191.1261822130 -4.14E-05
  Decoupling Energy:                                               0.0000181527
   221 OT SD       0.15E+00    1.7     0.00052406      -191.1262236854 -4.15E-05
  Decoupling Energy:                                               0.0000181781
   222 OT SD       0.15E+00    1.7     0.00052469      -191.1262651838 -4.15E-05
  Decoupling Energy:                                               0.0000182009
   223 OT SD       0.15E+00    1.7     0.00052646      -191.1263066891 -4.15E-05
  Decoupling Energy:                                               0.0000182211
   224 OT SD       0.15E+00    1.7     0.00053257      -191.1263481172 -4.14E-05
  Decoupling Energy:                                               0.0000182400
   225 OT SD       0.15E+00    1.7     0.00055511      -191.1263891301 -4.10E-05
  Decoupling Energy:                                               0.0000182550
   226 OT SD       0.15E+00    1.7     0.00063554      -191.1264283844 -3.93E-05
  Decoupling Energy:                                               0.0000182740
   227 OT SD       0.15E+00    1.7     0.00088451      -191.1264605441 -3.22E-05
  Decoupling Energy:                                               0.0000182828
   228 OT SD       0.15E+00    1.7     0.00151168      -191.1264643705 -3.83E-06
  Decoupling Energy:                                               0.0000183235
   229 OT SD       0.15E+00    1.7     0.00287583      -191.1263551910  1.09E-04
  Decoupling Energy:                                               0.0000183491
   230 OT SD       0.15E+00    1.7     0.00566935      -191.1257949556  5.60E-04
  Decoupling Energy:                                               0.0000186256
   231 OT DIIS     0.15E+00    1.7     0.01129090      -191.1234334797  2.36E-03
  Decoupling Energy:                                               0.0000129696
   232 OT SD       0.15E+00    1.7     0.00084717      -191.1223512519  1.08E-03
  Decoupling Energy:                                               0.0000134901
   233 OT DIIS     0.15E+00    1.7     0.00070527      -191.1224293514 -7.81E-05
  Decoupling Energy:                                               0.0000180577
   234 OT DIIS     0.15E+00    1.7     0.00053154      -191.1260200463 -3.59E-03
  Decoupling Energy:                                               0.0000182256
   235 OT SD       0.15E+00    1.7     0.00052801      -191.1262708454 -2.51E-04
  Decoupling Energy:                                               0.0000182391
   236 OT DIIS     0.15E+00    1.7     0.00053344      -191.1263122689 -4.14E-05
  Decoupling Energy:                                               0.0000182156
   237 OT DIIS     0.15E+00    1.7     0.00052686      -191.1263176273 -5.36E-06
  Decoupling Energy:                                               0.0000182118
   238 OT DIIS     0.15E+00    1.7     0.00052661      -191.1263428746 -2.52E-05
  Decoupling Energy:                                               0.0000179639
   239 OT SD       0.15E+00    1.7     0.00054957      -191.1265912591 -2.48E-04
  Decoupling Energy:                                               0.0000180236
   240 OT SD       0.15E+00    1.7     0.00054143      -191.1266345987 -4.33E-05
  Decoupling Energy:                                               0.0000180748
   241 OT SD       0.15E+00    1.7     0.00055364      -191.1266765376 -4.19E-05
  Decoupling Energy:                                               0.0000181124
   242 OT SD       0.15E+00    1.7     0.00059939      -191.1267173104 -4.08E-05
  Decoupling Energy:                                               0.0000181500
   243 OT SD       0.15E+00    1.7     0.00073790      -191.1267546002 -3.73E-05
  Decoupling Energy:                                               0.0000181743
   244 OT SD       0.15E+00    1.7     0.00109899      -191.1267795090 -2.49E-05
  Decoupling Energy:                                               0.0000182045
   245 OT SD       0.15E+00    1.7     0.00190964      -191.1267587407  2.08E-05
  Decoupling Energy:                                               0.0000182117
   246 OT DIIS     0.15E+00    1.7     0.00357880      -191.1265658465  1.93E-04
  Decoupling Energy:                                               0.0000178823
   247 OT SD       0.15E+00    1.7     0.00052688      -191.1263529701  2.13E-04
  Decoupling Energy:                                               0.0000179418
   248 OT SD       0.15E+00    1.7     0.00052716      -191.1263948506 -4.19E-05
  Decoupling Energy:                                               0.0000179935
   249 OT SD       0.15E+00    1.7     0.00052924      -191.1264366451 -4.18E-05
  Decoupling Energy:                                               0.0000180357
   250 OT SD       0.15E+00    1.7     0.00053673      -191.1264782804 -4.16E-05
  Decoupling Energy:                                               0.0000180769
   251 OT SD       0.15E+00    1.7     0.00056221      -191.1265194014 -4.11E-05
  Decoupling Energy:                                               0.0000181048
   252 OT SD       0.15E+00    1.7     0.00064456      -191.1265586819 -3.93E-05
  Decoupling Energy:                                               0.0000181454
   253 OT SD       0.15E+00    1.7     0.00087953      -191.1265912700 -3.26E-05
  Decoupling Energy:                                               0.0000181522
   254 OT SD       0.15E+00    1.7     0.00144275      -191.1265993069 -8.04E-06
  Decoupling Energy:                                               0.0000182194
   255 OT SD       0.15E+00    1.7     0.00263017      -191.1265164170  8.29E-05
  Decoupling Energy:                                               0.0000181811
   256 OT SD       0.15E+00    1.7     0.00499839      -191.1260932946  4.23E-04
  Decoupling Energy:                                               0.0000184040
   257 OT DIIS     0.15E+00    1.7     0.00965403      -191.1243859952  1.71E-03
  Decoupling Energy:                                               0.0000174320
   258 OT DIIS     0.15E+00    1.7     0.00052847      -191.1256610767 -1.28E-03
  Decoupling Energy:                                               0.0000174901
   259 OT DIIS     0.15E+00    1.7     0.00052618      -191.1257573252 -9.62E-05
  Decoupling Energy:                                               0.0000175805
   260 OT DIIS     0.15E+00    1.7     0.00052583      -191.1258076916 -5.04E-05
  Decoupling Energy:                                               0.0000177629
   261 OT SD       0.15E+00    1.7     0.00052605      -191.1259426176 -1.35E-04
  Decoupling Energy:                                               0.0000178201
   262 OT DIIS     0.15E+00    1.7     0.00052834      -191.1259840048 -4.14E-05
  Decoupling Energy:                                               0.0000179201
   263 OT DIIS     0.15E+00    1.7     0.00052367      -191.1260441431 -6.01E-05
  Decoupling Energy:                                               0.0000179995
   264 OT DIIS     0.15E+00    1.7     0.00052335      -191.1261054784 -6.13E-05
  Decoupling Energy:                                               0.0000180516
   265 OT SD       0.15E+00    1.7     0.00052299      -191.1261318153 -2.63E-05
  Decoupling Energy:                                               0.0000180785
   266 OT SD       0.15E+00    1.7     0.00052320      -191.1261731666 -4.14E-05
  Decoupling Energy:                                               0.0000181027
   267 OT SD       0.15E+00    1.7     0.00052351      -191.1262145444 -4.14E-05
  Decoupling Energy:                                               0.0000181264
   268 OT SD       0.15E+00    1.7     0.00052403      -191.1262559496 -4.14E-05
  Decoupling Energy:                                               0.0000181466
   269 OT SD       0.15E+00    1.7     0.00052515      -191.1262973743 -4.14E-05
  Decoupling Energy:                                               0.0000181677
   270 OT SD       0.15E+00    1.7     0.00052807      -191.1263387865 -4.14E-05
  Decoupling Energy:                                               0.0000181829
   271 OT SD       0.15E+00    1.7     0.00053686      -191.1263800722 -4.13E-05
  Decoupling Energy:                                               0.0000182038
   272 OT SD       0.15E+00    1.7     0.00056508      -191.1264208291 -4.08E-05
  Decoupling Energy:                                               0.0000182110
   273 OT SD       0.15E+00    1.7     0.00065427      -191.1264596071 -3.88E-05
  Decoupling Energy:                                               0.0000182389
   274 OT SD       0.15E+00    1.7     0.00090650      -191.1264910648 -3.15E-05
  Decoupling Energy:                                               0.0000182288
   275 OT SD       0.15E+00    1.7     0.00151008      -191.1264951796 -4.11E-06
  Decoupling Energy:                                               0.0000182932
   276 OT SD       0.15E+00    1.7     0.00278943      -191.1263959043  9.93E-05
  Decoupling Energy:                                               0.0000182554
   277 OT SD       0.15E+00    1.7     0.00536350      -191.1259010779  4.95E-04
  Decoupling Energy:                                               0.0000185520
   278 OT DIIS     0.15E+00    1.7     0.01047441      -191.1238815109  2.02E-03
  Decoupling Energy:                                               0.0000131935
   279 OT DIIS     0.15E+00    1.7     0.00081694      -191.1224895798  1.39E-03
  Decoupling Energy:                                               0.0000136221
   280 OT DIIS     0.15E+00    1.7     0.00079270      -191.1227154682 -2.26E-04
  Decoupling Energy:                                               0.0000177322
   281 OT DIIS     0.15E+00    1.7     0.00053676      -191.1255528341 -2.84E-03
  Decoupling Energy:                                               0.0000180975
   282 OT DIIS     0.15E+00    1.7     0.00053354      -191.1262735193 -7.21E-04
  Decoupling Energy:                                               0.0000181000
   283 OT DIIS     0.15E+00    1.7     0.00053624      -191.1264824488 -2.09E-04
  Decoupling Energy:                                               0.0000181311
   284 OT SD       0.15E+00    1.7     0.00053527      -191.1266022911 -1.20E-04
  Decoupling Energy:                                               0.0000181634
   285 OT SD       0.15E+00    1.7     0.00052879      -191.1266448423 -4.26E-05
  Decoupling Energy:                                               0.0000181877
   286 OT SD       0.15E+00    1.7     0.00052938      -191.1266867616 -4.19E-05
  Decoupling Energy:                                               0.0000182062
   287 OT SD       0.15E+00    1.7     0.00053325      -191.1267285651 -4.18E-05
  Decoupling Energy:                                               0.0000182234
   288 OT SD       0.15E+00    1.7     0.00054532      -191.1267701599 -4.16E-05
  Decoupling Energy:                                               0.0000182352
   289 OT SD       0.15E+00    1.7     0.00058338      -191.1268110115 -4.09E-05
  Decoupling Energy:                                               0.0000182492
   290 OT SD       0.15E+00    1.7     0.00070046      -191.1268491248 -3.81E-05
  Decoupling Energy:                                               0.0000182553
   291 OT SD       0.15E+00    1.7     0.00102004      -191.1268770189 -2.79E-05
  Decoupling Energy:                                               0.0000182739
   292 OT SD       0.15E+00    1.7     0.00176484      -191.1268660572  1.10E-05
  Decoupling Energy:                                               0.0000182746
   293 OT SD       0.15E+00    1.7     0.00333207      -191.1267048626  1.61E-04
  Decoupling Energy:                                               0.0000183434
   294 OT SD       0.15E+00    1.7     0.00650545      -191.1259556453  7.49E-04
  Decoupling Energy:                                               0.0000184007
   295 OT DIIS     0.15E+00    1.7     0.01286053      -191.1228834874  3.07E-03
  Decoupling Energy:                                               0.0000143804
   296 OT DIIS     0.15E+00    1.7     0.00072450      -191.1233032034 -4.20E-04
  Decoupling Energy:                                               0.0000158051
   297 OT DIIS     0.15E+00    1.7     0.00062228      -191.1241731921 -8.70E-04
  Decoupling Energy:                                               0.0000179480
   298 OT SD       0.15E+00    1.7     0.00053486      -191.1261475749 -1.97E-03
  Decoupling Energy:                                               0.0000179888
   299 OT SD       0.15E+00    1.7     0.00054050      -191.1261889051 -4.13E-05
  Decoupling Energy:                                               0.0000180228
   300 OT SD       0.15E+00    1.7     0.00056621      -191.1262294502 -4.05E-05
  Decoupling Energy:                                               0.0000180563
   301 OT SD       0.15E+00    1.7     0.00064078      -191.1262683323 -3.89E-05
  Decoupling Energy:                                               0.0000180762
   302 OT SD       0.15E+00    1.7     0.00083657      -191.1263018823 -3.35E-05
  Decoupling Energy:                                               0.0000181134
   303 OT SD       0.15E+00    1.7     0.00128398      -191.1263178199 -1.59E-05
  Decoupling Energy:                                               0.0000181144
   304 OT SD       0.15E+00    1.7     0.00219305      -191.1262748254  4.30E-05
  Decoupling Energy:                                               0.0000181916
   305 OT SD       0.15E+00    1.7     0.00393367      -191.1260325439  2.42E-04
  Decoupling Energy:                                               0.0000181764
   306 OT DIIS     0.15E+00    1.7     0.00719957      -191.1251095906  9.23E-04
  Decoupling Energy:                                               0.0000173857
   307 OT DIIS     0.15E+00    1.7     0.00052475      -191.1253352494 -2.26E-04
  Decoupling Energy:                                               0.0000173841
   308 OT DIIS     0.15E+00    1.7     0.00052399      -191.1253532023 -1.80E-05
  Decoupling Energy:                                               0.0000175738
   309 OT DIIS     0.15E+00    1.7     0.00052255      -191.1255200621 -1.67E-04
  Decoupling Energy:                                               0.0000178046
   310 OT SD       0.15E+00    1.7     0.00052117      -191.1257836227 -2.64E-04
  Decoupling Energy:                                               0.0000178526
   311 OT SD       0.15E+00    1.7     0.00052168      -191.1258245632 -4.09E-05
  Decoupling Energy:                                               0.0000178947
   312 OT DIIS     0.15E+00    1.7     0.00052345      -191.1258654565 -4.09E-05
  Decoupling Energy:                                               0.0000179219
   313 OT DIIS     0.15E+00    1.7     0.00052039      -191.1258806425 -1.52E-05
  Decoupling Energy:                                               0.0000179439
   314 OT SD       0.15E+00    1.7     0.00052028      -191.1258859300 -5.29E-06
  Decoupling Energy:                                               0.0000179746
   315 OT SD       0.15E+00    1.7     0.00052043      -191.1259268593 -4.09E-05
  Decoupling Energy:                                               0.0000180023
   316 OT SD       0.15E+00    1.7     0.00052068      -191.1259678092 -4.09E-05
  Decoupling Energy:                                               0.0000180276
   317 OT SD       0.15E+00    1.7     0.00052117      -191.1260087804 -4.10E-05
  Decoupling Energy:                                               0.0000180506
   318 OT SD       0.15E+00    1.7     0.00052251      -191.1260497605 -4.10E-05
  Decoupling Energy:                                               0.0000180714
   319 OT SD       0.15E+00    1.7     0.00052705      -191.1260906892 -4.09E-05
  Decoupling Energy:                                               0.0000180907
   320 OT SD       0.15E+00    1.7     0.00054383      -191.1261313202 -4.06E-05
  Decoupling Energy:                                               0.0000181071
   321 OT SD       0.15E+00    1.7     0.00060488      -191.1261706714 -3.94E-05
  Decoupling Energy:                                               0.0000181242
   322 OT SD       0.15E+00    1.7     0.00080201      -191.1262048320 -3.42E-05
  Decoupling Energy:                                               0.0000181328
   323 OT SD       0.15E+00    1.7     0.00132163      -191.1262182006 -1.34E-05
  Decoupling Energy:                                               0.0000181479
   324 OT SD       0.15E+00    1.7     0.00248010      -191.1261484173  6.98E-05
  Decoupling Energy:                                               0.0000181150
   325 OT SD       0.15E+00    1.7     0.00487534      -191.1257458875  4.03E-04
  Decoupling Energy:                                               0.0000180591
   326 OT DIIS     0.15E+00    1.6     0.00971053      -191.1240101953  1.74E-03
  Decoupling Energy:                                               0.0000143322
   327 OT SD       0.15E+00    1.7     0.00068028      -191.1229600595  1.05E-03
  Decoupling Energy:                                               0.0000147050
   328 OT DIIS     0.15E+00    1.7     0.00061018      -191.1230167331 -5.67E-05
  Decoupling Energy:                                               0.0000176092
   329 OT DIIS     0.15E+00    1.7     0.00052646      -191.1254465368 -2.43E-03
  Decoupling Energy:                                               0.0000177846
   330 OT SD       0.15E+00    1.7     0.00052338      -191.1256375144 -1.91E-04
  Decoupling Energy:                                               0.0000178373
   331 OT DIIS     0.15E+00    1.7     0.00052775      -191.1256781249 -4.06E-05
  Decoupling Energy:                                               0.0000177952
   332 OT DIIS     0.15E+00    1.7     0.00052342      -191.1257050303 -2.69E-05
  Decoupling Energy:                                               0.0000179266
   333 OT SD       0.15E+00    1.7     0.00052072      -191.1258895424 -1.85E-04
  Decoupling Energy:                                               0.0000179639
   334 OT SD       0.15E+00    1.7     0.00052090      -191.1259304357 -4.09E-05
  Decoupling Energy:                                               0.0000179965
   335 OT SD       0.15E+00    1.7     0.00052230      -191.1259713063 -4.09E-05
  Decoupling Energy:                                               0.0000180240
   336 OT SD       0.15E+00    1.7     0.00052691      -191.1260121185 -4.08E-05
  Decoupling Energy:                                               0.0000180478
   337 OT SD       0.15E+00    1.7     0.00054268      -191.1260526529 -4.05E-05
  Decoupling Energy:                                               0.0000180706
   338 OT SD       0.15E+00    1.7     0.00059628      -191.1260920826 -3.94E-05
  Decoupling Energy:                                               0.0000180861
   339 OT SD       0.15E+00    1.7     0.00076240      -191.1261273097 -3.52E-05
  Decoupling Energy:                                               0.0000181117
   340 OT SD       0.15E+00    1.7     0.00119424      -191.1261466659 -1.94E-05
  Decoupling Energy:                                               0.0000181136
   341 OT SD       0.15E+00    1.7     0.00214812      -191.1261059563  4.07E-05
  Decoupling Energy:                                               0.0000181721
   342 OT SD       0.15E+00    1.7     0.00408785      -191.1258371203  2.69E-04
  Decoupling Energy:                                               0.0000181598
   343 OT SD       0.15E+00    1.7     0.00792231      -191.1246989508  1.14E-03
  Decoupling Energy:                                               0.0000184583
   344 OT DIIS     0.15E+00    1.7     0.01544538      -191.1202417010  4.46E-03
  Decoupling Energy:                                               0.0000138188
   345 OT DIIS     0.15E+00    1.7     0.00071864      -191.1226880796 -2.45E-03
  Decoupling Energy:                                               0.0000147980
   346 OT DIIS     0.15E+00    1.7     0.00065290      -191.1232328109 -5.45E-04
  Decoupling Energy:                                               0.0000178826
   347 OT DIIS     0.15E+00    1.7     0.00053090      -191.1257488090 -2.52E-03
  Decoupling Energy:                                               0.0000178181
   348 OT SD       0.15E+00    1.7     0.00053997      -191.1257906779 -4.19E-05
  Decoupling Energy:                                               0.0000178668
   349 OT DIIS     0.15E+00    1.7     0.00054968      -191.1258318225 -4.11E-05
  Decoupling Energy:                                               0.0000178383
   350 OT DIIS     0.15E+00    1.6     0.00053676      -191.1259110714 -7.92E-05
  Decoupling Energy:                                               0.0000179153
   351 OT DIIS     0.15E+00    1.7     0.00053071      -191.1260270253 -1.16E-04
  Decoupling Energy:                                               0.0000179364
   352 OT DIIS     0.15E+00    1.7     0.00053142      -191.1260903611 -6.33E-05
  Decoupling Energy:                                               0.0000179517
   353 OT SD       0.15E+00    1.7     0.00052711      -191.1261036124 -1.33E-05
  Decoupling Energy:                                               0.0000179862
   354 OT SD       0.15E+00    1.7     0.00052959      -191.1261448108 -4.12E-05
  Decoupling Energy:                                               0.0000180138
   355 OT SD       0.15E+00    1.7     0.00054551      -191.1261854860 -4.07E-05
  Decoupling Energy:                                               0.0000180404
   356 OT SD       0.15E+00    1.7     0.00059933      -191.1262250032 -3.95E-05
  Decoupling Energy:                                               0.0000180570
   357 OT SD       0.15E+00    3.4     0.00076326      -191.1262603614 -3.54E-05
  Decoupling Energy:                                               0.0000180869
   358 OT SD       0.15E+00    1.8     0.00118660      -191.1262802509 -1.99E-05
  Decoupling Energy:                                               0.0000180849
   359 OT SD       0.15E+00    1.7     0.00212160      -191.1262419529  3.83E-05
  Decoupling Energy:                                               0.0000181527
   360 OT SD       0.15E+00    1.7     0.00402694      -191.1259830233  2.59E-04
  Decoupling Energy:                                               0.0000181173
   361 OT DIIS     0.15E+00    1.7     0.00780210      -191.1248814023  1.10E-03
  Decoupling Energy:                                               0.0000171518
   362 OT DIIS     0.15E+00    1.7     0.00052909      -191.1250117951 -1.30E-04
  Decoupling Energy:                                               0.0000171694
   363 OT DIIS     0.15E+00    1.7     0.00052679      -191.1250375381 -2.57E-05
  Decoupling Energy:                                               0.0000173191
   364 OT DIIS     0.15E+00    1.7     0.00052425      -191.1251609454 -1.23E-04
  Decoupling Energy:                                               0.0000177358
   365 OT SD       0.15E+00    1.7     0.00051973      -191.1256067218 -4.46E-04
  Decoupling Energy:                                               0.0000177812
   366 OT SD       0.15E+00    1.7     0.00052020      -191.1256473496 -4.06E-05
  Decoupling Energy:                                               0.0000178237
   367 OT DIIS     0.15E+00    1.7     0.00052248      -191.1256878996 -4.06E-05
  Decoupling Energy:                                               0.0000178499
   368 OT DIIS     0.15E+00    1.7     0.00051840      -191.1257157032 -2.78E-05
  Decoupling Energy:                                               0.0000178699
   369 OT DIIS     0.15E+00    1.7     0.00051831      -191.1257285766 -1.29E-05
  Decoupling Energy:                                               0.0000178963
   370 OT SD       0.15E+00    1.7     0.00051812      -191.1257292656 -6.89E-07
  Decoupling Energy:                                               0.0000179246
   371 OT SD       0.15E+00    1.7     0.00051838      -191.1257698472 -4.06E-05
  Decoupling Energy:                                               0.0000179498
   372 OT SD       0.15E+00    1.7     0.00051896      -191.1258104476 -4.06E-05
  Decoupling Energy:                                               0.0000179731
   373 OT SD       0.15E+00    1.7     0.00052054      -191.1258510507 -4.06E-05
  Decoupling Energy:                                               0.0000179939
   374 OT SD       0.15E+00    1.7     0.00052576      -191.1258915875 -4.05E-05
  Decoupling Energy:                                               0.0000180131
   375 OT SD       0.15E+00    1.7     0.00054421      -191.1259317917 -4.02E-05
  Decoupling Energy:                                               0.0000180305
   376 OT SD       0.15E+00    1.7     0.00060806      -191.1259706506 -3.89E-05
  Decoupling Energy:                                               0.0000180458
   377 OT SD       0.15E+00    1.7     0.00080491      -191.1260043083 -3.37E-05
  Decoupling Energy:                                               0.0000180615
   378 OT SD       0.15E+00    1.7     0.00130658      -191.1260180234 -1.37E-05
  Decoupling Energy:                                               0.0000180697
   379 OT SD       0.15E+00    1.7     0.00240053      -191.1259552717  6.28E-05
  Decoupling Energy:                                               0.0000180889
   380 OT SD       0.15E+00    1.7     0.00461828      -191.1255985282  3.57E-04
  Decoupling Energy:                                               0.0000180631
   381 OT DIIS     0.15E+00    1.7     0.00901735      -191.1241101967  1.49E-03
  Decoupling Energy:                                               0.0000142416
   382 OT SD       0.15E+00    1.7     0.00067949      -191.1227773400  1.33E-03
  Decoupling Energy:                                               0.0000146143
   383 OT DIIS     0.15E+00    1.7     0.00060632      -191.1228337137 -5.64E-05
  Decoupling Energy:                                               0.0000173325
   384 OT DIIS     0.15E+00    1.7     0.00052601      -191.1249510673 -2.12E-03
  Decoupling Energy:                                               0.0000177732
   385 OT SD       0.15E+00    1.7     0.00052251      -191.1254842240 -5.33E-04
  Decoupling Energy:                                               0.0000178146
   386 OT DIIS     0.15E+00    1.7     0.00052993      -191.1255244177 -4.02E-05
  Decoupling Energy:                                               0.0000178150
   387 OT DIIS     0.15E+00    1.7     0.00051998      -191.1255775790 -5.32E-05
  Decoupling Energy:                                               0.0000178602
   388 OT DIIS     0.15E+00    1.7     0.00051887      -191.1256566674 -7.91E-05
  Decoupling Energy:                                               0.0000179123
   389 OT SD       0.15E+00    1.7     0.00052129      -191.1258117724 -1.55E-04
  Decoupling Energy:                                               0.0000179433
   390 OT SD       0.15E+00    1.7     0.00052498      -191.1258523248 -4.06E-05
  Decoupling Energy:                                               0.0000179705
   391 OT SD       0.15E+00    1.7     0.00054063      -191.1258925365 -4.02E-05
  Decoupling Energy:                                               0.0000179910
   392 OT SD       0.15E+00    1.7     0.00059611      -191.1259315886 -3.91E-05
  Decoupling Energy:                                               0.0000180138
   393 OT SD       0.15E+00    1.7     0.00077232      -191.1259661350 -3.45E-05
  Decoupling Energy:                                               0.0000180246
   394 OT SD       0.15E+00    1.7     0.00123617      -191.1259831537 -1.70E-05
  Decoupling Energy:                                               0.0000180535
   395 OT SD       0.15E+00    1.7     0.00226960      -191.1259318396  5.13E-05
  Decoupling Energy:                                               0.0000180433
   396 OT SD       0.15E+00    1.7     0.00439334      -191.1256134009  3.18E-04
  Decoupling Energy:                                               0.0000181205
   397 OT DIIS     0.15E+00    1.7     0.00864312      -191.1242482860  1.37E-03
  Decoupling Energy:                                               0.0000155168
   398 OT DIIS     0.15E+00    1.7     0.00058624      -191.1235614429  6.87E-04
  Decoupling Energy:                                               0.0000155490
   399 OT DIIS     0.15E+00    1.7     0.00059329      -191.1235900058 -2.86E-05
  Decoupling Energy:                                               0.0000170310
   400 OT DIIS     0.15E+00    1.7     0.00052818      -191.1246663537 -1.08E-03
  Decoupling Energy:                                               0.0000175961
   401 OT SD       0.15E+00    1.7     0.00051987      -191.1252411830 -5.75E-04
  Decoupling Energy:                                               0.0000176515
   402 OT DIIS     0.15E+00    1.7     0.00052071      -191.1252814000 -4.02E-05
  Decoupling Energy:                                               0.0000176710
   403 OT DIIS     0.15E+00    1.7     0.00051932      -191.1253462523 -6.49E-05
  Decoupling Energy:                                               0.0000178125
   404 OT SD       0.15E+00    1.7     0.00051755      -191.1255634781 -2.17E-04
  Decoupling Energy:                                               0.0000178485
   405 OT SD       0.15E+00    1.7     0.00051776      -191.1256038601 -4.04E-05
  Decoupling Energy:                                               0.0000178793
   406 OT SD       0.15E+00    1.7     0.00051976      -191.1256441879 -4.03E-05
  Decoupling Energy:                                               0.0000179071
   407 OT SD       0.15E+00    1.7     0.00052667      -191.1256844036 -4.02E-05
  Decoupling Energy:                                               0.0000179300
   408 OT SD       0.15E+00    1.7     0.00055066      -191.1257241656 -3.98E-05
  Decoupling Energy:                                               0.0000179547
   409 OT SD       0.15E+00    1.7     0.00063093      -191.1257621800 -3.80E-05
  Decoupling Energy:                                               0.0000179684
   410 OT SD       0.15E+00    1.7     0.00086727      -191.1257935668 -3.14E-05
  Decoupling Energy:                                               0.0000179994
   411 OT SD       0.15E+00    1.7     0.00144565      -191.1257997948 -6.23E-06
  Decoupling Energy:                                               0.0000179961
   412 OT SD       0.15E+00    1.7     0.00268051      -191.1257099689  8.98E-05
  Decoupling Energy:                                               0.0000180790
   413 OT SD       0.15E+00    1.7     0.00517098      -191.1252515471  4.58E-04
  Decoupling Energy:                                               0.0000180849
   414 OT DIIS     0.15E+00    1.7     0.01010108      -191.1233703391  1.88E-03
  Decoupling Energy:                                               0.0000152930
   415 OT DIIS     0.15E+00    1.7     0.00058327      -191.1233408529  2.95E-05
  Decoupling Energy:                                               0.0000157515
   416 OT DIIS     0.15E+00    1.7     0.00057036      -191.1236215072 -2.81E-04
  Decoupling Energy:                                               0.0000175534
   417 OT DIIS     0.15E+00    1.7     0.00052236      -191.1250950276 -1.47E-03
  Decoupling Energy:                                               0.0000178651
   418 OT DIIS     0.15E+00    1.7     0.00052031      -191.1255608021 -4.66E-04
  Decoupling Energy:                                               0.0000179399
   419 OT DIIS     0.15E+00    1.7     0.00051929      -191.1257588731 -1.98E-04
  Decoupling Energy:                                               0.0000179688
   420 OT SD       0.15E+00    1.7     0.00051953      -191.1258420611 -8.32E-05
  Decoupling Energy:                                               0.0000179896
   421 OT SD       0.15E+00    1.7     0.00051831      -191.1258827484 -4.07E-05
  Decoupling Energy:                                               0.0000180064
   422 OT SD       0.15E+00    1.7     0.00051844      -191.1259233369 -4.06E-05
  Decoupling Energy:                                               0.0000180206
   423 OT SD       0.15E+00    1.7     0.00051899      -191.1259639383 -4.06E-05
  Decoupling Energy:                                               0.0000180335
   424 OT SD       0.15E+00    1.7     0.00052051      -191.1260045489 -4.06E-05
  Decoupling Energy:                                               0.0000180444
   425 OT SD       0.15E+00    1.7     0.00052557      -191.1260451037 -4.06E-05
  Decoupling Energy:                                               0.0000180546
   426 OT SD       0.15E+00    1.7     0.00054402      -191.1260853330 -4.02E-05
  Decoupling Energy:                                               0.0000180635
   427 OT SD       0.15E+00    1.7     0.00061037      -191.1261241661 -3.88E-05
  Decoupling Energy:                                               0.0000180703
   428 OT SD       0.15E+00    1.7     0.00082162      -191.1261573405 -3.32E-05
  Decoupling Energy:                                               0.0000180783
   429 OT SD       0.15E+00    1.7     0.00137081      -191.1261678318 -1.05E-05
  Decoupling Energy:                                               0.0000180702
   430 OT SD       0.15E+00    1.7     0.00258701      -191.1260874754  8.04E-05
  Decoupling Energy:                                               0.0000180607
   431 OT SD       0.15E+00    1.7     0.00509671      -191.1256427792  4.45E-04
  Decoupling Energy:                                               0.0000179024
   432 OT DIIS     0.15E+00    1.7     0.01016914      -191.1237357580  1.91E-03
  Decoupling Energy:                                               0.0000121955
   433 OT DIIS     0.15E+00    1.7     0.00097060      -191.1215618371  2.17E-03
  Decoupling Energy:                                               0.0000133687
   434 OT DIIS     0.15E+00    1.7     0.00083393      -191.1221835886 -6.22E-04
  Decoupling Energy:                                               0.0000173994
   435 OT SD       0.15E+00    1.7     0.00053434      -191.1251042030 -2.92E-03
  Decoupling Energy:                                               0.0000174832
   436 OT SD       0.15E+00    1.7     0.00053833      -191.1251446566 -4.05E-05
  Decoupling Energy:                                               0.0000175490
   437 OT SD       0.15E+00    1.7     0.00057601      -191.1251835503 -3.89E-05
  Decoupling Energy:                                               0.0000176061
   438 OT DIIS     0.15E+00    1.7     0.00069000      -191.1252196843 -3.61E-05
  Decoupling Energy:                                               0.0000173457
   439 OT DIIS     0.15E+00    1.7     0.00054909      -191.1252326204 -1.29E-05
  Decoupling Energy:                                               0.0000173545
   440 OT DIIS     0.15E+00    1.7     0.00055572      -191.1255063165 -2.74E-04
  Decoupling Energy:                                               0.0000177106
   441 OT SD       0.15E+00    1.7     0.00052210      -191.1257699444 -2.64E-04
  Decoupling Energy:                                               0.0000177613
   442 OT SD       0.15E+00    1.7     0.00052061      -191.1258105893 -4.06E-05
  Decoupling Energy:                                               0.0000178049
   443 OT SD       0.15E+00    1.7     0.00052286      -191.1258510088 -4.04E-05
  Decoupling Energy:                                               0.0000178391
   444 OT SD       0.15E+00    1.7     0.00053082      -191.1258912687 -4.03E-05
  Decoupling Energy:                                               0.0000178705
   445 OT SD       0.15E+00    1.7     0.00055634      -191.1259310412 -3.98E-05
  Decoupling Energy:                                               0.0000178956
   446 OT SD       0.15E+00    1.7     0.00063708      -191.1259690601 -3.80E-05
  Decoupling Energy:                                               0.0000179183
   447 OT SD       0.15E+00    1.7     0.00086942      -191.1260005821 -3.15E-05
  Decoupling Energy:                                               0.0000179387
   448 OT SD       0.15E+00    1.7     0.00143828      -191.1260075244 -6.94E-06
  Decoupling Energy:                                               0.0000179470
   449 OT SD       0.15E+00    1.7     0.00266516      -191.1259198509  8.77E-05
  Decoupling Energy:                                               0.0000179610
   450 OT SD       0.15E+00    1.7     0.00516655      -191.1254630659  4.57E-04
  Decoupling Energy:                                               0.0000178732
   451 OT DIIS     0.15E+00    1.7     0.01018660      -191.1235534648  1.91E-03
  Decoupling Energy:                                               0.0000160382
   452 OT DIIS     0.15E+00    1.7     0.00054259      -191.1241180183 -5.65E-04
  Decoupling Energy:                                               0.0000167096
   453 OT DIIS     0.15E+00    1.7     0.00052809      -191.1246084135 -4.90E-04
  Decoupling Energy:                                               0.0000174143
   454 OT DIIS     0.15E+00    1.7     0.00052068      -191.1252779753 -6.70E-04
  Decoupling Energy:                                               0.0000176433
   455 OT SD       0.15E+00    1.7     0.00051735      -191.1255351850 -2.57E-04
  Decoupling Energy:                                               0.0000176923
   456 OT DIIS     0.15E+00    1.7     0.00051846      -191.1255753548 -4.02E-05
  Decoupling Energy:                                               0.0000177278
   457 OT SD       0.15E+00    1.7     0.00051646      -191.1256431704 -6.78E-05
  Decoupling Energy:                                               0.0000177671
   458 OT SD       0.15E+00    1.7     0.00051707      -191.1256834161 -4.02E-05
  Decoupling Energy:                                               0.0000178003
   459 OT SD       0.15E+00    1.7     0.00051947      -191.1257236243 -4.02E-05
  Decoupling Energy:                                               0.0000178304
   460 OT SD       0.15E+00    1.7     0.00052724      -191.1257637106 -4.01E-05
  Decoupling Energy:                                               0.0000178542
   461 OT SD       0.15E+00    1.7     0.00055286      -191.1258033139 -3.96E-05
  Decoupling Energy:                                               0.0000178810
   462 OT SD       0.15E+00    1.7     0.00063448      -191.1258411391 -3.78E-05
  Decoupling Energy:                                               0.0000178935
   463 OT SD       0.15E+00    1.7     0.00086513      -191.1258725148 -3.14E-05
  Decoupling Energy:                                               0.0000179272
   464 OT SD       0.15E+00    1.7     0.00141533      -191.1258803686 -7.85E-06
  Decoupling Energy:                                               0.0000179137
   465 OT SD       0.15E+00    1.7     0.00257284      -191.1258014689  7.89E-05
  Decoupling Energy:                                               0.0000179879
   466 OT SD       0.15E+00    1.7     0.00488181      -191.1253988145  4.03E-04
  Decoupling Energy:                                               0.0000178931
   467 OT DIIS     0.15E+00    1.7     0.00941865      -191.1237737674  1.63E-03
  Decoupling Energy:                                               0.0000146165
   468 OT DIIS     0.15E+00    1.7     0.00062292      -191.1230686835  7.05E-04
  Decoupling Energy:                                               0.0000146579
   469 OT DIIS     0.15E+00    1.7     0.00063614      -191.1230982770 -2.96E-05
  Decoupling Energy:                                               0.0000171254
   470 OT DIIS     0.15E+00    1.7     0.00052266      -191.1248140174 -1.72E-03
  Decoupling Energy:                                               0.0000176364
   471 OT DIIS     0.15E+00    1.7     0.00051982      -191.1254211685 -6.07E-04
  Decoupling Energy:                                               0.0000176758
   472 OT DIIS     0.15E+00    1.7     0.00051917      -191.1255056170 -8.44E-05
  Decoupling Energy:                                               0.0000177636
   473 OT SD       0.15E+00    1.7     0.00051770      -191.1256572594 -1.52E-04
  Decoupling Energy:                                               0.0000177968
   474 OT SD       0.15E+00    1.7     0.00051796      -191.1256975417 -4.03E-05
  Decoupling Energy:                                               0.0000178261
   475 OT SD       0.15E+00    1.7     0.00052163      -191.1257376963 -4.02E-05
  Decoupling Energy:                                               0.0000178501
   476 OT SD       0.15E+00    1.7     0.00053396      -191.1257776313 -3.99E-05
  Decoupling Energy:                                               0.0000178733
   477 OT SD       0.15E+00    1.7     0.00057483      -191.1258167546 -3.91E-05
  Decoupling Energy:                                               0.0000178917
   478 OT SD       0.15E+00    1.7     0.00070276      -191.1258528571 -3.61E-05
  Decoupling Energy:                                               0.0000179101
   479 OT SD       0.15E+00    1.7     0.00104839      -191.1258776423 -2.48E-05
  Decoupling Energy:                                               0.0000179271
   480 OT SD       0.15E+00    1.7     0.00183979      -191.1258594883  1.82E-05
  Decoupling Energy:                                               0.0000179376
   481 OT SD       0.15E+00    1.7     0.00348578      -191.1256763610  1.83E-04
  Decoupling Energy:                                               0.0000179705
   482 OT SD       0.15E+00    1.7     0.00679284      -191.1248523638  8.24E-04
  Decoupling Energy:                                               0.0000179552
   483 OT DIIS     0.15E+00    1.7     0.01338658      -191.1215194767  3.33E-03
  Decoupling Energy:                                               0.0000147191
   484 OT DIIS     0.15E+00    1.7     0.00061967      -191.1230661199 -1.55E-03
  Decoupling Energy:                                               0.0000158745
   485 OT DIIS     0.15E+00    1.7     0.00056031      -191.1237789465 -7.13E-04
  Decoupling Energy:                                               0.0000175725
   486 OT SD       0.15E+00    1.6     0.00052080      -191.1253303747 -1.55E-03
  Decoupling Energy:                                               0.0000176260
   487 OT SD       0.15E+00    1.7     0.00052417      -191.1253703794 -4.00E-05
  Decoupling Energy:                                               0.0000176675
   488 OT SD       0.15E+00    1.7     0.00054109      -191.1254098508 -3.95E-05
  Decoupling Energy:                                               0.0000177085
   489 OT SD       0.15E+00    1.7     0.00058965      -191.1254483108 -3.85E-05
  Decoupling Energy:                                               0.0000177366
   490 OT SD       0.15E+00    1.7     0.00071860      -191.1254836815 -3.54E-05
  Decoupling Energy:                                               0.0000177753
   491 OT SD       0.15E+00    1.7     0.00102199      -191.1255093184 -2.56E-05
  Decoupling Energy:                                               0.0000177861
   492 OT SD       0.15E+00    1.7     0.00165141      -191.1255037871  5.53E-06
  Decoupling Energy:                                               0.0000178387
   493 OT SD       0.15E+00    1.7     0.00286052      -191.1253969530  1.07E-04
  Decoupling Energy:                                               0.0000178099
   494 OT DIIS     0.15E+00    1.7     0.00511166      -191.1249556389  4.41E-04
  Decoupling Energy:                                               0.0000167509
   495 OT DIIS     0.15E+00    1.7     0.00051907      -191.1244049093  5.51E-04
  Decoupling Energy:                                               0.0000168491
   496 OT DIIS     0.15E+00    1.7     0.00051821      -191.1245403793 -1.35E-04
  Decoupling Energy:                                               0.0000169891
   497 OT DIIS     0.15E+00    1.7     0.00051633      -191.1245856111 -4.52E-05
  Decoupling Energy:                                               0.0000176037
   498 OT SD       0.15E+00    1.7     0.00051345      -191.1250928085 -5.07E-04
  Decoupling Energy:                                               0.0000176384
   499 OT SD       0.15E+00    1.7     0.00051418      -191.1251324899 -3.97E-05
  Decoupling Energy:                                               0.0000176693
   500 OT SD       0.15E+00    1.7     0.00051645      -191.1251721375 -3.96E-05

  Leaving inner SCF loop after reaching   500 steps.


  Electronic density on regular grids:        -35.9999997698        0.0000002302
  Core density on regular grids:               36.0000000000       -0.0000000000
  Total charge density on r-space grids:        0.0000002302
  Total charge density g-space grids:           0.0000002302

  Overlap energy of the core charge distribution:               0.00000000000000
  Self energy of the core charge distribution:               -507.77062519298073
  Core Hamiltonian energy:                                    137.10644959731505
  Hartree energy:                                             208.11265116351501
  Exchange-correlation energy:                                -28.57364770534221

  Total energy:                                              -191.12517213749291

  outer SCF iter =    1 RMS gradient =   0.52E-03 energy =       -191.1251721375

  ----------------------------------- OT ---------------------------------------
  Minimizer      : DIIS                : direct inversion
                                         in the iterative subspace
                                         using   7 DIIS vectors
                                         safer DIIS on
  Preconditioner : FULL_KINETIC        : inversion of T + eS
  Lattice FFT   : OFF
  Precond_solver : DEFAULT
  stepsize       :    0.15000000                  energy_gap     :    0.20000000
  eps_taylor     :   0.10000E-15                  max_taylor     :             4
  ----------------------------------- OT ---------------------------------------

  Step     Update method      Time    Convergence         Total energy    Change
  ------------------------------------------------------------------------------
  Decoupling Energy:                                               0.0000176990
     1 OT DIIS     0.15E+00    3.5     0.00231110      -191.1252116692 -3.95E-05
  Decoupling Energy:                                               0.0000201658
     2 OT DIIS     0.15E+00    1.6     0.00225612      -191.1260017113 -7.90E-04
  Decoupling Energy:                                               0.0000222564
     3 OT DIIS     0.15E+00    1.7     0.00228599      -191.1268411369 -8.39E-04
  Decoupling Energy:                                               0.0000229181
     4 OT SD       0.15E+00    1.7     0.00227605      -191.1271635365 -3.22E-04
  Decoupling Energy:                                               0.0000242573
     5 OT SD       0.15E+00    1.7     0.00232150      -191.1279522572 -7.89E-04
  Decoupling Energy:                                               0.0000253761
     6 OT SD       0.15E+00    1.7     0.00238069      -191.1287727154 -8.20E-04
  Decoupling Energy:                                               0.0000263446
     7 OT SD       0.15E+00    1.7     0.00246054      -191.1296304684 -8.58E-04
  Decoupling Energy:                                               0.0000272255
     8 OT SD       0.15E+00    1.7     0.00261177      -191.1305239925 -8.94E-04
  Decoupling Energy:                                               0.0000280083
     9 OT SD       0.15E+00    1.7     0.00309679      -191.1314214699 -8.97E-04
  Decoupling Energy:                                               0.0000288303
    10 OT SD       0.15E+00    1.6     0.00494839      -191.1321086212 -6.87E-04
  Decoupling Energy:                                               0.0000294512
    11 OT SD       0.15E+00    1.7     0.01080048      -191.1311987453  9.10E-04
  Decoupling Energy:                                               0.0000309767
    12 OT DIIS     0.15E+00    1.7     0.02669653      -191.1196526953  1.15E-02
  Decoupling Energy:                                               0.0000307613
    13 OT SD       0.15E+00    1.7     0.00386356      -191.1130768150  6.58E-03
  Decoupling Energy:                                               0.0000140028
    14 OT SD       0.15E+00    1.7     0.00275546      -191.1148729047 -1.80E-03
  Decoupling Energy:                                               0.0000094383
    15 OT SD       0.15E+00    1.7     0.00312559      -191.1156179880 -7.45E-04
  Decoupling Energy:                                               0.0000087860
    16 OT SD       0.15E+00    1.7     0.00645624      -191.1154022783  2.16E-04
  Decoupling Energy:                                               0.0000092188
    17 OT DIIS     0.15E+00    1.7     0.01604723      -191.1111437587  4.26E-03
  Decoupling Energy:                                               0.0000121423
    18 OT DIIS     0.15E+00    1.7     0.00180813      -191.1142393201 -3.10E-03
  Decoupling Energy:                                               0.0000116129
    19 OT SD       0.15E+00    1.7     0.00114790      -191.1163044322 -2.07E-03
  Decoupling Energy:                                               0.0000115682
    20 OT SD       0.15E+00    1.7     0.00119014      -191.1164857710 -1.81E-04
  Decoupling Energy:                                               0.0000115682
    21 OT DIIS     0.15E+00    1.7     0.00143987      -191.1166454848 -1.60E-04
  Decoupling Energy:                                               0.0000120672
    22 OT SD       0.15E+00    1.7     0.00110933      -191.1169310616 -2.86E-04
  Decoupling Energy:                                               0.0000118920
    23 OT DIIS     0.15E+00    1.7     0.00144689      -191.1170739104 -1.43E-04
  Decoupling Energy:                                               0.0000112661
    24 OT DIIS     0.15E+00    1.7     0.00099954      -191.1173826449 -3.09E-04
  Decoupling Energy:                                               0.0000105281
    25 OT DIIS     0.15E+00    1.7     0.00102852      -191.1174520277 -6.94E-05
  Decoupling Energy:                                               0.0000088923
    26 OT DIIS     0.15E+00    1.7     0.00090449      -191.1176538898 -2.02E-04
  Decoupling Energy:                                               0.0000070723
    27 OT DIIS     0.15E+00    1.7     0.00081434      -191.1177420000 -8.81E-05
  Decoupling Energy:                                               0.0000062253
    28 OT DIIS     0.15E+00    1.7     0.00082853      -191.1178899687 -1.48E-04
  Decoupling Energy:                                               0.0000055899
    29 OT DIIS     0.15E+00    1.7     0.00071203      -191.1179087251 -1.88E-05
  Decoupling Energy:                                               0.0000045641
    30 OT DIIS     0.15E+00    1.7     0.00066659      -191.1180996693 -1.91E-04
  Decoupling Energy:                                               0.0000041864
    31 OT DIIS     0.15E+00    1.7     0.00058996      -191.1182856830 -1.86E-04
  Decoupling Energy:                                               0.0000034103
    32 OT DIIS     0.15E+00    1.7     0.00064139      -191.1184216854 -1.36E-04
  Decoupling Energy:                                               0.0000033600
    33 OT DIIS     0.15E+00    1.7     0.00053225      -191.1185359432 -1.14E-04
  Decoupling Energy:                                               0.0000031735
    34 OT DIIS     0.15E+00    1.7     0.00052452      -191.1186046424 -6.87E-05
  Decoupling Energy:                                               0.0000029204
    35 OT DIIS     0.15E+00    1.7     0.00049693      -191.1187405565 -1.36E-04
  Decoupling Energy:                                               0.0000026359
    36 OT DIIS     0.15E+00    1.7     0.00050959      -191.1188428820 -1.02E-04
  Decoupling Energy:                                               0.0000022337
    37 OT DIIS     0.15E+00    1.7     0.00047087      -191.1189734543 -1.31E-04
  Decoupling Energy:                                               0.0000019626
    38 OT DIIS     0.15E+00    1.7     0.00043741      -191.1190727728 -9.93E-05
  Decoupling Energy:                                               0.0000017499
    39 OT DIIS     0.15E+00    1.7     0.00041956      -191.1191430899 -7.03E-05
  Decoupling Energy:                                               0.0000016945
    40 OT DIIS     0.15E+00    1.7     0.00041654      -191.1191598342 -1.67E-05
  Decoupling Energy:                                               0.0000016016
    41 OT DIIS     0.15E+00    1.7     0.00041372      -191.1191899469 -3.01E-05
  Decoupling Energy:                                               0.0000015104
    42 OT DIIS     0.15E+00    1.7     0.00041675      -191.1192225214 -3.26E-05
  Decoupling Energy:                                               0.0000014155
    43 OT DIIS     0.15E+00    1.7     0.00041083      -191.1192557095 -3.32E-05
  Decoupling Energy:                                               0.0000013865
    44 OT DIIS     0.15E+00    1.7     0.00041046      -191.1192682211 -1.25E-05
  Decoupling Energy:                                               0.0000013221
    45 OT DIIS     0.15E+00    1.7     0.00040631      -191.1192919404 -2.37E-05
  Decoupling Energy:                                               0.0000013172
    46 OT SD       0.15E+00    1.7     0.00040579      -191.1192939362 -2.00E-06
  Decoupling Energy:                                               0.0000012614
    47 OT SD       0.15E+00    1.7     0.00041367      -191.1193186660 -2.47E-05
  Decoupling Energy:                                               0.0000012028
    48 OT SD       0.15E+00    1.7     0.00044911      -191.1193432279 -2.46E-05
  Decoupling Energy:                                               0.0000011429
    49 OT SD       0.15E+00    1.7     0.00062427      -191.1193648839 -2.17E-05
  Decoupling Energy:                                               0.0000010808
    50 OT SD       0.15E+00    1.6     0.00127633      -191.1193648913 -7.43E-09
  Decoupling Energy:                                               0.0000010192
    51 OT DIIS     0.15E+00    1.7     0.00315201      -191.1192168626  1.48E-04
  Decoupling Energy:                                               0.0000020688
    52 OT SD       0.15E+00    1.7     0.00039313      -191.1190609041  1.56E-04
  Decoupling Energy:                                               0.0000019645
    53 OT SD       0.15E+00    1.7     0.00043218      -191.1190816647 -2.08E-05
  Decoupling Energy:                                               0.0000018705
    54 OT SD       0.15E+00    1.7     0.00063389      -191.1190978862 -1.62E-05
  Decoupling Energy:                                               0.0000017836
    55 OT DIIS     0.15E+00    1.7     0.00132029      -191.1190894577  8.43E-06
  Decoupling Energy:                                               0.0000017788
    56 OT DIIS     0.15E+00    1.7     0.00035702      -191.1191024628 -1.30E-05
  Decoupling Energy:                                               0.0000015756
    57 OT DIIS     0.15E+00    1.7     0.00035830      -191.1191430515 -4.06E-05
  Decoupling Energy:                                               0.0000013908
    58 OT DIIS     0.15E+00    1.7     0.00033580      -191.1191754637 -3.24E-05
  Decoupling Energy:                                               0.0000012229
    59 OT DIIS     0.15E+00    1.7     0.00032925      -191.1192122714 -3.68E-05
  Decoupling Energy:                                               0.0000006144
    60 OT DIIS     0.15E+00    1.7     0.00031530      -191.1193341286 -1.22E-04
  Decoupling Energy:                                              -0.0000000620
    61 OT DIIS     0.15E+00    1.7     0.00029665      -191.1194551273 -1.21E-04
  Decoupling Energy:                                              -0.0000004134
    62 OT DIIS     0.15E+00    1.7     0.00030097      -191.1195100323 -5.49E-05
  Decoupling Energy:                                              -0.0000014570
    63 OT DIIS     0.15E+00    1.7     0.00026354      -191.1196539412 -1.44E-04
  Decoupling Energy:                                              -0.0000023378
    64 OT DIIS     0.15E+00    1.7     0.00025845      -191.1197504136 -9.65E-05
  Decoupling Energy:                                              -0.0000034178
    65 OT DIIS     0.15E+00    1.7     0.00024560      -191.1198507083 -1.00E-04
  Decoupling Energy:                                              -0.0000036954
    66 OT DIIS     0.15E+00    1.7     0.00023457      -191.1198786034 -2.79E-05
  Decoupling Energy:                                              -0.0000045183
    67 OT DIIS     0.15E+00    1.7     0.00020247      -191.1199417115 -6.31E-05
  Decoupling Energy:                                              -0.0000055966
    68 OT DIIS     0.15E+00    1.7     0.00018737      -191.1200161579 -7.44E-05
  Decoupling Energy:                                              -0.0000060698
    69 OT DIIS     0.15E+00    1.7     0.00018142      -191.1200465948 -3.04E-05
  Decoupling Energy:                                              -0.0000063722
    70 OT DIIS     0.15E+00    1.7     0.00017238      -191.1200662933 -1.97E-05
  Decoupling Energy:                                              -0.0000067190
    71 OT DIIS     0.15E+00    1.7     0.00016526      -191.1200870877 -2.08E-05
  Decoupling Energy:                                              -0.0000071483
    72 OT DIIS     0.15E+00    1.7     0.00015755      -191.1201146545 -2.76E-05
  Decoupling Energy:                                              -0.0000074612
    73 OT DIIS     0.15E+00    1.7     0.00015317      -191.1201326651 -1.80E-05
  Decoupling Energy:                                              -0.0000077365
    74 OT DIIS     0.15E+00    1.7     0.00014297      -191.1201511445 -1.85E-05
  Decoupling Energy:                                              -0.0000081157
    75 OT DIIS     0.15E+00    1.7     0.00013116      -191.1201710989 -2.00E-05
  Decoupling Energy:                                              -0.0000085889
    76 OT DIIS     0.15E+00    1.7     0.00011579      -191.1201964910 -2.54E-05
  Decoupling Energy:                                              -0.0000089997
    77 OT DIIS     0.15E+00    1.7     0.00011368      -191.1202169196 -2.04E-05
  Decoupling Energy:                                              -0.0000097560
    78 OT DIIS     0.15E+00    1.7     0.00009868      -191.1202509792 -3.41E-05
  Decoupling Energy:                                              -0.0000099476
    79 OT DIIS     0.15E+00    1.7     0.00009917      -191.1202588565 -7.88E-06
  Decoupling Energy:                                              -0.0000104447
    80 OT DIIS     0.15E+00    1.7     0.00008551      -191.1202784250 -1.96E-05
  Decoupling Energy:                                              -0.0000106322
    81 OT DIIS     0.15E+00    1.7     0.00008172      -191.1202854362 -7.01E-06
  Decoupling Energy:                                              -0.0000107976
    82 OT DIIS     0.15E+00    1.6     0.00007859      -191.1202915769 -6.14E-06
  Decoupling Energy:                                              -0.0000109313
    83 OT DIIS     0.15E+00    1.7     0.00007650      -191.1202966843 -5.11E-06
  Decoupling Energy:                                              -0.0000110082
    84 OT DIIS     0.15E+00    1.7     0.00007585      -191.1202997591 -3.07E-06
  Decoupling Energy:                                              -0.0000110172
    85 OT DIIS     0.15E+00    1.7     0.00007344      -191.1203004949 -7.36E-07
  Decoupling Energy:                                              -0.0000110854
    86 OT SD       0.15E+00    1.7     0.00007266      -191.1203030208 -2.53E-06
  Decoupling Energy:                                              -0.0000110984
    87 OT SD       0.15E+00    1.7     0.00007977      -191.1203037688 -7.48E-07
  Decoupling Energy:                                              -0.0000111110
    88 OT SD       0.15E+00    1.7     0.00011592      -191.1203044042 -6.35E-07
  Decoupling Energy:                                              -0.0000111234
    89 OT SD       0.15E+00    1.7     0.00025062      -191.1203041856  2.19E-07
  Decoupling Energy:                                              -0.0000111354
    90 OT DIIS     0.15E+00    1.7     0.00064474      -191.1202977586  6.43E-06
  Decoupling Energy:                                              -0.0000110793
    91 OT SD       0.15E+00    1.7     0.00007130      -191.1203013344 -3.58E-06
  Decoupling Energy:                                              -0.0000110919
    92 OT DIIS     0.15E+00    1.7     0.00008572      -191.1203019714 -6.37E-07
  Decoupling Energy:                                              -0.0000112344
    93 OT SD       0.15E+00    1.7     0.00006259      -191.1203045765 -2.61E-06
  Decoupling Energy:                                              -0.0000112418
    94 OT DIIS     0.15E+00    1.7     0.00008086      -191.1203049889 -4.12E-07
  Decoupling Energy:                                              -0.0000113313
    95 OT DIIS     0.15E+00    1.7     0.00005403      -191.1203074008 -2.41E-06
  Decoupling Energy:                                              -0.0000113659
    96 OT DIIS     0.15E+00    1.7     0.00005179      -191.1203085296 -1.13E-06
  Decoupling Energy:                                              -0.0000114675
    97 OT DIIS     0.15E+00    1.7     0.00004914      -191.1203123619 -3.83E-06
  Decoupling Energy:                                              -0.0000115172
    98 OT DIIS     0.15E+00    1.6     0.00004581      -191.1203141652 -1.80E-06
  Decoupling Energy:                                              -0.0000115468
    99 OT DIIS     0.15E+00    1.7     0.00004563      -191.1203152471 -1.08E-06
  Decoupling Energy:                                              -0.0000115656
   100 OT DIIS     0.15E+00    1.7     0.00004468      -191.1203159248 -6.78E-07
  Decoupling Energy:                                              -0.0000116052
   101 OT DIIS     0.15E+00    1.7     0.00004467      -191.1203173321 -1.41E-06
  Decoupling Energy:                                              -0.0000116640
   102 OT DIIS     0.15E+00    1.7     0.00004273      -191.1203193543 -2.02E-06
  Decoupling Energy:                                              -0.0000116928
   103 OT DIIS     0.15E+00    1.7     0.00004253      -191.1203202284 -8.74E-07
  Decoupling Energy:                                              -0.0000117171
   104 OT DIIS     0.15E+00    1.7     0.00004203      -191.1203209346 -7.06E-07
  Decoupling Energy:                                              -0.0000117456
   105 OT DIIS     0.15E+00    1.7     0.00004210      -191.1203217411 -8.06E-07
  Decoupling Energy:                                              -0.0000117971
   106 OT DIIS     0.15E+00    1.7     0.00004144      -191.1203230823 -1.34E-06
  Decoupling Energy:                                              -0.0000118260
   107 OT DIIS     0.15E+00    1.7     0.00004125      -191.1203238496 -7.67E-07
  Decoupling Energy:                                              -0.0000118423
   108 OT DIIS     0.15E+00    1.7     0.00004123      -191.1203242696 -4.20E-07
  Decoupling Energy:                                              -0.0000118583
   109 OT DIIS     0.15E+00    1.7     0.00004105      -191.1203246631 -3.93E-07
  Decoupling Energy:                                              -0.0000118697
   110 OT DIIS     0.15E+00    1.7     0.00004104      -191.1203249608 -2.98E-07
  Decoupling Energy:                                              -0.0000118792
   111 OT DIIS     0.15E+00    1.7     0.00004107      -191.1203252105 -2.50E-07
  Decoupling Energy:                                              -0.0000118808
   112 OT DIIS     0.15E+00    1.7     0.00004102      -191.1203252483 -3.78E-08
  Decoupling Energy:                                              -0.0000118826
   113 OT SD       0.15E+00    1.7     0.00004102      -191.1203252991 -5.08E-08
  Decoupling Energy:                                              -0.0000118923
   114 OT SD       0.15E+00    1.6     0.00004126      -191.1203255527 -2.54E-07
  Decoupling Energy:                                              -0.0000119019
   115 OT SD       0.15E+00    1.7     0.00004248      -191.1203258053 -2.53E-07
  Decoupling Energy:                                              -0.0000119116
   116 OT SD       0.15E+00    1.7     0.00004899      -191.1203260481 -2.43E-07
  Decoupling Energy:                                              -0.0000119209
   117 OT SD       0.15E+00    1.7     0.00007767      -191.1203262263 -1.78E-07
  Decoupling Energy:                                              -0.0000119308
   118 OT SD       0.15E+00    1.7     0.00016896      -191.1203259980  2.28E-07
  Decoupling Energy:                                              -0.0000119389
   119 OT DIIS     0.15E+00    1.7     0.00041162      -191.1203232203  2.78E-06
  Decoupling Energy:                                              -0.0000118482
   120 OT DIIS     0.15E+00    1.7     0.00003991      -191.1203242065 -9.86E-07
  Decoupling Energy:                                              -0.0000118595
   121 OT DIIS     0.15E+00    1.7     0.00003970      -191.1203244641 -2.58E-07
  Decoupling Energy:                                              -0.0000118679
   122 OT DIIS     0.15E+00    1.6     0.00003962      -191.1203246644 -2.00E-07
  Decoupling Energy:                                              -0.0000118872
   123 OT DIIS     0.15E+00    1.7     0.00003941      -191.1203251225 -4.58E-07
  Decoupling Energy:                                              -0.0000119887
   124 OT DIIS     0.15E+00    1.7     0.00003887      -191.1203275716 -2.45E-06
  Decoupling Energy:                                              -0.0000120328
   125 OT DIIS     0.15E+00    1.7     0.00003842      -191.1203286281 -1.06E-06
  Decoupling Energy:                                              -0.0000121394
   126 OT DIIS     0.15E+00    1.7     0.00003831      -191.1203312632 -2.64E-06
  Decoupling Energy:                                              -0.0000122566
   127 OT DIIS     0.15E+00    1.7     0.00003738      -191.1203341349 -2.87E-06
  Decoupling Energy:                                              -0.0000123210
   128 OT DIIS     0.15E+00    1.7     0.00003714      -191.1203356983 -1.56E-06
  Decoupling Energy:                                              -0.0000123878
   129 OT DIIS     0.15E+00    1.7     0.00003679      -191.1203373449 -1.65E-06
  Decoupling Energy:                                              -0.0000124826
   130 OT DIIS     0.15E+00    1.6     0.00003672      -191.1203397009 -2.36E-06
  Decoupling Energy:                                              -0.0000125375
   131 OT DIIS     0.15E+00    1.7     0.00003626      -191.1203411481 -1.45E-06
  Decoupling Energy:                                              -0.0000125764
   132 OT SD       0.15E+00    1.7     0.00003592      -191.1203421317 -9.84E-07
  Decoupling Energy:                                              -0.0000125828
   133 OT SD       0.15E+00    1.7     0.00003746      -191.1203423219 -1.90E-07
  Decoupling Energy:                                              -0.0000125893
   134 OT DIIS     0.15E+00    1.7     0.00004557      -191.1203425023 -1.80E-07
  Decoupling Energy:                                              -0.0000126133
   135 OT DIIS     0.15E+00    1.7     0.00003584      -191.1203429379 -4.36E-07
  Decoupling Energy:                                              -0.0000126461
   136 OT DIIS     0.15E+00    1.7     0.00003478      -191.1203435527 -6.15E-07
  Decoupling Energy:                                              -0.0000127126
   137 OT DIIS     0.15E+00    1.7     0.00003465      -191.1203450467 -1.49E-06
  Decoupling Energy:                                              -0.0000128133
   138 OT DIIS     0.15E+00    1.7     0.00003344      -191.1203472080 -2.16E-06
  Decoupling Energy:                                              -0.0000132330
   139 OT SD       0.15E+00    1.7     0.00003526      -191.1203561757 -8.97E-06
  Decoupling Energy:                                              -0.0000132407
   140 OT DIIS     0.15E+00    1.7     0.00005323      -191.1203562802 -1.04E-07
  Decoupling Energy:                                              -0.0000134838
   141 OT DIIS     0.15E+00    1.7     0.00003003      -191.1203610510 -4.77E-06
  Decoupling Energy:                                              -0.0000135014
   142 OT DIIS     0.15E+00    1.7     0.00002945      -191.1203613477 -2.97E-07
  Decoupling Energy:                                              -0.0000135896
   143 OT DIIS     0.15E+00    1.7     0.00002806      -191.1203627743 -1.43E-06
  Decoupling Energy:                                              -0.0000138869
   144 OT DIIS     0.15E+00    1.7     0.00002998      -191.1203679278 -5.15E-06
  Decoupling Energy:                                              -0.0000142414
   145 OT SD       0.15E+00    1.7     0.00002636      -191.1203737377 -5.81E-06
  Decoupling Energy:                                              -0.0000142489
   146 OT DIIS     0.15E+00    1.7     0.00003026      -191.1203738183 -8.06E-08
  Decoupling Energy:                                              -0.0000143279
   147 OT DIIS     0.15E+00    1.7     0.00002271      -191.1203749917 -1.17E-06
  Decoupling Energy:                                              -0.0000143543
   148 OT SD       0.15E+00    1.7     0.00002191      -191.1203753925 -4.01E-07
  Decoupling Energy:                                              -0.0000143585
   149 OT DIIS     0.15E+00    1.7     0.00002172      -191.1203754620 -6.95E-08
  Decoupling Energy:                                              -0.0000144082
   150 OT SD       0.15E+00    1.7     0.00002179      -191.1203762722 -8.10E-07
  Decoupling Energy:                                              -0.0000144112
   151 OT DIIS     0.15E+00    1.7     0.00002762      -191.1203763261 -5.39E-08
  Decoupling Energy:                                              -0.0000144247
   152 OT DIIS     0.15E+00    1.7     0.00001893      -191.1203766407 -3.15E-07
  Decoupling Energy:                                              -0.0000144420
   153 OT SD       0.15E+00    1.7     0.00001962      -191.1203769012 -2.60E-07
  Decoupling Energy:                                              -0.0000144441
   154 OT SD       0.15E+00    1.7     0.00002493      -191.1203769463 -4.51E-08
  Decoupling Energy:                                              -0.0000144462
   155 OT SD       0.15E+00    1.7     0.00004596      -191.1203769652 -1.89E-08
  Decoupling Energy:                                              -0.0000144480
   156 OT DIIS     0.15E+00    1.7     0.00010935      -191.1203768090  1.56E-07
  Decoupling Energy:                                              -0.0000144522
   157 OT SD       0.15E+00    1.7     0.00001786      -191.1203770682 -2.59E-07
  Decoupling Energy:                                              -0.0000144542
   158 OT DIIS     0.15E+00    1.7     0.00001847      -191.1203771151 -4.69E-08
  Decoupling Energy:                                              -0.0000144576
   159 OT DIIS     0.15E+00    1.7     0.00001723      -191.1203771354 -2.04E-08
  Decoupling Energy:                                              -0.0000144614
   160 OT DIIS     0.15E+00    1.7     0.00001745      -191.1203771796 -4.41E-08
  Decoupling Energy:                                              -0.0000144638
   161 OT DIIS     0.15E+00    1.7     0.00001660      -191.1203771921 -1.25E-08
  Decoupling Energy:                                              -0.0000144704
   162 OT DIIS     0.15E+00    1.7     0.00001651      -191.1203772841 -9.21E-08
  Decoupling Energy:                                              -0.0000144727
   163 OT DIIS     0.15E+00    1.7     0.00001559      -191.1203773080 -2.38E-08
  Decoupling Energy:                                              -0.0000144744
   164 OT DIIS     0.15E+00    1.7     0.00001507      -191.1203773281 -2.01E-08
  Decoupling Energy:                                              -0.0000144805
   165 OT DIIS     0.15E+00    1.7     0.00001516      -191.1203773986 -7.06E-08
  Decoupling Energy:                                              -0.0000144837
   166 OT DIIS     0.15E+00    1.7     0.00001482      -191.1203774329 -3.43E-08
  Decoupling Energy:                                              -0.0000144898
   167 OT DIIS     0.15E+00    1.7     0.00001465      -191.1203775043 -7.13E-08
  Decoupling Energy:                                              -0.0000144992
   168 OT DIIS     0.15E+00    1.7     0.00001438      -191.1203776073 -1.03E-07
  Decoupling Energy:                                              -0.0000145061
   169 OT DIIS     0.15E+00    1.7     0.00001434      -191.1203776862 -7.89E-08
  Decoupling Energy:                                              -0.0000145149
   170 OT DIIS     0.15E+00    1.6     0.00001426      -191.1203777877 -1.01E-07
  Decoupling Energy:                                              -0.0000145209
   171 OT DIIS     0.15E+00    1.7     0.00001416      -191.1203778568 -6.91E-08
  Decoupling Energy:                                              -0.0000145273
   172 OT DIIS     0.15E+00    1.7     0.00001408      -191.1203779344 -7.76E-08
  Decoupling Energy:                                              -0.0000145395
   173 OT DIIS     0.15E+00    1.7     0.00001401      -191.1203780835 -1.49E-07
  Decoupling Energy:                                              -0.0000145455
   174 OT DIIS     0.15E+00    1.7     0.00001399      -191.1203781630 -7.95E-08
  Decoupling Energy:                                              -0.0000145543
   175 OT DIIS     0.15E+00    1.7     0.00001412      -191.1203782793 -1.16E-07
  Decoupling Energy:                                              -0.0000145611
   176 OT DIIS     0.15E+00    1.7     0.00001387      -191.1203783649 -8.56E-08
  Decoupling Energy:                                              -0.0000145671
   177 OT DIIS     0.15E+00    1.7     0.00001385      -191.1203784467 -8.18E-08
  Decoupling Energy:                                              -0.0000145769
   178 OT DIIS     0.15E+00    1.7     0.00001383      -191.1203785865 -1.40E-07
  Decoupling Energy:                                              -0.0000145839
   179 OT DIIS     0.15E+00    1.7     0.00001384      -191.1203786861 -9.96E-08
  Decoupling Energy:                                              -0.0000145896
   180 OT DIIS     0.15E+00    1.7     0.00001381      -191.1203787685 -8.23E-08
  Decoupling Energy:                                              -0.0000145947
   181 OT DIIS     0.15E+00    1.7     0.00001379      -191.1203788472 -7.87E-08
  Decoupling Energy:                                              -0.0000145951
   182 OT SD       0.15E+00    1.7     0.00001379      -191.1203788536 -6.43E-09
  Decoupling Energy:                                              -0.0000145966
   183 OT SD       0.15E+00    1.7     0.00001381      -191.1203788824 -2.88E-08
  Decoupling Energy:                                              -0.0000145982
   184 OT SD       0.15E+00    1.7     0.00001385      -191.1203789112 -2.88E-08
  Decoupling Energy:                                              -0.0000145998
   185 OT SD       0.15E+00    1.7     0.00001400      -191.1203789401 -2.88E-08
  Decoupling Energy:                                              -0.0000146014
   186 OT SD       0.15E+00    1.7     0.00001468      -191.1203789686 -2.86E-08
  Decoupling Energy:                                              -0.0000146030
   187 OT SD       0.15E+00    1.7     0.00001801      -191.1203789954 -2.67E-08
  Decoupling Energy:                                              -0.0000146046
   188 OT SD       0.15E+00    1.7     0.00003093      -191.1203790108 -1.54E-08
  Decoupling Energy:                                              -0.0000146062
   189 OT SD       0.15E+00    1.7     0.00006887      -191.1203789576  5.32E-08
  Decoupling Energy:                                              -0.0000146079
   190 OT DIIS     0.15E+00    1.7     0.00016728      -191.1203784837  4.74E-07
  Decoupling Energy:                                              -0.0000145850
   191 OT DIIS     0.15E+00    1.7     0.00001349      -191.1203787164 -2.33E-07
  Decoupling Energy:                                              -0.0000145873
   192 OT DIIS     0.15E+00    1.7     0.00001346      -191.1203787507 -3.43E-08
  Decoupling Energy:                                              -0.0000145895
   193 OT DIIS     0.15E+00    1.7     0.00001343      -191.1203787844 -3.37E-08
  Decoupling Energy:                                              -0.0000145927
   194 OT DIIS     0.15E+00    1.7     0.00001342      -191.1203788303 -4.58E-08
  Decoupling Energy:                                              -0.0000146254
   195 OT DIIS     0.15E+00    1.7     0.00001336      -191.1203793042 -4.74E-07
  Decoupling Energy:                                              -0.0000146386
   196 OT DIIS     0.15E+00    1.7     0.00001315      -191.1203794900 -1.86E-07
  Decoupling Energy:                                              -0.0000146528
   197 OT DIIS     0.15E+00    1.7     0.00001322      -191.1203796822 -1.92E-07
  Decoupling Energy:                                              -0.0000146957
   198 OT DIIS     0.15E+00    1.7     0.00001294      -191.1203802627 -5.80E-07
  Decoupling Energy:                                              -0.0000147047
   199 OT DIIS     0.15E+00    1.7     0.00001296      -191.1203803812 -1.19E-07
  Decoupling Energy:                                              -0.0000147284
   200 OT DIIS     0.15E+00    1.7     0.00001280      -191.1203806970 -3.16E-07
  Decoupling Energy:                                              -0.0000147525
   201 OT DIIS     0.15E+00    1.7     0.00001281      -191.1203810070 -3.10E-07
  Decoupling Energy:                                              -0.0000147998
   202 OT DIIS     0.15E+00    1.7     0.00001266      -191.1203816037 -5.97E-07
  Decoupling Energy:                                              -0.0000148256
   203 OT SD       0.15E+00    1.7     0.00001238      -191.1203819190 -3.15E-07
  Decoupling Energy:                                              -0.0000148272
   204 OT SD       0.15E+00    1.7     0.00001261      -191.1203819419 -2.29E-08
  Decoupling Energy:                                              -0.0000148288
   205 OT SD       0.15E+00    1.7     0.00001379      -191.1203819644 -2.25E-08
  Decoupling Energy:                                              -0.0000148303
   206 OT SD       0.15E+00    1.7     0.00001936      -191.1203819837 -1.93E-08
  Decoupling Energy:                                              -0.0000148318
   207 OT SD       0.15E+00    1.7     0.00003889      -191.1203819827  1.04E-09
  Decoupling Energy:                                              -0.0000148332
   208 OT DIIS     0.15E+00    1.7     0.00009296      -191.1203818530  1.30E-07
  Decoupling Energy:                                              -0.0000148153
   209 OT SD       0.15E+00    1.7     0.00001203      -191.1203817409  1.12E-07
  Decoupling Energy:                                              -0.0000148170
   210 OT SD       0.15E+00    1.6     0.00001244      -191.1203817621 -2.12E-08
  Decoupling Energy:                                              -0.0000148186
   211 OT SD       0.15E+00    1.7     0.00001492      -191.1203817820 -1.99E-08
  Decoupling Energy:                                              -0.0000148203
   212 OT SD       0.15E+00    1.7     0.00002613      -191.1203817937 -1.17E-08
  Decoupling Energy:                                              -0.0000148219
   213 OT DIIS     0.15E+00    1.7     0.00006221      -191.1203817489  4.49E-08
  Decoupling Energy:                                              -0.0000148281
   214 OT DIIS     0.15E+00    1.7     0.00001185      -191.1203818744 -1.26E-07
  Decoupling Energy:                                              -0.0000148296
   215 OT DIIS     0.15E+00    1.7     0.00001204      -191.1203819088 -3.44E-08
  Decoupling Energy:                                              -0.0000148363
   216 OT DIIS     0.15E+00    1.7     0.00001161      -191.1203819686 -5.98E-08
  Decoupling Energy:                                              -0.0000148389
   217 OT DIIS     0.15E+00    1.7     0.00001158      -191.1203819991 -3.04E-08
  Decoupling Energy:                                              -0.0000148441
   218 OT DIIS     0.15E+00    1.7     0.00001160      -191.1203820618 -6.27E-08
  Decoupling Energy:                                              -0.0000148502
   219 OT DIIS     0.15E+00    1.7     0.00001152      -191.1203821337 -7.19E-08
  Decoupling Energy:                                              -0.0000148541
   220 OT DIIS     0.15E+00    1.7     0.00001155      -191.1203821817 -4.80E-08
  Decoupling Energy:                                              -0.0000148706
   221 OT DIIS     0.15E+00    2.5     0.00001136      -191.1203823896 -2.08E-07
  Decoupling Energy:                                              -0.0000148762
   222 OT DIIS     0.15E+00    1.8     0.00001135      -191.1203824578 -6.82E-08
  Decoupling Energy:                                              -0.0000148822
   223 OT DIIS     0.15E+00    1.7     0.00001131      -191.1203825364 -7.86E-08
  Decoupling Energy:                                              -0.0000148893
   224 OT DIIS     0.15E+00    1.7     0.00001129      -191.1203826204 -8.40E-08
  Decoupling Energy:                                              -0.0000149211
   225 OT DIIS     0.15E+00    1.7     0.00001121      -191.1203830140 -3.94E-07
  Decoupling Energy:                                              -0.0000149496
   226 OT DIIS     0.15E+00    1.7     0.00001102      -191.1203833621 -3.48E-07
  Decoupling Energy:                                              -0.0000149794
   227 OT DIIS     0.15E+00    1.7     0.00001093      -191.1203837194 -3.57E-07
  Decoupling Energy:                                              -0.0000150065
   228 OT DIIS     0.15E+00    1.7     0.00001070      -191.1203840444 -3.25E-07
  Decoupling Energy:                                              -0.0000150422
   229 OT DIIS     0.15E+00    1.7     0.00001051      -191.1203844673 -4.23E-07
  Decoupling Energy:                                              -0.0000150663
   230 OT DIIS     0.15E+00    1.7     0.00001044      -191.1203847518 -2.85E-07
  Decoupling Energy:                                              -0.0000150732
   231 OT DIIS     0.15E+00    1.7     0.00001032      -191.1203848288 -7.70E-08
  Decoupling Energy:                                              -0.0000150907
   232 OT DIIS     0.15E+00    1.7     0.00001013      -191.1203850348 -2.06E-07
  Decoupling Energy:                                              -0.0000150988
   233 OT DIIS     0.15E+00    1.7     0.00001008      -191.1203851300 -9.52E-08
  Decoupling Energy:                                              -0.0000151078
   234 OT DIIS     0.15E+00    1.6     0.00001003      -191.1203852374 -1.07E-07
  Decoupling Energy:                                              -0.0000151092
   235 OT DIIS     0.15E+00    1.7     0.00001000      -191.1203852552 -1.79E-08
  Decoupling Energy:                                              -0.0000151163
   236 OT DIIS     0.15E+00    1.7     0.00000994      -191.1203853423 -8.71E-08
  Decoupling Energy:                                              -0.0000151188
   237 OT DIIS     0.15E+00    1.7     0.00000993      -191.1203853729 -3.06E-08
  Decoupling Energy:                                              -0.0000151229
   238 OT SD       0.15E+00    1.7     0.00000993      -191.1203854219 -4.89E-08
  Decoupling Energy:                                              -0.0000151240
   239 OT SD       0.15E+00    1.7     0.00000998      -191.1203854367 -1.49E-08
  Decoupling Energy:                                              -0.0000151252
   240 OT SD       0.15E+00    1.7     0.00001019      -191.1203854516 -1.48E-08
  Decoupling Energy:                                              -0.0000151263
   241 OT SD       0.15E+00    1.7     0.00001130      -191.1203854660 -1.45E-08
  Decoupling Energy:                                              -0.0000151275
   242 OT SD       0.15E+00    1.7     0.00001683      -191.1203854779 -1.18E-08
  Decoupling Energy:                                              -0.0000151285
   243 OT SD       0.15E+00    1.7     0.00003685      -191.1203854708  7.10E-09
  Decoupling Energy:                                              -0.0000151298
   244 OT DIIS     0.15E+00    1.7     0.00009476      -191.1203853291  1.42E-07
  Decoupling Energy:                                              -0.0000151133
   245 OT DIIS     0.15E+00    1.7     0.00000963      -191.1203852872  4.19E-08
  Decoupling Energy:                                              -0.0000151144
   246 OT DIIS     0.15E+00    1.7     0.00000962      -191.1203852974 -1.01E-08
  Decoupling Energy:                                              -0.0000151152
   247 OT DIIS     0.15E+00    1.7     0.00000960      -191.1203853038 -6.45E-09
  Decoupling Energy:                                              -0.0000151174
   248 OT DIIS     0.15E+00    1.7     0.00000959      -191.1203853253 -2.15E-08
  Decoupling Energy:                                              -0.0000151323
   249 OT DIIS     0.15E+00    1.7     0.00000951      -191.1203854773 -1.52E-07
  Decoupling Energy:                                              -0.0000151362
   250 OT DIIS     0.15E+00    1.7     0.00000949      -191.1203855157 -3.85E-08
  Decoupling Energy:                                              -0.0000151493
   251 OT DIIS     0.15E+00    1.7     0.00000946      -191.1203856614 -1.46E-07
  Decoupling Energy:                                              -0.0000151613
   252 OT DIIS     0.15E+00    1.7     0.00000940      -191.1203857955 -1.34E-07
  Decoupling Energy:                                              -0.0000151734
   253 OT DIIS     0.15E+00    1.7     0.00000936      -191.1203859327 -1.37E-07
  Decoupling Energy:                                              -0.0000151797
   254 OT DIIS     0.15E+00    1.7     0.00000937      -191.1203860046 -7.19E-08
  Decoupling Energy:                                              -0.0000151927
   255 OT DIIS     0.15E+00    1.7     0.00000936      -191.1203861558 -1.51E-07
  Decoupling Energy:                                              -0.0000152071
   256 OT DIIS     0.15E+00    1.7     0.00000925      -191.1203863353 -1.80E-07
  Decoupling Energy:                                              -0.0000152196
   257 OT SD       0.15E+00    1.7     0.00000916      -191.1203864811 -1.46E-07
  Decoupling Energy:                                              -0.0000152208
   258 OT DIIS     0.15E+00    1.6     0.00000928      -191.1203864937 -1.26E-08
  Decoupling Energy:                                              -0.0000152276
   259 OT DIIS     0.15E+00    1.7     0.00000914      -191.1203865756 -8.19E-08
  Decoupling Energy:                                              -0.0000152330
   260 OT DIIS     0.15E+00    1.7     0.00000914      -191.1203866363 -6.08E-08
  Decoupling Energy:                                              -0.0000152404
   261 OT DIIS     0.15E+00    1.7     0.00000912      -191.1203867218 -8.55E-08
  Decoupling Energy:                                              -0.0000152443
   262 OT SD       0.15E+00    1.7     0.00000912      -191.1203867660 -4.42E-08
  Decoupling Energy:                                              -0.0000152454
   263 OT SD       0.15E+00    1.7     0.00000919      -191.1203867785 -1.25E-08
  Decoupling Energy:                                              -0.0000152466
   264 OT DIIS     0.15E+00    1.7     0.00000954      -191.1203867910 -1.25E-08
  Decoupling Energy:                                              -0.0000152471
   265 OT DIIS     0.15E+00    1.7     0.00000917      -191.1203867969 -5.86E-09
  Decoupling Energy:                                              -0.0000152569
   266 OT DIIS     0.15E+00    1.7     0.00000896      -191.1203869075 -1.11E-07
  Decoupling Energy:                                              -0.0000152798
   267 OT DIIS     0.15E+00    1.7     0.00000902      -191.1203871559 -2.48E-07
  Decoupling Energy:                                              -0.0000152919
   268 OT DIIS     0.15E+00    1.7     0.00000893      -191.1203872847 -1.29E-07
  Decoupling Energy:                                              -0.0000153210
   269 OT DIIS     0.15E+00    1.7     0.00000885      -191.1203875965 -3.12E-07
  Decoupling Energy:                                              -0.0000153716
   270 OT DIIS     0.15E+00    1.7     0.00000890      -191.1203881296 -5.33E-07
  Decoupling Energy:                                              -0.0000154118
   271 OT DIIS     0.15E+00    1.7     0.00000850      -191.1203885503 -4.21E-07
  Decoupling Energy:                                              -0.0000154622
   272 OT DIIS     0.15E+00    1.7     0.00000846      -191.1203890615 -5.11E-07
  Decoupling Energy:                                              -0.0000155065
   273 OT DIIS     0.15E+00    1.7     0.00000841      -191.1203895083 -4.47E-07
  Decoupling Energy:                                              -0.0000155530
   274 OT DIIS     0.15E+00    1.6     0.00000841      -191.1203899775 -4.69E-07
  Decoupling Energy:                                              -0.0000156490
   275 OT DIIS     0.15E+00    1.7     0.00000800      -191.1203909100 -9.32E-07
  Decoupling Energy:                                              -0.0000156507
   276 OT DIIS     0.15E+00    1.7     0.00000810      -191.1203909311 -2.11E-08
  Decoupling Energy:                                              -0.0000156569
   277 OT DIIS     0.15E+00    1.7     0.00000790      -191.1203909862 -5.51E-08
  Decoupling Energy:                                              -0.0000156727
   278 OT DIIS     0.15E+00    1.7     0.00000777      -191.1203911163 -1.30E-07
  Decoupling Energy:                                              -0.0000156988
   279 OT SD       0.15E+00    1.7     0.00000772      -191.1203913460 -2.30E-07
  Decoupling Energy:                                              -0.0000157001
   280 OT SD       0.15E+00    1.7     0.00000835      -191.1203913545 -8.52E-09
  Decoupling Energy:                                              -0.0000157013
   281 OT DIIS     0.15E+00    1.7     0.00001138      -191.1203913621 -7.61E-09
  Decoupling Energy:                                              -0.0000157161
   282 OT DIIS     0.15E+00    1.7     0.00000767      -191.1203915006 -1.39E-07
  Decoupling Energy:                                              -0.0000157223
   283 OT DIIS     0.15E+00    1.7     0.00000777      -191.1203915549 -5.43E-08
  Decoupling Energy:                                              -0.0000158156
   284 OT DIIS     0.15E+00    1.7     0.00000737      -191.1203923817 -8.27E-07
  Decoupling Energy:                                              -0.0000158394
   285 OT DIIS     0.15E+00    1.7     0.00000696      -191.1203925966 -2.15E-07
  Decoupling Energy:                                              -0.0000159232
   286 OT SD       0.15E+00    1.7     0.00000690      -191.1203933103 -7.14E-07
  Decoupling Energy:                                              -0.0000159260
   287 OT DIIS     0.15E+00    1.7     0.00000842      -191.1203933156 -5.37E-09
  Decoupling Energy:                                              -0.0000159818
   288 OT DIIS     0.15E+00    1.7     0.00000632      -191.1203937883 -4.73E-07
  Decoupling Energy:                                              -0.0000160227
   289 OT DIIS     0.15E+00    1.7     0.00000604      -191.1203941098 -3.22E-07
  Decoupling Energy:                                              -0.0000160663
   290 OT DIIS     0.15E+00    1.7     0.00000583      -191.1203944366 -3.27E-07
  Decoupling Energy:                                              -0.0000161349
   291 OT DIIS     0.15E+00    1.7     0.00000596      -191.1203949461 -5.10E-07
  Decoupling Energy:                                              -0.0000161787
   292 OT DIIS     0.15E+00    1.7     0.00000635      -191.1203952889 -3.43E-07
  Decoupling Energy:                                              -0.0000161938
   293 OT DIIS     0.15E+00    1.7     0.00000572      -191.1203953923 -1.03E-07
  Decoupling Energy:                                              -0.0000162017
   294 OT SD       0.15E+00    1.7     0.00000577      -191.1203954525 -6.02E-08
  Decoupling Energy:                                              -0.0000162051
   295 OT SD       0.15E+00    1.7     0.00000590      -191.1203954569 -4.34E-09
  Decoupling Energy:                                              -0.0000162078
   296 OT DIIS     0.15E+00    1.7     0.00000863      -191.1203954597 -2.84E-09
  Decoupling Energy:                                              -0.0000162664
   297 OT SD       0.15E+00    1.7     0.00000554      -191.1203958866 -4.27E-07
  Decoupling Energy:                                              -0.0000162689
   298 OT SD       0.15E+00    1.7     0.00000752      -191.1203958896 -2.95E-09
  Decoupling Energy:                                              -0.0000162708
   299 OT DIIS     0.15E+00    1.7     0.00001585      -191.1203958886  9.34E-10
  Decoupling Energy:                                              -0.0000162825
   300 OT DIIS     0.15E+00    1.7     0.00000436      -191.1203959423 -5.37E-08
  Decoupling Energy:                                              -0.0000162830
   301 OT SD       0.15E+00    1.7     0.00000457      -191.1203959497 -7.37E-09
  Decoupling Energy:                                              -0.0000162837
   302 OT SD       0.15E+00    1.7     0.00000604      -191.1203959521 -2.39E-09
  Decoupling Energy:                                              -0.0000162843
   303 OT DIIS     0.15E+00    1.7     0.00001180      -191.1203959527 -6.15E-10
  Decoupling Energy:                                              -0.0000162841
   304 OT SD       0.15E+00    1.7     0.00000431      -191.1203959513  1.35E-09
  Decoupling Energy:                                              -0.0000162847
   305 OT SD       0.15E+00    1.7     0.00000463      -191.1203959540 -2.68E-09
  Decoupling Energy:                                              -0.0000162851
   306 OT SD       0.15E+00    1.6     0.00000611      -191.1203959565 -2.49E-09
  Decoupling Energy:                                              -0.0000162855
   307 OT SD       0.15E+00    1.7     0.00001183      -191.1203959573 -7.86E-10
  Decoupling Energy:                                              -0.0000162859
   308 OT DIIS     0.15E+00    1.7     0.00002895      -191.1203959458  1.15E-08
  Decoupling Energy:                                              -0.0000162827
   309 OT SD       0.15E+00    1.7     0.00000409      -191.1203959361  9.69E-09
  Decoupling Energy:                                              -0.0000162834
   310 OT SD       0.15E+00    1.7     0.00000504      -191.1203959381 -2.03E-09
  Decoupling Energy:                                              -0.0000162840
   311 OT SD       0.15E+00    1.7     0.00000903      -191.1203959391 -9.83E-10
  Decoupling Energy:                                              -0.0000162845
   312 OT SD       0.15E+00    1.7     0.00002116      -191.1203959336  5.57E-09
  Decoupling Energy:                                              -0.0000162850
   313 OT DIIS     0.15E+00    1.7     0.00005387      -191.1203958842  4.93E-08
  Decoupling Energy:                                              -0.0000162870
   314 OT DIIS     0.15E+00    1.7     0.00000327      -191.1203959241 -3.99E-08
  Decoupling Energy:                                              -0.0000162869
   315 OT SD       0.15E+00    1.7     0.00000393      -191.1203959290 -4.86E-09
  Decoupling Energy:                                              -0.0000162872
   316 OT SD       0.15E+00    1.7     0.00000625      -191.1203959296 -6.37E-10
  Decoupling Energy:                                              -0.0000162875
   317 OT SD       0.15E+00    1.7     0.00001236      -191.1203959282  1.46E-09
  Decoupling Energy:                                              -0.0000162878
   318 OT DIIS     0.15E+00    1.7     0.00002727      -191.1203959159  1.23E-08
  Decoupling Energy:                                              -0.0000162899
   319 OT SD       0.15E+00    1.7     0.00000288      -191.1203959278 -1.19E-08
  Decoupling Energy:                                              -0.0000162900
   320 OT DIIS     0.15E+00    1.7     0.00000441      -191.1203959284 -5.94E-10
  Decoupling Energy:                                              -0.0000162922
   321 OT DIIS     0.15E+00    1.7     0.00000228      -191.1203959295 -1.12E-09
  Decoupling Energy:                                              -0.0000162923
   322 OT DIIS     0.15E+00    1.7     0.00000223      -191.1203959298 -2.70E-10
  Decoupling Energy:                                              -0.0000162925
   323 OT DIIS     0.15E+00    1.7     0.00000221      -191.1203959313 -1.53E-09
  Decoupling Energy:                                              -0.0000162929
   324 OT DIIS     0.15E+00    1.7     0.00000219      -191.1203959325 -1.26E-09
  Decoupling Energy:                                              -0.0000162929
   325 OT DIIS     0.15E+00    1.7     0.00000224      -191.1203959364 -3.84E-09
  Decoupling Energy:                                              -0.0000162931
   326 OT DIIS     0.15E+00    1.7     0.00000206      -191.1203959426 -6.23E-09
  Decoupling Energy:                                              -0.0000162934
   327 OT DIIS     0.15E+00    1.7     0.00000206      -191.1203959438 -1.17E-09
  Decoupling Energy:                                              -0.0000162931
   328 OT DIIS     0.15E+00    1.7     0.00000203      -191.1203959455 -1.75E-09
  Decoupling Energy:                                              -0.0000162933
   329 OT DIIS     0.15E+00    1.7     0.00000202      -191.1203959475 -2.02E-09
  Decoupling Energy:                                              -0.0000162933
   330 OT DIIS     0.15E+00    1.6     0.00000202      -191.1203959493 -1.74E-09
  Decoupling Energy:                                              -0.0000162934
   331 OT DIIS     0.15E+00    1.7     0.00000201      -191.1203959498 -5.09E-10
  Decoupling Energy:                                              -0.0000162936
   332 OT DIIS     0.15E+00    1.7     0.00000201      -191.1203959506 -8.27E-10
  Decoupling Energy:                                              -0.0000162938
   333 OT DIIS     0.15E+00    1.7     0.00000201      -191.1203959510 -4.09E-10
  Decoupling Energy:                                              -0.0000162940
   334 OT DIIS     0.15E+00    1.7     0.00000201      -191.1203959516 -6.13E-10
  Decoupling Energy:                                              -0.0000162941
   335 OT DIIS     0.15E+00    1.7     0.00000201      -191.1203959526 -9.77E-10
  Decoupling Energy:                                              -0.0000162942
   336 OT DIIS     0.15E+00    1.7     0.00000200      -191.1203959527 -9.31E-11
  Decoupling Energy:                                              -0.0000162942
   337 OT SD       0.15E+00    1.7     0.00000201      -191.1203959530 -3.25E-10
  Decoupling Energy:                                              -0.0000162942
   338 OT SD       0.15E+00    1.7     0.00000201      -191.1203959536 -6.07E-10
  Decoupling Energy:                                              -0.0000162942
   339 OT SD       0.15E+00    1.7     0.00000205      -191.1203959542 -6.06E-10
  Decoupling Energy:                                              -0.0000162943
   340 OT SD       0.15E+00    1.7     0.00000224      -191.1203959548 -5.93E-10
  Decoupling Energy:                                              -0.0000162943
   341 OT SD       0.15E+00    1.7     0.00000321      -191.1203959553 -4.99E-10
  Decoupling Energy:                                              -0.0000162944
   342 OT SD       0.15E+00    1.7     0.00000673      -191.1203959552  1.26E-10
  Decoupling Energy:                                              -0.0000162944
   343 OT DIIS     0.15E+00    1.7     0.00001667      -191.1203959509  4.30E-09
  Decoupling Energy:                                              -0.0000162933
   344 OT DIIS     0.15E+00    1.7     0.00000198      -191.1203959484  2.52E-09
  Decoupling Energy:                                              -0.0000162934
   345 OT DIIS     0.15E+00    1.7     0.00000198      -191.1203959490 -6.32E-10
  Decoupling Energy:                                              -0.0000162934
   346 OT DIIS     0.15E+00    1.6     0.00000198      -191.1203959495 -5.10E-10
  Decoupling Energy:                                              -0.0000162935
   347 OT DIIS     0.15E+00    1.7     0.00000198      -191.1203959504 -8.98E-10
  Decoupling Energy:                                              -0.0000162943
   348 OT DIIS     0.15E+00    1.7     0.00000197      -191.1203959582 -7.73E-09
  Decoupling Energy:                                              -0.0000162946
   349 OT DIIS     0.15E+00    1.7     0.00000197      -191.1203959605 -2.30E-09
  Decoupling Energy:                                              -0.0000162953
   350 OT DIIS     0.15E+00    1.7     0.00000197      -191.1203959657 -5.25E-09
  Decoupling Energy:                                              -0.0000162960
   351 OT DIIS     0.15E+00    1.7     0.00000196      -191.1203959710 -5.24E-09
  Decoupling Energy:                                              -0.0000162967
   352 OT DIIS     0.15E+00    1.7     0.00000196      -191.1203959756 -4.67E-09
  Decoupling Energy:                                              -0.0000162972
   353 OT DIIS     0.15E+00    1.7     0.00000196      -191.1203959784 -2.80E-09
  Decoupling Energy:                                              -0.0000162978
   354 OT DIIS     0.15E+00    1.6     0.00000196      -191.1203959827 -4.27E-09
  Decoupling Energy:                                              -0.0000162985
   355 OT DIIS     0.15E+00    1.7     0.00000195      -191.1203959860 -3.31E-09
  Decoupling Energy:                                              -0.0000162989
   356 OT SD       0.15E+00    1.7     0.00000195      -191.1203959885 -2.45E-09
  Decoupling Energy:                                              -0.0000162990
   357 OT SD       0.15E+00    1.7     0.00000196      -191.1203959890 -5.74E-10
  Decoupling Energy:                                              -0.0000162991
   358 OT SD       0.15E+00    1.7     0.00000201      -191.1203959896 -5.71E-10
  Decoupling Energy:                                              -0.0000162991
   359 OT SD       0.15E+00    1.7     0.00000233      -191.1203959902 -5.47E-10
  Decoupling Energy:                                              -0.0000162992
   360 OT SD       0.15E+00    1.7     0.00000396      -191.1203959905 -3.68E-10
  Decoupling Energy:                                              -0.0000162993
   361 OT SD       0.15E+00    1.7     0.00000954      -191.1203959896  9.56E-10
  Decoupling Energy:                                              -0.0000162994
   362 OT DIIS     0.15E+00    1.6     0.00002549      -191.1203959788  1.08E-08
  Decoupling Energy:                                              -0.0000162984
   363 OT DIIS     0.15E+00    1.7     0.00000194      -191.1203959834 -4.62E-09
  Decoupling Energy:                                              -0.0000162984
   364 OT DIIS     0.15E+00    1.7     0.00000194      -191.1203959837 -3.19E-10
  Decoupling Energy:                                              -0.0000162985
   365 OT DIIS     0.15E+00    1.7     0.00000194      -191.1203959844 -6.18E-10
  Decoupling Energy:                                              -0.0000162986
   366 OT DIIS     0.15E+00    1.7     0.00000194      -191.1203959848 -4.22E-10
  Decoupling Energy:                                              -0.0000162995
   367 OT DIIS     0.15E+00    1.7     0.00000194      -191.1203959910 -6.21E-09
  Decoupling Energy:                                              -0.0000163002
   368 OT DIIS     0.15E+00    1.7     0.00000193      -191.1203959958 -4.81E-09
  Decoupling Energy:                                              -0.0000163012
   369 OT DIIS     0.15E+00    1.7     0.00000193      -191.1203960026 -6.84E-09
  Decoupling Energy:                                              -0.0000163042
   370 OT DIIS     0.15E+00    1.6     0.00000191      -191.1203960244 -2.18E-08
  Decoupling Energy:                                              -0.0000163054
   371 OT DIIS     0.15E+00    1.7     0.00000191      -191.1203960333 -8.86E-09
  Decoupling Energy:                                              -0.0000163068
   372 OT DIIS     0.15E+00    1.7     0.00000190      -191.1203960432 -9.90E-09
  Decoupling Energy:                                              -0.0000163083
   373 OT DIIS     0.15E+00    1.7     0.00000190      -191.1203960542 -1.10E-08
  Decoupling Energy:                                              -0.0000163109
   374 OT DIIS     0.15E+00    1.7     0.00000189      -191.1203960732 -1.90E-08
  Decoupling Energy:                                              -0.0000163114
   375 OT DIIS     0.15E+00    1.7     0.00000188      -191.1203960771 -3.92E-09
  Decoupling Energy:                                              -0.0000163120
   376 OT DIIS     0.15E+00    1.7     0.00000188      -191.1203960813 -4.17E-09
  Decoupling Energy:                                              -0.0000163123
   377 OT DIIS     0.15E+00    1.7     0.00000187      -191.1203960838 -2.43E-09
  Decoupling Energy:                                              -0.0000163126
   378 OT DIIS     0.15E+00    1.6     0.00000187      -191.1203960855 -1.79E-09
  Decoupling Energy:                                              -0.0000163133
   379 OT SD       0.15E+00    1.7     0.00000188      -191.1203960904 -4.85E-09
  Decoupling Energy:                                              -0.0000163134
   380 OT SD       0.15E+00    1.7     0.00000189      -191.1203960909 -5.30E-10
  Decoupling Energy:                                              -0.0000163134
   381 OT SD       0.15E+00    1.7     0.00000193      -191.1203960915 -5.29E-10
  Decoupling Energy:                                              -0.0000163135
   382 OT DIIS     0.15E+00    1.7     0.00000214      -191.1203960920 -5.15E-10
  Decoupling Energy:                                              -0.0000163148
   383 OT DIIS     0.15E+00    1.7     0.00000186      -191.1203961008 -8.83E-09
  Decoupling Energy:                                              -0.0000163157
   384 OT DIIS     0.15E+00    1.7     0.00000186      -191.1203961061 -5.32E-09
  Decoupling Energy:                                              -0.0000163182
   385 OT DIIS     0.15E+00    1.7     0.00000184      -191.1203961237 -1.76E-08
  Decoupling Energy:                                              -0.0000163207
   386 OT DIIS     0.15E+00    1.6     0.00000183      -191.1203961401 -1.64E-08
  Decoupling Energy:                                              -0.0000163255
   387 OT DIIS     0.15E+00    1.7     0.00000181      -191.1203961731 -3.30E-08
  Decoupling Energy:                                              -0.0000163277
   388 OT DIIS     0.15E+00    1.7     0.00000181      -191.1203961888 -1.57E-08
  Decoupling Energy:                                              -0.0000163331
   389 OT DIIS     0.15E+00    1.7     0.00000178      -191.1203962273 -3.85E-08
  Decoupling Energy:                                              -0.0000163359
   390 OT DIIS     0.15E+00    1.7     0.00000176      -191.1203962474 -2.01E-08
  Decoupling Energy:                                              -0.0000163385
   391 OT DIIS     0.15E+00    1.7     0.00000174      -191.1203962661 -1.87E-08
  Decoupling Energy:                                              -0.0000163409
   392 OT DIIS     0.15E+00    1.7     0.00000172      -191.1203962839 -1.78E-08
  Decoupling Energy:                                              -0.0000163430
   393 OT DIIS     0.15E+00    1.7     0.00000172      -191.1203963006 -1.67E-08
  Decoupling Energy:                                              -0.0000163471
   394 OT DIIS     0.15E+00    1.6     0.00000169      -191.1203963323 -3.18E-08
  Decoupling Energy:                                              -0.0000163480
   395 OT DIIS     0.15E+00    1.7     0.00000169      -191.1203963386 -6.23E-09
  Decoupling Energy:                                              -0.0000163482
   396 OT SD       0.15E+00    1.7     0.00000170      -191.1203963401 -1.56E-09
  Decoupling Energy:                                              -0.0000163483
   397 OT SD       0.15E+00    1.7     0.00000178      -191.1203963405 -4.25E-10
  Decoupling Energy:                                              -0.0000163483
   398 OT DIIS     0.15E+00    1.7     0.00000221      -191.1203963409 -3.99E-10
  Decoupling Energy:                                              -0.0000163493
   399 OT SD       0.15E+00    1.7     0.00000167      -191.1203963502 -9.28E-09
  Decoupling Energy:                                              -0.0000163494
   400 OT DIIS     0.15E+00    2.1     0.00000178      -191.1203963506 -3.99E-10
  Decoupling Energy:                                              -0.0000163530
   401 OT DIIS     0.15E+00    1.9     0.00000162      -191.1203963793 -2.87E-08
  Decoupling Energy:                                              -0.0000163535
   402 OT DIIS     0.15E+00    1.7     0.00000162      -191.1203963826 -3.23E-09
  Decoupling Energy:                                              -0.0000163599
   403 OT DIIS     0.15E+00    1.7     0.00000159      -191.1203964305 -4.79E-08
  Decoupling Energy:                                              -0.0000163628
   404 OT DIIS     0.15E+00    1.7     0.00000155      -191.1203964514 -2.09E-08
  Decoupling Energy:                                              -0.0000163660
   405 OT DIIS     0.15E+00    1.7     0.00000153      -191.1203964728 -2.14E-08
  Decoupling Energy:                                              -0.0000163682
   406 OT DIIS     0.15E+00    1.7     0.00000154      -191.1203964878 -1.51E-08
  Decoupling Energy:                                              -0.0000163734
   407 OT DIIS     0.15E+00    1.7     0.00000150      -191.1203965200 -3.21E-08
  Decoupling Energy:                                              -0.0000163739
   408 OT DIIS     0.15E+00    1.7     0.00000150      -191.1203965226 -2.66E-09
  Decoupling Energy:                                              -0.0000163748
   409 OT DIIS     0.15E+00    1.7     0.00000147      -191.1203965279 -5.31E-09
  Decoupling Energy:                                              -0.0000163752
   410 OT SD       0.15E+00    1.6     0.00000147      -191.1203965305 -2.54E-09
  Decoupling Energy:                                              -0.0000163753
   411 OT DIIS     0.15E+00    1.7     0.00000150      -191.1203965308 -3.26E-10
  Decoupling Energy:                                              -0.0000163753
   412 OT SD       0.15E+00    1.7     0.00000148      -191.1203965314 -5.59E-10
  Decoupling Energy:                                              -0.0000163754
   413 OT SD       0.15E+00    1.7     0.00000154      -191.1203965317 -3.23E-10
  Decoupling Energy:                                              -0.0000163755
   414 OT SD       0.15E+00    1.7     0.00000181      -191.1203965320 -3.10E-10
  Decoupling Energy:                                              -0.0000163756
   415 OT SD       0.15E+00    1.7     0.00000297      -191.1203965322 -2.16E-10
  Decoupling Energy:                                              -0.0000163757
   416 OT SD       0.15E+00    1.7     0.00000665      -191.1203965318  4.10E-10
  Decoupling Energy:                                              -0.0000163758
   417 OT DIIS     0.15E+00    1.7     0.00001677      -191.1203965272  4.62E-09
  Decoupling Energy:                                              -0.0000163756
   418 OT SD       0.15E+00    1.7     0.00000140      -191.1203965292 -2.01E-09
  Decoupling Energy:                                              -0.0000163757
   419 OT SD       0.15E+00    1.7     0.00000160      -191.1203965294 -2.54E-10
  Decoupling Energy:                                              -0.0000163758
   420 OT SD       0.15E+00    1.7     0.00000251      -191.1203965296 -1.84E-10
  Decoupling Energy:                                              -0.0000163758
   421 OT DIIS     0.15E+00    1.7     0.00000552      -191.1203965294  2.50E-10
  Decoupling Energy:                                              -0.0000163761
   422 OT DIIS     0.15E+00    1.7     0.00000130      -191.1203965293  4.68E-11
  Decoupling Energy:                                              -0.0000163768
   423 OT DIIS     0.15E+00    1.7     0.00000128      -191.1203965310 -1.64E-09
  Decoupling Energy:                                              -0.0000163768
   424 OT DIIS     0.15E+00    1.7     0.00000126      -191.1203965310 -6.64E-11
  Decoupling Energy:                                              -0.0000163769
   425 OT DIIS     0.15E+00    1.7     0.00000126      -191.1203965314 -3.32E-10
  Decoupling Energy:                                              -0.0000163769
   426 OT DIIS     0.15E+00    1.7     0.00000126      -191.1203965316 -2.10E-10
  Decoupling Energy:                                              -0.0000163771
   427 OT DIIS     0.15E+00    1.7     0.00000126      -191.1203965326 -1.00E-09
  Decoupling Energy:                                              -0.0000163772
   428 OT DIIS     0.15E+00    1.7     0.00000126      -191.1203965335 -9.17E-10
  Decoupling Energy:                                              -0.0000163773
   429 OT DIIS     0.15E+00    1.7     0.00000125      -191.1203965345 -1.03E-09
  Decoupling Energy:                                              -0.0000163774
   430 OT DIIS     0.15E+00    1.7     0.00000125      -191.1203965355 -9.58E-10
  Decoupling Energy:                                              -0.0000163775
   431 OT DIIS     0.15E+00    1.7     0.00000125      -191.1203965365 -9.89E-10
  Decoupling Energy:                                              -0.0000163776
   432 OT DIIS     0.15E+00    1.7     0.00000125      -191.1203965373 -8.39E-10
  Decoupling Energy:                                              -0.0000163778
   433 OT DIIS     0.15E+00    1.7     0.00000124      -191.1203965406 -3.26E-09
  Decoupling Energy:                                              -0.0000163780
   434 OT DIIS     0.15E+00    1.6     0.00000125      -191.1203965417 -1.08E-09
  Decoupling Energy:                                              -0.0000163782
   435 OT DIIS     0.15E+00    1.7     0.00000124      -191.1203965437 -2.05E-09
  Decoupling Energy:                                              -0.0000163783
   436 OT DIIS     0.15E+00    1.7     0.00000124      -191.1203965448 -1.09E-09
  Decoupling Energy:                                              -0.0000163786
   437 OT DIIS     0.15E+00    1.7     0.00000124      -191.1203965465 -1.66E-09
  Decoupling Energy:                                              -0.0000163789
   438 OT DIIS     0.15E+00    1.7     0.00000124      -191.1203965489 -2.42E-09
  Decoupling Energy:                                              -0.0000163792
   439 OT DIIS     0.15E+00    1.7     0.00000124      -191.1203965509 -2.07E-09
  Decoupling Energy:                                              -0.0000163794
   440 OT DIIS     0.15E+00    1.7     0.00000123      -191.1203965522 -1.30E-09
  Decoupling Energy:                                              -0.0000163800
   441 OT DIIS     0.15E+00    1.7     0.00000123      -191.1203965561 -3.83E-09
  Decoupling Energy:                                              -0.0000163802
   442 OT DIIS     0.15E+00    1.7     0.00000123      -191.1203965572 -1.16E-09
  Decoupling Energy:                                              -0.0000163805
   443 OT DIIS     0.15E+00    1.7     0.00000123      -191.1203965590 -1.74E-09
  Decoupling Energy:                                              -0.0000163807
   444 OT DIIS     0.15E+00    1.7     0.00000123      -191.1203965605 -1.49E-09
  Decoupling Energy:                                              -0.0000163810
   445 OT DIIS     0.15E+00    1.7     0.00000123      -191.1203965626 -2.10E-09
  Decoupling Energy:                                              -0.0000163813
   446 OT DIIS     0.15E+00    1.7     0.00000123      -191.1203965643 -1.73E-09
  Decoupling Energy:                                              -0.0000163814
   447 OT DIIS     0.15E+00    1.7     0.00000123      -191.1203965650 -6.72E-10
  Decoupling Energy:                                              -0.0000163815
   448 OT SD       0.15E+00    1.7     0.00000122      -191.1203965651 -1.76E-10
  Decoupling Energy:                                              -0.0000163815
   449 OT DIIS     0.15E+00    1.7     0.00000123      -191.1203965654 -2.27E-10
  Decoupling Energy:                                              -0.0000163816
   450 OT SD       0.15E+00    1.6     0.00000122      -191.1203965658 -4.54E-10
  Decoupling Energy:                                              -0.0000163816
   451 OT DIIS     0.15E+00    1.7     0.00000123      -191.1203965661 -2.27E-10
  Decoupling Energy:                                              -0.0000163822
   452 OT DIIS     0.15E+00    1.7     0.00000122      -191.1203965702 -4.13E-09
  Decoupling Energy:                                              -0.0000163825
   453 OT DIIS     0.15E+00    1.7     0.00000122      -191.1203965722 -2.01E-09
  Decoupling Energy:                                              -0.0000163829
   454 OT DIIS     0.15E+00    1.7     0.00000122      -191.1203965746 -2.41E-09
  Decoupling Energy:                                              -0.0000163843
   455 OT SD       0.15E+00    1.7     0.00000122      -191.1203965846 -1.00E-08
  Decoupling Energy:                                              -0.0000163843
   456 OT DIIS     0.15E+00    1.7     0.00000126      -191.1203965848 -2.21E-10
  Decoupling Energy:                                              -0.0000163856
   457 OT DIIS     0.15E+00    1.7     0.00000121      -191.1203965937 -8.85E-09
  Decoupling Energy:                                              -0.0000163861
   458 OT DIIS     0.15E+00    1.7     0.00000121      -191.1203965972 -3.50E-09
  Decoupling Energy:                                              -0.0000163862
   459 OT DIIS     0.15E+00    1.7     0.00000121      -191.1203965981 -9.04E-10
  Decoupling Energy:                                              -0.0000163865
   460 OT DIIS     0.15E+00    1.7     0.00000121      -191.1203966000 -1.97E-09
  Decoupling Energy:                                              -0.0000163866
   461 OT SD       0.15E+00    1.7     0.00000121      -191.1203966010 -9.95E-10
  Decoupling Energy:                                              -0.0000163867
   462 OT DIIS     0.15E+00    1.7     0.00000122      -191.1203966013 -2.22E-10
  Decoupling Energy:                                              -0.0000163868
   463 OT SD       0.15E+00    1.7     0.00000122      -191.1203966021 -8.51E-10
  Decoupling Energy:                                              -0.0000163868
   464 OT SD       0.15E+00    1.7     0.00000127      -191.1203966023 -2.17E-10
  Decoupling Energy:                                              -0.0000163869
   465 OT SD       0.15E+00    1.7     0.00000157      -191.1203966025 -2.03E-10
  Decoupling Energy:                                              -0.0000163869
   466 OT DIIS     0.15E+00    1.6     0.00000282      -191.1203966026 -1.06E-10
  Decoupling Energy:                                              -0.0000163871
   467 OT SD       0.15E+00    1.7     0.00000119      -191.1203966056 -2.98E-09
  Decoupling Energy:                                              -0.0000163872
   468 OT DIIS     0.15E+00    1.7     0.00000122      -191.1203966058 -2.11E-10
  Decoupling Energy:                                              -0.0000163872
   469 OT DIIS     0.15E+00    1.7     0.00000118      -191.1203966074 -1.56E-09
  Decoupling Energy:                                              -0.0000163874
   470 OT SD       0.15E+00    1.7     0.00000119      -191.1203966084 -1.00E-09
  Decoupling Energy:                                              -0.0000163875
   471 OT DIIS     0.15E+00    1.7     0.00000133      -191.1203966086 -1.97E-10
  Decoupling Energy:                                              -0.0000163881
   472 OT DIIS     0.15E+00    1.7     0.00000115      -191.1203966135 -4.87E-09
  Decoupling Energy:                                              -0.0000163885
   473 OT DIIS     0.15E+00    1.7     0.00000113      -191.1203966156 -2.15E-09
  Decoupling Energy:                                              -0.0000163886
   474 OT DIIS     0.15E+00    1.6     0.00000112      -191.1203966160 -3.47E-10
  Decoupling Energy:                                              -0.0000163887
   475 OT DIIS     0.15E+00    1.7     0.00000113      -191.1203966165 -5.53E-10
  Decoupling Energy:                                              -0.0000163889
   476 OT DIIS     0.15E+00    1.7     0.00000112      -191.1203966172 -6.64E-10
  Decoupling Energy:                                              -0.0000163889
   477 OT DIIS     0.15E+00    1.7     0.00000112      -191.1203966174 -2.77E-10
  Decoupling Energy:                                              -0.0000163891
   478 OT DIIS     0.15E+00    1.7     0.00000112      -191.1203966186 -1.20E-09
  Decoupling Energy:                                              -0.0000163892
   479 OT DIIS     0.15E+00    1.7     0.00000112      -191.1203966197 -1.09E-09
  Decoupling Energy:                                              -0.0000163894
   480 OT DIIS     0.15E+00    1.7     0.00000111      -191.1203966210 -1.26E-09
  Decoupling Energy:                                              -0.0000163895
   481 OT DIIS     0.15E+00    1.7     0.00000111      -191.1203966216 -5.64E-10
  Decoupling Energy:                                              -0.0000163896
   482 OT DIIS     0.15E+00    1.7     0.00000111      -191.1203966224 -7.93E-10
  Decoupling Energy:                                              -0.0000163897
   483 OT DIIS     0.15E+00    1.7     0.00000111      -191.1203966235 -1.20E-09
  Decoupling Energy:                                              -0.0000163900
   484 OT DIIS     0.15E+00    1.7     0.00000111      -191.1203966260 -2.45E-09
  Decoupling Energy:                                              -0.0000163910
   485 OT DIIS     0.15E+00    1.7     0.00000110      -191.1203966329 -6.95E-09
  Decoupling Energy:                                              -0.0000163911
   486 OT DIIS     0.15E+00    1.7     0.00000111      -191.1203966336 -6.93E-10
  Decoupling Energy:                                              -0.0000163918
   487 OT DIIS     0.15E+00    1.7     0.00000109      -191.1203966394 -5.76E-09
  Decoupling Energy:                                              -0.0000163924
   488 OT DIIS     0.15E+00    1.7     0.00000109      -191.1203966432 -3.77E-09
  Decoupling Energy:                                              -0.0000163931
   489 OT DIIS     0.15E+00    1.7     0.00000109      -191.1203966486 -5.47E-09
  Decoupling Energy:                                              -0.0000163938
   490 OT DIIS     0.15E+00    1.7     0.00000108      -191.1203966536 -4.96E-09
  Decoupling Energy:                                              -0.0000163942
   491 OT DIIS     0.15E+00    1.7     0.00000108      -191.1203966567 -3.11E-09
  Decoupling Energy:                                              -0.0000163946
   492 OT DIIS     0.15E+00    1.7     0.00000108      -191.1203966594 -2.70E-09
  Decoupling Energy:                                              -0.0000163948
   493 OT DIIS     0.15E+00    1.7     0.00000108      -191.1203966609 -1.45E-09
  Decoupling Energy:                                              -0.0000163948
   494 OT SD       0.15E+00    1.7     0.00000108      -191.1203966612 -3.66E-10
  Decoupling Energy:                                              -0.0000163948
   495 OT SD       0.15E+00    1.7     0.00000108      -191.1203966614 -1.75E-10
  Decoupling Energy:                                              -0.0000163948
   496 OT SD       0.15E+00    1.7     0.00000110      -191.1203966616 -1.74E-10
  Decoupling Energy:                                              -0.0000163948
   497 OT DIIS     0.15E+00    1.7     0.00000124      -191.1203966618 -1.69E-10
  Decoupling Energy:                                              -0.0000163951
   498 OT DIIS     0.15E+00    1.7     0.00000108      -191.1203966632 -1.44E-09
  Decoupling Energy:                                              -0.0000163953
   499 OT DIIS     0.15E+00    1.7     0.00000108      -191.1203966652 -2.01E-09
  Decoupling Energy:                                              -0.0000163958
   500 OT DIIS     0.15E+00    1.7     0.00000107      -191.1203966683 -3.07E-09

  Leaving inner SCF loop after reaching   500 steps.


  Electronic density on regular grids:        -35.9999997696        0.0000002304
  Core density on regular grids:               36.0000000000       -0.0000000000
  Total charge density on r-space grids:        0.0000002304
  Total charge density g-space grids:           0.0000002304

  Overlap energy of the core charge distribution:               0.00000000000000
  Self energy of the core charge distribution:               -507.77062519298073
  Core Hamiltonian energy:                                    137.08185804298478
  Hartree energy:                                             208.13645626279555
  Exchange-correlation energy:                                -28.56808578106649

  Total energy:                                              -191.12039666826689

  outer SCF iter =    2 RMS gradient =   0.11E-05 energy =       -191.1203966683

  ----------------------------------- OT ---------------------------------------
  Minimizer      : DIIS                : direct inversion
                                         in the iterative subspace
                                         using   7 DIIS vectors
                                         safer DIIS on
  Preconditioner : FULL_KINETIC        : inversion of T + eS
  Lattice FFT   : OFF
  Precond_solver : DEFAULT
  stepsize       :    0.15000000                  energy_gap     :    0.20000000
  eps_taylor     :   0.10000E-15                  max_taylor     :             4
  ----------------------------------- OT ---------------------------------------

  Step     Update method      Time    Convergence         Total energy    Change
  ------------------------------------------------------------------------------
  Decoupling Energy:                                              -0.0000163983
     1 OT DIIS     0.15E+00    3.7     0.00000114      -191.1203966878 -1.95E-08
  Decoupling Energy:                                              -0.0000163983
     2 OT DIIS     0.15E+00    1.7     0.00000122      -191.1203966880 -2.04E-10
  Decoupling Energy:                                              -0.0000163983
     3 OT DIIS     0.15E+00    1.7     0.00000112      -191.1203966880 -6.26E-11
  Decoupling Energy:                                              -0.0000163984
     4 OT DIIS     0.15E+00    1.7     0.00000112      -191.1203966882 -1.77E-10
  Decoupling Energy:                                              -0.0000163984
     5 OT SD       0.15E+00    1.7     0.00000112      -191.1203966884 -2.32E-10
  Decoupling Energy:                                              -0.0000163984
     6 OT SD       0.15E+00    1.6     0.00000113      -191.1203966886 -1.91E-10
  Decoupling Energy:                                              -0.0000163984
     7 OT SD       0.15E+00    1.7     0.00000114      -191.1203966888 -1.92E-10
  Decoupling Energy:                                              -0.0000163984
     8 OT SD       0.15E+00    1.7     0.00000123      -191.1203966890 -1.90E-10
  Decoupling Energy:                                              -0.0000163984
     9 OT SD       0.15E+00    1.7     0.00000171      -191.1203966892 -1.68E-10
  Decoupling Energy:                                              -0.0000163984
    10 OT SD       0.15E+00    1.7     0.00000365      -191.1203966892  1.09E-11
  Decoupling Energy:                                              -0.0000163984
    11 OT DIIS     0.15E+00    1.7     0.00000959      -191.1203966878  1.38E-09
  Decoupling Energy:                                              -0.0000163984
    12 OT DIIS     0.15E+00    1.7     0.00000106      -191.1203966872  5.69E-10
  Decoupling Energy:                                              -0.0000163984
    13 OT DIIS     0.15E+00    1.7     0.00000106      -191.1203966874 -1.68E-10
  Decoupling Energy:                                              -0.0000163985
    14 OT DIIS     0.15E+00    1.7     0.00000105      -191.1203966875 -1.48E-10
  Decoupling Energy:                                              -0.0000163985
    15 OT DIIS     0.15E+00    1.7     0.00000104      -191.1203966881 -6.05E-10
  Decoupling Energy:                                              -0.0000163985
    16 OT DIIS     0.15E+00    1.7     0.00000102      -191.1203966893 -1.17E-09
  Decoupling Energy:                                              -0.0000163986
    17 OT DIIS     0.15E+00    1.7     0.00000102      -191.1203966896 -3.08E-10
  Decoupling Energy:                                              -0.0000163987
    18 OT DIIS     0.15E+00    1.7     0.00000101      -191.1203966904 -8.24E-10
  Decoupling Energy:                                              -0.0000163988
    19 OT DIIS     0.15E+00    1.7     0.00000101      -191.1203966909 -4.75E-10
  Decoupling Energy:                                              -0.0000163988
    20 OT DIIS     0.15E+00    1.7     0.00000101      -191.1203966912 -3.26E-10
  Decoupling Energy:                                              -0.0000163989
    21 OT DIIS     0.15E+00    1.7     0.00000101      -191.1203966914 -1.89E-10
  Decoupling Energy:                                              -0.0000163989
    22 OT DIIS     0.15E+00    1.6     0.00000101      -191.1203966917 -3.06E-10
  Decoupling Energy:                                              -0.0000163991
    23 OT DIIS     0.15E+00    1.7     0.00000100      -191.1203966922 -4.23E-10
  Decoupling Energy:                                              -0.0000163991
    24 OT DIIS     0.15E+00    1.7     0.00000100      -191.1203966924 -1.85E-10
  Decoupling Energy:                                              -0.0000163991
    25 OT DIIS     0.15E+00    1.7     0.00000101      -191.1203966925 -1.81E-10
  Decoupling Energy:                                              -0.0000163992
    26 OT DIIS     0.15E+00    1.7     0.00000100      -191.1203966927 -1.68E-10
  Decoupling Energy:                                              -0.0000163992
    27 OT SD       0.15E+00    1.7     0.00000100      -191.1203966928 -6.46E-11
  Decoupling Energy:                                              -0.0000163992
    28 OT SD       0.15E+00    1.7     0.00000100      -191.1203966929 -1.52E-10
  Decoupling Energy:                                              -0.0000163992
    29 OT SD       0.15E+00    1.7     0.00000100      -191.1203966931 -1.52E-10
  Decoupling Energy:                                              -0.0000163992
    30 OT SD       0.15E+00    1.6     0.00000101      -191.1203966932 -1.52E-10
  Decoupling Energy:                                              -0.0000163992
    31 OT SD       0.15E+00    1.7     0.00000107      -191.1203966934 -1.50E-10
  Decoupling Energy:                                              -0.0000163992
    32 OT SD       0.15E+00    1.7     0.00000138      -191.1203966935 -1.37E-10
  Decoupling Energy:                                              -0.0000163992
    33 OT SD       0.15E+00    1.7     0.00000273      -191.1203966935 -4.00E-11
  Decoupling Energy:                                              -0.0000163993
    34 OT SD       0.15E+00    1.7     0.00000694      -191.1203966929  6.74E-10
  Decoupling Energy:                                              -0.0000163992
    35 OT DIIS     0.15E+00    1.7     0.00001875      -191.1203966869  5.98E-09
  Decoupling Energy:                                              -0.0000163991
    36 OT DIIS     0.15E+00    1.7     0.00000100      -191.1203966919 -4.97E-09
  Decoupling Energy:                                              -0.0000163991
    37 OT DIIS     0.15E+00    1.7     0.00000100      -191.1203966920 -1.81E-10
  Decoupling Energy:                                              -0.0000163991
    38 OT SD       0.15E+00    1.6     0.00000099      -191.1203966925 -4.26E-10
  Decoupling Energy:                                              -0.0000163992
    39 OT DIIS     0.15E+00    1.7     0.00000100      -191.1203966926 -1.49E-10
  Decoupling Energy:                                              -0.0000163997
    40 OT DIIS     0.15E+00    1.7     0.00000099      -191.1203966970 -4.36E-09
  Decoupling Energy:                                              -0.0000164000
    41 OT DIIS     0.15E+00    1.7     0.00000099      -191.1203966993 -2.36E-09
  Decoupling Energy:                                              -0.0000164003
    42 OT DIIS     0.15E+00    1.7     0.00000099      -191.1203967014 -2.09E-09
  Decoupling Energy:                                              -0.0000164016
    43 OT SD       0.15E+00    1.7     0.00000098      -191.1203967094 -7.99E-09
  Decoupling Energy:                                              -0.0000164016
    44 OT DIIS     0.15E+00    1.7     0.00000103      -191.1203967096 -1.40E-10
  Decoupling Energy:                                              -0.0000164026
    45 OT DIIS     0.15E+00    1.7     0.00000097      -191.1203967165 -6.93E-09
  Decoupling Energy:                                              -0.0000164030
    46 OT DIIS     0.15E+00    1.6     0.00000097      -191.1203967195 -2.97E-09
  Decoupling Energy:                                              -0.0000164040
    47 OT DIIS     0.15E+00    1.7     0.00000097      -191.1203967269 -7.43E-09
  Decoupling Energy:                                              -0.0000164050
    48 OT DIIS     0.15E+00    1.7     0.00000095      -191.1203967341 -7.22E-09
  Decoupling Energy:                                              -0.0000164054
    49 OT DIIS     0.15E+00    1.7     0.00000095      -191.1203967373 -3.23E-09
  Decoupling Energy:                                              -0.0000164057
    50 OT DIIS     0.15E+00    1.7     0.00000095      -191.1203967398 -2.48E-09
  Decoupling Energy:                                              -0.0000164062
    51 OT DIIS     0.15E+00    1.7     0.00000094      -191.1203967437 -3.89E-09
  Decoupling Energy:                                              -0.0000164068
    52 OT DIIS     0.15E+00    1.7     0.00000094      -191.1203967491 -5.36E-09
  Decoupling Energy:                                              -0.0000164071
    53 OT DIIS     0.15E+00    1.7     0.00000094      -191.1203967512 -2.15E-09
  Decoupling Energy:                                              -0.0000164073
    54 OT SD       0.15E+00    1.6     0.00000094      -191.1203967522 -1.02E-09
  Decoupling Energy:                                              -0.0000164073
    55 OT SD       0.15E+00    1.7     0.00000094      -191.1203967524 -1.32E-10
  Decoupling Energy:                                              -0.0000164073
    56 OT DIIS     0.15E+00    1.7     0.00000098      -191.1203967525 -1.32E-10
  Decoupling Energy:                                              -0.0000164079
    57 OT DIIS     0.15E+00    1.7     0.00000093      -191.1203967573 -4.75E-09
  Decoupling Energy:                                              -0.0000164079
    58 OT DIIS     0.15E+00    1.7     0.00000093      -191.1203967574 -1.26E-10
  Decoupling Energy:                                              -0.0000164081
    59 OT DIIS     0.15E+00    1.7     0.00000094      -191.1203967585 -1.15E-09
  Decoupling Energy:                                              -0.0000164094
    60 OT DIIS     0.15E+00    1.7     0.00000091      -191.1203967687 -1.02E-08
  Decoupling Energy:                                              -0.0000164110
    61 OT DIIS     0.15E+00    1.7     0.00000089      -191.1203967819 -1.32E-08
  Decoupling Energy:                                              -0.0000164129
    62 OT DIIS     0.15E+00    1.6     0.00000087      -191.1203967973 -1.54E-08
  Decoupling Energy:                                              -0.0000164139
    63 OT DIIS     0.15E+00    1.7     0.00000085      -191.1203968051 -7.84E-09
  Decoupling Energy:                                              -0.0000164156
    64 OT DIIS     0.15E+00    1.7     0.00000084      -191.1203968193 -1.42E-08
  Decoupling Energy:                                              -0.0000164169
    65 OT DIIS     0.15E+00    1.7     0.00000081      -191.1203968301 -1.08E-08
  Decoupling Energy:                                              -0.0000164181
    66 OT DIIS     0.15E+00    1.7     0.00000081      -191.1203968387 -8.54E-09
  Decoupling Energy:                                              -0.0000164190
    67 OT DIIS     0.15E+00    1.7     0.00000080      -191.1203968455 -6.84E-09
  Decoupling Energy:                                              -0.0000164196
    68 OT DIIS     0.15E+00    1.7     0.00000079      -191.1203968515 -5.94E-09
  Decoupling Energy:                                              -0.0000164208
    69 OT DIIS     0.15E+00    1.7     0.00000074      -191.1203968594 -7.97E-09
  Decoupling Energy:                                              -0.0000164229
    70 OT DIIS     0.15E+00    1.7     0.00000072      -191.1203968743 -1.49E-08
  Decoupling Energy:                                              -0.0000164233
    71 OT DIIS     0.15E+00    1.7     0.00000080      -191.1203968781 -3.79E-09
  Decoupling Energy:                                              -0.0000164261
    72 OT DIIS     0.15E+00    1.7     0.00000068      -191.1203969011 -2.30E-08
  Decoupling Energy:                                              -0.0000164268
    73 OT DIIS     0.15E+00    1.7     0.00000063      -191.1203969081 -7.02E-09
  Decoupling Energy:                                              -0.0000164278
    74 OT DIIS     0.15E+00    1.7     0.00000059      -191.1203969177 -9.57E-09
  Decoupling Energy:                                              -0.0000164285
    75 OT DIIS     0.15E+00    1.7     0.00000057      -191.1203969245 -6.81E-09
  Decoupling Energy:                                              -0.0000164292
    76 OT DIIS     0.15E+00    1.7     0.00000060      -191.1203969304 -5.90E-09
  Decoupling Energy:                                              -0.0000164299
    77 OT DIIS     0.15E+00    1.7     0.00000054      -191.1203969401 -9.71E-09
  Decoupling Energy:                                              -0.0000164305
    78 OT DIIS     0.15E+00    1.6     0.00000050      -191.1203969475 -7.34E-09
  Decoupling Energy:                                              -0.0000164310
    79 OT DIIS     0.15E+00    1.7     0.00000048      -191.1203969495 -2.00E-09
  Decoupling Energy:                                              -0.0000164311
    80 OT DIIS     0.15E+00    1.7     0.00000049      -191.1203969549 -5.45E-09
  Decoupling Energy:                                              -0.0000164315
    81 OT DIIS     0.15E+00    1.7     0.00000044      -191.1203969566 -1.68E-09
  Decoupling Energy:                                              -0.0000164317
    82 OT DIIS     0.15E+00    1.7     0.00000038      -191.1203969613 -4.68E-09
  Decoupling Energy:                                              -0.0000164318
    83 OT DIIS     0.15E+00    1.7     0.00000033      -191.1203969643 -2.99E-09
  Decoupling Energy:                                              -0.0000164319
    84 OT DIIS     0.15E+00    1.7     0.00000029      -191.1203969672 -2.90E-09
  Decoupling Energy:                                              -0.0000164319
    85 OT DIIS     0.15E+00    1.7     0.00000028      -191.1203969678 -5.79E-10
  Decoupling Energy:                                              -0.0000164319
    86 OT DIIS     0.15E+00    1.7     0.00000024      -191.1203969691 -1.31E-09
  Decoupling Energy:                                              -0.0000164318
    87 OT DIIS     0.15E+00    1.7     0.00000022      -191.1203969701 -1.08E-09
  Decoupling Energy:                                              -0.0000164319
    88 OT DIIS     0.15E+00    1.7     0.00000022      -191.1203969703 -1.30E-10
  Decoupling Energy:                                              -0.0000164319
    89 OT DIIS     0.15E+00    1.7     0.00000021      -191.1203969707 -4.42E-10
  Decoupling Energy:                                              -0.0000164318
    90 OT DIIS     0.15E+00    1.7     0.00000018      -191.1203969709 -2.03E-10
  Decoupling Energy:                                              -0.0000164318
    91 OT DIIS     0.15E+00    1.7     0.00000016      -191.1203969710 -8.32E-11
  Decoupling Energy:                                              -0.0000164318
    92 OT DIIS     0.15E+00    1.7     0.00000016      -191.1203969711 -7.76E-11
  Decoupling Energy:                                              -0.0000164319
    93 OT SD       0.15E+00    1.7     0.00000016      -191.1203969711 -2.81E-12
  Decoupling Energy:                                              -0.0000164319
    94 OT SD       0.15E+00    1.6     0.00000017      -191.1203969711 -3.61E-12
  Decoupling Energy:                                              -0.0000164319
    95 OT DIIS     0.15E+00    1.7     0.00000025      -191.1203969711 -3.13E-12
  Decoupling Energy:                                              -0.0000164318
    96 OT DIIS     0.15E+00    1.7     0.00000015      -191.1203969713 -1.74E-10
  Decoupling Energy:                                              -0.0000164318
    97 OT DIIS     0.15E+00    1.7     0.00000016      -191.1203969713 -5.37E-11
  Decoupling Energy:                                              -0.0000164318
    98 OT DIIS     0.15E+00    1.7     0.00000015      -191.1203969715 -1.33E-10
  Decoupling Energy:                                              -0.0000164317
    99 OT DIIS     0.15E+00    1.7     0.00000015      -191.1203969716 -1.09E-10
  Decoupling Energy:                                              -0.0000164317
   100 OT DIIS     0.15E+00    1.7     0.00000014      -191.1203969717 -1.07E-10
  Decoupling Energy:                                              -0.0000164316
   101 OT DIIS     0.15E+00    1.6     0.00000014      -191.1203969718 -1.63E-10
  Decoupling Energy:                                              -0.0000164316
   102 OT DIIS     0.15E+00    1.6     0.00000013      -191.1203969719 -4.23E-11
  Decoupling Energy:                                              -0.0000164315
   103 OT DIIS     0.15E+00    1.7     0.00000013      -191.1203969719 -5.77E-11
  Decoupling Energy:                                              -0.0000164315
   104 OT DIIS     0.15E+00    1.7     0.00000013      -191.1203969719 -1.44E-11
  Decoupling Energy:                                              -0.0000164315
   105 OT SD       0.15E+00    1.7     0.00000013      -191.1203969720 -7.65E-12
  Decoupling Energy:                                              -0.0000164315
   106 OT DIIS     0.15E+00    1.7     0.00000014      -191.1203969720 -2.64E-12
  Decoupling Energy:                                              -0.0000164315
   107 OT DIIS     0.15E+00    1.7     0.00000013      -191.1203969720 -3.09E-11
  Decoupling Energy:                                              -0.0000164314
   108 OT DIIS     0.15E+00    1.7     0.00000013      -191.1203969720 -3.70E-11
  Decoupling Energy:                                              -0.0000164314
   109 OT DIIS     0.15E+00    1.7     0.00000013      -191.1203969721 -4.82E-11
  Decoupling Energy:                                              -0.0000164313
   110 OT DIIS     0.15E+00    1.6     0.00000013      -191.1203969721 -3.37E-11
  Decoupling Energy:                                              -0.0000164312
   111 OT DIIS     0.15E+00    1.7     0.00000013      -191.1203969721 -2.48E-11
  Decoupling Energy:                                              -0.0000164311
   112 OT SD       0.15E+00    1.7     0.00000012      -191.1203969721  8.81E-13
  Decoupling Energy:                                              -0.0000164311
   113 OT SD       0.15E+00    1.7     0.00000013      -191.1203969721 -2.13E-12
  Decoupling Energy:                                              -0.0000164311
   114 OT SD       0.15E+00    1.7     0.00000018      -191.1203969721 -2.02E-12
  Decoupling Energy:                                              -0.0000164311
   115 OT SD       0.15E+00    1.7     0.00000039      -191.1203969721  0.00E+00
  Decoupling Energy:                                              -0.0000164311
   116 OT DIIS     0.15E+00    1.7     0.00000103      -191.1203969721  1.60E-11
  Decoupling Energy:                                              -0.0000164310
   117 OT DIIS     0.15E+00    1.7     0.00000013      -191.1203969721  1.43E-11
  Decoupling Energy:                                              -0.0000164311
   118 OT SD       0.15E+00    1.6     0.00000015      -191.1203969721 -2.75E-11
  Decoupling Energy:                                              -0.0000164311
   119 OT DIIS     0.15E+00    1.7     0.00000032      -191.1203969721  1.42E-13
  Decoupling Energy:                                              -0.0000164312
   120 OT SD       0.15E+00    1.7     0.00000008      -191.1203969721 -5.40E-13
  Decoupling Energy:                                              -0.0000164311
   121 OT DIIS     0.15E+00    1.7     0.00000009      -191.1203969721 -5.40E-13
  Decoupling Energy:                                              -0.0000164311
   122 OT SD       0.15E+00    1.7     0.00000007      -191.1203969721 -3.27E-12
  Decoupling Energy:                                              -0.0000164311
   123 OT DIIS     0.15E+00    1.7     0.00000011      -191.1203969721 -2.27E-13
  Decoupling Energy:                                              -0.0000164311
   124 OT SD       0.15E+00    1.7     0.00000004      -191.1203969721 -4.83E-12
  Decoupling Energy:                                              -0.0000164311
   125 OT DIIS     0.15E+00    1.7     0.00000005      -191.1203969721 -1.71E-13
  Decoupling Energy:                                              -0.0000164311
   126 OT DIIS     0.15E+00    1.7     0.00000003      -191.1203969721 -4.55E-13
  Decoupling Energy:                                              -0.0000164311
   127 OT DIIS     0.15E+00    1.7     0.00000003      -191.1203969721 -2.27E-13
  Decoupling Energy:                                              -0.0000164311
   128 OT DIIS     0.15E+00    1.7     0.00000003      -191.1203969721 -3.69E-13
  Decoupling Energy:                                              -0.0000164311
   129 OT DIIS     0.15E+00    1.7     0.00000003      -191.1203969721 -1.42E-13
  Decoupling Energy:                                              -0.0000164311
   130 OT DIIS     0.15E+00    1.7     0.00000003      -191.1203969721  5.68E-14
  Decoupling Energy:                                              -0.0000164311
   131 OT DIIS     0.15E+00    1.7     0.00000003      -191.1203969721 -1.14E-13
  Decoupling Energy:                                              -0.0000164311
   132 OT SD       0.15E+00    1.7     0.00000003      -191.1203969721 -2.84E-14
  Decoupling Energy:                                              -0.0000164311
   133 OT SD       0.15E+00    1.7     0.00000003      -191.1203969721 -1.71E-13
  Decoupling Energy:                                              -0.0000164311
   134 OT SD       0.15E+00    1.6     0.00000003      -191.1203969721 -1.14E-13
  Decoupling Energy:                                              -0.0000164311
   135 OT SD       0.15E+00    1.7     0.00000004      -191.1203969721 -1.42E-13
  Decoupling Energy:                                              -0.0000164311
   136 OT SD       0.15E+00    1.7     0.00000009      -191.1203969721 -2.84E-14
  Decoupling Energy:                                              -0.0000164311
   137 OT SD       0.15E+00    1.7     0.00000021      -191.1203969721  6.54E-13
  Decoupling Energy:                                              -0.0000164311
   138 OT DIIS     0.15E+00    1.7     0.00000055      -191.1203969721  5.23E-12
  Decoupling Energy:                                              -0.0000164311
   139 OT DIIS     0.15E+00    1.7     0.00000001      -191.1203969721 -4.52E-12
  Decoupling Energy:                                              -0.0000164311
   140 OT DIIS     0.15E+00    1.7     0.00000001      -191.1203969721 -8.53E-14
  Decoupling Energy:                                              -0.0000164311
   141 OT DIIS     0.15E+00    1.7     8.7403E-09      -191.1203969721 -2.84E-14

  *** SCF run converged in   141 steps ***


  Electronic density on regular grids:        -35.9999997697        0.0000002303
  Core density on regular grids:               36.0000000000       -0.0000000000
  Total charge density on r-space grids:        0.0000002303
  Total charge density g-space grids:           0.0000002303

  Overlap energy of the core charge distribution:               0.00000000000000
  Self energy of the core charge distribution:               -507.77062519298073
  Core Hamiltonian energy:                                    137.08180813273594
  Hartree energy:                                             208.13650399827748
  Exchange-correlation energy:                                -28.56808391017713

  Total energy:                                              -191.12039697214445

  outer SCF iter =    3 RMS gradient =   0.87E-08 energy =       -191.1203969721
  outer SCF loop converged in   3 iterations or 1141 steps

  
 -------------------------------------------------------------------------------
 -                                                                             -
 -                          BANDSTRUCTURE CALCULATION                          -
 -                                                                             -
 -------------------------------------------------------------------------------
  
 Number of occupied molecular orbitals (MOs) = Number of occupied bands       18
 Number of unoccupied (= virtual) MOs = Number of unoccupied bands            38
 Number of Gaussian basis functions for MOs                                   56
  
 -------------------------------------------------------------------------------
 -                                                                             -
 -                                GW CALCULATION                               -
 -                                                                             -
 -------------------------------------------------------------------------------
  
 Input: Number of time/freq. points                                           30
 Input: ω_max for fitting Σ(iω) (eV)                                        10.0
 Input: Filter threshold for sparse tensor operations                    1.0E-07
 Input: Apply Hedin shift                                                      F
 Input: Available memory per MPI process                                  8.0 GB
 
 Input: RI-RS Tikhonov regularization                                   1.00E-04
 Input: AO grid hard cutoff radius                                        8.00 Å
 Input: MPI ranks per atom in Z_lP solve                                      -1
 Input: Keep sparsity in χ/G/W panels                                          T
 Input: GW flavour                                                          G0W0
 
 Input: RI-RS grid optimization activated                                      T
 Input: Initial RI-RS grid                                              CHOLESKY
 Input: RS points per AO function                                         9.0000
 Input: Initial RS candidates per AO function                            30.0000
 Input: Additional Lebedev degree                                              2
 Input: Cholesky selection matrix                                        D_PRIME
 Input: Cholesky candidate domain                                      FULL_ATOM
 Input: Initial radial quadrature                                       GAPW_LOG
 Input: Cutoff radius for atomic clusters                                  3.0 Å
 Input: Maximum grid optimization iterations                                 300
 Input: L-BFGS history size                                                    7
 Input: L-BFGS relative-function factor                              0.00000E+00
 Input: L-BFGS projected-gradient tolerance                          1.00000E-09
 
 Input: AUTO_RI basis optimization activated:                                  T
 Input: AUTO_RI requested RI/AO ratio:                                       2.0
 Input: AUTO_RI frontier orbital window:                                  5.0 eV
 Input: AUTO_RI neighbor radius:                                           3.0 Å
 
 Cutoff radius for the truncated Coulomb operator in RI metric:            7.0 Å
 Regularization parameter of RI                                          0.0E+00
 Regularization parameter of minimax grids                               1.0E-06
 
 AUTO_RI| Number of automatic RI functions for χ, ε, W:                       56
 AUTO_RI| Total RI basis optimization time:                                0.4 s
  Decoupling Energy:                                              -0.0000164311
 
 SCF direct band gap (eV)                                                   1.28
 Max. SCF eigval diff. (eV)                                                75.57
 E-Range for minimax grid                                                  58.93
 Number of Padé parameters for analytic continuation:                         16
 
 RI-RS basis radii (Å):
     Kind  Elem     r_AO (Å)     r_RI (Å)
        1    Na        9.5111        5.9656
 
 RI-RS initialization: atomic kind                                             1
 RI-RS initialization: Lebedev degree                                          9
 RI-RS initialization: radial shells                                          12
 RI-RS initialization: candidates per atom                                   456
 RI-RS initialization: retained points per atom                              126
 RI-RS initialization: largest cluster candidate count                       456
 RI-RS initialization: most pivots in one cluster                            172
 RI-RS initialization: most stored AO values in one cluster                 6384
 RI-RS initialization: wall time [s]                                       0.024
 Started RI-RS grid optimization
 RI-RS grid initial normalized error                          7.833608265186E-06
 RI-RS grid optimization completed, execution time:                        0.2 s
 Normalized 3C error:                                                    1.1E-08
 Maximum absolute 3C error:                                              4.8E-04
 Optimized points outside molecular Voronoi cells:                            23 / 504
 Total grid points used for RI-RS:                                           504
 
 RI-RS grid row-blocks of Φ_μ(r_l)                                            16
 RI-RS grid points per block (max)                                            32
 
 Percentage of non-zero matrix elements in Φ_μ(r_l)                     100.00 %
 
 RI-RS memory estimate per MPI process:
   Available memory per process (system)                                15.79 GB
   Required for Z_lP (dense upper bound; actual is sparser)              0.00 GB
   Required for χ, W, Σ panels (peak per panel step)                     0.00 GB
   Required for Z_lP solve peak (D_local+φ, worst-case atom)             0.00 GB
   Worst-case local-grid number of grid points:                              504
   Worst-case memory D_local:                                            0.00 GB
 
 Started computing Z_lP
 Computed Z_lP (MPI rank 0) for atom          1 /  1,    Execution time    0.0 s
 Computed Z_lP (all MPI ranks) for all atoms,            Execution time    0.1 s

 Number of batches for χ, Σ matrices                                           1
 
 Percentage of non-zero matrix elements in Z_lP                         100.00 %
 Percentage of non-zero matrix elements in G_ll', χ_ll', W_ll'          100.00 %
 Percentage of non-zero matrix elements in χ_PQ for time point 1        100.00 %
 
 Computed χ(iτ,k=0) for time point            1 / 30,    Execution time    0.0 s
 Computed χ(iτ,k=0) for time point            2 / 30,    Execution time    0.0 s
 Computed χ(iτ,k=0) for time point            3 / 30,    Execution time    0.0 s
 Computed χ(iτ,k=0) for time point            4 / 30,    Execution time    0.0 s
 Computed χ(iτ,k=0) for time point            5 / 30,    Execution time    0.0 s
 Computed χ(iτ,k=0) for time point            6 / 30,    Execution time    0.0 s
 Computed χ(iτ,k=0) for time point            7 / 30,    Execution time    0.0 s
 Computed χ(iτ,k=0) for time point            8 / 30,    Execution time    0.0 s
 Computed χ(iτ,k=0) for time point            9 / 30,    Execution time    0.0 s
 Computed χ(iτ,k=0) for time point           10 / 30,    Execution time    0.0 s
 Computed χ(iτ,k=0) for time point           11 / 30,    Execution time    0.0 s
 Computed χ(iτ,k=0) for time point           12 / 30,    Execution time    0.0 s
 Computed χ(iτ,k=0) for time point           13 / 30,    Execution time    0.0 s
 Computed χ(iτ,k=0) for time point           14 / 30,    Execution time    0.0 s
 Computed χ(iτ,k=0) for time point           15 / 30,    Execution time    0.0 s
 Computed χ(iτ,k=0) for time point           16 / 30,    Execution time    0.0 s
 Computed χ(iτ,k=0) for time point           17 / 30,    Execution time    0.0 s
 Computed χ(iτ,k=0) for time point           18 / 30,    Execution time    0.0 s
 Computed χ(iτ,k=0) for time point           19 / 30,    Execution time    0.0 s
 Computed χ(iτ,k=0) for time point           20 / 30,    Execution time    0.0 s
 Computed χ(iτ,k=0) for time point           21 / 30,    Execution time    0.0 s
 Computed χ(iτ,k=0) for time point           22 / 30,    Execution time    0.0 s
 Computed χ(iτ,k=0) for time point           23 / 30,    Execution time    0.0 s
 Computed χ(iτ,k=0) for time point           24 / 30,    Execution time    0.0 s
 Computed χ(iτ,k=0) for time point           25 / 30,    Execution time    0.0 s
 Computed χ(iτ,k=0) for time point           26 / 30,    Execution time    0.0 s
 Computed χ(iτ,k=0) for time point           27 / 30,    Execution time    0.0 s
 Computed χ(iτ,k=0) for time point           28 / 30,    Execution time    0.0 s
 Computed χ(iτ,k=0) for time point           29 / 30,    Execution time    0.0 s
 Computed χ(iτ,k=0) for time point           30 / 30,    Execution time    0.0 s
 
 Computed W(iτ),                                         Execution time    0.0 s
 
 Computed Σ^x(k=0),                                      Execution time    0.0 s
 
 Computed Σ^c(iτ) for time point              1 / 30,    Execution time    0.0 s
 Computed Σ^c(iτ) for time point              2 / 30,    Execution time    0.0 s
 Computed Σ^c(iτ) for time point              3 / 30,    Execution time    0.0 s
 Computed Σ^c(iτ) for time point              4 / 30,    Execution time    0.0 s
 Computed Σ^c(iτ) for time point              5 / 30,    Execution time    0.0 s
 Computed Σ^c(iτ) for time point              6 / 30,    Execution time    0.0 s
 Computed Σ^c(iτ) for time point              7 / 30,    Execution time    0.0 s
 Computed Σ^c(iτ) for time point              8 / 30,    Execution time    0.0 s
 Computed Σ^c(iτ) for time point              9 / 30,    Execution time    0.0 s
 Computed Σ^c(iτ) for time point             10 / 30,    Execution time    0.0 s
 Computed Σ^c(iτ) for time point             11 / 30,    Execution time    0.0 s
 Computed Σ^c(iτ) for time point             12 / 30,    Execution time    0.0 s
 Computed Σ^c(iτ) for time point             13 / 30,    Execution time    0.0 s
 Computed Σ^c(iτ) for time point             14 / 30,    Execution time    0.0 s
 Computed Σ^c(iτ) for time point             15 / 30,    Execution time    0.0 s
 Computed Σ^c(iτ) for time point             16 / 30,    Execution time    0.0 s
 Computed Σ^c(iτ) for time point             17 / 30,    Execution time    0.0 s
 Computed Σ^c(iτ) for time point             18 / 30,    Execution time    0.0 s
 Computed Σ^c(iτ) for time point             19 / 30,    Execution time    0.0 s
 Computed Σ^c(iτ) for time point             20 / 30,    Execution time    0.0 s
 Computed Σ^c(iτ) for time point             21 / 30,    Execution time    0.0 s
 Computed Σ^c(iτ) for time point             22 / 30,    Execution time    0.0 s
 Computed Σ^c(iτ) for time point             23 / 30,    Execution time    0.0 s
 Computed Σ^c(iτ) for time point             24 / 30,    Execution time    0.0 s
 Computed Σ^c(iτ) for time point             25 / 30,    Execution time    0.0 s
 Computed Σ^c(iτ) for time point             26 / 30,    Execution time    0.0 s
 Computed Σ^c(iτ) for time point             27 / 30,    Execution time    0.0 s
 Computed Σ^c(iτ) for time point             28 / 30,    Execution time    0.0 s
 Computed Σ^c(iτ) for time point             29 / 30,    Execution time    0.0 s
 Computed Σ^c(iτ) for time point             30 / 30,    Execution time    0.0 s
 
 SCF valence band maximum (eV):                                           -2.973
 SCF conduction band minimum (eV):                                        -1.690
 SCF indirect band gap (eV):                                               1.282
 SCF direct band gap (eV):                                                 1.282
 
 G0W0 valence band maximum (eV):                                          -4.703
 G0W0 conduction band minimum (eV):                                       -0.609
 G0W0 indirect band gap (eV):                                              4.094
 G0W0 direct band gap (eV):                                                4.094
 
 Hartree-Fock with SCF orbitals valence band maximum (eV):                -4.518
 Hartree-Fock with SCF orbitals conduction band minimum (eV)               0.414
 Hartree-Fock with SCF orbitals indirect band gap (eV):                    4.933
 Hartree-Fock with SCF orbitals direct band gap (eV):                      4.933

 ENERGY| Total FORCE_EVAL ( QS ) energy [hartree]           -191.120396972144448

 -------------------------------------------------------------------------------
 -                                                                             -
 -                                DBCSR STATISTICS                             -
 -                                                                             -
 -------------------------------------------------------------------------------
 COUNTER                                    TOTAL       BLAS       SMM       ACC
 flops    14 x    14 x    30             39842880       0.0%    100.0%      0.0%     
 flops    14 x    14 x    18             80579520       0.0%    100.0%      0.0%     
 flops    30 x    14 x    14             80861760       0.0%    100.0%      0.0%     
 flops    30 x    14 x    30             93542400       0.0%    100.0%      0.0%     
 flops    18 x    18 x    18            111846096       0.0%    100.0%      0.0%     
 flops    14 x    14 x    32            126907648       0.0%    100.0%      0.0%     
 flops    18 x    18 x    14            165509568       0.0%    100.0%      0.0%     
 flops    30 x    30 x    14            172720800       0.0%    100.0%      0.0%     
 flops    14 x    18 x    18            206914176       0.0%    100.0%      0.0%     
 flops    32 x    14 x    14            258506752       0.0%    100.0%      0.0%     
 flops    32 x    14 x    30            299685120       0.0%    100.0%      0.0%     
 flops    30 x    14 x    32            300894720       0.0%    100.0%      0.0%     
 flops    14 x    18 x    14            394345728       0.0%    100.0%      0.0%     
 flops    30 x    32 x    14            552545280       0.0%    100.0%      0.0%     
 flops    32 x    30 x    14            553082880       0.0%    100.0%      0.0%     
 flops    32 x    14 x    32            963551232       0.0%    100.0%      0.0%     
 flops    32 x    32 x    14           1769549824       0.0%    100.0%      0.0%     
 flops inhomo. stacks                           0       0.0%      0.0%      0.0%
 flops total                         6.170886E+09       0.0%    100.0%      0.0%
 flops max/rank                    771.001264E+06       0.0%    100.0%      0.0%
 matmuls inhomo. stacks                         0       0.0%      0.0%      0.0%
 matmuls total                             328302       0.0%    100.0%      0.0%
 number of processed stacks                169748       0.0%    100.0%      0.0%
 average stack size                                     0.0       1.9       0.0
 marketing flops                     8.692146E+09
 -------------------------------------------------------------------------------
 # multiplications                          24977
 max memory usage/rank              21.957845E+09
 # max total images/rank                        1
 # max 3D layers                                1
 # MPI messages exchanged                 2397792
 MPI messages size (bytes):
  total size                         1.807575E+09
  min size                           0.000000E+00
  max size                         131.072000E+03
  average size                     753.849609E+00
 MPI breakdown and total messages size (bytes):
             size <=      128             1868691                        0
       128 < size <=     8192              494838                963709920
      8192 < size <=    32768               31047                437935680
     32768 < size <=   131072                3216                405928896
    131072 < size <=  4194304                   0                        0
   4194304 < size <= 16777216                   0                        0
  16777216 < size                               0                        0
 -------------------------------------------------------------------------------
 -                                                                             -
 -                      DBCSR MESSAGE PASSING PERFORMANCE                      -
 -                                                                             -
 -------------------------------------------------------------------------------
 ROUTINE             CALLS      AVE VOLUME [Bytes]
 MP_Bcast               18                     12.
 MP_Allreduce       119824                      8.
 MP_Alltoall         82186                    821.
 MP_ISend           402246                    683.
 MP_IRecv           399326                    431.
 -------------------------------------------------------------------------------

 -------------------------------------------------------------------------------
 -                                                                             -
 -                                GRID STATISTICS                              -
 -                                                                             -
 -------------------------------------------------------------------------------
 LP    KERNEL             BACKEND                              COUNT     PERCENT
 4     collocate ortho    CPU                                  34260      50.00%
 4     integrate ortho    CPU                                  34260      50.00%
 0     collocate general  CPU                                      4       0.01%
 -------------------------------------------------------------------------------

 -------------------------------------------------------------------------------
 -                                                                             -
 -                          OFFLOAD MEMPOOL STATISTICS                         -
 -                                                                             -
 -------------------------------------------------------------------------------
 Memory consumption                Number of allocations  Used [MiB]  Size [MiB]
 Host                                                  6          90    21328698
 -------------------------------------------------------------------------------

 MEMORY| Estimated peak process memory [MiB]                                2131

 -------------------------------------------------------------------------------
 -                                                                             -
 -                         MESSAGE PASSING PERFORMANCE                         -
 -                                                                             -
 -------------------------------------------------------------------------------

 ROUTINE             CALLS      AVE VOLUME [Bytes]
 MP_Group                5
 MP_Bcast            11852                   5677.
 MP_Allreduce        51829                    155.
 MP_Sync              1060
 MP_Alltoall         21706              113508265.
 MP_SendRecv         34260                 564480.
 MP_ISendRecv        34260                 564480.
 MP_Wait            139347
 MP_comm_split        1058
 MP_ISend            91380                1934342.
 MP_IRecv            91380                1934348.
 -------------------------------------------------------------------------------


 -------------------------------------------------------------------------------
 -                                                                             -
 -                           R E F E R E N C E S                               -
 -                                                                             -
 -------------------------------------------------------------------------------
 
 CP2K version 2026.2 (Development Version), the CP2K developers group (2026).
 CP2K is freely available from https://www.cp2k.org/ .
 
 M. Iannuzzi, J. Wilhelm, F. Stein, A. Bussy, H. Elgabarty, D. Golze, A. Hehn, 
 M. Graml, S. Marek, B. Sertcan Gökmen, C. Schran, H. Forbert, R. Z. 
 Khaliullin, A. Kozhevnikov, M. Taillefumier, R. Meli, V. V. Rybkin, M. Brehm, 
 R. Schade, O. Schütt, J. V. Pototschnig, H. Mirhosseini, A. Knüpfer, D. Marx, 
 M. Krack, J. Hutter, T. D. Kühne.
 J. Phys. Chem. B 130, 1237-1310 (2026).
 The CP2K Program Package Made Simple.
 https://doi.org/10.1021/acs.jpcb.5c05851

 M. Graml, K. Zollner, D. Hernangómez-Pérez, P. E. Faria Junior, J. Wilhelm.
 J. Chem. Theory Comput. 20, 2202-2208 (2024).
 Low-scaling GW algorithm applied to twisted transition-metal dichalcogenide 
 heterobilayers.
 https://doi.org/10.1021/acs.jctc.3c01230

 T. D. Kühne, M. Iannuzzi, M. Del Ben, V. V. Rybkin, P. Seewald, F. Stein, T. 
 Laino, R. Z. Khaliullin, O. Schütt, F. Schiffmann, D. Golze, J. Wilhelm, S. 
 Chulkov, M. H. Bani-Hashemian, V. Weber, U. Borstnik, M. Taillefumier, A. S. 
 Jakobovits, A. Lazzaro, H. Pabst, T. Müller, R. Schade, M. Guidon, S. 
 Andermatt, N. Holmberg, G. K. Schenter, A. Hehn, A. Bussy, F. Belleflamme, G. 
 Tabacchi, A. Glöß, M. Lass, I. Bethune, C. J. Mundy, C. Plessl, M. Watkins, 
 J. VandeVondele, M. Krack, J. Hutter.
 J. Chem. Phys. 152, 194103 (2020).
 CP2K: An electronic structure and molecular dynamics software package - 
 Quickstep: Efficient and accurate electronic structure calculations.
 https://doi.org/10.1063/5.0007045

 O. Schuett, P. Messmer, J. Hutter, J. VandeVondele.
 Electronic Structure Calculations on Graphics Processing Units, 173-190 (2016).
 GPU-Accelerated Sparse Matrix-Matrix Multiplication for Linear Scaling Density 
 Functional Theory.
 https://doi.org/10.1002/9781118670712.ch8

 U. Borstnik, J. VandeVondele, V. Weber, J. Hutter.
 Parallel Comput. 40, 47-58 (2014).
 Sparse matrix multiplication: The distributed block-compressed sparse row 
 library.
 https://doi.org/10.1016/j.parco.2014.03.012

 J. VandeVondele, J. Hutter.
 J. Chem. Phys. 127, 114105 (2007).
 Gaussian basis sets for accurate calculations on molecular systems in gas and 
 condensed phases.
 https://doi.org/10.1063/1.2770708

 J. VandeVondele, M. Krack, F. Mohamed, M. Parrinello, T. Chassaing, J. Hutter.
 Comput. Phys. Commun. 167, 103-128 (2005).
 QUICKSTEP: Fast and accurate density functional calculations using a mixed 
 Gaussian and plane waves approach.
 https://doi.org/10.1016/j.cpc.2004.12.014

 M. Krack.
 Theor. Chem. Acc. 114, 145-152 (2005).
 Pseudopotentials for H to Kr optimized for gradient-corrected 
 exchange-correlation functionals.
 https://doi.org/10.1007/s00214-005-0655-y

 M. Frigo, S. G. Johnson.
 Proc. IEEE 93, 216-231 (2005).
 The design and implementation of FFTW3.
 https://doi.org/10.1109/JPROC.2004.840301

 J. VandeVondele, J. Hutter.
 J. Chem. Phys. 118, 4365-4369 (2003).
 An efficient orbital transformation method for electronic structure 
 calculations.
 https://doi.org/10.1063/1.1543154

 C. Hartwigsen, S. Goedecker, J. Hutter.
 Phys. Rev. B 58, 3641-3662 (1998).
 Relativistic separable dual-space Gaussian pseudopotentials from H to Rn.
 https://doi.org/10.1103/PhysRevB.58.3641

 G. Lippert, J. Hutter, M. Parrinello.
 Mol. Phys. 92, 477-487 (1997).
 A hybrid Gaussian and plane wave density functional scheme.
 https://doi.org/10.1080/002689797170220

 S. Goedecker, M. Teter, J. Hutter.
 Phys. Rev. B 54, 1703-1710 (1996).
 Separable dual-space Gaussian pseudopotentials.
 https://doi.org/10.1103/PhysRevB.54.1703

 J. P. Perdew, K. Burke, M. Ernzerhof.
 Phys. Rev. Lett. 77, 3865-3868 (1996).
 Generalized gradient approximation made simple.
 https://doi.org/10.1103/PhysRevLett.77.3865

 P. E. Blöchl.
 J. Chem. Phys. 103, 7422-7428 (1995).
 Electrostatic decoupling of periodic images of plane‐wave‐expanded 
 densities and derived atomic point charges.
 https://doi.org/10.1063/1.470314

 R. H. Byrd, P. H. Lu, J. Nocedal, C. Y. Zhu.
 SIAM J. Sci. Comput. 16, 1190-1208 (1995).
 A Limited Memory Algorithm for Bound Constrained Optimization.
 https://doi.org/10.1137/0916069


 -------------------------------------------------------------------------------
 -                                                                             -
 -                                T I M I N G                                  -
 -                                                                             -
 -------------------------------------------------------------------------------
 SUBROUTINE                       CALLS  ASD         SELF TIME        TOTAL TIME MAXRANK
                                MAXIMUM       AVERAGE  MAXIMUM  AVERAGE  MAXIMUM
 CP2K                                 1  1.0    0.150    0.159 1920.946 1920.954       0
 qs_energies                          1  2.0    0.037    0.037 1920.060 1920.060      13
 scf_env_do_scf                       1  3.0    0.039    0.040 1917.197 1917.197      11
 scf_env_do_scf_inner_loop         1141  4.0    0.164    0.229 1913.021 1913.037       0
 qs_ks_build_kohn_sham_matrix      1142  7.0    0.634    0.654 1420.537 1420.551      13
 qs_ks_update_qs_env               1144  5.0    0.024    0.025 1420.357 1420.371      15
 rebuild_ks_matrix                 1141  6.0    0.019    0.020 1420.176 1420.189       0
 fft_wrap_pw1pw2                  19408 10.4    0.600    0.648 1140.787 1200.774      13
 fft_wrap_pw1pw2_300              12556 11.8   58.767   61.001 1110.383 1171.199       9
 qs_vxc_create                     1142  8.0    0.066    0.072  973.839  977.264      14
 xc_vxc_pw_create                  1141  9.0   21.262   23.809  973.774  977.198       6
 fft3d_ps                         19408 12.4  469.109  483.790  820.431  885.604       0
 xc_pw_derive                      6846 11.0    0.072    0.082  728.545  787.632      13
 xc_pw_divergence                  1141 10.0    0.041    0.044  498.138  555.023      15
 xc_rho_set_and_dset_create        1141 10.0   14.385   17.193  442.381  494.952       8
 qs_rho_update_rho_low             1142  5.0    0.047    0.047  479.272  479.323       8
 calculate_rho_elec                1142  6.0   12.598   12.875  479.225  479.276       0
 mp_alltoall_z22v                 19408 14.4  217.537  294.592  217.537  294.592      13
 density_rs2pw                     1142  7.0    0.212    0.216  272.382  275.160       7
 yz_to_x                           9134 12.9   56.579   59.101  173.662  247.347      15
 grid_collocate_task_list          1142  7.0  191.682  193.813  191.682  193.813       9
 sum_up_and_integrate              1142  8.0    0.099    0.104  191.383  191.735       8
 integrate_v_rspace                1142  9.0    0.165    0.169  185.196  185.647       3
 potential_pw2rs                   1142 10.0    0.446    0.473  182.770  183.139       8
 x_to_yz                          10274 13.8   76.823   80.870  177.276  180.566       8
 qs_ks_ddapc                       1142  8.0    0.048    0.050  129.585  131.710       8
 pw_derive                        10272 11.3  117.193  120.878  117.193  120.878      11
 pw_poisson_solve                  1142  8.0    0.053    0.054  107.762  108.071      11
 xc_functional_eval                1141 11.0    0.050    0.053   57.755  107.750      13
 pbe_lda_eval                      1141 12.0   57.705  107.697   57.705  107.697       8
 pw_scatter_p                     10274 12.8  100.330  102.181  100.330  102.181      11
 pw_gather_p                       9134 11.9   87.690   94.870   87.690   94.870      11
 pw_copy                          18268 10.6   91.466   92.079   91.466   92.079       1
 transfer_pw2rs                    4568 11.0    0.046    0.050   68.684   68.778      14
 pw_poisson_set                    1143  9.0    0.067    0.088   64.554   64.864       9
 transfer_rs2pw                    4569  8.0    0.094    0.122   51.683   53.690       8
 mp_waitany                       91380 11.5   48.429   50.098   48.429   50.098      14
 pw_axpy                          11425  9.3   47.807   49.220   47.807   49.220       1
 pw_copy_to_array                  9134 11.9   45.107   47.976   45.107   47.976       8
 transfer_pw2rs_300                1142 12.0   19.601   19.994   46.086   46.995       2
 pw_integral_ab_c1d_c1d_gs         2284  9.5   39.330   39.471   40.098   40.359      12
 transfer_rs2pw_300                1143  9.0   15.985   16.603   33.664   35.539       8
 cp_ddapc_apply_CD                 1142  9.0    0.080    0.109   28.754   28.963       0
 pw_copy_from_array               10274 12.8   25.783   26.208   25.783   26.208       9
 fft_wrap_pw1pw2_100               2284 10.5    1.647    1.836   23.090   24.891       7
 pw_zero                           5725 10.4   16.113   17.638   16.113   17.638       4
 qs_scf_new_mos                    1141  5.0    0.010    0.010   15.919   15.931       5
 qs_scf_loop_do_ot                 1141  6.0    0.026    0.026   15.910   15.921       2
 ot_scf_mini                       1141  7.0    0.054    0.055   14.839   14.849       4
 dbcsr_multiply_generic           24977 10.1    0.586    0.597   12.657   13.845       8
 transfer_pw2rs_100                1142 12.0    2.848    3.028   12.682   13.413       3
 mp_sum_d                         29957 10.6    7.204   10.702    7.204   10.702       7
 mp_waitall_1                   1246863 14.3    9.412   10.619    9.412   10.619       2
 pw_scale                          4565  9.8    8.294   10.035    8.294   10.035      14
 transfer_rs2pw_100                1142  9.0    3.077    3.220    8.898    9.404      11
 ot_mini                           1141  8.0    0.041    0.041    8.657    8.676       0
 get_ddapc                         1142 10.0    0.068    0.071    8.260    8.468      12
 rs_grid_zero                      2285 13.0    8.256    8.394    8.256    8.394       3
 transfer_pw2rs_40                 1142 12.0    3.094    3.330    7.887    8.249      14
 pw_multiply_with                  1142  9.0    7.740    7.826    7.740    7.826       9
 transfer_rs2pw_40                 1142  9.0    2.574    2.713    6.956    7.410       7
 qs_ot_get_derivative              1141  9.0    0.019    0.019    7.090    7.099      13
 mp_sendrecv_dv                   34260 10.0    5.838    6.265    5.838    6.265       0
 fft_wrap_pw1pw2_40                2284 10.5    0.373    0.416    5.397    5.971       7
 qs_ot_get_derivative_diag          991 10.0    0.039    0.040    4.943    4.952       7
 make_m2s                         49954 11.1    0.293    0.300    4.700    4.787       2
 qs_ot_get_p                       1144  8.0    0.030    0.030    4.603    4.636      11
 multiply_cannon                  24977 11.1    1.223    1.250    4.036    4.147       6
 init_scf_loop                        3  4.0    0.029    0.029    4.129    4.129      10
 xc_pw_smooth                      1141 10.0    0.005    0.006    3.208    3.688       9
 make_images                      49954 12.1    0.541    0.566    3.526    3.602      12
 qs_ot_p2m_diag                     993  9.0    0.056    0.075    3.073    3.117       0
 mp_sum_l                        119373 11.2    1.357    2.574    1.357    2.574       3
 grid_integrate_task_list          1142 10.0    1.976    2.356    1.976    2.356       9
 transfer_rs2pw_20                 1142  9.0    0.615    0.656    2.071    2.275      15
 transfer_pw2rs_20                 1142 12.0    0.732    0.774    1.983    2.210      14
 cp_dbcsr_syevd                     993 10.0    0.170    0.173    2.014    2.040      11
 qs_energies_properties               1  3.0    0.005    0.005    1.987    1.987      14
 post_scf_bandstructure               1  4.0    0.003    0.003    1.982    1.982       1
 -------------------------------------------------------------------------------

 The number of warnings for this run is : 0
 
 -------------------------------------------------------------------------------
  **** **** ******  **  PROGRAM ENDED AT                 2026-09-17 07:48:49.526
 ***** ** ***  *** **   PROGRAM RAN ON                                  n2cn0301
 **    ****   ******    PROGRAM RAN BY                                  eprop2d1
 ***** **    ** ** **   PROGRAM PROCESS ID                                275445
  **** **  *******  **  PROGRAM STOPPED IN /scratch/hpc-prf-metdyn/eprop2d1_Jan/
                                           53_benchmark_RI_opt/111_GW100_GTH_Leb
                                           edev_riao245_rc3/calculations/09_Na4_
                                           riao2_r09
