 DBCSR| CPU Multiplication driver                                           XSMM (U)
 DBCSR| Multrec recursion limit                                              512 (U)
 DBCSR| Multiplication stack size                                           1000 (D)
 DBCSR| Maximum elements for images                                    UNLIMITED (U)
 DBCSR| Multiplicative factor virtual images                                   1 (U)
 DBCSR| Use multiplication densification                                       T (D)
 DBCSR| Multiplication size stacks                                             3 (U)
 DBCSR| Use memory pool for CPU allocation                                     F (U)
 DBCSR| Number of 3D layers                                               SINGLE (U)
 DBCSR| Use MPI memory allocation                                              F (U)
 DBCSR| Use RMA algorithm                                                      F (U)
 DBCSR| Use Communication thread                                               T (U)
 DBCSR| Communication thread load                                             57 (D)
 DBCSR| MPI: My process id                                                     8
 DBCSR| MPI: Number of processes                                              13
 DBCSR| OMP: Current number of threads                                         9
 DBCSR| OMP: Max number of threads                                             9
 DBCSR| Split modifier for TAS multiplication algorithm                  1.0E+00 (U)


  **** **** ******  **  PROGRAM STARTED AT               2026-10-03 12:07:44.618
 ***** ** ***  *** **   PROGRAM STARTED ON                              n2cn0371
 **    ****   ******    PROGRAM STARTED BY                              eprop2d1
 ***** **    ** ** **   PROGRAM PROCESS ID                               1272351
  **** **  *******  **  PROGRAM STARTED IN /scratch/hpc-prf-metdyn/eprop2d1_Jan/
                                           53_benchmark_RI_opt/418_gw100_fig5_fu
                                           ll_epsfilter_1e12_20261002/calculatio
                                           ns/rc5p0/ri5_rs02/64_AlI3

 CP2K| version string:                 CP2K version 2026.2 (Development Version)
 CP2K| source code revision number:                                   0671c5aa6c
 CP2K| cp2kflags: omp libint fftw3 libxc parallel scalapack openblas            
 CP2K| is freely available from                            https://www.cp2k.org/
 CP2K| Program compiled at                                   2026-09-20 09:25:26
 CP2K| Program compiled on                                              n2login5
 CP2K| Program compiled for                                               x86_64
 CP2K| Data directory path    /scratch/hpc-prf-metdyn/eprop2d1_Jan/53_benchmark_
 CP2K| Input file name                                                 input.inp
 
 eprop2d1@n2cn0371 has created rank and process                      0   1272351
 eprop2d1@n2cn0371 has created rank and process                      1   1272352
 eprop2d1@n2cn0371 has created rank and process                      2   1272353
 eprop2d1@n2cn0371 has created rank and process                      3   1272354
 eprop2d1@n2cn0371 has created rank and process                      4   1272355
 
 eprop2d1@n2cn0371 is running                                        5 processes

 GLOBAL| Force Environment number                                              1
 GLOBAL| Basis set file name            /scratch/hpc-prf-metdyn/eprop2d1_Jan/53_
 GLOBAL| Potential file name            /scratch/hpc-prf-metdyn/eprop2d1_Jan/53_
 GLOBAL| MM Potential file name                                     MM_POTENTIAL
 GLOBAL| Coordinate file name                                      __STD_INPUT__
 GLOBAL| Method name                                                        CP2K
 GLOBAL| Project name                                             g418_e502_m064
 GLOBAL| Run type                                                         ENERGY
 GLOBAL| FFT library                                                       FFTW3
 GLOBAL| Diagonalization library                                       ScaLAPACK
 GLOBAL| Cholesky decomposition library                                ScaLAPACK
 GLOBAL| DGEMM library                                                      BLAS
 GLOBAL| Direct generalized diagonalization requested                          F
 GLOBAL| Orthonormality check for eigenvectors                          DISABLED
 GLOBAL| Matrix multiplication library                                 ScaLAPACK
 GLOBAL| All-to-all communication in single precision                          F
 GLOBAL| Grid backend                                                       AUTO
 GLOBAL| Global print level                                                  LOW
 GLOBAL| MPI I/O enabled                                                       T
 GLOBAL| Total number of message passing processes                             5
 GLOBAL| Number of distributed systems (nodes)                                 1
 GLOBAL| Number of threads for this process                                    9
 GLOBAL| This output is from process                                           0
 GLOBAL| OpenMP stack size per thread (OMP_STACKSIZE)                       512M
 GLOBAL| CPU model name                          AMD EPYC 7763 64-Core Processor

 MEMORY| system memory details [Kb]
 MEMORY|                        rank 0           min           max       average
 MEMORY| MemTotal            263897612     263897612     263897612     263897612
 MEMORY| MemFree             249145684     249145684     249145684     249145684
 MEMORY| Buffers                 45192         45192         45192         45192
 MEMORY| Cached                7391836       7391836       7391836       7391836
 MEMORY| Slab                  1781204       1781204       1781204       1781204
 MEMORY| SReclaimable           341600        341600        341600        341600
 MEMORY| MemLikelyFree       256924312     256924312     256924312     256924312


 GENERATE|  Preliminary Number of Bonds generated:                             0
 GENERATE|  Achieved consistency in connectivity generation.

 *******************************************************************************
 *******************************************************************************
 **                                                                           **
 **     #####                         ##              ##                      **
 **    ##   ##            ##          ##              ##                      **
 **   ##     ##                       ##            ######                    **
 **   ##     ##  ##   ##  ##   #####  ##  ##   ####   ##    #####    #####    **
 **   ##     ##  ##   ##  ##  ##      ## ##   ##      ##   ##   ##  ##   ##   **
 **   ##  ## ##  ##   ##  ##  ##      ####     ###    ##   ######   ######    **
 **    ##  ###   ##   ##  ##  ##      ## ##      ##   ##   ##       ##        **
 **     #######   #####   ##   #####  ##  ##  ####    ##    #####   ##        **
 **           ##                                                    ##        **
 **                                                                           **
 **                                                ... make the atoms dance   **
 **                                                                           **
 **            Copyright (C) by CP2K developers group (2000-2026)             **
 **                      J. Chem. Phys. 152, 194103 (2020)                    **
 **                                                                           **
 *******************************************************************************


 TOTAL NUMBERS AND MAXIMUM NUMBERS

  Total number of            - Atomic kinds:                                   2
                             - Atoms:                                          4
                             - Shell sets:                                     4
                             - Shells:                                        36
                             - Primitive Cartesian functions:                 26
                             - Cartesian basis functions:                    136
                             - Spherical basis functions:                    116

  Maximum angular momentum of- Orbital basis functions:                        3
                             - Local part of the GTH pseudopotential:          0
                             - Non-local part of the GTH pseudopotential:      4


 SCF PARAMETERS         Density guess:                                   RESTART
                        --------------------------------------------------------
                        max_scf:                                             500
                        max_scf_history:                                       0
                        max_diis:                                              4
                        --------------------------------------------------------
                        eps_scf:                                        1.00E-08
                        eps_scf_history:                                0.00E+00
                        eps_diis:                                       0.00E+00
                        eps_eigval:                                     1.00E-05
                        --------------------------------------------------------
                        level_shift [a.u.]:                             0.000000
                        --------------------------------------------------------
                        Outer loop SCF in use 
                        No variables optimised in outer loop
                        eps_scf                                         1.00E-08
                        max_scf                                               20
                        No outer loop optimization
                        step_size                                       5.00E-01

 Extrapolation method: initial_guess

 Number of electrons:                                                         24
 Number of occupied orbitals:                                                 12
 Number of molecular orbitals:                                                12

 Number of orbital functions:                                                116
 Number of independent orbital functions:                                    116


 SCF WAVEFUNCTION OPTIMIZATION

  ----------------------------------- OT ---------------------------------------
  Minimizer      : DIIS                : direct inversion
                                         in the iterative subspace
                                         using   7 DIIS vectors
                                         safer DIIS on
  Preconditioner : FULL_KINETIC        : inversion of T + eS
  Lattice FFT   : OFF
  Precond_solver : DEFAULT
  stepsize       :    0.15000000                  energy_gap     :    0.20000000
  eps_taylor     :   0.10000E-15                  max_taylor     :             4
  ----------------------------------- OT ---------------------------------------

  Step     Update method      Time    Convergence         Total energy    Change
  ------------------------------------------------------------------------------
  Decoupling Energy:                                              -0.0000022143
     1 OT DIIS     0.15E+00    2.9     0.00000001       -36.5594752594 -3.66E+01
  Decoupling Energy:                                              -0.0000022143
     2 OT DIIS     0.15E+00    3.7     8.4729E-09       -36.5594752594 -7.11E-14

  *** SCF run converged in     2 steps ***


  Electronic density on regular grids:        -24.0000000000        0.0000000000
  Core density on regular grids:               23.9999999999       -0.0000000001
  Total charge density on r-space grids:       -0.0000000001
  Total charge density g-space grids:          -0.0000000001

  Overlap energy of the core charge distribution:               0.00000000129648
  Self energy of the core charge distribution:                -79.69177867612058
  Core Hamiltonian energy:                                     15.88746707501133
  Hartree energy:                                              34.76122426879652
  Exchange-correlation energy:                                 -7.51638792840138

  Total energy:                                               -36.55947525941762

  outer SCF iter =    1 RMS gradient =   0.85E-08 energy =        -36.5594752594
  outer SCF loop converged in   1 iterations or    2 steps

  
 -------------------------------------------------------------------------------
 -                                                                             -
 -                          BANDSTRUCTURE CALCULATION                          -
 -                                                                             -
 -------------------------------------------------------------------------------
  
 Number of occupied molecular orbitals (MOs) = Number of occupied bands       12
 Number of unoccupied (= virtual) MOs = Number of unoccupied bands           104
 Number of Gaussian basis functions for MOs                                  116
  
 -------------------------------------------------------------------------------
 -                                                                             -
 -                                GW CALCULATION                               -
 -                                                                             -
 -------------------------------------------------------------------------------
  
 Input: Number of time/freq. points                                           30
 Input: ω_max for fitting Σ(iω) (eV)                                        10.0
 Input: Filter threshold for sparse tensor operations                    1.0E-12
 Input: Apply Hedin shift                                                      F
 Detected: Available memory per MPI process                              37.0 GB
 
 Input: RI-RS Tikhonov regularization                                   1.00E-04
 Input: AO grid hard cutoff radius                                        8.00 Å
 Input: MPI ranks per atom in Z_lP solve                                      -1
 Input: Keep sparsity in χ/G/W panels                                          T
 Input: GW flavour                                                          G0W0
 
 Input: RI-RS grid optimization activated                                      T
 Input: RS points per AO function                                            2.0
 Input: Cutoff radius for atomic clusters                                  5.0 Å
 Input: Maximum grid optimization iterations                                 300
 
 Input: AUTO_RI basis optimization activated:                                  T
 Input: AUTO_RI number of RI functions per AO function:                      5.0
 Input: AUTO_RI frontier orbital window:                                  5.0 eV
 Input: AUTO_RI neighbor radius:                                           3.0 Å
 
 Cutoff radius for the truncated Coulomb operator in RI metric:            7.0 Å
 Regularization parameter of RI                                          0.0E+00
 Regularization parameter of minimax grids                               1.0E-06
 
 AUTO_RI| Number of automatic RI functions for χ, ε, W:                      431
 AUTO_RI| Total RI basis optimization time:                                1.1 s
  Decoupling Energy:                                              -0.0000022143
 
 SCF direct band gap (eV)                                                   3.82
 Max. SCF eigval diff. (eV)                                               124.21
 E-Range for minimax grid                                                  32.50
 Number of Padé parameters for analytic continuation:                         16
 
 RI-RS basis radii (Å):
     Kind  Elem     r_AO (Å)     r_RI (Å)
        1    Al        9.9428        7.1492
        2    I        12.4398        8.3031
 
 Started RI-RS grid optimization
 RI-RS grid initial normalized error                          1.455128218103E-01
 RI-RS grid optimization completed, execution time:                       22.2 s
 Normalized 3C error:                                                    7.3E-04
 Maximum absolute 3C error:                                              1.1E-01
 Optimized points outside molecular Voronoi cells:                            20 / 232
 Total grid points used for RI-RS:                                           232
 
 RI-RS grid row-blocks of ϕ_μ(r_l)                                             8
 RI-RS grid points per block (max)                                            32
 
 Percentage of non-zero matrix elements in ϕ_μ(r_l)                     100.00 %
 
 RI-RS memory estimate per MPI process:
   Available memory per process (system)                                47.70 GB
   Required for Z_lP (dense upper bound; actual is sparser)              0.00 GB
   Required for χ, W, Σ panels (peak per panel step)                     0.00 GB
   Required for Z_lP solve peak (D_local+ϕ, worst-case atom)             0.00 GB
   Worst-case local-grid number of grid points:                              232
   Worst-case memory D_local:                                            0.00 GB
 
 Started computing Z_lP
 Computed Z_lP (MPI rank 0) for atom          1 /  1,    Execution time    0.1 s
 Computed Z_lP (all MPI ranks) for all atoms,            Execution time    0.1 s

 Memory per MPI process after computing Z_lP:
 Available memory per MPI process                               47.6 GB
 Used memory per MPI process                                     1.1 GB
 Number of batches for χ, Σ matrices                                           1
 
 Percentage of non-zero matrix elements in Z_lP                         100.00 %
 Percentage of non-zero matrix elements in G_ll', χ_ll', W_ll'          100.00 %
 Percentage of non-zero matrix elements in χ_PQ for time point 1        100.00 %
 
 Computed χ(iτ,k=0) for time point            1 / 30,    Execution time    0.0 s
 Computed χ(iτ,k=0) for time point            2 / 30,    Execution time    0.0 s
 Computed χ(iτ,k=0) for time point            3 / 30,    Execution time    0.0 s
 Computed χ(iτ,k=0) for time point            4 / 30,    Execution time    0.0 s
 Computed χ(iτ,k=0) for time point            5 / 30,    Execution time    0.0 s
 Computed χ(iτ,k=0) for time point            6 / 30,    Execution time    0.0 s
 Computed χ(iτ,k=0) for time point            7 / 30,    Execution time    0.0 s
 Computed χ(iτ,k=0) for time point            8 / 30,    Execution time    0.0 s
 Computed χ(iτ,k=0) for time point            9 / 30,    Execution time    0.0 s
 Computed χ(iτ,k=0) for time point           10 / 30,    Execution time    0.0 s
 Computed χ(iτ,k=0) for time point           11 / 30,    Execution time    0.0 s
 Computed χ(iτ,k=0) for time point           12 / 30,    Execution time    0.0 s
 Computed χ(iτ,k=0) for time point           13 / 30,    Execution time    0.0 s
 Computed χ(iτ,k=0) for time point           14 / 30,    Execution time    0.0 s
 Computed χ(iτ,k=0) for time point           15 / 30,    Execution time    0.0 s
 Computed χ(iτ,k=0) for time point           16 / 30,    Execution time    0.0 s
 Computed χ(iτ,k=0) for time point           17 / 30,    Execution time    0.0 s
 Computed χ(iτ,k=0) for time point           18 / 30,    Execution time    0.0 s
 Computed χ(iτ,k=0) for time point           19 / 30,    Execution time    0.0 s
 Computed χ(iτ,k=0) for time point           20 / 30,    Execution time    0.0 s
 Computed χ(iτ,k=0) for time point           21 / 30,    Execution time    0.0 s
 Computed χ(iτ,k=0) for time point           22 / 30,    Execution time    0.0 s
 Computed χ(iτ,k=0) for time point           23 / 30,    Execution time    0.0 s
 Computed χ(iτ,k=0) for time point           24 / 30,    Execution time    0.0 s
 Computed χ(iτ,k=0) for time point           25 / 30,    Execution time    0.0 s
 Computed χ(iτ,k=0) for time point           26 / 30,    Execution time    0.0 s
 Computed χ(iτ,k=0) for time point           27 / 30,    Execution time    0.0 s
 Computed χ(iτ,k=0) for time point           28 / 30,    Execution time    0.0 s
 Computed χ(iτ,k=0) for time point           29 / 30,    Execution time    0.0 s
 Computed χ(iτ,k=0) for time point           30 / 30,    Execution time    0.0 s
 
 Cholesky decomposition failed, using diagonalization.
 Discarded eigenmodes:                                                         2
 Computed W(iτ),                                         Execution time    0.4 s
 
 Computed Σ^x(k=0),                                      Execution time    0.0 s
 
 Computed Σ^c(iτ) for time point              1 / 30,    Execution time    0.0 s
 Computed Σ^c(iτ) for time point              2 / 30,    Execution time    0.0 s
 Computed Σ^c(iτ) for time point              3 / 30,    Execution time    0.0 s
 Computed Σ^c(iτ) for time point              4 / 30,    Execution time    0.0 s
 Computed Σ^c(iτ) for time point              5 / 30,    Execution time    0.0 s
 Computed Σ^c(iτ) for time point              6 / 30,    Execution time    0.0 s
 Computed Σ^c(iτ) for time point              7 / 30,    Execution time    0.0 s
 Computed Σ^c(iτ) for time point              8 / 30,    Execution time    0.0 s
 Computed Σ^c(iτ) for time point              9 / 30,    Execution time    0.0 s
 Computed Σ^c(iτ) for time point             10 / 30,    Execution time    0.0 s
 Computed Σ^c(iτ) for time point             11 / 30,    Execution time    0.0 s
 Computed Σ^c(iτ) for time point             12 / 30,    Execution time    0.0 s
 Computed Σ^c(iτ) for time point             13 / 30,    Execution time    0.0 s
 Computed Σ^c(iτ) for time point             14 / 30,    Execution time    0.0 s
 Computed Σ^c(iτ) for time point             15 / 30,    Execution time    0.0 s
 Computed Σ^c(iτ) for time point             16 / 30,    Execution time    0.0 s
 Computed Σ^c(iτ) for time point             17 / 30,    Execution time    0.0 s
 Computed Σ^c(iτ) for time point             18 / 30,    Execution time    0.0 s
 Computed Σ^c(iτ) for time point             19 / 30,    Execution time    0.0 s
 Computed Σ^c(iτ) for time point             20 / 30,    Execution time    0.0 s
 Computed Σ^c(iτ) for time point             21 / 30,    Execution time    0.0 s
 Computed Σ^c(iτ) for time point             22 / 30,    Execution time    0.0 s
 Computed Σ^c(iτ) for time point             23 / 30,    Execution time    0.0 s
 Computed Σ^c(iτ) for time point             24 / 30,    Execution time    0.0 s
 Computed Σ^c(iτ) for time point             25 / 30,    Execution time    0.0 s
 Computed Σ^c(iτ) for time point             26 / 30,    Execution time    0.0 s
 Computed Σ^c(iτ) for time point             27 / 30,    Execution time    0.0 s
 Computed Σ^c(iτ) for time point             28 / 30,    Execution time    0.0 s
 Computed Σ^c(iτ) for time point             29 / 30,    Execution time    0.0 s
 Computed Σ^c(iτ) for time point             30 / 30,    Execution time    0.0 s

 *** WARNING in post_scf_bandstructure_utils.F:3161 :: G0W0 reorders the   ***
 *** empty levels: the SCF conduction band minimum (SCF LUMO) is level 13, ***
 *** whereas the G0W0 conduction band minimum (G0W0 LUMO) is level 14. The ***
 *** SCF and G0W0 band edges printed below therefore belong to different   ***
 *** orbitals; see the eigenvalues in the file bandstructure_SCF_and_G0W0. ***

 
 SCF valence band maximum (eV):                                           -6.584
 SCF conduction band minimum (eV):                                        -2.762
 SCF indirect band gap (eV):                                               3.822
 SCF direct band gap (eV):                                                 3.822
 
 G0W0 valence band maximum (eV):                                          -8.699
 G0W0 conduction band minimum (eV):                                       -0.375
 G0W0 indirect band gap (eV):                                              8.323
 G0W0 direct band gap (eV):                                                8.323
 
 Hartree-Fock with SCF orbitals valence band maximum (eV):                -9.740
 Hartree-Fock with SCF orbitals conduction band minimum (eV)               1.393
 Hartree-Fock with SCF orbitals indirect band gap (eV):                   11.133
 Hartree-Fock with SCF orbitals direct band gap (eV):                     11.133

 ENERGY| Total FORCE_EVAL ( QS ) energy [hartree]            -36.559475259417624

 -------------------------------------------------------------------------------
 -                                                                             -
 -                                DBCSR STATISTICS                             -
 -                                                                             -
 -------------------------------------------------------------------------------
 COUNTER                                    TOTAL       BLAS       SMM       ACC
 flops    12 x    12 x    12                 6912     100.0%      0.0%      0.0%     
 flops    12 x    12 x    29               233856     100.0%      0.0%      0.0%     
 flops    29 x    12 x    12               300672     100.0%      0.0%      0.0%     
 flops    29 x    29 x    12               605520     100.0%      0.0%      0.0%     
 flops    29 x    12 x    29              3552384     100.0%      0.0%      0.0%     
 flops    90 x    90 x    26             32011200     100.0%      0.0%      0.0%     
 flops    26 x    90 x    90             35380800     100.0%      0.0%      0.0%     
 flops   107 x    90 x    26             38057760     100.0%      0.0%      0.0%     
 flops    90 x   107 x    26             38057760     100.0%      0.0%      0.0%     
 flops    26 x    90 x    26             38815920     100.0%      0.0%      0.0%     
 flops    90 x    90 x    32             39398400     100.0%      0.0%      0.0%     
 flops    26 x    26 x    90             40884480     100.0%      0.0%      0.0%     
 flops    26 x   107 x    90             42063840     100.0%      0.0%      0.0%     
 flops    26 x    90 x   107             42063840     100.0%      0.0%      0.0%     
 flops    32 x    90 x    90             43545600     100.0%      0.0%      0.0%     
 flops   107 x   107 x    26             45246448     100.0%      0.0%      0.0%     
 flops    26 x   107 x    26             46147816     100.0%      0.0%      0.0%     
 flops   107 x    90 x    32             46840320     100.0%      0.0%      0.0%     
 flops    90 x   107 x    32             46840320     100.0%      0.0%      0.0%     
 flops    26 x    90 x    32             47773440     100.0%      0.0%      0.0%     
 flops    32 x    90 x    26             47923200     100.0%      0.0%      0.0%     
 flops    26 x   107 x   107             50009232     100.0%      0.0%      0.0%     
 flops    32 x    26 x    90             50319360     100.0%      0.0%      0.0%     
 flops    26 x    32 x    90             50319360     100.0%      0.0%      0.0%     
 flops    32 x   107 x    90             51770880     100.0%      0.0%      0.0%     
 flops    32 x    90 x   107             51770880     100.0%      0.0%      0.0%     
 flops   107 x   107 x    32             55687936     100.0%      0.0%      0.0%     
 flops    26 x   107 x    32             56797312     100.0%      0.0%      0.0%     
 flops    32 x   107 x    26             56975360     100.0%      0.0%      0.0%     
 flops    32 x    90 x    32             58798080     100.0%      0.0%      0.0%     
 flops    32 x   107 x   107             61549824     100.0%      0.0%      0.0%     
 flops    32 x    32 x    90             61931520     100.0%      0.0%      0.0%     
 flops    32 x   107 x    32             69904384     100.0%      0.0%      0.0%     
 flops    90 x   117 x    26             83229120     100.0%      0.0%      0.0%     
 flops   117 x    90 x    26             83229120     100.0%      0.0%      0.0%     
 flops    26 x    29 x    26             88688496     100.0%      0.0%      0.0%     
 flops    26 x   117 x    90             91990080     100.0%      0.0%      0.0%     
 flops    26 x    90 x   117             91990080     100.0%      0.0%      0.0%     
 flops    29 x    29 x    26             97959680     100.0%      0.0%      0.0%     
 flops   107 x   117 x    26             98950176     100.0%      0.0%      0.0%     
 flops   117 x   107 x    26             98950176     100.0%      0.0%      0.0%     
 flops    26 x   117 x    26            100921392     100.0%      0.0%      0.0%     
 flops    90 x   117 x    32            102435840     100.0%      0.0%      0.0%     
 flops   117 x    90 x    32            102435840     100.0%      0.0%      0.0%     
 flops    26 x    26 x   117            106299648     100.0%      0.0%      0.0%     
 flops    26 x   117 x   107            109365984     100.0%      0.0%      0.0%     
 flops    26 x   107 x   117            109365984     100.0%      0.0%      0.0%     
 flops    32 x    29 x    26            109396352     100.0%      0.0%      0.0%     
 flops    26 x    29 x    32            109396352     100.0%      0.0%      0.0%     
 flops    32 x   117 x    90            113218560     100.0%      0.0%      0.0%     
 flops    32 x    90 x   117            113218560     100.0%      0.0%      0.0%     
 flops    29 x    29 x    32            120565760     100.0%      0.0%      0.0%     
 flops   107 x   117 x    32            121784832     100.0%      0.0%      0.0%     
 flops   117 x   107 x    32            121784832     100.0%      0.0%      0.0%     
 flops    26 x   117 x    32            124210944     100.0%      0.0%      0.0%     
 flops    32 x   117 x    26            124600320     100.0%      0.0%      0.0%     
 flops    32 x    26 x   117            130830336     100.0%      0.0%      0.0%     
 flops    26 x    32 x   117            130830336     100.0%      0.0%      0.0%     
 flops    32 x   117 x   107            134604288     100.0%      0.0%      0.0%     
 flops    32 x   107 x   117            134604288     100.0%      0.0%      0.0%     
 flops    32 x    29 x    32            136304640     100.0%      0.0%      0.0%     
 flops    32 x   117 x    32            153114624     100.0%      0.0%      0.0%     
 flops    32 x    32 x   117            161021952     100.0%      0.0%      0.0%     
 flops   117 x   117 x    26            216395712     100.0%      0.0%      0.0%     
 flops    26 x    26 x    29            223328768     100.0%      0.0%      0.0%     
 flops    26 x   117 x   117            247716144     100.0%      0.0%      0.0%     
 flops    26 x    29 x    29            248747616     100.0%      0.0%      0.0%     
 flops   117 x   117 x    32            266333184     100.0%      0.0%      0.0%     
 flops    32 x    26 x    29            274866176     100.0%      0.0%      0.0%     
 flops    26 x    32 x    29            274866176     100.0%      0.0%      0.0%     
 flops    32 x   117 x   117            304881408     100.0%      0.0%      0.0%     
 flops    32 x    29 x    29            306150912     100.0%      0.0%      0.0%     
 flops    32 x    32 x    29            338296832     100.0%      0.0%      0.0%     
 flops inhomo. stacks                   314496000     100.0%      0.0%      0.0%
 flops total                         7.772962E+09     100.0%      0.0%      0.0%
 flops max/rank                      2.050160E+09     100.0%      0.0%      0.0%
 matmuls inhomo. stacks                      1344     100.0%      0.0%      0.0%
 matmuls total                              63632     100.0%      0.0%      0.0%
 number of processed stacks                 63128     100.0%      0.0%      0.0%
 average stack size                                     1.0       0.0       0.0
 marketing flops                    11.502060E+09
 -------------------------------------------------------------------------------
 # multiplications                            519
 max memory usage/rank              23.426904E+09
 # max total images/rank                        5
 # max 3D layers                                1
 # MPI messages exchanged                   10380
 MPI messages size (bytes):
  total size                       616.750592E+06
  min size                           0.000000E+00
  max size                         217.152000E+03
  average size                      59.417207E+03
 MPI breakdown and total messages size (bytes):
             size <=      128                2684                        0
       128 < size <=     8192                 120                   321024
      8192 < size <=    32768                 712                 18404096
     32768 < size <=   131072                5672                359644544
    131072 < size <=  4194304                1192                238380928
   4194304 < size <= 16777216                   0                        0
  16777216 < size                               0                        0
 -------------------------------------------------------------------------------

 *** WARNING in dbcsr_mm.F:301 :: Using a non-square number of MPI ranks ***
 *** might lead to poor performance. Used ranks: 5 Suggested: 4 9        ***

 -------------------------------------------------------------------------------
 -                                                                             -
 -                      DBCSR MESSAGE PASSING PERFORMANCE                      -
 -                                                                             -
 -------------------------------------------------------------------------------
 ROUTINE             CALLS      AVE VOLUME [Bytes]
 MP_Bcast               74                     12.
 MP_Allreduce         2333                     13.
 MP_Alltoall          3427                  43657.
 MP_ISend             7956                  21299.
 MP_IRecv             7410                  18610.
 -------------------------------------------------------------------------------

 -------------------------------------------------------------------------------
 -                                                                             -
 -                                GRID STATISTICS                              -
 -                                                                             -
 -------------------------------------------------------------------------------
 LP    KERNEL             BACKEND                              COUNT     PERCENT
 6     collocate ortho    CPU                                   1272      49.61%
 6     integrate ortho    CPU                                   1272      49.61%
 0     collocate general  CPU                                     20       0.78%
 -------------------------------------------------------------------------------

 -------------------------------------------------------------------------------
 -                                                                             -
 -                          OFFLOAD MEMPOOL STATISTICS                         -
 -                                                                             -
 -------------------------------------------------------------------------------
 Memory consumption                Number of allocations  Used [MiB]  Size [MiB]
 Host                                                  6         164    22281350
 -------------------------------------------------------------------------------

 MEMORY| Estimated peak process memory [MiB]                                3896

 -------------------------------------------------------------------------------
 -                                                                             -
 -                         MESSAGE PASSING PERFORMANCE                         -
 -                                                                             -
 -------------------------------------------------------------------------------

 ROUTINE             CALLS      AVE VOLUME [Bytes]
 MP_Group                5
 MP_Bcast              877                 325786.
 MP_Allreduce         1862                   2772.
 MP_Sync                11
 MP_Alltoall            63              188682970.
 MP_SendRecv            36                3909888.
 MP_ISendRecv           36                3909888.
 MP_Wait                99
 MP_comm_split          11
 MP_ISend               49               16149943.
 MP_IRecv               49               16149943.
 -------------------------------------------------------------------------------


 -------------------------------------------------------------------------------
 -                                                                             -
 -                           R E F E R E N C E S                               -
 -                                                                             -
 -------------------------------------------------------------------------------
 
 CP2K version 2026.2 (Development Version), the CP2K developers group (2026).
 CP2K is freely available from https://www.cp2k.org/ .
 
 M. Iannuzzi, J. Wilhelm, F. Stein, A. Bussy, H. Elgabarty, D. Golze, A. Hehn, 
 M. Graml, S. Marek, B. Sertcan Gökmen, C. Schran, H. Forbert, R. Z. 
 Khaliullin, A. Kozhevnikov, M. Taillefumier, R. Meli, V. V. Rybkin, M. Brehm, 
 R. Schade, O. Schütt, J. V. Pototschnig, H. Mirhosseini, A. Knüpfer, D. Marx, 
 M. Krack, J. Hutter, T. D. Kühne.
 J. Phys. Chem. B 130, 1237-1310 (2026).
 The CP2K Program Package Made Simple.
 https://doi.org/10.1021/acs.jpcb.5c05851

 M. Graml, K. Zollner, D. Hernangómez-Pérez, P. E. Faria Junior, J. Wilhelm.
 J. Chem. Theory Comput. 20, 2202-2208 (2024).
 Low-scaling GW algorithm applied to twisted transition-metal dichalcogenide 
 heterobilayers.
 https://doi.org/10.1021/acs.jctc.3c01230

 T. D. Kühne, M. Iannuzzi, M. Del Ben, V. V. Rybkin, P. Seewald, F. Stein, T. 
 Laino, R. Z. Khaliullin, O. Schütt, F. Schiffmann, D. Golze, J. Wilhelm, S. 
 Chulkov, M. H. Bani-Hashemian, V. Weber, U. Borstnik, M. Taillefumier, A. S. 
 Jakobovits, A. Lazzaro, H. Pabst, T. Müller, R. Schade, M. Guidon, S. 
 Andermatt, N. Holmberg, G. K. Schenter, A. Hehn, A. Bussy, F. Belleflamme, G. 
 Tabacchi, A. Glöß, M. Lass, I. Bethune, C. J. Mundy, C. Plessl, M. Watkins, 
 J. VandeVondele, M. Krack, J. Hutter.
 J. Chem. Phys. 152, 194103 (2020).
 CP2K: An electronic structure and molecular dynamics software package - 
 Quickstep: Efficient and accurate electronic structure calculations.
 https://doi.org/10.1063/5.0007045

 O. Schuett, P. Messmer, J. Hutter, J. VandeVondele.
 Electronic Structure Calculations on Graphics Processing Units, 173-190 (2016).
 GPU-Accelerated Sparse Matrix-Matrix Multiplication for Linear Scaling Density 
 Functional Theory.
 https://doi.org/10.1002/9781118670712.ch8

 U. Borstnik, J. VandeVondele, V. Weber, J. Hutter.
 Parallel Comput. 40, 47-58 (2014).
 Sparse matrix multiplication: The distributed block-compressed sparse row 
 library.
 https://doi.org/10.1016/j.parco.2014.03.012

 J. VandeVondele, J. Hutter.
 J. Chem. Phys. 127, 114105 (2007).
 Gaussian basis sets for accurate calculations on molecular systems in gas and 
 condensed phases.
 https://doi.org/10.1063/1.2770708

 J. VandeVondele, M. Krack, F. Mohamed, M. Parrinello, T. Chassaing, J. Hutter.
 Comput. Phys. Commun. 167, 103-128 (2005).
 QUICKSTEP: Fast and accurate density functional calculations using a mixed 
 Gaussian and plane waves approach.
 https://doi.org/10.1016/j.cpc.2004.12.014

 M. Krack.
 Theor. Chem. Acc. 114, 145-152 (2005).
 Pseudopotentials for H to Kr optimized for gradient-corrected 
 exchange-correlation functionals.
 https://doi.org/10.1007/s00214-005-0655-y

 M. Frigo, S. G. Johnson.
 Proc. IEEE 93, 216-231 (2005).
 The design and implementation of FFTW3.
 https://doi.org/10.1109/JPROC.2004.840301

 J. VandeVondele, J. Hutter.
 J. Chem. Phys. 118, 4365-4369 (2003).
 An efficient orbital transformation method for electronic structure 
 calculations.
 https://doi.org/10.1063/1.1543154

 C. Hartwigsen, S. Goedecker, J. Hutter.
 Phys. Rev. B 58, 3641-3662 (1998).
 Relativistic separable dual-space Gaussian pseudopotentials from H to Rn.
 https://doi.org/10.1103/PhysRevB.58.3641

 G. Lippert, J. Hutter, M. Parrinello.
 Mol. Phys. 92, 477-487 (1997).
 A hybrid Gaussian and plane wave density functional scheme.
 https://doi.org/10.1080/002689797170220

 S. Goedecker, M. Teter, J. Hutter.
 Phys. Rev. B 54, 1703-1710 (1996).
 Separable dual-space Gaussian pseudopotentials.
 https://doi.org/10.1103/PhysRevB.54.1703

 J. P. Perdew, K. Burke, M. Ernzerhof.
 Phys. Rev. Lett. 77, 3865-3868 (1996).
 Generalized gradient approximation made simple.
 https://doi.org/10.1103/PhysRevLett.77.3865

 P. E. Blöchl.
 J. Chem. Phys. 103, 7422-7428 (1995).
 Electrostatic decoupling of periodic images of plane‐wave‐expanded 
 densities and derived atomic point charges.
 https://doi.org/10.1063/1.470314

 R. H. Byrd, P. H. Lu, J. Nocedal, C. Y. Zhu.
 SIAM J. Sci. Comput. 16, 1190-1208 (1995).
 A Limited Memory Algorithm for Bound Constrained Optimization.
 https://doi.org/10.1137/0916069


 -------------------------------------------------------------------------------
 -                                                                             -
 -                                T I M I N G                                  -
 -                                                                             -
 -------------------------------------------------------------------------------
 SUBROUTINE                       CALLS  ASD         SELF TIME        TOTAL TIME MAXRANK
                                MAXIMUM       AVERAGE  MAXIMUM  AVERAGE  MAXIMUM
 CP2K                                 1  1.0    0.006    0.006   37.846   37.846       4
 qs_energies                          1  2.0    0.000    0.000   36.182   36.182       1
 qs_energies_properties               1  3.0    0.000    0.000   27.356   27.356       3
 post_scf_bandstructure               1  4.0    0.000    0.000   27.356   27.356       1
 run_gw                               1  5.0    0.000    0.000   27.305   27.341       4
 gw_calc_ri_rs_non_periodic           1  6.0    0.000    0.000   24.938   25.118       4
 optimize_ri_rs_grid                  1  7.0    0.000    0.000   23.924   24.068       0
 mp_sum_d                           742  4.8    5.318   23.895    5.318   23.895       4
 rirs_grid_LBFGS                      1  8.0    0.439    0.548   22.557   23.809       3
 evaluate_rirs_grid_cluster         301  9.0    1.332    1.804   16.851   21.661       3
 scf_env_do_scf                       1  3.0    0.000    0.000    7.478    7.478       0
 qs_ks_build_kohn_sham_matrix         3  7.3    0.005    0.009    6.518    6.518       4
 rirs_cluster_gradient_coordina     301 10.0    4.845    6.101    4.845    6.101       0
 fft_wrap_pw1pw2                     45 10.1    0.002    0.002    5.893    6.091       4
 fft_wrap_pw1pw2_300                 27 11.4    0.317    0.417    5.623    5.836       4
 qs_ks_update_qs_env                  3  5.0    0.000    0.000    5.660    5.660       2
 rebuild_ks_matrix                    2  6.0    0.000    0.000    5.660    5.660       0
 rirs_cluster_gradient_products     301 10.0    3.750    4.714    3.750    4.714       1
 scf_env_do_scf_inner_loop            2  4.0    0.000    0.001    4.631    4.631       0
 fft3d_ps                            45 12.1    2.503    2.554    4.334    4.570       3
 qs_vxc_create                        3  8.3    0.000    0.000    3.871    3.894       4
 xc_vxc_pw_create                     2  9.0    0.073    0.085    3.871    3.894       2
 rirs_cluster_AO_products           301 10.0    2.411    3.245    2.411    3.245       2
 rirs_cluster_residual              301 10.0    2.274    3.185    2.274    3.185       2
 xc_pw_derive                        12 11.0    0.000    0.000    2.911    3.085       3
 init_scf_loop                        1  4.0    0.000    0.000    2.847    2.847       0
 qs_rho_update_rho_low                3  5.0    0.000    0.000    2.770    2.770       3
 calculate_rho_elec                   3  6.0    0.073    0.074    2.770    2.770       4
 create_and_init_bs_env_for_gw        1  6.0    0.005    0.005    2.367    2.479       4
 xc_pw_divergence                     2 10.0    0.000    0.000    1.930    2.086       2
 xc_rho_set_and_dset_create           2 10.0    0.058    0.081    1.827    1.994       2
 density_rs2pw                        3  7.0    0.000    0.000    1.728    1.754       3
 rirs_cluster_d_lP                  301 10.0    1.250    1.630    1.250    1.630       2
 rirs_grid_build_clusters             1  8.0    0.764    0.965    1.252    1.580       0
 rirs_cluster_D_ll                  301 10.0    0.988    1.283    0.988    1.283       2
 mp_alltoall_z22v                    45 14.1    0.917    1.273    0.917    1.273       4
 yz_to_x                             22 12.5    0.359    0.408    0.920    1.198       1
 qs_init_subsys                       1  2.0    0.001    0.001    1.161    1.162       0
 qs_env_setup                         1  3.0    0.000    0.000    1.159    1.160       1
 qs_env_rebuild_pw_env                2  3.5    0.000    0.000    1.159    1.160       1
 pw_env_rebuild                       1  5.0    0.000    0.000    1.159    1.160       1
 pw_grid_setup                        5  5.2    0.000    0.000    1.153    1.154       0
 pw_grid_setup_internal               5  6.2    0.020    0.020    1.153    1.154       2
 sum_up_and_integrate                 3  8.3    0.000    0.000    1.094    1.100       4
 generate_auto_ri_basis               1  7.0    0.000    0.000    1.094    1.094       3
 integrate_v_rspace                   3  9.3    0.000    0.000    1.073    1.083       3
 potential_pw2rs                      3 10.3    0.003    0.005    1.050    1.058       4
 pw_grid_sort                         5  7.2    0.675    0.688    1.002    1.018       4
 init_scf_run                         1  3.0    0.000    0.000    1.005    1.005       0
 scf_env_initial_rho_setup            1  4.0    0.000    0.000    1.005    1.005       0
 grid_collocate_task_list             3  7.0    0.953    0.997    0.953    0.997       1
 x_to_yz                             23 13.8    0.552    0.592    0.908    0.949       2
 qs_ks_ddapc                          3  8.3    0.000    0.000    0.823    0.866       3
 compute_V_xc                         1  7.0    0.000    0.000    0.859    0.859       0
 abc_contract_xsmm                 1772  9.2    0.566    0.728    0.566    0.728       0
 pw_poisson_solve                     3  8.3    0.000    0.000    0.634    0.651       4
 mp_sum_dm                           10 10.1    0.240    0.637    0.240    0.637       4
 pw_derive                           21 11.3    0.485    0.525    0.485    0.525       2
 compute_AB_optimized_RI_basis        1  8.0    0.000    0.000    0.508    0.508       0
 compute_AB_optimized_RI_basis_       1  9.0    0.000    0.000    0.302    0.507       0
 pw_scatter_p                        23 12.8    0.470    0.500    0.470    0.500       2
 pw_gather_p                         22 11.5    0.458    0.492    0.458    0.492       0
 setup_time_and_frequency_minim       1  7.0    0.000    0.000    0.377    0.488       0
 build_minimax_time_frequency_g       1  8.0    0.000    0.000    0.377    0.488       3
 fit_l_sq_weights                     3  9.0    0.377    0.488    0.377    0.488       4
 compute_B_PQ_AB                      1 10.0    0.060    0.101    0.289    0.484       0
 mp_bcast_dm                         11  9.7    0.338    0.477    0.338    0.477       1
 create_qs_kind_set                   1  2.0    0.000    0.000    0.473    0.473       1
 read_qs_kind                         2  3.0    0.226    0.231    0.473    0.473       0
 compute_AA_optimized_RI_basis        1  8.0    0.000    0.000    0.467    0.467       0
 pw_copy                             44 10.5    0.440    0.454    0.440    0.454       3
 compute_W                            1  7.0    0.000    0.000    0.432    0.432       0
 transfer_rs2pw                      13  7.8    0.000    0.000    0.353    0.406       2
 pw_poisson_set                       4  8.5    0.000    0.000    0.357    0.374       4
 xc_functional_eval                   2 11.0    0.000    0.000    0.214    0.357       3
 pbe_lda_eval                         2 12.0    0.213    0.357    0.213    0.357       2
 qs_energies_init_hamiltonians        1  3.0    0.000    0.000    0.342    0.342       2
 qs_env_update_s_mstruct              1  4.0    0.000    0.000    0.338    0.339       0
 sort_shells                          5  8.2    0.327    0.331    0.327    0.331       0
 initialize_auto_ri_integrals         2  9.0    0.065    0.323    0.323    0.323       0
 transfer_rs2pw_300                   4  8.5    0.123    0.131    0.276    0.320       2
 transfer_pw2rs                      12 11.3    0.000    0.000    0.319    0.320       2
 compute_Sigma_c_and_QP_energie       1  7.0    0.000    0.000    0.278    0.314       1
 contract_B_PQ                        6 11.6    0.175    0.289    0.190    0.313       1
 calculate_rho_core                   1  5.0    0.026    0.028    0.305    0.312       2
 compute_fm_W_freq                   30  8.0    0.000    0.000    0.291    0.293       4
 mp_waitany                          49 11.1    0.231    0.289    0.231    0.289       4
 fft_wrap_pw1pw2_100                  6 10.7    0.016    0.024    0.225    0.278       4
 cp_fm_gemm                         434 10.5    0.262    0.267    0.262    0.267       4
 parallel_gemm_fm_gemm              431  9.6    0.000    0.000    0.262    0.267       3
 pw_integral_ab_c1d_c1d_gs            6  9.8    0.248    0.255    0.262    0.265       2
 initialize_ri_rs_grid                1  8.0    0.035    0.061    0.115    0.259       0
 compute_Sigma_c                      1  8.0    0.002    0.003    0.253    0.253       0
 parser_read_line                135417  4.0    0.022    0.023    0.246    0.248       0
 transfer_pw2rs_300                   3 12.3    0.102    0.110    0.240    0.247       0
 cp_ddapc_apply_CD                    3  9.3    0.000    0.000    0.186    0.227       0
 parser_read_line_low               138  5.0    0.035    0.148    0.224    0.226       0
 broadcast_input_information        138  6.0    0.041    0.061    0.189    0.220       2
 pw_axpy                             35  7.3    0.195    0.209    0.195    0.209       2
 contract_grid_panels_sigma_c        30  9.0    0.186    0.191    0.201    0.202       4
 pw_copy_to_array                    22 11.5    0.181    0.188    0.181    0.188       2
 get_mat_chi_Gamma_tau                1  7.0    0.000    0.001    0.159    0.159       0
 compute_B_PQ_exchange                3 10.6    0.000    0.000    0.095    0.157       0
 compute_B_PQ_transition              3 10.6    0.000    0.000    0.095    0.156       0
 pw_copy_from_array                  23 12.8    0.113    0.143    0.113    0.143       3
 contract_grid_panels                31  8.0    0.126    0.133    0.137    0.142       4
 compute_Z_lP                         1  7.0    0.000    0.000    0.134    0.134       3
 compute_Z_lP_auto_ri                 1  8.0    0.000    0.000    0.134    0.134       1
 compute_d_lp_auto_ri_batch           1  9.0    0.000    0.000    0.098    0.131       0
 compute_d_lp_auto_ri_atom            1 10.0    0.025    0.032    0.098    0.131       3
 mp_bcast_am_src                    138  7.0    0.078    0.121    0.078    0.121       4
 compute_M_pq_inv_and_V_pq            1  8.0    0.000    0.000    0.119    0.119       0
 mp_bcast_i_src                     557  7.0    0.069    0.113    0.069    0.113       1
 copy_dbcsr_to_fm                   104  9.5    0.067    0.108    0.070    0.110       2
 pw_grid_assign                       5  7.2    0.093    0.097    0.095    0.099       2
 get_ddapc                            3 10.3    0.000    0.000    0.056    0.096       3
 mp_waitall_1                        50 12.7    0.064    0.088    0.064    0.088       4
 compute_contracted_RI_matrix         2  9.0    0.000    0.001    0.086    0.086       4
 compute_optimized_RI_matrix_bl       4 10.0    0.013    0.019    0.057    0.083       1
 cp_fm_cholesky_invert               31  9.0    0.077    0.080    0.077    0.080       0
 transfer_pw2rs_100                   3 12.3    0.036    0.039    0.064    0.077       2
 pw_zero                             30  5.6    0.069    0.075    0.069    0.075       2
 compute_int_3c                       2  9.0    0.061    0.062    0.073    0.074       0
 compute_M_PQ_AB                     36 11.0    0.000    0.000    0.048    0.071       1
 compute_M_PQ                        36 12.0    0.000    0.000    0.048    0.071       1
 int_operators_r12_ab_os             36 13.0    0.000    0.000    0.048    0.071       1
 int_operator_ab_os_low              36 14.0    0.018    0.026    0.048    0.071       1
 transfer_rs2pw_100                   3  9.0    0.032    0.035    0.061    0.068       0
 compute_B_PQ_AA                      4  9.0    0.000    0.000    0.052    0.066       0
 cp_fm_syevd                          6  9.2    0.000    0.000    0.055    0.055       0
 cp_fm_redistribute_end               6 10.2    0.032    0.054    0.033    0.054       4
 build_G_ao                         121  8.5    0.004    0.004    0.051    0.054       2
 mp_sum_root_rm                       4 10.0    0.042    0.053    0.042    0.053       3
 cp_fm_syevd_base                     6 10.2    0.021    0.053    0.021    0.053       1
 eval_bandstructure_properties        1  5.0    0.000    0.000    0.042    0.051       1
 cp_cfm_geeig                         1  6.0    0.000    0.000    0.041    0.050       3
 build_3c_integral_block_auto_r      24 11.0    0.036    0.050    0.036    0.050       3
 compute_fm_chi_Gamma_freq           30  8.0    0.020    0.028    0.046    0.049       4
 mp_sendrecv_dv                      36 10.0    0.039    0.049    0.039    0.049       4
 build_3c_integral_block_auto_r      24 11.0    0.000    0.000    0.037    0.048       3
 cp_cfm_cholesky_decompose            2  7.0    0.037    0.046    0.037    0.046       4
 pw_multiply_with                     3  9.3    0.042    0.044    0.042    0.044       2
 mp_sum_iv                          144 10.0    0.030    0.044    0.030    0.044       4
 pw_grid_remap                        4  8.0    0.013    0.013    0.031    0.043       3
 delete_unnecessary_files             1  8.0    0.000    0.000    0.009    0.043       0
 rs_grid_zero                         4 11.5    0.042    0.043    0.042    0.043       3
 safe_delete                         60  9.0    0.008    0.042    0.008    0.042       0
 fft_wrap_pw1pw2_40                   6 10.7    0.003    0.004    0.036    0.040       0
 -------------------------------------------------------------------------------

 The number of warnings for this run is : 1
 
 -------------------------------------------------------------------------------
  **** **** ******  **  PROGRAM ENDED AT                 2026-10-03 12:08:23.990
 ***** ** ***  *** **   PROGRAM RAN ON                                  n2cn0371
 **    ****   ******    PROGRAM RAN BY                                  eprop2d1
 ***** **    ** ** **   PROGRAM PROCESS ID                               1272351
  **** **  *******  **  PROGRAM STOPPED IN /scratch/hpc-prf-metdyn/eprop2d1_Jan/
                                           53_benchmark_RI_opt/418_gw100_fig5_fu
                                           ll_epsfilter_1e12_20261002/calculatio
                                           ns/rc5p0/ri5_rs02/64_AlI3
