 DBCSR| CPU Multiplication driver                                           XSMM (U)
 DBCSR| Multrec recursion limit                                              512 (U)
 DBCSR| Multiplication stack size                                           1000 (D)
 DBCSR| Maximum elements for images                                    UNLIMITED (U)
 DBCSR| Multiplicative factor virtual images                                   1 (U)
 DBCSR| Use multiplication densification                                       T (D)
 DBCSR| Multiplication size stacks                                             3 (U)
 DBCSR| Use memory pool for CPU allocation                                     F (U)
 DBCSR| Number of 3D layers                                               SINGLE (U)
 DBCSR| Use MPI memory allocation                                              F (U)
 DBCSR| Use RMA algorithm                                                      F (U)
 DBCSR| Use Communication thread                                               T (U)
 DBCSR| Communication thread load                                             68 (D)
 DBCSR| MPI: My process id                                                     0
 DBCSR| MPI: Number of processes                                              37
 DBCSR| OMP: Current number of threads                                         6
 DBCSR| OMP: Max number of threads                                             6
 DBCSR| Split modifier for TAS multiplication algorithm                  1.0E+00 (U)


  **** **** ******  **  PROGRAM STARTED AT               2026-10-03 04:33:36.926
 ***** ** ***  *** **   PROGRAM STARTED ON                              n2cn0749
 **    ****   ******    PROGRAM STARTED BY                              eprop2d1
 ***** **    ** ** **   PROGRAM PROCESS ID                               3957664
  **** **  *******  **  PROGRAM STARTED IN /scratch/hpc-prf-metdyn/eprop2d1_Jan/
                                           53_benchmark_RI_opt/418_gw100_fig5_fu
                                           ll_epsfilter_1e12_20261002/calculatio
                                           ns/rc0p5/ri4_rs02/87_C8H10

 CP2K| version string:                 CP2K version 2026.2 (Development Version)
 CP2K| source code revision number:                                   0671c5aa6c
 CP2K| cp2kflags: omp libint fftw3 libxc parallel scalapack openblas            
 CP2K| is freely available from                            https://www.cp2k.org/
 CP2K| Program compiled at                                   2026-09-20 09:25:26
 CP2K| Program compiled on                                              n2login5
 CP2K| Program compiled for                                               x86_64
 CP2K| Data directory path    /scratch/hpc-prf-metdyn/eprop2d1_Jan/53_benchmark_
 CP2K| Input file name                                                 input.inp
 
 eprop2d1@n2cn0749 has created rank and process                      0   3957664
 eprop2d1@n2cn0749 has created rank and process                      1   3957665
 eprop2d1@n2cn0749 has created rank and process                      2   3957666
 eprop2d1@n2cn0749 has created rank and process                      3   3957667
 eprop2d1@n2cn0749 has created rank and process                      4   3957668
 eprop2d1@n2cn0749 has created rank and process                      5   3957669
 eprop2d1@n2cn0749 has created rank and process                      6   3957670
 eprop2d1@n2cn0749 has created rank and process                      7   3957671
 eprop2d1@n2cn0749 has created rank and process                      8   3957672
 eprop2d1@n2cn0749 has created rank and process                      9   3957673
 eprop2d1@n2cn0749 has created rank and process                     10   3957674
 eprop2d1@n2cn0749 has created rank and process                     11   3957675
 eprop2d1@n2cn0749 has created rank and process                     12   3957676
 eprop2d1@n2cn0749 has created rank and process                     13   3957677
 eprop2d1@n2cn0749 has created rank and process                     14   3957678
 eprop2d1@n2cn0749 has created rank and process                     15   3957679
 eprop2d1@n2cn0749 has created rank and process                     16   3957680
 eprop2d1@n2cn0749 has created rank and process                     17   3957681
 
 eprop2d1@n2cn0749 is running                                       18 processes

 GLOBAL| Force Environment number                                              1
 GLOBAL| Basis set file name            /scratch/hpc-prf-metdyn/eprop2d1_Jan/53_
 GLOBAL| Potential file name            /scratch/hpc-prf-metdyn/eprop2d1_Jan/53_
 GLOBAL| MM Potential file name                                     MM_POTENTIAL
 GLOBAL| Coordinate file name                                      __STD_INPUT__
 GLOBAL| Method name                                                        CP2K
 GLOBAL| Project name                                             g418_a402_m087
 GLOBAL| Run type                                                         ENERGY
 GLOBAL| FFT library                                                       FFTW3
 GLOBAL| Diagonalization library                                       ScaLAPACK
 GLOBAL| Cholesky decomposition library                                ScaLAPACK
 GLOBAL| DGEMM library                                                      BLAS
 GLOBAL| Direct generalized diagonalization requested                          F
 GLOBAL| Orthonormality check for eigenvectors                          DISABLED
 GLOBAL| Matrix multiplication library                                 ScaLAPACK
 GLOBAL| All-to-all communication in single precision                          F
 GLOBAL| Grid backend                                                       AUTO
 GLOBAL| Global print level                                                  LOW
 GLOBAL| MPI I/O enabled                                                       T
 GLOBAL| Total number of message passing processes                            18
 GLOBAL| Number of distributed systems (nodes)                                 1
 GLOBAL| Number of threads for this process                                    6
 GLOBAL| This output is from process                                           0
 GLOBAL| OpenMP stack size per thread (OMP_STACKSIZE)                       512M
 GLOBAL| CPU model name                          AMD EPYC 7763 64-Core Processor

 MEMORY| system memory details [Kb]
 MEMORY|                        rank 0           min           max       average
 MEMORY| MemTotal            263897592     263897592     263897592     263897592
 MEMORY| MemFree             228938544     228938544     228938544     228938544
 MEMORY| Buffers                246816        246816        246816        246816
 MEMORY| Cached                9087900       9087900       9087900       9087900
 MEMORY| Slab                  5703908       5703908       5703908       5703908
 MEMORY| SReclaimable          1600476       1600476       1600476       1600476
 MEMORY| MemLikelyFree       239873736     239873736     239873736     239873736


 GENERATE|  Preliminary Number of Bonds generated:                             0
 GENERATE|  Achieved consistency in connectivity generation.

 *******************************************************************************
 *******************************************************************************
 **                                                                           **
 **     #####                         ##              ##                      **
 **    ##   ##            ##          ##              ##                      **
 **   ##     ##                       ##            ######                    **
 **   ##     ##  ##   ##  ##   #####  ##  ##   ####   ##    #####    #####    **
 **   ##     ##  ##   ##  ##  ##      ## ##   ##      ##   ##   ##  ##   ##   **
 **   ##  ## ##  ##   ##  ##  ##      ####     ###    ##   ######   ######    **
 **    ##  ###   ##   ##  ##  ##      ## ##      ##   ##   ##       ##        **
 **     #######   #####   ##   #####  ##  ##  ####    ##    #####   ##        **
 **           ##                                                    ##        **
 **                                                                           **
 **                                                ... make the atoms dance   **
 **                                                                           **
 **            Copyright (C) by CP2K developers group (2000-2026)             **
 **                      J. Chem. Phys. 152, 194103 (2020)                    **
 **                                                                           **
 *******************************************************************************


 TOTAL NUMBERS AND MAXIMUM NUMBERS

  Total number of            - Atomic kinds:                                   2
                             - Atoms:                                         18
                             - Shell sets:                                    18
                             - Shells:                                       122
                             - Primitive Cartesian functions:                116
                             - Cartesian basis functions:                    362
                             - Spherical basis functions:                    322

  Maximum angular momentum of- Orbital basis functions:                        3
                             - Local part of the GTH pseudopotential:          2
                             - Non-local part of the GTH pseudopotential:      0


 SCF PARAMETERS         Density guess:                                   RESTART
                        --------------------------------------------------------
                        max_scf:                                             500
                        max_scf_history:                                       0
                        max_diis:                                              4
                        --------------------------------------------------------
                        eps_scf:                                        1.00E-08
                        eps_scf_history:                                0.00E+00
                        eps_diis:                                       0.00E+00
                        eps_eigval:                                     1.00E-05
                        --------------------------------------------------------
                        level_shift [a.u.]:                             0.000000
                        --------------------------------------------------------
                        Outer loop SCF in use 
                        No variables optimised in outer loop
                        eps_scf                                         1.00E-08
                        max_scf                                               20
                        No outer loop optimization
                        step_size                                       5.00E-01

 Extrapolation method: initial_guess

 Number of electrons:                                                         42
 Number of occupied orbitals:                                                 21
 Number of molecular orbitals:                                                21

 Number of orbital functions:                                                322
 Number of independent orbital functions:                                    322


 SCF WAVEFUNCTION OPTIMIZATION

  ----------------------------------- OT ---------------------------------------
  Minimizer      : DIIS                : direct inversion
                                         in the iterative subspace
                                         using   7 DIIS vectors
                                         safer DIIS on
  Preconditioner : FULL_KINETIC        : inversion of T + eS
  Lattice FFT   : OFF
  Precond_solver : DEFAULT
  stepsize       :    0.15000000                  energy_gap     :    0.20000000
  eps_taylor     :   0.10000E-15                  max_taylor     :             4
  ----------------------------------- OT ---------------------------------------

  Step     Update method      Time    Convergence         Total energy    Change
  ------------------------------------------------------------------------------
  Decoupling Energy:                                               0.0000002231
     1 OT DIIS     0.15E+00    1.6     7.3804E-09       -51.4620732994 -5.15E+01

  *** SCF run converged in     1 steps ***


  Electronic density on regular grids:        -42.0000000000        0.0000000000
  Core density on regular grids:               42.0000000000       -0.0000000000
  Total charge density on r-space grids:       -0.0000000000
  Total charge density g-space grids:          -0.0000000000

  Overlap energy of the core charge distribution:               0.00000398901808
  Self energy of the core charge distribution:               -120.78480300281559
  Core Hamiltonian energy:                                     38.35219635335059
  Hartree energy:                                              48.48024129386140
  Exchange-correlation energy:                                -17.50971193282311

  Total energy:                                               -51.46207329940862

  outer SCF iter =    1 RMS gradient =   0.74E-08 energy =        -51.4620732994
  outer SCF loop converged in   1 iterations or    1 steps

  
 -------------------------------------------------------------------------------
 -                                                                             -
 -                          BANDSTRUCTURE CALCULATION                          -
 -                                                                             -
 -------------------------------------------------------------------------------
  
 Number of occupied molecular orbitals (MOs) = Number of occupied bands       21
 Number of unoccupied (= virtual) MOs = Number of unoccupied bands           301
 Number of Gaussian basis functions for MOs                                  322
  
 -------------------------------------------------------------------------------
 -                                                                             -
 -                                GW CALCULATION                               -
 -                                                                             -
 -------------------------------------------------------------------------------
  
 Input: Number of time/freq. points                                           30
 Input: ω_max for fitting Σ(iω) (eV)                                        10.0
 Input: Filter threshold for sparse tensor operations                    1.0E-12
 Input: Apply Hedin shift                                                      F
 Detected: Available memory per MPI process                              12.2 GB
 
 Input: RI-RS Tikhonov regularization                                   1.00E-04
 Input: AO grid hard cutoff radius                                        8.00 Å
 Input: MPI ranks per atom in Z_lP solve                                      -1
 Input: Keep sparsity in χ/G/W panels                                          T
 Input: GW flavour                                                          G0W0
 
 Input: RI-RS grid optimization activated                                      T
 Input: RS points per AO function                                            2.0
 Input: Cutoff radius for atomic clusters                                  0.5 Å
 Input: Maximum grid optimization iterations                                 300
 
 Input: AUTO_RI basis optimization activated:                                  T
 Input: AUTO_RI number of RI functions per AO function:                      4.0
 Input: AUTO_RI frontier orbital window:                                  5.0 eV
 Input: AUTO_RI neighbor radius:                                           3.0 Å
 
 Cutoff radius for the truncated Coulomb operator in RI metric:            7.0 Å
 Regularization parameter of RI                                          0.0E+00
 Regularization parameter of minimax grids                               1.0E-06
 
 AUTO_RI| Number of automatic RI functions for χ, ε, W:                     1288
 AUTO_RI| Total RI basis optimization time:                                3.7 s
  Decoupling Energy:                                               0.0000002231
 
 SCF direct band gap (eV)                                                   4.85
 Max. SCF eigval diff. (eV)                                               267.85
 E-Range for minimax grid                                                  55.25
 Number of Padé parameters for analytic continuation:                         16
 
 RI-RS basis radii (Å):
     Kind  Elem     r_AO (Å)     r_RI (Å)
        1    C        15.9835       10.1279
        2    H        13.9082        8.7963
 
 Started RI-RS grid optimization
 RI-RS grid initial normalized error                          2.839926620817E-01
 RI-RS grid optimization completed, execution time:                        0.4 s
 Normalized 3C error:                                                    2.8E-03
 Maximum absolute 3C error:                                              8.5E-01
 Optimized points outside molecular Voronoi cells:                           364 / 644
 Total grid points used for RI-RS:                                           644
 
 RI-RS grid row-blocks of ϕ_μ(r_l)                                            26
 RI-RS grid points per block (max)                                            32
 
 Percentage of non-zero matrix elements in ϕ_μ(r_l)                     100.00 %
 
 RI-RS memory estimate per MPI process:
   Available memory per process (system)                                13.37 GB
   Required for Z_lP (dense upper bound; actual is sparser)              0.00 GB
   Required for χ, W, Σ panels (peak per panel step)                     0.00 GB
   Required for Z_lP solve peak (D_local+ϕ, worst-case atom)             0.01 GB
   Worst-case local-grid number of grid points:                              644
   Worst-case memory D_local:                                            0.00 GB
 
 Started computing Z_lP
 Computed Z_lP (MPI rank 0) for atom          1 /  1,    Execution time    0.7 s
 Computed Z_lP (all MPI ranks) for all atoms,            Execution time    0.8 s

 Memory per MPI process after computing Z_lP:
 Available memory per MPI process                               13.4 GB
 Used memory per MPI process                                     1.3 GB
 Number of batches for χ, Σ matrices                                           1
 
 Percentage of non-zero matrix elements in Z_lP                         100.00 %
 Percentage of non-zero matrix elements in G_ll', χ_ll', W_ll'          100.00 %
 Percentage of non-zero matrix elements in χ_PQ for time point 1        100.00 %
 
 Computed χ(iτ,k=0) for time point            1 / 30,    Execution time    0.0 s
 Computed χ(iτ,k=0) for time point            2 / 30,    Execution time    0.0 s
 Computed χ(iτ,k=0) for time point            3 / 30,    Execution time    0.0 s
 Computed χ(iτ,k=0) for time point            4 / 30,    Execution time    0.0 s
 Computed χ(iτ,k=0) for time point            5 / 30,    Execution time    0.0 s
 Computed χ(iτ,k=0) for time point            6 / 30,    Execution time    0.0 s
 Computed χ(iτ,k=0) for time point            7 / 30,    Execution time    0.0 s
 Computed χ(iτ,k=0) for time point            8 / 30,    Execution time    0.0 s
 Computed χ(iτ,k=0) for time point            9 / 30,    Execution time    0.0 s
 Computed χ(iτ,k=0) for time point           10 / 30,    Execution time    0.0 s
 Computed χ(iτ,k=0) for time point           11 / 30,    Execution time    0.0 s
 Computed χ(iτ,k=0) for time point           12 / 30,    Execution time    0.0 s
 Computed χ(iτ,k=0) for time point           13 / 30,    Execution time    0.0 s
 Computed χ(iτ,k=0) for time point           14 / 30,    Execution time    0.0 s
 Computed χ(iτ,k=0) for time point           15 / 30,    Execution time    0.0 s
 Computed χ(iτ,k=0) for time point           16 / 30,    Execution time    0.0 s
 Computed χ(iτ,k=0) for time point           17 / 30,    Execution time    0.0 s
 Computed χ(iτ,k=0) for time point           18 / 30,    Execution time    0.0 s
 Computed χ(iτ,k=0) for time point           19 / 30,    Execution time    0.0 s
 Computed χ(iτ,k=0) for time point           20 / 30,    Execution time    0.0 s
 Computed χ(iτ,k=0) for time point           21 / 30,    Execution time    0.0 s
 Computed χ(iτ,k=0) for time point           22 / 30,    Execution time    0.0 s
 Computed χ(iτ,k=0) for time point           23 / 30,    Execution time    0.0 s
 Computed χ(iτ,k=0) for time point           24 / 30,    Execution time    0.0 s
 Computed χ(iτ,k=0) for time point           25 / 30,    Execution time    0.0 s
 Computed χ(iτ,k=0) for time point           26 / 30,    Execution time    0.0 s
 Computed χ(iτ,k=0) for time point           27 / 30,    Execution time    0.0 s
 Computed χ(iτ,k=0) for time point           28 / 30,    Execution time    0.0 s
 Computed χ(iτ,k=0) for time point           29 / 30,    Execution time    0.0 s
 Computed χ(iτ,k=0) for time point           30 / 30,    Execution time    0.0 s
 
 Computed W(iτ),                                         Execution time    2.0 s
 
 Computed Σ^x(k=0),                                      Execution time    0.0 s
 
 Computed Σ^c(iτ) for time point              1 / 30,    Execution time    0.0 s
 Computed Σ^c(iτ) for time point              2 / 30,    Execution time    0.0 s
 Computed Σ^c(iτ) for time point              3 / 30,    Execution time    0.0 s
 Computed Σ^c(iτ) for time point              4 / 30,    Execution time    0.0 s
 Computed Σ^c(iτ) for time point              5 / 30,    Execution time    0.0 s
 Computed Σ^c(iτ) for time point              6 / 30,    Execution time    0.0 s
 Computed Σ^c(iτ) for time point              7 / 30,    Execution time    0.0 s
 Computed Σ^c(iτ) for time point              8 / 30,    Execution time    0.0 s
 Computed Σ^c(iτ) for time point              9 / 30,    Execution time    0.0 s
 Computed Σ^c(iτ) for time point             10 / 30,    Execution time    0.0 s
 Computed Σ^c(iτ) for time point             11 / 30,    Execution time    0.0 s
 Computed Σ^c(iτ) for time point             12 / 30,    Execution time    0.0 s
 Computed Σ^c(iτ) for time point             13 / 30,    Execution time    0.0 s
 Computed Σ^c(iτ) for time point             14 / 30,    Execution time    0.0 s
 Computed Σ^c(iτ) for time point             15 / 30,    Execution time    0.0 s
 Computed Σ^c(iτ) for time point             16 / 30,    Execution time    0.0 s
 Computed Σ^c(iτ) for time point             17 / 30,    Execution time    0.0 s
 Computed Σ^c(iτ) for time point             18 / 30,    Execution time    0.0 s
 Computed Σ^c(iτ) for time point             19 / 30,    Execution time    0.0 s
 Computed Σ^c(iτ) for time point             20 / 30,    Execution time    0.0 s
 Computed Σ^c(iτ) for time point             21 / 30,    Execution time    0.0 s
 Computed Σ^c(iτ) for time point             22 / 30,    Execution time    0.0 s
 Computed Σ^c(iτ) for time point             23 / 30,    Execution time    0.0 s
 Computed Σ^c(iτ) for time point             24 / 30,    Execution time    0.0 s
 Computed Σ^c(iτ) for time point             25 / 30,    Execution time    0.0 s
 Computed Σ^c(iτ) for time point             26 / 30,    Execution time    0.0 s
 Computed Σ^c(iτ) for time point             27 / 30,    Execution time    0.0 s
 Computed Σ^c(iτ) for time point             28 / 30,    Execution time    0.0 s
 Computed Σ^c(iτ) for time point             29 / 30,    Execution time    0.0 s
 Computed Σ^c(iτ) for time point             30 / 30,    Execution time    0.0 s

 *** WARNING in post_scf_bandstructure_utils.F:3161 :: G0W0 reorders the   ***
 *** empty levels: the SCF conduction band minimum (SCF LUMO) is level 22, ***
 *** whereas the G0W0 conduction band minimum (G0W0 LUMO) is level 24. The ***
 *** SCF and G0W0 band edges printed below therefore belong to different   ***
 *** orbitals; see the eigenvalues in the file bandstructure_SCF_and_G0W0. ***

 
 SCF valence band maximum (eV):                                           -5.987
 SCF conduction band minimum (eV):                                        -1.139
 SCF indirect band gap (eV):                                               4.848
 SCF direct band gap (eV):                                                 4.848
 
 G0W0 valence band maximum (eV):                                          -7.842
 G0W0 conduction band minimum (eV):                                        0.910
 G0W0 indirect band gap (eV):                                              8.752
 G0W0 direct band gap (eV):                                                8.752
 
 Hartree-Fock with SCF orbitals valence band maximum (eV):                -8.259
 Hartree-Fock with SCF orbitals conduction band minimum (eV)               2.061
 Hartree-Fock with SCF orbitals indirect band gap (eV):                   10.320
 Hartree-Fock with SCF orbitals direct band gap (eV):                     10.320

 ENERGY| Total FORCE_EVAL ( QS ) energy [hartree]            -51.462073299408615

 -------------------------------------------------------------------------------
 -                                                                             -
 -                                DBCSR STATISTICS                             -
 -                                                                             -
 -------------------------------------------------------------------------------
 COUNTER                                    TOTAL       BLAS       SMM       ACC
 flops    21 x    21 x    21                18522     100.0%      0.0%      0.0%     
 flops    18 x    21 x    38                57456     100.0%      0.0%      0.0%     
 flops    18 x    21 x    21                63504     100.0%      0.0%      0.0%     
 flops    21 x    21 x    38               100548     100.0%      0.0%      0.0%     
 flops    18 x    21 x    47               142128     100.0%      0.0%      0.0%     
 flops     9 x    21 x    38               143640     100.0%      0.0%      0.0%     
 flops     9 x    21 x    21               158760     100.0%      0.0%      0.0%     
 flops    18 x    21 x    67               202608     100.0%      0.0%      0.0%     
 flops    21 x    21 x    47               248724     100.0%      0.0%      0.0%     
 flops    21 x    21 x    67               354564     100.0%      0.0%      0.0%     
 flops     9 x    21 x    47               355320     100.0%      0.0%      0.0%     
 flops    29 x    21 x    38               370272     100.0%      0.0%      0.0%     
 flops     9 x     9 x    21               374220     100.0%      0.0%      0.0%     
 flops    29 x    21 x    21               409248     100.0%      0.0%      0.0%     
 flops     9 x    21 x    67               506520     100.0%      0.0%      0.0%     
 flops     9 x    29 x    21               876960     100.0%      0.0%      0.0%     
 flops    29 x     9 x    21               876960     100.0%      0.0%      0.0%     
 flops    29 x    21 x    47               915936     100.0%      0.0%      0.0%     
 flops    29 x    21 x    67              1305696     100.0%      0.0%      0.0%     
 flops    32 x    18 x    43              1981440     100.0%      0.0%      0.0%     
 flops     9 x    21 x     9              2041200     100.0%      0.0%      0.0%     
 flops    18 x    18 x    42              2177280     100.0%      0.0%      0.0%     
 flops    18 x    18 x    43              2229120     100.0%      0.0%      0.0%     
 flops    32 x    26 x    43              2289664     100.0%      0.0%      0.0%     
 flops    32 x    18 x    41              2361600     100.0%      0.0%      0.0%     
 flops    32 x    18 x    42              2419200     100.0%      0.0%      0.0%     
 flops    18 x    26 x    42              2515968     100.0%      0.0%      0.0%     
 flops    29 x    29 x    21              2543184     100.0%      0.0%      0.0%     
 flops    18 x    26 x    43              2575872     100.0%      0.0%      0.0%     
 flops    18 x    18 x    41              2656800     100.0%      0.0%      0.0%     
 flops    32 x    26 x    41              2728960     100.0%      0.0%      0.0%     
 flops    32 x    26 x    42              2795520     100.0%      0.0%      0.0%     
 flops    32 x    32 x    43              2818048     100.0%      0.0%      0.0%     
 flops    18 x    26 x    41              3070080     100.0%      0.0%      0.0%     
 flops    26 x    18 x    41              3070080     100.0%      0.0%      0.0%     
 flops    18 x    32 x    42              3096576     100.0%      0.0%      0.0%     
 flops    26 x    18 x    42              3144960     100.0%      0.0%      0.0%     
 flops    18 x    32 x    43              3170304     100.0%      0.0%      0.0%     
 flops    26 x    18 x    43              3219840     100.0%      0.0%      0.0%     
 flops    32 x    32 x    41              3358720     100.0%      0.0%      0.0%     
 flops    32 x    32 x    42              3440640     100.0%      0.0%      0.0%     
 flops    26 x    26 x    41              3547648     100.0%      0.0%      0.0%     
 flops    26 x    26 x    42              3634176     100.0%      0.0%      0.0%     
 flops    26 x    26 x    43              3720704     100.0%      0.0%      0.0%     
 flops    18 x    32 x    41              3778560     100.0%      0.0%      0.0%     
 flops    26 x    32 x    41              4366336     100.0%      0.0%      0.0%     
 flops    26 x    32 x    42              4472832     100.0%      0.0%      0.0%     
 flops    26 x    32 x    43              4579328     100.0%      0.0%      0.0%     
 flops     9 x    21 x    29              5261760     100.0%      0.0%      0.0%     
 flops    29 x    21 x     9              5261760     100.0%      0.0%      0.0%     
 flops    41 x    41 x    18             12708360     100.0%      0.0%      0.0%     
 flops    42 x    41 x    18             13018320     100.0%      0.0%      0.0%     
 flops    41 x    42 x    18             13018320     100.0%      0.0%      0.0%     
 flops    41 x    43 x    18             13328280     100.0%      0.0%      0.0%     
 flops    43 x    41 x    18             13328280     100.0%      0.0%      0.0%     
 flops    42 x    42 x    18             13335840     100.0%      0.0%      0.0%     
 flops    29 x    21 x    29             13563648     100.0%      0.0%      0.0%     
 flops    42 x    43 x    18             13653360     100.0%      0.0%      0.0%     
 flops    43 x    42 x    18             13653360     100.0%      0.0%      0.0%     
 flops    18 x    41 x    41             13918680     100.0%      0.0%      0.0%     
 flops    43 x    43 x    18             13978440     100.0%      0.0%      0.0%     
 flops    18 x    42 x    41             14258160     100.0%      0.0%      0.0%     
 flops    18 x    41 x    42             14258160     100.0%      0.0%      0.0%     
 flops    41 x    47 x    18             14568120     100.0%      0.0%      0.0%     
 flops    47 x    41 x    18             14568120     100.0%      0.0%      0.0%     
 flops    18 x    43 x    41             14597640     100.0%      0.0%      0.0%     
 flops    18 x    41 x    43             14597640     100.0%      0.0%      0.0%     
 flops    18 x    42 x    42             14605920     100.0%      0.0%      0.0%     
 flops    41 x    41 x    26             14685216     100.0%      0.0%      0.0%     
 flops    42 x    47 x    18             14923440     100.0%      0.0%      0.0%     
 flops    47 x    42 x    18             14923440     100.0%      0.0%      0.0%     
 flops    18 x    42 x    43             14953680     100.0%      0.0%      0.0%     
 flops    18 x    43 x    42             14953680     100.0%      0.0%      0.0%     
 flops    42 x    41 x    26             15043392     100.0%      0.0%      0.0%     
 flops    41 x    42 x    26             15043392     100.0%      0.0%      0.0%     
 flops    49 x    41 x    18             15188040     100.0%      0.0%      0.0%     
 flops    41 x    49 x    18             15188040     100.0%      0.0%      0.0%     
 flops    47 x    43 x    18             15278760     100.0%      0.0%      0.0%     
 flops    43 x    47 x    18             15278760     100.0%      0.0%      0.0%     
 flops    18 x    43 x    43             15309720     100.0%      0.0%      0.0%     
 flops    41 x    43 x    26             15401568     100.0%      0.0%      0.0%     
 flops    43 x    41 x    26             15401568     100.0%      0.0%      0.0%     
 flops    42 x    42 x    26             15410304     100.0%      0.0%      0.0%     
 flops    42 x    49 x    18             15558480     100.0%      0.0%      0.0%     
 flops    49 x    42 x    18             15558480     100.0%      0.0%      0.0%     
 flops    42 x    43 x    26             15777216     100.0%      0.0%      0.0%     
 flops    43 x    42 x    26             15777216     100.0%      0.0%      0.0%     
 flops    49 x    43 x    18             15928920     100.0%      0.0%      0.0%     
 flops    43 x    49 x    18             15928920     100.0%      0.0%      0.0%     
 flops    18 x    47 x    41             15955560     100.0%      0.0%      0.0%     
 flops    26 x    41 x    41             16083808     100.0%      0.0%      0.0%     
 flops    52 x    41 x    18             16117920     100.0%      0.0%      0.0%     
 flops    41 x    52 x    18             16117920     100.0%      0.0%      0.0%     
 flops    43 x    43 x    26             16152864     100.0%      0.0%      0.0%     
 flops    18 x    47 x    42             16344720     100.0%      0.0%      0.0%     
 flops    26 x    42 x    41             16476096     100.0%      0.0%      0.0%     
 flops    26 x    41 x    42             16476096     100.0%      0.0%      0.0%     
 flops    42 x    52 x    18             16511040     100.0%      0.0%      0.0%     
 flops    52 x    42 x    18             16511040     100.0%      0.0%      0.0%     
 flops    18 x    49 x    41             16634520     100.0%      0.0%      0.0%     
 flops    47 x    47 x    18             16700040     100.0%      0.0%      0.0%     
 flops    18 x    47 x    43             16733880     100.0%      0.0%      0.0%     
 flops    41 x    47 x    26             16834272     100.0%      0.0%      0.0%     
 flops    47 x    41 x    26             16834272     100.0%      0.0%      0.0%     
 flops    26 x    43 x    41             16868384     100.0%      0.0%      0.0%     
 flops    26 x    41 x    43             16868384     100.0%      0.0%      0.0%     
 flops    26 x    42 x    42             16877952     100.0%      0.0%      0.0%     
 flops    52 x    43 x    18             16904160     100.0%      0.0%      0.0%     
 flops    43 x    52 x    18             16904160     100.0%      0.0%      0.0%     
 flops    18 x    49 x    42             17040240     100.0%      0.0%      0.0%     
 flops    55 x    41 x    18             17047800     100.0%      0.0%      0.0%     
 flops    41 x    55 x    18             17047800     100.0%      0.0%      0.0%     
 flops    42 x    47 x    26             17244864     100.0%      0.0%      0.0%     
 flops    47 x    42 x    26             17244864     100.0%      0.0%      0.0%     
 flops    26 x    42 x    43             17279808     100.0%      0.0%      0.0%     
 flops    26 x    43 x    42             17279808     100.0%      0.0%      0.0%     
 flops    49 x    47 x    18             17410680     100.0%      0.0%      0.0%     
 flops    47 x    49 x    18             17410680     100.0%      0.0%      0.0%     
 flops    18 x    49 x    43             17445960     100.0%      0.0%      0.0%     
 flops    42 x    55 x    18             17463600     100.0%      0.0%      0.0%     
 flops    55 x    42 x    18             17463600     100.0%      0.0%      0.0%     
 flops    49 x    41 x    26             17550624     100.0%      0.0%      0.0%     
 flops    41 x    49 x    26             17550624     100.0%      0.0%      0.0%     
 flops    18 x    52 x    41             17652960     100.0%      0.0%      0.0%     
 flops    47 x    43 x    26             17655456     100.0%      0.0%      0.0%     
 flops    43 x    47 x    26             17655456     100.0%      0.0%      0.0%     
 flops    26 x    43 x    43             17691232     100.0%      0.0%      0.0%     
 flops    55 x    43 x    18             17879400     100.0%      0.0%      0.0%     
 flops    43 x    55 x    18             17879400     100.0%      0.0%      0.0%     
 flops    42 x    49 x    26             17978688     100.0%      0.0%      0.0%     
 flops    49 x    42 x    26             17978688     100.0%      0.0%      0.0%     
 flops    41 x    41 x    32             18074112     100.0%      0.0%      0.0%     
 flops    18 x    52 x    42             18083520     100.0%      0.0%      0.0%     
 flops    49 x    49 x    18             18151560     100.0%      0.0%      0.0%     
 flops    59 x    41 x    18             18287640     100.0%      0.0%      0.0%     
 flops    41 x    59 x    18             18287640     100.0%      0.0%      0.0%     
 flops    49 x    43 x    26             18406752     100.0%      0.0%      0.0%     
 flops    43 x    49 x    26             18406752     100.0%      0.0%      0.0%     
 flops    26 x    47 x    41             18437536     100.0%      0.0%      0.0%     
 flops    52 x    47 x    18             18476640     100.0%      0.0%      0.0%     
 flops    47 x    52 x    18             18476640     100.0%      0.0%      0.0%     
 flops    18 x    52 x    43             18514080     100.0%      0.0%      0.0%     
 flops    42 x    41 x    32             18514944     100.0%      0.0%      0.0%     
 flops    41 x    42 x    32             18514944     100.0%      0.0%      0.0%     
 flops    41 x    60 x    18             18597600     100.0%      0.0%      0.0%     
 flops    52 x    41 x    26             18625152     100.0%      0.0%      0.0%     
 flops    41 x    52 x    26             18625152     100.0%      0.0%      0.0%     
 flops    18 x    55 x    41             18671400     100.0%      0.0%      0.0%     
 flops    42 x    59 x    18             18733680     100.0%      0.0%      0.0%     
 flops    59 x    42 x    18             18733680     100.0%      0.0%      0.0%     
 flops    26 x    47 x    42             18887232     100.0%      0.0%      0.0%     
 flops    41 x    61 x    18             18907560     100.0%      0.0%      0.0%     
 flops    41 x    43 x    32             18955776     100.0%      0.0%      0.0%     
 flops    43 x    41 x    32             18955776     100.0%      0.0%      0.0%     
 flops    42 x    42 x    32             18966528     100.0%      0.0%      0.0%     
 flops    42 x    60 x    18             19051200     100.0%      0.0%      0.0%     
 flops    42 x    52 x    26             19079424     100.0%      0.0%      0.0%     
 flops    52 x    42 x    26             19079424     100.0%      0.0%      0.0%     
 flops    18 x    55 x    42             19126800     100.0%      0.0%      0.0%     
 flops    59 x    43 x    18             19179720     100.0%      0.0%      0.0%     
 flops    43 x    59 x    18             19179720     100.0%      0.0%      0.0%     
 flops    26 x    49 x    41             19222112     100.0%      0.0%      0.0%     
 flops    52 x    49 x    18             19262880     100.0%      0.0%      0.0%     
 flops    49 x    52 x    18             19262880     100.0%      0.0%      0.0%     
 flops    47 x    47 x    26             19297824     100.0%      0.0%      0.0%     
 flops    26 x    47 x    43             19336928     100.0%      0.0%      0.0%     
 flops    42 x    61 x    18             19368720     100.0%      0.0%      0.0%     
 flops    42 x    43 x    32             19418112     100.0%      0.0%      0.0%     
 flops    43 x    42 x    32             19418112     100.0%      0.0%      0.0%     
 flops    43 x    60 x    18             19504800     100.0%      0.0%      0.0%     
 flops    52 x    43 x    26             19533696     100.0%      0.0%      0.0%     
 flops    43 x    52 x    26             19533696     100.0%      0.0%      0.0%     
 flops    55 x    47 x    18             19542600     100.0%      0.0%      0.0%     
 flops    47 x    55 x    18             19542600     100.0%      0.0%      0.0%     
 flops    18 x    55 x    43             19582200     100.0%      0.0%      0.0%     
 flops    26 x    49 x    42             19690944     100.0%      0.0%      0.0%     
 flops    55 x    41 x    26             19699680     100.0%      0.0%      0.0%     
 flops    41 x    55 x    26             19699680     100.0%      0.0%      0.0%     
 flops    32 x    41 x    41             19795456     100.0%      0.0%      0.0%     
 flops    43 x    61 x    18             19829880     100.0%      0.0%      0.0%     
 flops    43 x    43 x    32             19880448     100.0%      0.0%      0.0%     
 flops    18 x    59 x    41             20029320     100.0%      0.0%      0.0%     
 flops    49 x    47 x    26             20119008     100.0%      0.0%      0.0%     
 flops    47 x    49 x    26             20119008     100.0%      0.0%      0.0%     
 flops    26 x    49 x    43             20159776     100.0%      0.0%      0.0%     
 flops    42 x    55 x    26             20180160     100.0%      0.0%      0.0%     
 flops    55 x    42 x    26             20180160     100.0%      0.0%      0.0%     
 flops    32 x    42 x    41             20278272     100.0%      0.0%      0.0%     
 flops    32 x    41 x    42             20278272     100.0%      0.0%      0.0%     
 flops    18 x    60 x    41             20368800     100.0%      0.0%      0.0%     
 flops    55 x    49 x    18             20374200     100.0%      0.0%      0.0%     
 flops    49 x    55 x    18             20374200     100.0%      0.0%      0.0%     
 flops    26 x    52 x    41             20398976     100.0%      0.0%      0.0%     
 flops    52 x    52 x    18             20442240     100.0%      0.0%      0.0%     
 flops    18 x    59 x    42             20517840     100.0%      0.0%      0.0%     
 flops    55 x    43 x    26             20660640     100.0%      0.0%      0.0%     
 flops    43 x    55 x    26             20660640     100.0%      0.0%      0.0%     
 flops    18 x    61 x    41             20708280     100.0%      0.0%      0.0%     
 flops    41 x    47 x    32             20719104     100.0%      0.0%      0.0%     
 flops    47 x    41 x    32             20719104     100.0%      0.0%      0.0%     
 flops    32 x    43 x    41             20761088     100.0%      0.0%      0.0%     
 flops    32 x    41 x    43             20761088     100.0%      0.0%      0.0%     
 flops    32 x    42 x    42             20772864     100.0%      0.0%      0.0%     
 flops    18 x    60 x    42             20865600     100.0%      0.0%      0.0%     
 flops    26 x    52 x    42             20896512     100.0%      0.0%      0.0%     
 flops    59 x    47 x    18             20963880     100.0%      0.0%      0.0%     
 flops    47 x    59 x    18             20963880     100.0%      0.0%      0.0%     
 flops    49 x    49 x    26             20975136     100.0%      0.0%      0.0%     
 flops    18 x    59 x    43             21006360     100.0%      0.0%      0.0%     
 flops    59 x    41 x    26             21132384     100.0%      0.0%      0.0%     
 flops    41 x    59 x    26             21132384     100.0%      0.0%      0.0%     
 flops    18 x    61 x    42             21213360     100.0%      0.0%      0.0%     
 flops    42 x    47 x    32             21224448     100.0%      0.0%      0.0%     
 flops    47 x    42 x    32             21224448     100.0%      0.0%      0.0%     
 flops    32 x    42 x    43             21267456     100.0%      0.0%      0.0%     
 flops    32 x    43 x    42             21267456     100.0%      0.0%      0.0%     
 flops    47 x    60 x    18             21319200     100.0%      0.0%      0.0%     
 flops    52 x    47 x    26             21350784     100.0%      0.0%      0.0%     
 flops    47 x    52 x    26             21350784     100.0%      0.0%      0.0%     
 flops    18 x    60 x    43             21362400     100.0%      0.0%      0.0%     
 flops    26 x    52 x    43             21394048     100.0%      0.0%      0.0%     
 flops    41 x    60 x    26             21490560     100.0%      0.0%      0.0%     
 flops    26 x    55 x    41             21575840     100.0%      0.0%      0.0%     
 flops    49 x    41 x    32             21600768     100.0%      0.0%      0.0%     
 flops    41 x    49 x    32             21600768     100.0%      0.0%      0.0%     
 flops    55 x    52 x    18             21621600     100.0%      0.0%      0.0%     
 flops    52 x    55 x    18             21621600     100.0%      0.0%      0.0%     
 flops    42 x    59 x    26             21647808     100.0%      0.0%      0.0%     
 flops    59 x    42 x    26             21647808     100.0%      0.0%      0.0%     
 flops    47 x    61 x    18             21674520     100.0%      0.0%      0.0%     
 flops    18 x    61 x    43             21718440     100.0%      0.0%      0.0%     
 flops    47 x    43 x    32             21729792     100.0%      0.0%      0.0%     
 flops    43 x    47 x    32             21729792     100.0%      0.0%      0.0%     
 flops    32 x    43 x    43             21773824     100.0%      0.0%      0.0%     
 flops    41 x    61 x    26             21848736     100.0%      0.0%      0.0%     
 flops    59 x    49 x    18             21855960     100.0%      0.0%      0.0%     
 flops    49 x    59 x    18             21855960     100.0%      0.0%      0.0%     
 flops    42 x    60 x    26             22014720     100.0%      0.0%      0.0%     
 flops    26 x    55 x    42             22102080     100.0%      0.0%      0.0%     
 flops    42 x    49 x    32             22127616     100.0%      0.0%      0.0%     
 flops    49 x    42 x    32             22127616     100.0%      0.0%      0.0%     
 flops    59 x    43 x    26             22163232     100.0%      0.0%      0.0%     
 flops    43 x    59 x    26             22163232     100.0%      0.0%      0.0%     
 flops    49 x    60 x    18             22226400     100.0%      0.0%      0.0%     
 flops    52 x    49 x    26             22259328     100.0%      0.0%      0.0%     
 flops    49 x    52 x    26             22259328     100.0%      0.0%      0.0%     
 flops    72 x    41 x    18             22317120     100.0%      0.0%      0.0%     
 flops    41 x    72 x    18             22317120     100.0%      0.0%      0.0%     
 flops    42 x    61 x    26             22381632     100.0%      0.0%      0.0%     
 flops    43 x    60 x    26             22538880     100.0%      0.0%      0.0%     
 flops    55 x    47 x    26             22582560     100.0%      0.0%      0.0%     
 flops    47 x    55 x    26             22582560     100.0%      0.0%      0.0%     
 flops    49 x    61 x    18             22596840     100.0%      0.0%      0.0%     
 flops    26 x    55 x    43             22628320     100.0%      0.0%      0.0%     
 flops    49 x    43 x    32             22654464     100.0%      0.0%      0.0%     
 flops    43 x    49 x    32             22654464     100.0%      0.0%      0.0%     
 flops    32 x    47 x    41             22692352     100.0%      0.0%      0.0%     
 flops    42 x    72 x    18             22861440     100.0%      0.0%      0.0%     
 flops    72 x    42 x    18             22861440     100.0%      0.0%      0.0%     
 flops    55 x    55 x    18             22869000     100.0%      0.0%      0.0%     
 flops    43 x    61 x    26             22914528     100.0%      0.0%      0.0%     
 flops    52 x    41 x    32             22923264     100.0%      0.0%      0.0%     
 flops    41 x    52 x    32             22923264     100.0%      0.0%      0.0%     
 flops    26 x    59 x    41             23144992     100.0%      0.0%      0.0%     
 flops    52 x    59 x    18             23194080     100.0%      0.0%      0.0%     
 flops    59 x    52 x    18             23194080     100.0%      0.0%      0.0%     
 flops    32 x    47 x    42             23245824     100.0%      0.0%      0.0%     
 flops    72 x    43 x    18             23405760     100.0%      0.0%      0.0%     
 flops    43 x    72 x    18             23405760     100.0%      0.0%      0.0%     
 flops    42 x    52 x    32             23482368     100.0%      0.0%      0.0%     
 flops    52 x    42 x    32             23482368     100.0%      0.0%      0.0%     
 flops    26 x    60 x    41             23537280     100.0%      0.0%      0.0%     
 flops    55 x    49 x    26             23543520     100.0%      0.0%      0.0%     
 flops    49 x    55 x    26             23543520     100.0%      0.0%      0.0%     
 flops    52 x    60 x    18             23587200     100.0%      0.0%      0.0%     
 flops    52 x    52 x    26             23622144     100.0%      0.0%      0.0%     
 flops    32 x    49 x    41             23657984     100.0%      0.0%      0.0%     
 flops    26 x    59 x    42             23709504     100.0%      0.0%      0.0%     
 flops    47 x    47 x    32             23751168     100.0%      0.0%      0.0%     
 flops    32 x    47 x    43             23799296     100.0%      0.0%      0.0%     
 flops    26 x    61 x    41             23929568     100.0%      0.0%      0.0%     
 flops    52 x    61 x    18             23980320     100.0%      0.0%      0.0%     
 flops    52 x    43 x    32             24041472     100.0%      0.0%      0.0%     
 flops    43 x    52 x    32             24041472     100.0%      0.0%      0.0%     
 flops    26 x    60 x    42             24111360     100.0%      0.0%      0.0%     
 flops    59 x    47 x    26             24224928     100.0%      0.0%      0.0%     
 flops    47 x    59 x    26             24224928     100.0%      0.0%      0.0%     
 flops    32 x    49 x    42             24235008     100.0%      0.0%      0.0%     
 flops    55 x    41 x    32             24245760     100.0%      0.0%      0.0%     
 flops    41 x    55 x    32             24245760     100.0%      0.0%      0.0%     
 flops    26 x    59 x    43             24274016     100.0%      0.0%      0.0%     
 flops    18 x    72 x    41             24442560     100.0%      0.0%      0.0%     
 flops    26 x    61 x    42             24513216     100.0%      0.0%      0.0%     
 flops    55 x    59 x    18             24532200     100.0%      0.0%      0.0%     
 flops    59 x    55 x    18             24532200     100.0%      0.0%      0.0%     
 flops    47 x    60 x    26             24635520     100.0%      0.0%      0.0%     
 flops    26 x    60 x    43             24685440     100.0%      0.0%      0.0%     
 flops    49 x    47 x    32             24761856     100.0%      0.0%      0.0%     
 flops    47 x    49 x    32             24761856     100.0%      0.0%      0.0%     
 flops    32 x    49 x    43             24812032     100.0%      0.0%      0.0%     
 flops    42 x    55 x    32             24837120     100.0%      0.0%      0.0%     
 flops    55 x    42 x    32             24837120     100.0%      0.0%      0.0%     
 flops    55 x    60 x    18             24948000     100.0%      0.0%      0.0%     
 flops    55 x    52 x    26             24984960     100.0%      0.0%      0.0%     
 flops    52 x    55 x    26             24984960     100.0%      0.0%      0.0%     
 flops    18 x    72 x    42             25038720     100.0%      0.0%      0.0%     
 flops    47 x    61 x    26             25046112     100.0%      0.0%      0.0%     
 flops    26 x    61 x    43             25096864     100.0%      0.0%      0.0%     
 flops    32 x    52 x    41             25106432     100.0%      0.0%      0.0%     
 flops    59 x    49 x    26             25255776     100.0%      0.0%      0.0%     
 flops    49 x    59 x    26             25255776     100.0%      0.0%      0.0%     
 flops    55 x    61 x    18             25363800     100.0%      0.0%      0.0%     
 flops    55 x    43 x    32             25428480     100.0%      0.0%      0.0%     
 flops    43 x    55 x    32             25428480     100.0%      0.0%      0.0%     
 flops    72 x    47 x    18             25583040     100.0%      0.0%      0.0%     
 flops    47 x    72 x    18             25583040     100.0%      0.0%      0.0%     
 flops    18 x    72 x    43             25634880     100.0%      0.0%      0.0%     
 flops    49 x    60 x    26             25683840     100.0%      0.0%      0.0%     
 flops    32 x    52 x    42             25718784     100.0%      0.0%      0.0%     
 flops    72 x    41 x    26             25788672     100.0%      0.0%      0.0%     
 flops    49 x    49 x    32             25815552     100.0%      0.0%      0.0%     
 flops    41 x    72 x    26             25942176     100.0%      0.0%      0.0%     
 flops    59 x    41 x    32             26009088     100.0%      0.0%      0.0%     
 flops    41 x    59 x    32             26009088     100.0%      0.0%      0.0%     
 flops    49 x    61 x    26             26111904     100.0%      0.0%      0.0%     
 flops    52 x    47 x    32             26277888     100.0%      0.0%      0.0%     
 flops    47 x    52 x    32             26277888     100.0%      0.0%      0.0%     
 flops    59 x    59 x    18             26316360     100.0%      0.0%      0.0%     
 flops    32 x    52 x    43             26331136     100.0%      0.0%      0.0%     
 flops    72 x    42 x    26             26417664     100.0%      0.0%      0.0%     
 flops    55 x    55 x    26             26426400     100.0%      0.0%      0.0%     
 flops    41 x    60 x    32             26449920     100.0%      0.0%      0.0%     
 flops    32 x    55 x    41             26554880     100.0%      0.0%      0.0%     
 flops    42 x    72 x    26             26574912     100.0%      0.0%      0.0%     
 flops    42 x    59 x    32             26643456     100.0%      0.0%      0.0%     
 flops    59 x    42 x    32             26643456     100.0%      0.0%      0.0%     
 flops    41 x    86 x    18             26656560     100.0%      0.0%      0.0%     
 flops    49 x    72 x    18             26671680     100.0%      0.0%      0.0%     
 flops    72 x    49 x    18             26671680     100.0%      0.0%      0.0%     
 flops    59 x    60 x    18             26762400     100.0%      0.0%      0.0%     
 flops    52 x    59 x    26             26802048     100.0%      0.0%      0.0%     
 flops    59 x    52 x    26             26802048     100.0%      0.0%      0.0%     
 flops    41 x    61 x    32             26890752     100.0%      0.0%      0.0%     
 flops    72 x    43 x    26             27046656     100.0%      0.0%      0.0%     
 flops    42 x    60 x    32             27095040     100.0%      0.0%      0.0%     
 flops    32 x    55 x    42             27202560     100.0%      0.0%      0.0%     
 flops    43 x    72 x    26             27207648     100.0%      0.0%      0.0%     
 flops    59 x    61 x    18             27208440     100.0%      0.0%      0.0%     
 flops    52 x    60 x    26             27256320     100.0%      0.0%      0.0%     
 flops    59 x    43 x    32             27277824     100.0%      0.0%      0.0%     
 flops    43 x    59 x    32             27277824     100.0%      0.0%      0.0%     
 flops    42 x    86 x    18             27306720     100.0%      0.0%      0.0%     
 flops    52 x    49 x    32             27396096     100.0%      0.0%      0.0%     
 flops    49 x    52 x    32             27396096     100.0%      0.0%      0.0%     
 flops    42 x    61 x    32             27546624     100.0%      0.0%      0.0%     
 flops    52 x    61 x    26             27710592     100.0%      0.0%      0.0%     
 flops    43 x    60 x    32             27740160     100.0%      0.0%      0.0%     
 flops    55 x    47 x    32             27793920     100.0%      0.0%      0.0%     
 flops    47 x    55 x    32             27793920     100.0%      0.0%      0.0%     
 flops    32 x    55 x    43             27850240     100.0%      0.0%      0.0%     
 flops    43 x    86 x    18             27956880     100.0%      0.0%      0.0%     
 flops    43 x    61 x    32             28202496     100.0%      0.0%      0.0%     
 flops    26 x    72 x    41             28244736     100.0%      0.0%      0.0%     
 flops    52 x    72 x    18             28304640     100.0%      0.0%      0.0%     
 flops    72 x    52 x    18             28304640     100.0%      0.0%      0.0%     
 flops    55 x    59 x    26             28348320     100.0%      0.0%      0.0%     
 flops    59 x    55 x    26             28348320     100.0%      0.0%      0.0%     
 flops    32 x    59 x    41             28486144     100.0%      0.0%      0.0%     
 flops    55 x    60 x    26             28828800     100.0%      0.0%      0.0%     
 flops    26 x    72 x    42             28933632     100.0%      0.0%      0.0%     
 flops    32 x    60 x    41             28968960     100.0%      0.0%      0.0%     
 flops    55 x    49 x    32             28976640     100.0%      0.0%      0.0%     
 flops    49 x    55 x    32             28976640     100.0%      0.0%      0.0%     
 flops    52 x    52 x    32             29073408     100.0%      0.0%      0.0%     
 flops    32 x    59 x    42             29180928     100.0%      0.0%      0.0%     
 flops    18 x    86 x    41             29195280     100.0%      0.0%      0.0%     
 flops    55 x    61 x    26             29309280     100.0%      0.0%      0.0%     
 flops    32 x    61 x    41             29451776     100.0%      0.0%      0.0%     
 flops    72 x    47 x    26             29562624     100.0%      0.0%      0.0%     
 flops    26 x    72 x    43             29622528     100.0%      0.0%      0.0%     
 flops    32 x    60 x    42             29675520     100.0%      0.0%      0.0%     
 flops    47 x    72 x    26             29738592     100.0%      0.0%      0.0%     
 flops    59 x    47 x    32             29815296     100.0%      0.0%      0.0%     
 flops    47 x    59 x    32             29815296     100.0%      0.0%      0.0%     
 flops    32 x    59 x    43             29875712     100.0%      0.0%      0.0%     
 flops    18 x    86 x    42             29907360     100.0%      0.0%      0.0%     
 flops    55 x    72 x    18             29937600     100.0%      0.0%      0.0%     
 flops    72 x    55 x    18             29937600     100.0%      0.0%      0.0%     
 flops    41 x    97 x    18             30066120     100.0%      0.0%      0.0%     
 flops    32 x    61 x    42             30170112     100.0%      0.0%      0.0%     
 flops    18 x    89 x    41             30213720     100.0%      0.0%      0.0%     
 flops    47 x    60 x    32             30320640     100.0%      0.0%      0.0%     
 flops    32 x    60 x    43             30382080     100.0%      0.0%      0.0%     
 flops    59 x    59 x    26             30410016     100.0%      0.0%      0.0%     
 flops    47 x    86 x    18             30557520     100.0%      0.0%      0.0%     
 flops    18 x    86 x    43             30619440     100.0%      0.0%      0.0%     
 flops    55 x    52 x    32             30750720     100.0%      0.0%      0.0%     
 flops    52 x    55 x    32             30750720     100.0%      0.0%      0.0%     
 flops    42 x    97 x    18             30799440     100.0%      0.0%      0.0%     
 flops    41 x    86 x    26             30803136     100.0%      0.0%      0.0%     
 flops    72 x    49 x    26             30820608     100.0%      0.0%      0.0%     
 flops    47 x    61 x    32             30825984     100.0%      0.0%      0.0%     
 flops    32 x    61 x    43             30888448     100.0%      0.0%      0.0%     
 flops    59 x    60 x    26             30925440     100.0%      0.0%      0.0%     
 flops    18 x    89 x    42             30950640     100.0%      0.0%      0.0%     
 flops    49 x    72 x    26             31004064     100.0%      0.0%      0.0%     
 flops    59 x    49 x    32             31084032     100.0%      0.0%      0.0%     
 flops    49 x    59 x    32             31084032     100.0%      0.0%      0.0%     
 flops    59 x    61 x    26             31440864     100.0%      0.0%      0.0%     
 flops    43 x    97 x    18             31532760     100.0%      0.0%      0.0%     
 flops    42 x    86 x    26             31554432     100.0%      0.0%      0.0%     
 flops    49 x    60 x    32             31610880     100.0%      0.0%      0.0%     
 flops    18 x    89 x    43             31687560     100.0%      0.0%      0.0%     
 flops    72 x    41 x    32             31739904     100.0%      0.0%      0.0%     
 flops    49 x    86 x    18             31857840     100.0%      0.0%      0.0%     
 flops    59 x    72 x    18             32114880     100.0%      0.0%      0.0%     
 flops    72 x    59 x    18             32114880     100.0%      0.0%      0.0%     
 flops    41 x    72 x    32             32117760     100.0%      0.0%      0.0%     
 flops    49 x    61 x    32             32137728     100.0%      0.0%      0.0%     
 flops    43 x    86 x    26             32305728     100.0%      0.0%      0.0%     
 flops    72 x    42 x    32             32514048     100.0%      0.0%      0.0%     
 flops    55 x    55 x    32             32524800     100.0%      0.0%      0.0%     
 flops    72 x    60 x    18             32659200     100.0%      0.0%      0.0%     
 flops    72 x    52 x    26             32707584     100.0%      0.0%      0.0%     
 flops    41 x   106 x    18             32855760     100.0%      0.0%      0.0%     
 flops    42 x    72 x    32             32901120     100.0%      0.0%      0.0%     
 flops    52 x    72 x    26             32902272     100.0%      0.0%      0.0%     
 flops    18 x    97 x    41             32929560     100.0%      0.0%      0.0%     
 flops    52 x    59 x    32             32987136     100.0%      0.0%      0.0%     
 flops    59 x    52 x    32             32987136     100.0%      0.0%      0.0%     
 flops    72 x    61 x    18             33203520     100.0%      0.0%      0.0%     
 flops    72 x    43 x    32             33288192     100.0%      0.0%      0.0%     
 flops    41 x   108 x    18             33475680     100.0%      0.0%      0.0%     
 flops    52 x    60 x    32             33546240     100.0%      0.0%      0.0%     
 flops    42 x   106 x    18             33657120     100.0%      0.0%      0.0%     
 flops    43 x    72 x    32             33684480     100.0%      0.0%      0.0%     
 flops    18 x    97 x    42             33732720     100.0%      0.0%      0.0%     
 flops    26 x    86 x    41             33736768     100.0%      0.0%      0.0%     
 flops    52 x    86 x    18             33808320     100.0%      0.0%      0.0%     
 flops    41 x   110 x    18             34095600     100.0%      0.0%      0.0%     
 flops    52 x    61 x    32             34105344     100.0%      0.0%      0.0%     
 flops    42 x   108 x    18             34292160     100.0%      0.0%      0.0%     
 flops    43 x   106 x    18             34458480     100.0%      0.0%      0.0%     
 flops    47 x    97 x    18             34466040     100.0%      0.0%      0.0%     
 flops    18 x    97 x    43             34535880     100.0%      0.0%      0.0%     
 flops    26 x    86 x    42             34559616     100.0%      0.0%      0.0%     
 flops    72 x    55 x    26             34594560     100.0%      0.0%      0.0%     
 flops    32 x    72 x    41             34762752     100.0%      0.0%      0.0%     
 flops    55 x    72 x    26             34800480     100.0%      0.0%      0.0%     
 flops    55 x    59 x    32             34890240     100.0%      0.0%      0.0%     
 flops    59 x    55 x    32             34890240     100.0%      0.0%      0.0%     
 flops    26 x    89 x    41             34913632     100.0%      0.0%      0.0%     
 flops    42 x   110 x    18             34927200     100.0%      0.0%      0.0%     
 flops    41 x    97 x    26             34949876     100.0%      0.0%      0.0%     
 flops    43 x   108 x    18             35108640     100.0%      0.0%      0.0%     
 flops    47 x    86 x    26             35310912     100.0%      0.0%      0.0%     
 flops    26 x    86 x    43             35382464     100.0%      0.0%      0.0%     
 flops    55 x    60 x    32             35481600     100.0%      0.0%      0.0%     
 flops    32 x    72 x    42             35610624     100.0%      0.0%      0.0%     
 flops    55 x    86 x    18             35758800     100.0%      0.0%      0.0%     
 flops    43 x   110 x    18             35758800     100.0%      0.0%      0.0%     
 flops    26 x    89 x    42             35765184     100.0%      0.0%      0.0%     
 flops    42 x    97 x    26             35802312     100.0%      0.0%      0.0%     
 flops    49 x    97 x    18             35932680     100.0%      0.0%      0.0%     
 flops    18 x   106 x    41             35984880     100.0%      0.0%      0.0%     
 flops    55 x    61 x    32             36072960     100.0%      0.0%      0.0%     
 flops    72 x    47 x    32             36384768     100.0%      0.0%      0.0%     
 flops    32 x    72 x    43             36458496     100.0%      0.0%      0.0%     
 flops    26 x    89 x    43             36616736     100.0%      0.0%      0.0%     
 flops    43 x    97 x    26             36654748     100.0%      0.0%      0.0%     
 flops    18 x   108 x    41             36663840     100.0%      0.0%      0.0%     
 flops    49 x    86 x    26             36813504     100.0%      0.0%      0.0%     
 flops    47 x    72 x    32             36817920     100.0%      0.0%      0.0%     
 flops    18 x   106 x    42             36862560     100.0%      0.0%      0.0%     
 flops    72 x    59 x    26             37110528     100.0%      0.0%      0.0%     
 flops    59 x    72 x    26             37331424     100.0%      0.0%      0.0%     
 flops    18 x   110 x    41             37342800     100.0%      0.0%      0.0%     
 flops    59 x    59 x    32             37427712     100.0%      0.0%      0.0%     
 flops    18 x   108 x    42             37558080     100.0%      0.0%      0.0%     
 flops    47 x   106 x    18             37663920     100.0%      0.0%      0.0%     
 flops    18 x   111 x    41             37682280     100.0%      0.0%      0.0%     
 flops    72 x    60 x    26             37739520     100.0%      0.0%      0.0%     
 flops    18 x   106 x    43             37740240     100.0%      0.0%      0.0%     
 flops    72 x    49 x    32             37933056     100.0%      0.0%      0.0%     
 flops    26 x    97 x    41             38051936     100.0%      0.0%      0.0%     
 flops    59 x    60 x    32             38062080     100.0%      0.0%      0.0%     
 flops    52 x    97 x    18             38132640     100.0%      0.0%      0.0%     
 flops    41 x    86 x    32             38137216     100.0%      0.0%      0.0%     
 flops    41 x   106 x    26             38192648     100.0%      0.0%      0.0%     
 flops    18 x   110 x    42             38253600     100.0%      0.0%      0.0%     
 flops    59 x    86 x    18             38359440     100.0%      0.0%      0.0%     
 flops    72 x    61 x    26             38368512     100.0%      0.0%      0.0%     
 flops    47 x   108 x    18             38374560     100.0%      0.0%      0.0%     
 flops    49 x    72 x    32             38384640     100.0%      0.0%      0.0%     
 flops    18 x   108 x    43             38452320     100.0%      0.0%      0.0%     
 flops    18 x   111 x    42             38601360     100.0%      0.0%      0.0%     
 flops    41 x   108 x    26             38683008     100.0%      0.0%      0.0%     
 flops    59 x    61 x    32             38696448     100.0%      0.0%      0.0%     
 flops    26 x    97 x    42             38980032     100.0%      0.0%      0.0%     
 flops    42 x    86 x    32             39067392     100.0%      0.0%      0.0%     
 flops    52 x    86 x    26             39067392     100.0%      0.0%      0.0%     
 flops    47 x   110 x    18             39085200     100.0%      0.0%      0.0%     
 flops    42 x   106 x    26             39124176     100.0%      0.0%      0.0%     
 flops    18 x   110 x    43             39164400     100.0%      0.0%      0.0%     
 flops    72 x    72 x    18             39191040     100.0%      0.0%      0.0%     
 flops    49 x   106 x    18             39266640     100.0%      0.0%      0.0%     
 flops    18 x   111 x    43             39520440     100.0%      0.0%      0.0%     
 flops    42 x   108 x    26             39626496     100.0%      0.0%      0.0%     
 flops    41 x   110 x    26             39633880     100.0%      0.0%      0.0%     
 flops    26 x    97 x    43             39908128     100.0%      0.0%      0.0%     
 flops    43 x    86 x    32             39997568     100.0%      0.0%      0.0%     
 flops    49 x   108 x    18             40007520     100.0%      0.0%      0.0%     
 flops    43 x   106 x    26             40055704     100.0%      0.0%      0.0%     
 flops    47 x    97 x    26             40064492     100.0%      0.0%      0.0%     
 flops    72 x    52 x    32             40255488     100.0%      0.0%      0.0%     
 flops    55 x    97 x    18             40332600     100.0%      0.0%      0.0%     
 flops    43 x   108 x    26             40569984     100.0%      0.0%      0.0%     
 flops    42 x   110 x    26             40600560     100.0%      0.0%      0.0%     
 flops    52 x    72 x    32             40734720     100.0%      0.0%      0.0%     
 flops    49 x   110 x    18             40748400     100.0%      0.0%      0.0%     
 flops    55 x    86 x    26             41321280     100.0%      0.0%      0.0%     
 flops    32 x    86 x    41             41522176     100.0%      0.0%      0.0%     
 flops    43 x   110 x    26             41567240     100.0%      0.0%      0.0%     
 flops    26 x   106 x    41             41582528     100.0%      0.0%      0.0%     
 flops    52 x   106 x    18             41670720     100.0%      0.0%      0.0%     
 flops    49 x    97 x    26             41769364     100.0%      0.0%      0.0%     
 flops    26 x   108 x    41             42367104     100.0%      0.0%      0.0%     
 flops    52 x   108 x    18             42456960     100.0%      0.0%      0.0%     
 flops    32 x    86 x    42             42534912     100.0%      0.0%      0.0%     
 flops    72 x    55 x    32             42577920     100.0%      0.0%      0.0%     
 flops    26 x   106 x    42             42596736     100.0%      0.0%      0.0%     
 flops    32 x    89 x    41             42970624     100.0%      0.0%      0.0%     
 flops    41 x    97 x    32             43015232     100.0%      0.0%      0.0%     
 flops    55 x    72 x    32             43084800     100.0%      0.0%      0.0%     
 flops    26 x   110 x    41             43151680     100.0%      0.0%      0.0%     
 flops    52 x   110 x    18             43243200     100.0%      0.0%      0.0%     
 flops    59 x    97 x    18             43265880     100.0%      0.0%      0.0%     
 flops    26 x   108 x    42             43400448     100.0%      0.0%      0.0%     
 flops    26 x   111 x    41             43543968     100.0%      0.0%      0.0%     
 flops    32 x    86 x    43             43547648     100.0%      0.0%      0.0%     
 flops    26 x   106 x    43             43610944     100.0%      0.0%      0.0%     
 flops    47 x    86 x    32             43718272     100.0%      0.0%      0.0%     
 flops    47 x   106 x    26             43781816     100.0%      0.0%      0.0%     
 flops    32 x    89 x    42             44018688     100.0%      0.0%      0.0%     
 flops    42 x    97 x    32             44064384     100.0%      0.0%      0.0%     
 flops    55 x   106 x    18             44074800     100.0%      0.0%      0.0%     
 flops    26 x   110 x    42             44204160     100.0%      0.0%      0.0%     
 flops    59 x    86 x    26             44326464     100.0%      0.0%      0.0%     
 flops    52 x    97 x    26             44326672     100.0%      0.0%      0.0%     
 flops    47 x   108 x    26             44343936     100.0%      0.0%      0.0%     
 flops    26 x   108 x    43             44433792     100.0%      0.0%      0.0%     
 flops    26 x   111 x    42             44606016     100.0%      0.0%      0.0%     
 flops    55 x   108 x    18             44906400     100.0%      0.0%      0.0%     
 flops    32 x    89 x    43             45066752     100.0%      0.0%      0.0%     
 flops    43 x    97 x    32             45113536     100.0%      0.0%      0.0%     
 flops    26 x   110 x    43             45256640     100.0%      0.0%      0.0%     
 flops    47 x   110 x    26             45433960     100.0%      0.0%      0.0%     
 flops    72 x    72 x    26             45556992     100.0%      0.0%      0.0%     
 flops    49 x    86 x    32             45578624     100.0%      0.0%      0.0%     
 flops    49 x   106 x    26             45644872     100.0%      0.0%      0.0%     
 flops    26 x   111 x    43             45668064     100.0%      0.0%      0.0%     
 flops    72 x    59 x    32             45674496     100.0%      0.0%      0.0%     
 flops    55 x   110 x    18             45738000     100.0%      0.0%      0.0%     
 flops    59 x    72 x    32             46218240     100.0%      0.0%      0.0%     
 flops    49 x   108 x    26             46230912     100.0%      0.0%      0.0%     
 flops    72 x    60 x    32             46448640     100.0%      0.0%      0.0%     
 flops    72 x    86 x    18             46811520     100.0%      0.0%      0.0%     
 flops    32 x    97 x    41             46833152     100.0%      0.0%      0.0%     
 flops    55 x    97 x    26             46883980     100.0%      0.0%      0.0%     
 flops    72 x    61 x    32             47222784     100.0%      0.0%      0.0%     
 flops    59 x   106 x    18             47280240     100.0%      0.0%      0.0%     
 flops    41 x   106 x    32             47284480     100.0%      0.0%      0.0%     
 flops    49 x   110 x    26             47367320     100.0%      0.0%      0.0%     
 flops    41 x   108 x    32             47893248     100.0%      0.0%      0.0%     
 flops    32 x    97 x    42             47975424     100.0%      0.0%      0.0%     
 flops    59 x   108 x    18             48172320     100.0%      0.0%      0.0%     
 flops    52 x    86 x    32             48369152     100.0%      0.0%      0.0%     
 flops    42 x   106 x    32             48437760     100.0%      0.0%      0.0%     
 flops    52 x   106 x    26             48439456     100.0%      0.0%      0.0%     
 flops    41 x   110 x    32             48780160     100.0%      0.0%      0.0%     
 flops    42 x   108 x    32             49061376     100.0%      0.0%      0.0%     
 flops    52 x   108 x    26             49061376     100.0%      0.0%      0.0%     
 flops    59 x   110 x    18             49064400     100.0%      0.0%      0.0%     
 flops    32 x    97 x    43             49117696     100.0%      0.0%      0.0%     
 flops    47 x    97 x    32             49310144     100.0%      0.0%      0.0%     
 flops    43 x   106 x    32             49591040     100.0%      0.0%      0.0%     
 flops    42 x   110 x    32             49969920     100.0%      0.0%      0.0%     
 flops    43 x   108 x    32             50229504     100.0%      0.0%      0.0%     
 flops    52 x   110 x    26             50267360     100.0%      0.0%      0.0%     
 flops    59 x    97 x    26             50293724     100.0%      0.0%      0.0%     
 flops    55 x    86 x    32             51159680     100.0%      0.0%      0.0%     
 flops    43 x   110 x    32             51159680     100.0%      0.0%      0.0%     
 flops    32 x   106 x    41             51178496     100.0%      0.0%      0.0%     
 flops    55 x   106 x    26             51234040     100.0%      0.0%      0.0%     
 flops    49 x    97 x    32             51408448     100.0%      0.0%      0.0%     
 flops    55 x   108 x    26             51891840     100.0%      0.0%      0.0%     
 flops    32 x   108 x    41             52144128     100.0%      0.0%      0.0%     
 flops    32 x   106 x    42             52426752     100.0%      0.0%      0.0%     
 flops    72 x    97 x    18             52799040     100.0%      0.0%      0.0%     
 flops    32 x   110 x    41             53109760     100.0%      0.0%      0.0%     
 flops    55 x   110 x    26             53167400     100.0%      0.0%      0.0%     
 flops    32 x   108 x    42             53415936     100.0%      0.0%      0.0%     
 flops    32 x   111 x    41             53592576     100.0%      0.0%      0.0%     
 flops    32 x   106 x    43             53675008     100.0%      0.0%      0.0%     
 flops    72 x    86 x    26             54093312     100.0%      0.0%      0.0%     
 flops    47 x   106 x    32             54204160     100.0%      0.0%      0.0%     
 flops    32 x   110 x    42             54405120     100.0%      0.0%      0.0%     
 flops    52 x    97 x    32             54555904     100.0%      0.0%      0.0%     
 flops    32 x   108 x    43             54687744     100.0%      0.0%      0.0%     
 flops    59 x    86 x    32             54880384     100.0%      0.0%      0.0%     
 flops    32 x   111 x    42             54899712     100.0%      0.0%      0.0%     
 flops    47 x   108 x    32             54902016     100.0%      0.0%      0.0%     
 flops    59 x   106 x    26             54960152     100.0%      0.0%      0.0%     
 flops    59 x   108 x    26             55665792     100.0%      0.0%      0.0%     
 flops    32 x   110 x    43             55700480     100.0%      0.0%      0.0%     
 flops    47 x   110 x    32             55918720     100.0%      0.0%      0.0%     
 flops    32 x   111 x    43             56206848     100.0%      0.0%      0.0%     
 flops    18 x    41 x    18             56324160     100.0%      0.0%      0.0%     
 flops    72 x    72 x    32             56401920     100.0%      0.0%      0.0%     
 flops    49 x   106 x    32             56510720     100.0%      0.0%      0.0%     
 flops    59 x   110 x    26             57034120     100.0%      0.0%      0.0%     
 flops    49 x   108 x    32             57238272     100.0%      0.0%      0.0%     
 flops    72 x   106 x    18             57697920     100.0%      0.0%      0.0%     
 flops    55 x    97 x    32             57703360     100.0%      0.0%      0.0%     
 flops    18 x    42 x    18             57806784     100.0%      0.0%      0.0%     
 flops    49 x   110 x    32             58298240     100.0%      0.0%      0.0%     
 flops    72 x   108 x    18             58786560     100.0%      0.0%      0.0%     
 flops    18 x    43 x    18             59378184     100.0%      0.0%      0.0%     
 flops    72 x   110 x    18             59875200     100.0%      0.0%      0.0%     
 flops    52 x   106 x    32             59970560     100.0%      0.0%      0.0%     
 flops    52 x   108 x    32             60742656     100.0%      0.0%      0.0%     
 flops    72 x    97 x    26             61375392     100.0%      0.0%      0.0%     
 flops    52 x   110 x    32             61867520     100.0%      0.0%      0.0%     
 flops    59 x    97 x    32             61899968     100.0%      0.0%      0.0%     
 flops    55 x   106 x    32             63430400     100.0%      0.0%      0.0%     
 flops    55 x   108 x    32             64247040     100.0%      0.0%      0.0%     
 flops    18 x    47 x    18             64658088     100.0%      0.0%      0.0%     
 flops    55 x   110 x    32             65436800     100.0%      0.0%      0.0%     
 flops    26 x    41 x    18             66390480     100.0%      0.0%      0.0%     
 flops    72 x    86 x    32             66972672     100.0%      0.0%      0.0%     
 flops    18 x    41 x    26             67042872     100.0%      0.0%      0.0%     
 flops    72 x   106 x    26             67070016     100.0%      0.0%      0.0%     
 flops    18 x    49 x    18             67504752     100.0%      0.0%      0.0%     
 flops    72 x   108 x    26             67931136     100.0%      0.0%      0.0%     
 flops    26 x    42 x    18             67970448     100.0%      0.0%      0.0%     
 flops    59 x   106 x    32             68043520     100.0%      0.0%      0.0%     
 flops    18 x    42 x    26             68402880     100.0%      0.0%      0.0%     
 flops    59 x   108 x    32             68919552     100.0%      0.0%      0.0%     
 flops    26 x    43 x    18             69508296     100.0%      0.0%      0.0%     
 flops    72 x   110 x    26             69600960     100.0%      0.0%      0.0%     
 flops    18 x    43 x    26             70152264     100.0%      0.0%      0.0%     
 flops    59 x   110 x    32             70195840     100.0%      0.0%      0.0%     
 flops    18 x    52 x    18             71604000     100.0%      0.0%      0.0%     
 flops    72 x    97 x    32             75538944     100.0%      0.0%      0.0%     
 flops    18 x    55 x    18             75556800     100.0%      0.0%      0.0%     
 flops    26 x    47 x    18             76370112     100.0%      0.0%      0.0%     
 flops    18 x    47 x    26             77073984     100.0%      0.0%      0.0%     
 flops    26 x    41 x    26             77937392     100.0%      0.0%      0.0%     
 flops    26 x    49 x    18             79665768     100.0%      0.0%      0.0%     
 flops    26 x    42 x    26             79724736     100.0%      0.0%      0.0%     
 flops    18 x    49 x    26             80262000     100.0%      0.0%      0.0%     
 flops    18 x    59 x    18             81051840     100.0%      0.0%      0.0%     
 flops    26 x    43 x    26             81739216     100.0%      0.0%      0.0%     
 flops    18 x    41 x    32             82278144     100.0%      0.0%      0.0%     
 flops    32 x    41 x    18             82372608     100.0%      0.0%      0.0%     
 flops    18 x    60 x    18             82425600     100.0%      0.0%      0.0%     
 flops    72 x   106 x    32             83036160     100.0%      0.0%      0.0%     
 flops    18 x    61 x    18             83838888     100.0%      0.0%      0.0%     
 flops    18 x    42 x    32             83897856     100.0%      0.0%      0.0%     
 flops    72 x   108 x    32             84105216     100.0%      0.0%      0.0%     
 flops    32 x    42 x    18             84139776     100.0%      0.0%      0.0%     
 flops    26 x    52 x    18             84543264     100.0%      0.0%      0.0%     
 flops    18 x    52 x    26             85370688     100.0%      0.0%      0.0%     
 flops    72 x   110 x    32             85662720     100.0%      0.0%      0.0%     
 flops    18 x    43 x    32             86143104     100.0%      0.0%      0.0%     
 flops    32 x    43 x    18             86192640     100.0%      0.0%      0.0%     
 flops    26 x    55 x    18             89369280     100.0%      0.0%      0.0%     
 flops    26 x    47 x    26             89469952     100.0%      0.0%      0.0%     
 flops    18 x    55 x    26             90244440     100.0%      0.0%      0.0%     
 flops    26 x    49 x    26             93277184     100.0%      0.0%      0.0%     
 flops    32 x    47 x    18             94697856     100.0%      0.0%      0.0%     
 flops    18 x    47 x    32             94697856     100.0%      0.0%      0.0%     
 flops    26 x    59 x    18             95537520     100.0%      0.0%      0.0%     
 flops    26 x    41 x    32             95922944     100.0%      0.0%      0.0%     
 flops    32 x    41 x    26             95991168     100.0%      0.0%      0.0%     
 flops    18 x    59 x    26             96752448     100.0%      0.0%      0.0%     
 flops    26 x    60 x    18             97381440     100.0%      0.0%      0.0%     
 flops    26 x    42 x    32             98052864     100.0%      0.0%      0.0%     
 flops    32 x    42 x    26             98262528     100.0%      0.0%      0.0%     
 flops    18 x    60 x    26             98448480     100.0%      0.0%      0.0%     
 flops    18 x    49 x    32             98558208     100.0%      0.0%      0.0%     
 flops    32 x    49 x    18             98671104     100.0%      0.0%      0.0%     
 flops    26 x    52 x    26             98988032     100.0%      0.0%      0.0%     
 flops    26 x    61 x    18             99118656     100.0%      0.0%      0.0%     
 flops    18 x    72 x    18            100030464     100.0%      0.0%      0.0%     
 flops    18 x    61 x    26            100146384     100.0%      0.0%      0.0%     
 flops    26 x    43 x    32            100602112     100.0%      0.0%      0.0%     
 flops    32 x    43 x    26            100745216     100.0%      0.0%      0.0%     
 flops    18 x    52 x    32            104592384     100.0%      0.0%      0.0%     
 flops    26 x    55 x    26            104698880     100.0%      0.0%      0.0%     
 flops    32 x    52 x    18            104951808     100.0%      0.0%      0.0%     
 flops     9 x     9 x    18            109988604     100.0%      0.0%      0.0%     
 flops    32 x    47 x    26            110116864     100.0%      0.0%      0.0%     
 flops    26 x    47 x    32            110116864     100.0%      0.0%      0.0%     
 flops    18 x    55 x    32            110563200     100.0%      0.0%      0.0%     
 flops    32 x    55 x    18            111133440     100.0%      0.0%      0.0%     
 flops    26 x    59 x    26            112313344     100.0%      0.0%      0.0%     
 flops    26 x    60 x    26            114216960     100.0%      0.0%      0.0%     
 flops    26 x    49 x    32            114721152     100.0%      0.0%      0.0%     
 flops    32 x    49 x    26            114802688     100.0%      0.0%      0.0%     
 flops    26 x    61 x    26            116120576     100.0%      0.0%      0.0%     
 flops    26 x    72 x    18            117531648     100.0%      0.0%      0.0%     
 flops    18 x    72 x    26            118003392     100.0%      0.0%      0.0%     
 flops    32 x    41 x    32            118226944     100.0%      0.0%      0.0%     
 flops    18 x    59 x    32            118400256     100.0%      0.0%      0.0%     
 flops    32 x    59 x    18            118876032     100.0%      0.0%      0.0%     
 flops    18 x    86 x    18            119425104     100.0%      0.0%      0.0%     
 flops    18 x    60 x    32            120890880     100.0%      0.0%      0.0%     
 flops    32 x    60 x    18            121029120     100.0%      0.0%      0.0%     
 flops    32 x    42 x    32            121110528     100.0%      0.0%      0.0%     
 flops    26 x    52 x    32            121744896     100.0%      0.0%      0.0%     
 flops    32 x    52 x    26            121831424     100.0%      0.0%      0.0%     
 flops    18 x    61 x    32            122835456     100.0%      0.0%      0.0%     
 flops    32 x    61 x    18            122976000     100.0%      0.0%      0.0%     
 flops    18 x    89 x    18            123245064     100.0%      0.0%      0.0%     
 flops    32 x    43 x    32            123994112     100.0%      0.0%      0.0%     
 flops    26 x    55 x    32            128768640     100.0%      0.0%      0.0%     
 flops    32 x    55 x    26            128860160     100.0%      0.0%      0.0%     
 flops     9 x     9 x    26            129632724     100.0%      0.0%      0.0%     
 flops    18 x    97 x    18            134826120     100.0%      0.0%      0.0%     
 flops    32 x    47 x    32            135528448     100.0%      0.0%      0.0%     
 flops    26 x    72 x    26            137060352     100.0%      0.0%      0.0%     
 flops    26 x    59 x    32            138133632     100.0%      0.0%      0.0%     
 flops    32 x    59 x    26            138231808     100.0%      0.0%      0.0%     
 flops    26 x    60 x    32            140474880     100.0%      0.0%      0.0%     
 flops    32 x    60 x    26            140574720     100.0%      0.0%      0.0%     
 flops    26 x    86 x    18            140787504     100.0%      0.0%      0.0%     
 flops    18 x    86 x    26            141189984     100.0%      0.0%      0.0%     
 flops    32 x    49 x    32            141295616     100.0%      0.0%      0.0%     
 flops    26 x    61 x    32            142816128     100.0%      0.0%      0.0%     
 flops    32 x    61 x    26            142917632     100.0%      0.0%      0.0%     
 flops    32 x    72 x    18            145234944     100.0%      0.0%      0.0%     
 flops    18 x    72 x    32            145400832     100.0%      0.0%      0.0%     
 flops    26 x    89 x    18            145532088     100.0%      0.0%      0.0%     
 flops    18 x    89 x    26            146531736     100.0%      0.0%      0.0%     
 flops    18 x   106 x    18            147198384     100.0%      0.0%      0.0%     
 flops    32 x    52 x    32            149946368     100.0%      0.0%      0.0%     
 flops    18 x   108 x    18            150045696     100.0%      0.0%      0.0%     
 flops    18 x   110 x    18            152895600     100.0%      0.0%      0.0%     
 flops    18 x   111 x    18            154213632     100.0%      0.0%      0.0%     
 flops    32 x    55 x    32            158597120     100.0%      0.0%      0.0%     
 flops    26 x    97 x    18            158976792     100.0%      0.0%      0.0%     
 flops    18 x    97 x    26            159521544     100.0%      0.0%      0.0%     
 flops     9 x     9 x    32            160061184     100.0%      0.0%      0.0%     
 flops    26 x    86 x    26            163710976     100.0%      0.0%      0.0%     
 flops    26 x    72 x    32            168689664     100.0%      0.0%      0.0%     
 flops    32 x    72 x    26            168689664     100.0%      0.0%      0.0%     
 flops    26 x    89 x    26            169421824     100.0%      0.0%      0.0%     
 flops    32 x    59 x    32            170010624     100.0%      0.0%      0.0%     
 flops    32 x    60 x    32            173015040     100.0%      0.0%      0.0%     
 flops    26 x   106 x    18            173528784     100.0%      0.0%      0.0%     
 flops    32 x    86 x    18            173673216     100.0%      0.0%      0.0%     
 flops    18 x    86 x    32            173970432     100.0%      0.0%      0.0%     
 flops    18 x   106 x    26            174322512     100.0%      0.0%      0.0%     
 flops    32 x    61 x    32            175898624     100.0%      0.0%      0.0%     
 flops    26 x   108 x    18            177106176     100.0%      0.0%      0.0%     
 flops    18 x   108 x    26            177813792     100.0%      0.0%      0.0%     
 flops    26 x   110 x    18            179665200     100.0%      0.0%      0.0%     
 flops    18 x    89 x    32            179936640     100.0%      0.0%      0.0%     
 flops    32 x    89 x    18            180141696     100.0%      0.0%      0.0%     
 flops    18 x   110 x    26            180591840     100.0%      0.0%      0.0%     
 flops    26 x   111 x    18            181610208     100.0%      0.0%      0.0%     
 flops    18 x   111 x    26            182545272     100.0%      0.0%      0.0%     
 flops    26 x    97 x    26            184650752     100.0%      0.0%      0.0%     
 flops    32 x    97 x    18            196334208     100.0%      0.0%      0.0%     
 flops    18 x    97 x    32            196557696     100.0%      0.0%      0.0%     
 flops    18 x    18 x    67            199713600     100.0%      0.0%      0.0%     
 flops    32 x    86 x    26            201490432     100.0%      0.0%      0.0%     
 flops    26 x    86 x    32            201490432     100.0%      0.0%      0.0%     
 flops    26 x   106 x    26            201783296     100.0%      0.0%      0.0%     
 flops    26 x   108 x    26            205590528     100.0%      0.0%      0.0%     
 flops    32 x    72 x    32            207618048     100.0%      0.0%      0.0%     
 flops    32 x    89 x    26            208519168     100.0%      0.0%      0.0%     
 flops    26 x    89 x    32            208519168     100.0%      0.0%      0.0%     
 flops    26 x   110 x    26            209397760     100.0%      0.0%      0.0%     
 flops    26 x   111 x    26            211301376     100.0%      0.0%      0.0%     
 flops    32 x   106 x    18            214550784     100.0%      0.0%      0.0%     
 flops    18 x   106 x    32            214672896     100.0%      0.0%      0.0%     
 flops    18 x   108 x    32            218474496     100.0%      0.0%      0.0%     
 flops    32 x   108 x    18            218598912     100.0%      0.0%      0.0%     
 flops    32 x   110 x    18            222013440     100.0%      0.0%      0.0%     
 flops    18 x   110 x    32            222266880     100.0%      0.0%      0.0%     
 flops    18 x     9 x    18            223213968     100.0%      0.0%      0.0%     
 flops    18 x   111 x    32            224543232     100.0%      0.0%      0.0%     
 flops    32 x   111 x    18            224671104     100.0%      0.0%      0.0%     
 flops    32 x    97 x    26            227262464     100.0%      0.0%      0.0%     
 flops    26 x    97 x    32            227262464     100.0%      0.0%      0.0%     
 flops    18 x    26 x    67            230780160     100.0%      0.0%      0.0%     
 flops    26 x    18 x    67            230780160     100.0%      0.0%      0.0%     
 flops    32 x    86 x    32            247988224     100.0%      0.0%      0.0%     
 flops    32 x   106 x    26            248348672     100.0%      0.0%      0.0%     
 flops    26 x   106 x    32            248348672     100.0%      0.0%      0.0%     
 flops    26 x   108 x    32            253034496     100.0%      0.0%      0.0%     
 flops    32 x   108 x    26            253034496     100.0%      0.0%      0.0%     
 flops    18 x    18 x   179            255182400     100.0%      0.0%      0.0%     
 flops    32 x    89 x    32            256638976     100.0%      0.0%      0.0%     
 flops    32 x   110 x    26            257720320     100.0%      0.0%      0.0%     
 flops    26 x   110 x    32            257720320     100.0%      0.0%      0.0%     
 flops    32 x   111 x    26            260063232     100.0%      0.0%      0.0%     
 flops    26 x   111 x    32            260063232     100.0%      0.0%      0.0%     
 flops    26 x     9 x    18            260453232     100.0%      0.0%      0.0%     
 flops    18 x     9 x    26            262062216     100.0%      0.0%      0.0%     
 flops    26 x    26 x    67            266679296     100.0%      0.0%      0.0%     
 flops    18 x     9 x     9            271118016     100.0%      0.0%      0.0%     
 flops    32 x    97 x    32            279707648     100.0%      0.0%      0.0%     
 flops    18 x    18 x    47            280195200     100.0%      0.0%      0.0%     
 flops    18 x    18 x   199            283694400     100.0%      0.0%      0.0%     
 flops    18 x    32 x    67            284037120     100.0%      0.0%      0.0%     
 flops    32 x    18 x    67            284037120     100.0%      0.0%      0.0%     
 flops    29 x     9 x    18            284285376     100.0%      0.0%      0.0%     
 flops     9 x    29 x    18            289255860     100.0%      0.0%      0.0%     
 flops    18 x    26 x   179            294877440     100.0%      0.0%      0.0%     
 flops    26 x    18 x   179            294877440     100.0%      0.0%      0.0%     
 flops    26 x     9 x    26            303664608     100.0%      0.0%      0.0%     
 flops    18 x    18 x   214            305078400     100.0%      0.0%      0.0%     
 flops    32 x   106 x    32            305659904     100.0%      0.0%      0.0%     
 flops    32 x   108 x    32            311427072     100.0%      0.0%      0.0%     
 flops    26 x     9 x     9            313372800     100.0%      0.0%      0.0%     
 flops    32 x   110 x    32            317194240     100.0%      0.0%      0.0%     
 flops    32 x   111 x    32            320077824     100.0%      0.0%      0.0%     
 flops    32 x     9 x    18            320848128     100.0%      0.0%      0.0%     
 flops    18 x     9 x    32            322486272     100.0%      0.0%      0.0%     
 flops    18 x    26 x    47            323781120     100.0%      0.0%      0.0%     
 flops    26 x    18 x    47            323781120     100.0%      0.0%      0.0%     
 flops    18 x    26 x   199            327824640     100.0%      0.0%      0.0%     
 flops    26 x    18 x   199            327824640     100.0%      0.0%      0.0%     
 flops    26 x    32 x    67            328220672     100.0%      0.0%      0.0%     
 flops    32 x    26 x    67            328220672     100.0%      0.0%      0.0%     
 flops    29 x     9 x    26            334196928     100.0%      0.0%      0.0%     
 flops     9 x    29 x    26            338621400     100.0%      0.0%      0.0%     
 flops    26 x    26 x   179            340747264     100.0%      0.0%      0.0%     
 flops    18 x    26 x   214            352535040     100.0%      0.0%      0.0%     
 flops    26 x    18 x   214            352535040     100.0%      0.0%      0.0%     
 flops    18 x    32 x   179            362926080     100.0%      0.0%      0.0%     
 flops    32 x    18 x   179            362926080     100.0%      0.0%      0.0%     
 flops    26 x     9 x    32            373486464     100.0%      0.0%      0.0%     
 flops    32 x     9 x    26            373771008     100.0%      0.0%      0.0%     
 flops    26 x    26 x    47            374147072     100.0%      0.0%      0.0%     
 flops    26 x    26 x   199            378819584     100.0%      0.0%      0.0%     
 flops    32 x     9 x     9            385689600     100.0%      0.0%      0.0%     
 flops    18 x    32 x    47            398499840     100.0%      0.0%      0.0%     
 flops    32 x    18 x    47            398499840     100.0%      0.0%      0.0%     
 flops    18 x    32 x   199            403476480     100.0%      0.0%      0.0%     
 flops    32 x    18 x   199            403476480     100.0%      0.0%      0.0%     
 flops    32 x    32 x    67            403963904     100.0%      0.0%      0.0%     
 flops    26 x    26 x   214            407373824     100.0%      0.0%      0.0%     
 flops    18 x    18 x     9            410100408     100.0%      0.0%      0.0%     
 flops    29 x     9 x    32            412789248     100.0%      0.0%      0.0%     
 flops     9 x    29 x    32            416581056     100.0%      0.0%      0.0%     
 flops    26 x    32 x   179            419381248     100.0%      0.0%      0.0%     
 flops    32 x    26 x   179            419381248     100.0%      0.0%      0.0%     
 flops    18 x    32 x   214            433889280     100.0%      0.0%      0.0%     
 flops    32 x    18 x   214            433889280     100.0%      0.0%      0.0%     
 flops    32 x     9 x    32            459915264     100.0%      0.0%      0.0%     
 flops    26 x    32 x    47            460488704     100.0%      0.0%      0.0%     
 flops    32 x    26 x    47            460488704     100.0%      0.0%      0.0%     
 flops    26 x    32 x   199            466239488     100.0%      0.0%      0.0%     
 flops    32 x    26 x   199            466239488     100.0%      0.0%      0.0%     
 flops    18 x    26 x     9            474717672     100.0%      0.0%      0.0%     
 flops    26 x    18 x     9            483647112     100.0%      0.0%      0.0%     
 flops    26 x    32 x   214            501383168     100.0%      0.0%      0.0%     
 flops    32 x    26 x   214            501383168     100.0%      0.0%      0.0%     
 flops    32 x    32 x   179            516161536     100.0%      0.0%      0.0%     
 flops    26 x    26 x     9            560786616     100.0%      0.0%      0.0%     
 flops    32 x    32 x    47            566755328     100.0%      0.0%      0.0%     
 flops    32 x    32 x   199            573833216     100.0%      0.0%      0.0%     
 flops    18 x    29 x    18            581556024     100.0%      0.0%      0.0%     
 flops    18 x    32 x     9            584102016     100.0%      0.0%      0.0%     
 flops    32 x    18 x     9            598876416     100.0%      0.0%      0.0%     
 flops    32 x    32 x   214            617086976     100.0%      0.0%      0.0%     
 flops    26 x    29 x    18            676618488     100.0%      0.0%      0.0%     
 flops    18 x    29 x    26            677541384     100.0%      0.0%      0.0%     
 flops    26 x    32 x     9            689794560     100.0%      0.0%      0.0%     
 flops    32 x    26 x     9            694497024     100.0%      0.0%      0.0%     
 flops    18 x    29 x     9            717685272     100.0%      0.0%      0.0%     
 flops    18 x     9 x    29            720485280     100.0%      0.0%      0.0%     
 flops    29 x    29 x    18            748422720     100.0%      0.0%      0.0%     
 flops    26 x    29 x    26            783062176     100.0%      0.0%      0.0%     
 flops    26 x    29 x     9            832289328     100.0%      0.0%      0.0%     
 flops    26 x     9 x    29            832560768     100.0%      0.0%      0.0%     
 flops    32 x    29 x    18            833128704     100.0%      0.0%      0.0%     
 flops    18 x    29 x    32            835066368     100.0%      0.0%      0.0%     
 flops    32 x    32 x     9            854175744     100.0%      0.0%      0.0%     
 flops    29 x    29 x    26            872890720     100.0%      0.0%      0.0%     
 flops    32 x    29 x    26            964347904     100.0%      0.0%      0.0%     
 flops    26 x    29 x    32            965650816     100.0%      0.0%      0.0%     
 flops    32 x    29 x     9           1023454080     100.0%      0.0%      0.0%     
 flops    32 x     9 x    29           1024690176     100.0%      0.0%      0.0%     
 flops    29 x    29 x    32           1074327040     100.0%      0.0%      0.0%     
 flops    18 x    18 x    29           1105289064     100.0%      0.0%      0.0%     
 flops    32 x    29 x    32           1195620352     100.0%      0.0%      0.0%     
 flops    18 x    26 x    29           1284915528     100.0%      0.0%      0.0%     
 flops    26 x    18 x    29           1285539840     100.0%      0.0%      0.0%     
 flops    26 x    26 x    29           1485512704     100.0%      0.0%      0.0%     
 flops    18 x    32 x    29           1581668352     100.0%      0.0%      0.0%     
 flops    32 x    18 x    29           1582202880     100.0%      0.0%      0.0%     
 flops    26 x    32 x    29           1828323328     100.0%      0.0%      0.0%     
 flops    32 x    26 x    29           1828323328     100.0%      0.0%      0.0%     
 flops    18 x    29 x    29           1879534080     100.0%      0.0%      0.0%     
 flops    26 x    29 x    29           2171906048     100.0%      0.0%      0.0%     
 flops    32 x    32 x    29           2250244096     100.0%      0.0%      0.0%     
 flops    32 x    29 x    29           2673115136     100.0%      0.0%      0.0%     
 flops inhomo. stacks                212293894354     100.0%      0.0%      0.0%
 flops total                       319.142904E+09     100.0%      0.0%      0.0%
 flops max/rank                     21.375324E+09     100.0%      0.0%      0.0%
 matmuls inhomo. stacks                    313661     100.0%      0.0%      0.0%
 matmuls total                            3313932     100.0%      0.0%      0.0%
 number of processed stacks               1120949     100.0%      0.0%      0.0%
 average stack size                                     3.0       0.0       0.0
 marketing flops                   268.471271E+09
 -------------------------------------------------------------------------------
 # multiplications                           2020
 max memory usage/rank              23.335367E+09
 # max total images/rank                        2
 # max 3D layers                                1
 # MPI messages exchanged                   81810
 MPI messages size (bytes):
  total size                         8.929398E+09
  min size                           0.000000E+00
  max size                         536.648000E+03
  average size                     109.148000E+03
 MPI breakdown and total messages size (bytes):
             size <=      128               11019                        0
       128 < size <=     8192                 146                  1017336
      8192 < size <=    32768                9919                238937904
     32768 < size <=   131072               40800               3207211904
    131072 < size <=  4194304               19926               5482232064
   4194304 < size <= 16777216                   0                        0
  16777216 < size                               0                        0
 -------------------------------------------------------------------------------

 *** WARNING in dbcsr_mm.F:301 :: Using a non-square number of MPI ranks ***
 *** might lead to poor performance. Used ranks: 18 Suggested: 16 36     ***

 -------------------------------------------------------------------------------
 -                                                                             -
 -                      DBCSR MESSAGE PASSING PERFORMANCE                      -
 -                                                                             -
 -------------------------------------------------------------------------------
 ROUTINE             CALLS      AVE VOLUME [Bytes]
 MP_Bcast              913                     12.
 MP_Allreduce         3947                     21.
 MP_Alltoall          3385                  70471.
 MP_ISend            14174                  42456.
 MP_IRecv            14108                  41233.
 -------------------------------------------------------------------------------

 -------------------------------------------------------------------------------
 -                                                                             -
 -                                GRID STATISTICS                              -
 -                                                                             -
 -------------------------------------------------------------------------------
 LP    KERNEL             BACKEND                              COUNT     PERCENT
 4     collocate ortho    CPU                                  23296      23.03%
 4     integrate ortho    CPU                                  23296      23.03%
 2     collocate ortho    CPU                                  13368      13.22%
 2     integrate ortho    CPU                                  13368      13.22%
 6     collocate ortho    CPU                                  13264      13.11%
 6     integrate ortho    CPU                                  13264      13.11%
 0     collocate general  CPU                                   1296       1.28%
 -------------------------------------------------------------------------------

 -------------------------------------------------------------------------------
 -                                                                             -
 -                          OFFLOAD MEMPOOL STATISTICS                         -
 -                                                                             -
 -------------------------------------------------------------------------------
 Memory consumption                Number of allocations  Used [MiB]  Size [MiB]
 Host                                                  6          93    22183642
 -------------------------------------------------------------------------------

 MEMORY| Estimated peak process memory [MiB]                                2030

 -------------------------------------------------------------------------------
 -                                                                             -
 -                         MESSAGE PASSING PERFORMANCE                         -
 -                                                                             -
 -------------------------------------------------------------------------------

 ROUTINE             CALLS      AVE VOLUME [Bytes]
 MP_Group                5
 MP_Bcast              293                 192611.
 MP_Allreduce         1982                  11878.
 MP_Sync                10
 MP_Alltoall            46               61517726.
 MP_SendRecv            68                 486144.
 MP_ISendRecv           68                 486144.
 MP_Wait               293
 MP_comm_split          10
 MP_ISend              198                1901044.
 MP_IRecv              198                1901044.
 -------------------------------------------------------------------------------


 -------------------------------------------------------------------------------
 -                                                                             -
 -                           R E F E R E N C E S                               -
 -                                                                             -
 -------------------------------------------------------------------------------
 
 CP2K version 2026.2 (Development Version), the CP2K developers group (2026).
 CP2K is freely available from https://www.cp2k.org/ .
 
 M. Iannuzzi, J. Wilhelm, F. Stein, A. Bussy, H. Elgabarty, D. Golze, A. Hehn, 
 M. Graml, S. Marek, B. Sertcan Gökmen, C. Schran, H. Forbert, R. Z. 
 Khaliullin, A. Kozhevnikov, M. Taillefumier, R. Meli, V. V. Rybkin, M. Brehm, 
 R. Schade, O. Schütt, J. V. Pototschnig, H. Mirhosseini, A. Knüpfer, D. Marx, 
 M. Krack, J. Hutter, T. D. Kühne.
 J. Phys. Chem. B 130, 1237-1310 (2026).
 The CP2K Program Package Made Simple.
 https://doi.org/10.1021/acs.jpcb.5c05851

 M. Graml, K. Zollner, D. Hernangómez-Pérez, P. E. Faria Junior, J. Wilhelm.
 J. Chem. Theory Comput. 20, 2202-2208 (2024).
 Low-scaling GW algorithm applied to twisted transition-metal dichalcogenide 
 heterobilayers.
 https://doi.org/10.1021/acs.jctc.3c01230

 T. D. Kühne, M. Iannuzzi, M. Del Ben, V. V. Rybkin, P. Seewald, F. Stein, T. 
 Laino, R. Z. Khaliullin, O. Schütt, F. Schiffmann, D. Golze, J. Wilhelm, S. 
 Chulkov, M. H. Bani-Hashemian, V. Weber, U. Borstnik, M. Taillefumier, A. S. 
 Jakobovits, A. Lazzaro, H. Pabst, T. Müller, R. Schade, M. Guidon, S. 
 Andermatt, N. Holmberg, G. K. Schenter, A. Hehn, A. Bussy, F. Belleflamme, G. 
 Tabacchi, A. Glöß, M. Lass, I. Bethune, C. J. Mundy, C. Plessl, M. Watkins, 
 J. VandeVondele, M. Krack, J. Hutter.
 J. Chem. Phys. 152, 194103 (2020).
 CP2K: An electronic structure and molecular dynamics software package - 
 Quickstep: Efficient and accurate electronic structure calculations.
 https://doi.org/10.1063/5.0007045

 O. Schuett, P. Messmer, J. Hutter, J. VandeVondele.
 Electronic Structure Calculations on Graphics Processing Units, 173-190 (2016).
 GPU-Accelerated Sparse Matrix-Matrix Multiplication for Linear Scaling Density 
 Functional Theory.
 https://doi.org/10.1002/9781118670712.ch8

 U. Borstnik, J. VandeVondele, V. Weber, J. Hutter.
 Parallel Comput. 40, 47-58 (2014).
 Sparse matrix multiplication: The distributed block-compressed sparse row 
 library.
 https://doi.org/10.1016/j.parco.2014.03.012

 J. VandeVondele, J. Hutter.
 J. Chem. Phys. 127, 114105 (2007).
 Gaussian basis sets for accurate calculations on molecular systems in gas and 
 condensed phases.
 https://doi.org/10.1063/1.2770708

 J. VandeVondele, M. Krack, F. Mohamed, M. Parrinello, T. Chassaing, J. Hutter.
 Comput. Phys. Commun. 167, 103-128 (2005).
 QUICKSTEP: Fast and accurate density functional calculations using a mixed 
 Gaussian and plane waves approach.
 https://doi.org/10.1016/j.cpc.2004.12.014

 M. Krack.
 Theor. Chem. Acc. 114, 145-152 (2005).
 Pseudopotentials for H to Kr optimized for gradient-corrected 
 exchange-correlation functionals.
 https://doi.org/10.1007/s00214-005-0655-y

 M. Frigo, S. G. Johnson.
 Proc. IEEE 93, 216-231 (2005).
 The design and implementation of FFTW3.
 https://doi.org/10.1109/JPROC.2004.840301

 J. VandeVondele, J. Hutter.
 J. Chem. Phys. 118, 4365-4369 (2003).
 An efficient orbital transformation method for electronic structure 
 calculations.
 https://doi.org/10.1063/1.1543154

 C. Hartwigsen, S. Goedecker, J. Hutter.
 Phys. Rev. B 58, 3641-3662 (1998).
 Relativistic separable dual-space Gaussian pseudopotentials from H to Rn.
 https://doi.org/10.1103/PhysRevB.58.3641

 G. Lippert, J. Hutter, M. Parrinello.
 Mol. Phys. 92, 477-487 (1997).
 A hybrid Gaussian and plane wave density functional scheme.
 https://doi.org/10.1080/002689797170220

 S. Goedecker, M. Teter, J. Hutter.
 Phys. Rev. B 54, 1703-1710 (1996).
 Separable dual-space Gaussian pseudopotentials.
 https://doi.org/10.1103/PhysRevB.54.1703

 J. P. Perdew, K. Burke, M. Ernzerhof.
 Phys. Rev. Lett. 77, 3865-3868 (1996).
 Generalized gradient approximation made simple.
 https://doi.org/10.1103/PhysRevLett.77.3865

 P. E. Blöchl.
 J. Chem. Phys. 103, 7422-7428 (1995).
 Electrostatic decoupling of periodic images of plane‐wave‐expanded 
 densities and derived atomic point charges.
 https://doi.org/10.1063/1.470314

 R. H. Byrd, P. H. Lu, J. Nocedal, C. Y. Zhu.
 SIAM J. Sci. Comput. 16, 1190-1208 (1995).
 A Limited Memory Algorithm for Bound Constrained Optimization.
 https://doi.org/10.1137/0916069


 -------------------------------------------------------------------------------
 -                                                                             -
 -                                T I M I N G                                  -
 -                                                                             -
 -------------------------------------------------------------------------------
 SUBROUTINE                       CALLS  ASD         SELF TIME        TOTAL TIME MAXRANK
                                MAXIMUM       AVERAGE  MAXIMUM  AVERAGE  MAXIMUM
 CP2K                                 1  1.0    0.024    0.036   12.647   12.647       0
 qs_energies                          1  2.0    0.001    0.001   11.948   11.948       9
 qs_energies_properties               1  3.0    0.000    0.000    9.067    9.067      11
 post_scf_bandstructure               1  4.0    0.000    0.000    9.067    9.067      16
 run_gw                               1  5.0    0.000    0.000    8.994    9.009      11
 create_and_init_bs_env_for_gw        1  6.0    0.003    0.005    4.530    4.703       2
 gw_calc_ri_rs_non_periodic           1  6.0    0.000    0.000    4.464    4.593       0
 generate_auto_ri_basis               1  7.0    0.000    0.000    3.667    3.667      10
 scf_env_do_scf                       1  3.0    0.000    0.000    2.138    2.138      16
 mp_sum_dm                          138 10.9    1.303    2.096    1.303    2.096       6
 qs_ks_build_kohn_sham_matrix         2  7.5    0.003    0.009    2.090    2.090      15
 compute_W                            1  7.0    0.000    0.000    1.953    1.953       1
 compute_AB_optimized_RI_basis        1  8.0    0.000    0.000    1.947    1.947       8
 compute_AB_optimized_RI_basis_       1  9.0    0.000    0.000    1.840    1.944       8
 fft_wrap_pw1pw2                     28 10.0    0.001    0.001    1.866    1.933       9
 fft_wrap_pw1pw2_300                 16 11.2    0.097    0.125    1.766    1.856      15
 init_scf_loop                        1  4.0    0.000    0.001    1.601    1.601       9
 qs_ks_update_qs_env                  2  5.0    0.000    0.001    1.594    1.594       0
 rebuild_ks_matrix                    1  6.0    0.000    0.000    1.594    1.594       4
 compute_M_pq_inv_and_V_pq            1  8.0    0.000    0.000    1.530    1.530      11
 fft3d_ps                            28 12.0    0.730    0.844    1.373    1.524       4
 cp_fm_get_submatrix                134 10.0    0.001    0.001    0.887    1.460      15
 cp_fm_gemm                         434 10.5    1.388    1.423    1.388    1.423      14
 parallel_gemm_fm_gemm              431  9.6    0.000    0.000    1.387    1.422      15
 compute_B_PQ_AB                      4 10.0    0.238    0.368    0.908    1.418       2
 compute_contracted_RI_matrix         2  9.0    0.000    0.001    1.373    1.374       5
 compute_optimized_RI_matrix_bl      20 10.0    0.166    0.209    1.237    1.368      13
 compute_fm_W_freq                   30  8.0    0.000    0.000    1.332    1.346       1
 compute_M_PQ_AB                    848 11.0    0.001    0.001    1.092    1.216       7
 compute_M_PQ                       848 12.0    0.001    0.001    1.091    1.215       1
 int_operators_r12_ab_os            848 13.0    0.000    0.000    1.090    1.214       7
 int_operator_ab_os_low             848 14.0    0.429    0.485    1.089    1.213       7
 qs_vxc_create                        2  8.5    0.000    0.000    1.070    1.089      15
 xc_vxc_pw_create                     1  9.0    0.017    0.021    1.070    1.089      10
 qs_rho_update_rho_low                2  5.0    0.000    0.000    1.042    1.042      13
 calculate_rho_elec                   2  6.0    0.019    0.019    1.042    1.042      15
 xc_pw_derive                         6 11.0    0.000    0.000    0.794    0.863       9
 contract_B_PQ                       18 11.9    0.474    0.752    0.513    0.811       2
 compute_Z_lP                         1  7.0    0.000    0.000    0.781    0.781       5
 compute_Z_lP_auto_ri                 1  8.0    0.001    0.001    0.781    0.781      15
 optimize_ri_rs_grid                  1  7.0    0.000    0.000    0.652    0.778       0
 compute_d_lp_auto_ri_batch           1  9.0    0.000    0.000    0.433    0.742       5
 compute_d_lp_auto_ri_atom            1 10.0    0.148    0.299    0.433    0.742       1
 mp_alltoall_z22v                    28 14.0    0.404    0.737    0.404    0.737       9
 density_rs2pw                        2  7.0    0.000    0.000    0.645    0.728      11
 compute_Sigma_c_and_QP_energie       1  7.0    0.000    0.000    0.688    0.704       9
 compute_Sigma_c                      1  8.0    0.003    0.004    0.616    0.616       5
 xc_pw_divergence                     1 10.0    0.000    0.000    0.530    0.601      12
 mp_sum_d                           724  4.7    0.294    0.573    0.294    0.573       9
 copy_dbcsr_to_fm                   104  9.5    0.246    0.559    0.252    0.566       9
 xc_rho_set_and_dset_create           1 10.0    0.017    0.041    0.507    0.553       5
 init_scf_run                         1  3.0    0.000    0.000    0.542    0.543       9
 scf_env_initial_rho_setup            1  4.0    0.000    0.000    0.542    0.542      12
 scf_env_do_scf_inner_loop            1  4.0    0.001    0.001    0.536    0.536       2
 abc_contract_xsmm                  885 11.0    0.289    0.512    0.289    0.512       2
 yz_to_x                             14 12.2    0.104    0.138    0.313    0.497      12
 compute_V_xc                         1  7.0    0.000    0.000    0.497    0.497       8
 contract_grid_panels_sigma_c        30  9.0    0.455    0.461    0.490    0.492       7
 sum_up_and_integrate                 2  8.5    0.000    0.000    0.463    0.477       7
 rirs_grid_LBFGS                      1  8.0    0.050    0.080    0.462    0.475       5
 integrate_v_rspace                   2  9.5    0.000    0.000    0.457    0.473       9
 qs_init_subsys                       1  2.0    0.001    0.001    0.471    0.473       0
 qs_env_setup                         1  3.0    0.000    0.000    0.470    0.471       8
 qs_env_rebuild_pw_env                2  3.5    0.000    0.000    0.469    0.471      14
 pw_env_rebuild                       1  5.0    0.000    0.001    0.469    0.471       3
 pw_grid_setup                        5  5.2    0.000    0.000    0.462    0.464       5
 pw_grid_setup_internal               5  6.2    0.009    0.009    0.462    0.464      14
 x_to_yz                             14 13.8    0.132    0.162    0.327    0.454       5
 setup_time_and_frequency_minim       1  7.0    0.000    0.000    0.277    0.453       0
 build_minimax_time_frequency_g       1  8.0    0.000    0.000    0.277    0.453       2
 fit_l_sq_weights                     3  9.0    0.277    0.453    0.277    0.453      15
 operator2                       425804 15.0    0.401    0.449    0.401    0.449       1
 potential_pw2rs                      2 10.5    0.001    0.002    0.425    0.440      15
 compute_B_PQ_exchange                9 10.9    0.000    0.000    0.257    0.406       9
 compute_B_PQ_transition              9 10.9    0.000    0.000    0.257    0.406       9
 pw_grid_sort                         5  7.2    0.274    0.280    0.396    0.404      11
 grid_collocate_task_list             2  7.0    0.363    0.397    0.363    0.397       2
 get_mat_chi_Gamma_tau                1  7.0    0.000    0.001    0.357    0.357       0
 evaluate_rirs_grid_cluster         301  9.0    0.022    0.050    0.151    0.351       5
 contract_grid_panels                31  8.0    0.289    0.293    0.311    0.316       1
 cp_fm_cholesky_invert               31  9.0    0.305    0.312    0.305    0.312       1
 mp_bcast_dm                         87  9.0    0.177    0.304    0.177    0.304      10
 initialize_ri_rs_grid                1  8.0    0.001    0.004    0.176    0.302      12
 qs_ks_ddapc                          2  8.5    0.000    0.000    0.280    0.291       9
 build_3c_integral_block_auto_r     120 11.0    0.000    0.000    0.151    0.290       5
 ab_contract                     426790 15.0    0.259    0.289    0.259    0.289       1
 transfer_rs2pw                       9  7.8    0.000    0.000    0.184    0.288       9
 mp_waitany                         198 11.3    0.141    0.252    0.141    0.252       9
 pw_poisson_solve                     2  8.5    0.000    0.000    0.237    0.246       9
 transfer_rs2pw_300                   3  8.3    0.051    0.066    0.142    0.245       1
 build_3c_integral_block_auto_r     120 11.0    0.134    0.239    0.134    0.239       2
 qs_energies_init_hamiltonians        1  3.0    0.000    0.001    0.199    0.199      16
 compute_fm_chi_Gamma_freq           30  8.0    0.054    0.092    0.147    0.195       5
 qs_env_update_s_mstruct              1  4.0    0.000    0.000    0.191    0.193      16
 compute_AA_optimized_RI_basis        1  8.0    0.001    0.001    0.189    0.190       5
 pw_gather_p                         14 11.2    0.153    0.189    0.153    0.189      11
 pw_copy                             28 10.5    0.165    0.176    0.165    0.176      13
 pw_derive                           12 11.2    0.156    0.173    0.156    0.173       5
 calculate_rho_core                   1  5.0    0.010    0.011    0.167    0.172       9
 cp_fm_cholesky_decompose            35  9.0    0.158    0.170    0.158    0.170       3
 pw_scatter_p                        14 12.8    0.136    0.169    0.136    0.169       5
 create_qs_kind_set                   1  2.0    0.000    0.000    0.165    0.166      16
 read_qs_kind                         2  3.0    0.042    0.044    0.165    0.166       0
 cp_fm_geeig                          2  9.5    0.000    0.000    0.166    0.166      14
 cp_fm_syevd                          5  9.0    0.000    0.000    0.165    0.165       5
 cp_fm_redistribute_end               5 10.0    0.082    0.163    0.083    0.163      11
 cp_fm_syevd_base                     5 10.0    0.080    0.161    0.080    0.161       8
 compute_B_PQ_AA                     18  9.0    0.000    0.000    0.150    0.159       4
 mp_sum_root_rm                      18 10.0    0.145    0.158    0.145    0.158      17
 compute_M_pq_inv                     1  9.0    0.000    0.000    0.156    0.156       0
 transfer_pw2rs                       8 11.5    0.000    0.000    0.154    0.155      16
 pw_poisson_set                       3  8.3    0.000    0.000    0.139    0.149       9
 fft_wrap_pw1pw2_100                  4 10.8    0.005    0.012    0.080    0.130      15
 sort_shells                          5  8.2    0.122    0.126    0.122    0.126      15
 build_G_ao                         121  8.5    0.003    0.004    0.118    0.125       5
 parser_read_line                 22513  4.0    0.004    0.004    0.123    0.124      11
 parser_read_line_low                27  5.0    0.003    0.036    0.119    0.120       0
 broadcast_input_information         27  6.0    0.012    0.024    0.116    0.119       1
 transfer_pw2rs_300                   2 12.5    0.043    0.050    0.098    0.106       4
 cp_ddapc_apply_CD                    2  9.5    0.000    0.000    0.065    0.103       0
 xc_functional_eval                   1 11.0    0.000    0.000    0.073    0.102       5
 pbe_lda_eval                         1 12.0    0.073    0.102    0.073    0.102       6
 rirs_cluster_gradient_coordina     301 10.0    0.042    0.093    0.042    0.093       5
 G_occ_vir                          121  9.5    0.007    0.008    0.084    0.093       6
 pw_integral_ab_c1d_c1d_gs            4 10.0    0.069    0.075    0.078    0.093      15
 check_for_restart_files              1  7.0    0.083    0.088    0.083    0.088       2
 copy_fm_to_dbcsr                   161  9.3    0.072    0.079    0.081    0.087      16
 Fourier_transform_w_to_t            30  8.0    0.001    0.001    0.050    0.081       9
 cp_fm_scale_and_add                901  9.0    0.050    0.080    0.050    0.080       1
 compute_QP_energies                  1  8.0    0.000    0.000    0.072    0.076       1
 cp_fm_uplo_to_full                  63  9.0    0.048    0.074    0.048    0.074       5
 pw_copy_to_array                    14 11.2    0.063    0.072    0.063    0.072      13
 rirs_cluster_gradient_products     301 10.0    0.031    0.071    0.031    0.071       2
 mp_bcast_i_src                     113  7.0    0.051    0.070    0.051    0.070      17
 mp_bcast_am_src                     27  7.0    0.053    0.068    0.053    0.068      12
 pw_axpy                             25  6.6    0.059    0.067    0.059    0.067       4
 solve_AB_eigenproblem                4 10.0    0.031    0.045    0.046    0.065       2
 get_ddapc                            2 10.5    0.000    0.000    0.025    0.063       1
 mp_waitall_1                        95 12.9    0.039    0.060    0.039    0.060       9
 local_gemm                        6584 12.9    0.039    0.060    0.039    0.060       2
 to_Gamma_and_mo_real                62  9.0    0.001    0.001    0.054    0.054      17
 rirs_cluster_AO_products           301 10.0    0.018    0.050    0.018    0.050       5
 rirs_cluster_residual              301 10.0    0.019    0.046    0.019    0.046       5
 transfer_pw2rs_100                   2 12.5    0.011    0.013    0.036    0.044       3
 eval_bandstructure_properties        1  5.0    0.000    0.000    0.042    0.043       6
 pw_copy_from_array                  14 12.8    0.036    0.043    0.036    0.043       7
 cp_cfm_geeig                         1  6.0    0.000    0.000    0.038    0.039      11
 pw_grid_assign                       5  7.2    0.029    0.033    0.031    0.033       4
 compute_int_3c                       2  9.0    0.021    0.024    0.029    0.033      15
 grid_integrate_task_list             2 10.5    0.015    0.032    0.015    0.032       0
 diamat_all                          20 11.5    0.023    0.032    0.023    0.032       2
 create_and_init_bs_env               1  5.0    0.000    0.000    0.031    0.032      16
 compute_Sigma_x                      1  7.0    0.000    0.000    0.031    0.032       0
 rirs_grid_build_clusters             1  8.0    0.009    0.020    0.014    0.031       1
 mp_sum_iv                          142 10.0    0.023    0.031    0.023    0.031       8
 pw_zero                             25  4.7    0.022    0.030    0.022    0.030      12
 transfer_rs2pw_100                   2  9.0    0.009    0.011    0.025    0.030      10
 extract_masked_blocks              244  9.6    0.023    0.029    0.023    0.029       5
 pw_grid_remap                        4  8.0    0.006    0.007    0.019    0.029       1
 diagonalize_ks_matrix                1  6.0    0.000    0.000    0.028    0.028       4
 cp_fm_geeig_canon                    1  7.0    0.000    0.000    0.028    0.028       6
 rs_grid_zero                         5 12.0    0.025    0.028    0.025    0.028      14
 eval_pw_TabLR                        1  2.0    0.009    0.012    0.021    0.025       9
 extract_grid_panel                 122  9.5    0.017    0.024    0.017    0.024       5
 mp_alltoall_d11v                     4  9.8    0.018    0.024    0.018    0.024      14
 fft_wrap_pw1pw2_40                   4 10.8    0.001    0.002    0.015    0.024       2
 rs_gather_matrices                   2 10.5    0.000    0.000    0.018    0.024      13
 mp_sum_im3                           5  9.0    0.012    0.023    0.012    0.023      17
 compute_reference_M_PQ_inv_fac      14 10.8    0.000    0.001    0.016    0.023       2
 rirs_cluster_d_lP                  301 10.0    0.010    0.022    0.010    0.022       2
 rirs_cluster_D_ll                  301 10.0    0.008    0.021    0.008    0.021       1
 transfer_pw2rs_40                    2 12.5    0.007    0.008    0.016    0.021       3
 cp_cfm_heevd                         1  7.0    0.000    0.000    0.018    0.018       6
 cp_cfm_heevd_base                    1  8.0    0.018    0.018    0.018    0.018      16
 fill_fm_Sigma_c_Gamma_time           1  9.0    0.000    0.000    0.018    0.018      15
 cp_cfm_cholesky_decompose            2  7.0    0.017    0.018    0.017    0.018      11
 pw_multiply_with                     2  9.5    0.015    0.018    0.015    0.018       4
 pw_poisson_rebuild                   2  9.5    0.009    0.018    0.009    0.018       6
 cp_ddapc_init                        1  5.0    0.000    0.000    0.017    0.017      16
 cp_ddapc_create                      1  6.0    0.000    0.000    0.017    0.017       3
 collect_used_col_blocks             92  9.7    0.000    0.000    0.010    0.017      15
 compute_Z_lP_auto_ri_dpotrs          1  9.0    0.011    0.017    0.011    0.017       9
 qs_create_task_list                  1  5.0    0.000    0.000    0.007    0.017       0
 compute_V_MinvVsqrt                  1  8.0    0.000    0.000    0.015    0.016       6
 generate_qs_task_list                1  6.0    0.001    0.001    0.007    0.016      16
 cp_fm_triangular_multiply            7 10.0    0.016    0.016    0.016    0.016       7
 distribute_tasks                     1  7.0    0.000    0.000    0.007    0.016       8
 load_balance_distributed             2  8.0    0.000    0.000    0.005    0.014       5
 get_current_loads                   12  9.0    0.000    0.000    0.005    0.014       4
 transfer_rs2pw_40                    2  9.0    0.005    0.005    0.013    0.014       0
 compute_load_list                    4  9.0    0.000    0.000    0.005    0.014      12
 mp_alltoall_l                       13  9.9    0.005    0.014    0.005    0.014       9
 ddapc_eval_gfunc                     1  7.0    0.012    0.014    0.012    0.014      10
 get_fft_scratch                     29 12.7    0.012    0.013    0.012    0.013       1
 mp_sync                             10  9.2    0.008    0.013    0.008    0.013       4
 build_phi_on_complete_grid           1  9.0    0.000    0.000    0.010    0.013       5
 build_phi_on_sphere                  1 10.0    0.000    0.000    0.010    0.013      15
 -------------------------------------------------------------------------------

 The number of warnings for this run is : 4
 
 -------------------------------------------------------------------------------
  **** **** ******  **  PROGRAM ENDED AT                 2026-10-03 04:33:49.622
 ***** ** ***  *** **   PROGRAM RAN ON                                  n2cn0749
 **    ****   ******    PROGRAM RAN BY                                  eprop2d1
 ***** **    ** ** **   PROGRAM PROCESS ID                               3957664
  **** **  *******  **  PROGRAM STOPPED IN /scratch/hpc-prf-metdyn/eprop2d1_Jan/
                                           53_benchmark_RI_opt/418_gw100_fig5_fu
                                           ll_epsfilter_1e12_20261002/calculatio
                                           ns/rc0p5/ri4_rs02/87_C8H10
