 DBCSR| CPU Multiplication driver                                           XSMM (U)
 DBCSR| Multrec recursion limit                                              512 (U)
 DBCSR| Multiplication stack size                                           1000 (D)
 DBCSR| Maximum elements for images                                    UNLIMITED (U)
 DBCSR| Multiplicative factor virtual images                                   1 (U)
 DBCSR| Use multiplication densification                                       T (D)
 DBCSR| Multiplication size stacks                                             3 (U)
 DBCSR| Use memory pool for CPU allocation                                     F (U)
 DBCSR| Number of 3D layers                                               SINGLE (U)
 DBCSR| Use MPI memory allocation                                              F (U)
 DBCSR| Use RMA algorithm                                                      F (U)
 DBCSR| Use Communication thread                                               T (U)
 DBCSR| Communication thread load                                             75 (D)
 DBCSR| MPI: My process id                                                     0
 DBCSR| MPI: Number of processes                                              32
 DBCSR| OMP: Current number of threads                                         4
 DBCSR| OMP: Max number of threads                                             4
 DBCSR| Split modifier for TAS multiplication algorithm                  1.0E+00 (U)


  **** **** ******  **  PROGRAM STARTED AT               2026-09-17 22:57:54.940
 ***** ** ***  *** **   PROGRAM STARTED ON                              n2cn0503
 **    ****   ******    PROGRAM STARTED BY                              eprop2d1
 ***** **    ** ** **   PROGRAM PROCESS ID                                283442
  **** **  *******  **  PROGRAM STARTED IN /scratch/hpc-prf-metdyn/eprop2d1_Jan/
                                           53_benchmark_RI_opt/129_GW100_Si293_A
                                           O_frontier_optimization_coopfst/follo
                                           wups/pbe_g0w0/gw100/79_OCS/dzvp_t1

 CP2K| version string:                 CP2K version 2026.2 (Development Version)
 CP2K| source code revision number:                                      d1dff42
 CP2K| cp2kflags: omp libint fftw3 libxc parallel scalapack openblas            
 CP2K| is freely available from                            https://www.cp2k.org/
 CP2K| Program compiled at                                   2026-09-17 17:57:35
 CP2K| Program compiled on                                              n2login6
 CP2K| Program compiled for                                               x86_64
 CP2K| Data directory path    /scratch/hpc-prf-metdyn/eprop2d1_Jan/53_benchmark_
 CP2K| Input file name        /scratch/hpc-prf-metdyn/eprop2d1_Jan/53_benchmark_

 GLOBAL| Force Environment number                                              1
 GLOBAL| Basis set file name            /scratch/hpc-prf-metdyn/eprop2d1_Jan/53_
 GLOBAL| Potential file name            /scratch/hpc-prf-metdyn/eprop2d1_Jan/53_
 GLOBAL| MM Potential file name                                     MM_POTENTIAL
 GLOBAL| Coordinate file name                                      __STD_INPUT__
 GLOBAL| Method name                                                        CP2K
 GLOBAL| Project name                                              gw129g_079_d1
 GLOBAL| Run type                                                         ENERGY
 GLOBAL| FFT library                                                       FFTW3
 GLOBAL| Diagonalization library                                       ScaLAPACK
 GLOBAL| Cholesky decomposition library                                ScaLAPACK
 GLOBAL| DGEMM library                                                      BLAS
 GLOBAL| Direct generalized diagonalization requested                          F
 GLOBAL| Orthonormality check for eigenvectors                          DISABLED
 GLOBAL| Matrix multiplication library                                 ScaLAPACK
 GLOBAL| All-to-all communication in single precision                          F
 GLOBAL| Grid backend                                                       AUTO
 GLOBAL| Global print level                                               MEDIUM
 GLOBAL| MPI I/O enabled                                                       T
 GLOBAL| Total number of message passing processes                            32
 GLOBAL| Number of distributed systems (nodes)                                 1
 GLOBAL| Number of threads for this process                                    4
 GLOBAL| This output is from process                                           0
 GLOBAL| OpenMP stack size per thread (OMP_STACKSIZE)                       512M
 GLOBAL| CPU model name                          AMD EPYC 7763 64-Core Processor

 MEMORY| system memory details [Kb]
 MEMORY|                        rank 0           min           max       average
 MEMORY| MemTotal            263897600     263897600     263897600     263897600
 MEMORY| MemFree             245839764     245839764     245840236     245839778
 MEMORY| Buffers                325640        325640        325640        325640
 MEMORY| Cached                7317644       7317360       7317644       7317629
 MEMORY| Slab                  1354448       1354448       1354448       1354448
 MEMORY| SReclaimable           272492        272492        272492        272492
 MEMORY| MemLikelyFree       253755540     253755528     253755728     253755540


 *** Fundamental physical constants (SI units) ***

 *** Literature: B. J. Mohr and B. N. Taylor,
 ***             CODATA recommended values of the fundamental physical
 ***             constants: 2006, Web Version 5.1
 ***             http://physics.nist.gov/constants

 Speed of light in vacuum [m/s]                             2.99792458000000E+08
 Magnetic constant or permeability of vacuum [N/A**2]       1.25663706143592E-06
 Electric constant or permittivity of vacuum [F/m]          8.85418781762039E-12
 Planck constant (h) [J*s]                                  6.62606896000000E-34
 Planck constant (h-bar) [J*s]                              1.05457162825177E-34
 Elementary charge [C]                                      1.60217648700000E-19
 Electron mass [kg]                                         9.10938215000000E-31
 Electron g factor [ ]                                     -2.00231930436220E+00
 Proton mass [kg]                                           1.67262163700000E-27
 Fine-structure constant                                    7.29735253760000E-03
 Rydberg constant [1/m]                                     1.09737315685270E+07
 Avogadro constant [1/mol]                                  6.02214179000000E+23
 Boltzmann constant [J/K]                                   1.38065040000000E-23
 Atomic mass unit [kg]                                      1.66053878200000E-27
 Bohr radius [m]                                            5.29177208590000E-11

 *** Conversion factors ***

 [u] -> [a.u.]                                              1.82288848426455E+03
 [Angstrom] -> [Bohr] = [a.u.]                              1.88972613288564E+00
 [a.u.] = [Bohr] -> [Angstrom]                              5.29177208590000E-01
 [a.u.] -> [s]                                              2.41888432650478E-17
 [a.u.] -> [fs]                                             2.41888432650478E-02
 [a.u.] -> [J]                                              4.35974393937059E-18
 [a.u.] -> [N]                                              8.23872205491840E-08
 [a.u.] -> [K]                                              3.15774647902944E+05
 [a.u.] -> [kJ/mol]                                         2.62549961709828E+03
 [a.u.] -> [kcal/mol]                                       6.27509468713739E+02
 [a.u.] -> [Pa]                                             2.94210107994716E+13
 [a.u.] -> [bar]                                            2.94210107994716E+08
 [a.u.] -> [atm]                                            2.90362800883016E+08
 [a.u.] -> [eV]                                             2.72113838565563E+01
 [a.u.] -> [Hz]                                             6.57968392072181E+15
 [a.u.] -> [1/cm] (wave numbers)                            2.19474631370540E+05
 [a.u./Bohr**2] -> [1/cm]                                   5.14048714338585E+03
 

 CELL| Volume [angstrom^3]:                                          8000.000000
 CELL| Vector a [angstrom]:      20.000     0.000     0.000   |a| =    20.000000
 CELL| Vector b [angstrom]:       0.000    20.000     0.000   |b| =    20.000000
 CELL| Vector c [angstrom]:       0.000     0.000    20.000   |c| =    20.000000
 CELL| Angle (b,c), alpha [degree]:                                    90.000000
 CELL| Angle (a,c), beta  [degree]:                                    90.000000
 CELL| Angle (a,b), gamma [degree]:                                    90.000000
 CELL| Numerically orthorhombic:                                             YES
 CELL| Periodicity                                                          NONE

 CELL_REF| Volume [angstrom^3]:                                      8000.000000
 CELL_REF| Vector a [angstrom    20.000     0.000     0.000   |a| =    20.000000
 CELL_REF| Vector b [angstrom     0.000    20.000     0.000   |b| =    20.000000
 CELL_REF| Vector c [angstrom     0.000     0.000    20.000   |c| =    20.000000
 CELL_REF| Angle (b,c), alpha [degree]:                                90.000000
 CELL_REF| Angle (a,c), beta  [degree]:                                90.000000
 CELL_REF| Angle (a,b), gamma [degree]:                                90.000000
 CELL_REF| Numerically orthorhombic:                                         YES
 CELL_REF| Periodicity                                                      NONE

 GENERATE|  Preliminary Number of Bonds generated:                             0
 GENERATE|  Achieved consistency in connectivity generation.

 PW_GRID| Information for grid number                                          1
 PW_GRID| Cutoff [a.u.]                                                      8.0
 PW_GRID| spherical cutoff:                                                   NO
 PW_GRID|   Bounds   1              0      49                Points:          50
 PW_GRID|   Bounds   2              0      49                Points:          50
 PW_GRID|   Bounds   3              0      49                Points:          50
 PW_GRID| Volume element (a.u.^3)  0.4319         Volume (a.u.^3)     53986.6767
 PW_GRID| Grid span                                                    HALFSPACE

 *******************************************************************************
 *******************************************************************************
 **                                                                           **
 **     #####                         ##              ##                      **
 **    ##   ##            ##          ##              ##                      **
 **   ##     ##                       ##            ######                    **
 **   ##     ##  ##   ##  ##   #####  ##  ##   ####   ##    #####    #####    **
 **   ##     ##  ##   ##  ##  ##      ## ##   ##      ##   ##   ##  ##   ##   **
 **   ##  ## ##  ##   ##  ##  ##      ####     ###    ##   ######   ######    **
 **    ##  ###   ##   ##  ##  ##      ## ##      ##   ##   ##       ##        **
 **     #######   #####   ##   #####  ##  ##  ####    ##    #####   ##        **
 **           ##                                                    ##        **
 **                                                                           **
 **                                                ... make the atoms dance   **
 **                                                                           **
 **            Copyright (C) by CP2K developers group (2000-2026)             **
 **                      J. Chem. Phys. 152, 194103 (2020)                    **
 **                                                                           **
 *******************************************************************************

 DFT| Spin restricted Kohn-Sham (RKS) calculation                            RKS
 DFT| Multiplicity                                                             1
 DFT| Number of spin states                                                    1
 DFT| Charge                                                                   0
 DFT| Self-interaction correction (SIC)                                       NO
 DFT| Cutoffs: density                                              1.000000E-10
 DFT|          gradient                                             1.000000E-10
 DFT|          tau                                                  1.000000E-10
 DFT|          cutoff_smoothing_range                               0.000000E+00
 DFT| XC density smoothing                                                  NONE
 DFT| XC derivatives                                                          PW

 FUNCTIONAL| PBE:
 FUNCTIONAL| J.P.Perdew, K.Burke, M.Ernzerhof, Phys. Rev. Letter, vol. 77, n 18,
 FUNCTIONAL|  pp. 3865-3868, (1996) {spin unpolarized}                          


 QS| Method:                                                                 GPW
 QS| Density plane wave grid type                        NON-SPHERICAL FULLSPACE
 QS| Number of grid levels:                                                    5
 QS| Density cutoff [a.u.]:                                                300.0
 QS| Multi grid cutoff [a.u.]: 1) grid level                               300.0
 QS|                           2) grid level                               100.0
 QS|                           3) grid level                                33.3
 QS|                           4) grid level                                11.1
 QS|                           5) grid level                                 3.7
 QS| Grid level progression factor:                                          3.0
 QS| Relative density cutoff [a.u.]:                                        30.0
 QS| Interaction thresholds: eps_pgf_orb:                                1.0E-12
 QS|                         eps_filter_matrix:                          0.0E+00
 QS|                         eps_core_charge:                            1.0E-14
 QS|                         eps_rho_gspace:                             1.0E-12
 QS|                         eps_rho_rspace:                             1.0E-12
 QS|                         eps_gvg_rspace:                             1.0E-06
 QS|                         eps_ppl:                                    1.0E-02
 QS|                         eps_ppnl:                                   1.0E-08


 ATOMIC KIND INFORMATION

  1. Atomic kind: O                                     Number of atoms:       1

     Orbital Basis Set                              AUG-DZVP-MOLOPT-GTH-TIER-1_3

       Number of orbital shell sets:                                           1
       Number of orbital shells:                                               8
       Number of primitive Cartesian functions:                                7
       Number of Cartesian basis functions:                                   24
       Number of spherical basis functions:                                   22
       Norm type:                                                              2

       Normalised Cartesian orbitals:

                        Set   Shell   Orbital            Exponent    Coefficient

                          1       1    2s                0.046761      -0.000019
                                                         0.142977       0.015788
                                                         0.352316       0.150829
                                                         0.832382       0.295475
                                                         2.048398       0.148191
                                                         5.108150      -0.322498
                                                        12.015955      -0.284499

                          1       2    3s                0.046761       0.000509
                                                         0.142977       0.132878
                                                         0.352316       0.218878
                                                         0.832382      -0.474871
                                                         2.048398      -0.023507
                                                         5.108150       0.290576
                                                        12.015955       0.380954

                          1       3    4s                0.046761       0.022157
                                                         0.142977      -0.280751
                                                         0.352316       0.420564
                                                         0.832382      -0.307474
                                                         2.048398      -1.089579
                                                         5.108150       1.197751
                                                        12.015955       1.923270

                          1       4    3px               0.046761       0.000308
                                                         0.142977       0.022184
                                                         0.352316       0.116648
                                                         0.832382       0.408839
                                                         2.048398       0.897267
                                                         5.108150       1.354170
                                                        12.015955       1.192141
                          1       4    3py               0.046761       0.000308
                                                         0.142977       0.022184
                                                         0.352316       0.116648
                                                         0.832382       0.408839
                                                         2.048398       0.897267
                                                         5.108150       1.354170
                                                        12.015955       1.192141
                          1       4    3pz               0.046761       0.000308
                                                         0.142977       0.022184
                                                         0.352316       0.116648
                                                         0.832382       0.408839
                                                         2.048398       0.897267
                                                         5.108150       1.354170
                                                        12.015955       1.192141

                          1       5    4px               0.046761       0.000964
                                                         0.142977       0.086571
                                                         0.352316       0.174093
                                                         0.832382      -0.567049
                                                         2.048398      -0.819064
                                                         5.108150      -1.427036
                                                        12.015955      -1.185877
                          1       5    4py               0.046761       0.000964
                                                         0.142977       0.086571
                                                         0.352316       0.174093
                                                         0.832382      -0.567049
                                                         2.048398      -0.819064
                                                         5.108150      -1.427036
                                                        12.015955      -1.185877
                          1       5    4pz               0.046761       0.000964
                                                         0.142977       0.086571
                                                         0.352316       0.174093
                                                         0.832382      -0.567049
                                                         2.048398      -0.819064
                                                         5.108150      -1.427036
                                                        12.015955      -1.185877

                          1       6    5px               0.046761      -0.002805
                                                         0.142977      -0.158186
                                                         0.352316       0.478242
                                                         0.832382      -1.234786
                                                         2.048398       3.004189
                                                         5.108150       1.814545
                                                        12.015955       2.830086
                          1       6    5py               0.046761      -0.002805
                                                         0.142977      -0.158186
                                                         0.352316       0.478242
                                                         0.832382      -1.234786
                                                         2.048398       3.004189
                                                         5.108150       1.814545
                                                        12.015955       2.830086
                          1       6    5pz               0.046761      -0.002805
                                                         0.142977      -0.158186
                                                         0.352316       0.478242
                                                         0.832382      -1.234786
                                                         2.048398       3.004189
                                                         5.108150       1.814545
                                                        12.015955       2.830086

                          1       7    4dx2              0.046761      -0.000027
                                                         0.142977       0.010378
                                                         0.352316       0.048604
                                                         0.832382       0.756334
                                                         2.048398       0.999335
                                                         5.108150       1.160468
                                                        12.015955       1.125955
                          1       7    4dxy              0.046761      -0.000046
                                                         0.142977       0.017974
                                                         0.352316       0.084185
                                                         0.832382       1.310009
                                                         2.048398       1.730899
                                                         5.108150       2.009990
                                                        12.015955       1.950212
                          1       7    4dxz              0.046761      -0.000046
                                                         0.142977       0.017974
                                                         0.352316       0.084185
                                                         0.832382       1.310009
                                                         2.048398       1.730899
                                                         5.108150       2.009990
                                                        12.015955       1.950212
                          1       7    4dy2              0.046761      -0.000027
                                                         0.142977       0.010378
                                                         0.352316       0.048604
                                                         0.832382       0.756334
                                                         2.048398       0.999335
                                                         5.108150       1.160468
                                                        12.015955       1.125955
                          1       7    4dyz              0.046761      -0.000046
                                                         0.142977       0.017974
                                                         0.352316       0.084185
                                                         0.832382       1.310009
                                                         2.048398       1.730899
                                                         5.108150       2.009990
                                                        12.015955       1.950212
                          1       7    4dz2              0.046761      -0.000027
                                                         0.142977       0.010378
                                                         0.352316       0.048604
                                                         0.832382       0.756334
                                                         2.048398       0.999335
                                                         5.108150       1.160468
                                                        12.015955       1.125955

                          1       8    5dx2              0.046761       0.000715
                                                         0.142977      -0.019187
                                                         0.352316       0.086749
                                                         0.832382       0.332265
                                                         2.048398      -5.312926
                                                         5.108150      -6.093433
                                                        12.015955     -21.004919
                          1       8    5dxy              0.046761       0.001238
                                                         0.142977      -0.033232
                                                         0.352316       0.150253
                                                         0.832382       0.575500
                                                         2.048398      -9.202259
                                                         5.108150     -10.554136
                                                        12.015955     -36.381587
                          1       8    5dxz              0.046761       0.001238
                                                         0.142977      -0.033232
                                                         0.352316       0.150253
                                                         0.832382       0.575500
                                                         2.048398      -9.202259
                                                         5.108150     -10.554136
                                                        12.015955     -36.381587
                          1       8    5dy2              0.046761       0.000715
                                                         0.142977      -0.019187
                                                         0.352316       0.086749
                                                         0.832382       0.332265
                                                         2.048398      -5.312926
                                                         5.108150      -6.093433
                                                        12.015955     -21.004919
                          1       8    5dyz              0.046761       0.001238
                                                         0.142977      -0.033232
                                                         0.352316       0.150253
                                                         0.832382       0.575500
                                                         2.048398      -9.202259
                                                         5.108150     -10.554136
                                                        12.015955     -36.381587
                          1       8    5dz2              0.046761       0.000715
                                                         0.142977      -0.019187
                                                         0.352316       0.086749
                                                         0.832382       0.332265
                                                         2.048398      -5.312926
                                                         5.108150      -6.093433
                                                        12.015955     -21.004919

     RI Auxiliary Basis Set             RI_aug-DZVP-MOLOPT-GTH-tier-1_N_RI_115_s

       Number of orbital shell sets:                                          27
       Number of orbital shells:                                              27
       Number of primitive Cartesian functions:                               27
       Number of Cartesian basis functions:                                  151
       Number of spherical basis functions:                                  115
       Norm type:                                                              2

       Normalised Cartesian orbitals:

                        Set   Shell   Orbital            Exponent    Coefficient

                          1       1    1s                0.120368       0.145644

                          2       1    2s                0.296311       0.286234

                          3       1    3s                0.730589       0.563203

                          4       1    4s                1.594562       1.011326

                          5       1    5s                3.319889       1.752882

                          6       1    6s                8.154762       3.439288

                          7       1    7s               19.895255       6.713859

                          8       1    8px               0.154396       0.137954
                          8       1    8py               0.154396       0.137954
                          8       1    8pz               0.154396       0.137954

                          9       1    9px               0.442882       0.514991
                          9       1    9py               0.442882       0.514991
                          9       1    9pz               0.442882       0.514991

                         10       1   10px               1.119706       1.641800
                         10       1   10py               1.119706       1.641800
                         10       1   10pz               1.119706       1.641800

                         11       1   11px               1.896740       3.172852
                         11       1   11py               1.896740       3.172852
                         11       1   11pz               1.896740       3.172852

                         12       1   12px               5.292999      11.443723
                         12       1   12py               5.292999      11.443723
                         12       1   12pz               5.292999      11.443723

                         13       1   13px              15.649534      44.367693
                         13       1   13py              15.649534      44.367693
                         13       1   13pz              15.649534      44.367693

                         14       1   14dx2              0.209636       0.106899
                         14       1   14dxy              0.209636       0.185155
                         14       1   14dxz              0.209636       0.185155
                         14       1   14dy2              0.209636       0.106899
                         14       1   14dyz              0.209636       0.185155
                         14       1   14dz2              0.209636       0.106899

                         15       1   15dx2              0.534518       0.549977
                         15       1   15dxy              0.534518       0.952587
                         15       1   15dxz              0.534518       0.952587
                         15       1   15dy2              0.534518       0.549977
                         15       1   15dyz              0.534518       0.952587
                         15       1   15dz2              0.534518       0.549977

                         16       1   16dx2              1.314306       2.655388
                         16       1   16dxy              1.314306       4.599268
                         16       1   16dxz              1.314306       4.599268
                         16       1   16dy2              1.314306       2.655388
                         16       1   16dyz              1.314306       4.599268
                         16       1   16dz2              1.314306       2.655388

                         17       1   17dx2              2.979612      11.122153
                         17       1   17dxy              2.979612      19.264133
                         17       1   17dxz              2.979612      19.264133
                         17       1   17dy2              2.979612      11.122153
                         17       1   17dyz              2.979612      19.264133
                         17       1   17dz2              2.979612      11.122153

                         18       1   18dx2              7.252807      52.758831
                         18       1   18dxy              7.252807      91.380976
                         18       1   18dxz              7.252807      91.380976
                         18       1   18dy2              7.252807      52.758831
                         18       1   18dyz              7.252807      91.380976
                         18       1   18dz2              7.252807      52.758831

                         19       1   19dx2             18.375586     268.430304
                         19       1   19dxy             18.375586     464.934924
                         19       1   19dxz             18.375586     464.934924
                         19       1   19dy2             18.375586     268.430304
                         19       1   19dyz             18.375586     464.934924
                         19       1   19dz2             18.375586     268.430304

                         20       1   20fx3              0.116599       0.011695
                         20       1   20fx2y             0.116599       0.026152
                         20       1   20fx2z             0.116599       0.026152
                         20       1   20fxy2             0.116599       0.026152
                         20       1   20fxyz             0.116599       0.045296
                         20       1   20fxz2             0.116599       0.026152
                         20       1   20fy3              0.116599       0.011695
                         20       1   20fy2z             0.116599       0.026152
                         20       1   20fyz2             0.116599       0.026152
                         20       1   20fz3              0.116599       0.011695

                         21       1   21fx3              0.319276       0.112805
                         21       1   21fx2y             0.319276       0.252240
                         21       1   21fx2z             0.319276       0.252240
                         21       1   21fxy2             0.319276       0.252240
                         21       1   21fxyz             0.319276       0.436893
                         21       1   21fxz2             0.319276       0.252240
                         21       1   21fy3              0.319276       0.112805
                         21       1   21fy2z             0.319276       0.252240
                         21       1   21fyz2             0.319276       0.252240
                         21       1   21fz3              0.319276       0.112805

                         22       1   22fx3              1.122948       1.911012
                         22       1   22fx2y             1.122948       4.273152
                         22       1   22fx2z             1.122948       4.273152
                         22       1   22fxy2             1.122948       4.273152
                         22       1   22fxyz             1.122948       7.401316
                         22       1   22fxz2             1.122948       4.273152
                         22       1   22fy3              1.122948       1.911012
                         22       1   22fy2z             1.122948       4.273152
                         22       1   22fyz2             1.122948       4.273152
                         22       1   22fz3              1.122948       1.911012

                         23       1   23fx3              2.136777       8.126666
                         23       1   23fx2y             2.136777      18.171778
                         23       1   23fx2z             2.136777      18.171778
                         23       1   23fxy2             2.136777      18.171778
                         23       1   23fxyz             2.136777      31.474444
                         23       1   23fxz2             2.136777      18.171778
                         23       1   23fy3              2.136777       8.126666
                         23       1   23fy2z             2.136777      18.171778
                         23       1   23fyz2             2.136777      18.171778
                         23       1   23fz3              2.136777       8.126666

                         24       1   24fx3              4.836619      51.070915
                         24       1   24fx2y             4.836619     114.198037
                         24       1   24fx2z             4.836619     114.198037
                         24       1   24fxy2             4.836619     114.198037
                         24       1   24fxyz             4.836619     197.796803
                         24       1   24fxz2             4.836619     114.198037
                         24       1   24fy3              4.836619      51.070915
                         24       1   24fy2z             4.836619     114.198037
                         24       1   24fyz2             4.836619     114.198037
                         24       1   24fz3              4.836619      51.070915

                         25       1   25fx3             14.235428     579.479542
                         25       1   25fx2y            14.235428    1295.755648
                         25       1   25fx2z            14.235428    1295.755648
                         25       1   25fxy2            14.235428    1295.755648
                         25       1   25fxyz            14.235428    2244.314617
                         25       1   25fxz2            14.235428    1295.755648
                         25       1   25fy3             14.235428     579.479542
                         25       1   25fy2z            14.235428    1295.755648
                         25       1   25fyz2            14.235428    1295.755648
                         25       1   25fz3             14.235428     579.479542

                         26       1   26gx4              0.101733       0.002075
                         26       1   26gx3y             0.101733       0.005489
                         26       1   26gx3z             0.101733       0.005489
                         26       1   26gx2y2            0.101733       0.007086
                         26       1   26gx2yz            0.101733       0.012274
                         26       1   26gx2z2            0.101733       0.007086
                         26       1   26gxy3             0.101733       0.005489
                         26       1   26gxy2z            0.101733       0.012274
                         26       1   26gxyz2            0.101733       0.012274
                         26       1   26gxz3             0.101733       0.005489
                         26       1   26gy4              0.101733       0.002075
                         26       1   26gy3z             0.101733       0.005489
                         26       1   26gy2z2            0.101733       0.007086
                         26       1   26gyz3             0.101733       0.005489
                         26       1   26gz4              0.101733       0.002075

                         27       1   27gx4             15.532443    2100.606751
                         27       1   27gx3y            15.532443    5557.683065
                         27       1   27gx3z            15.532443    5557.683065
                         27       1   27gx2y2           15.532443    7174.937985
                         27       1   27gx2yz           15.532443   12427.357131
                         27       1   27gx2z2           15.532443    7174.937985
                         27       1   27gxy3            15.532443    5557.683065
                         27       1   27gxy2z           15.532443   12427.357131
                         27       1   27gxyz2           15.532443   12427.357131
                         27       1   27gxz3            15.532443    5557.683065
                         27       1   27gy4             15.532443    2100.606751
                         27       1   27gy3z            15.532443    5557.683065
                         27       1   27gy2z2           15.532443    7174.937985
                         27       1   27gyz3            15.532443    5557.683065
                         27       1   27gz4             15.532443    2100.606751

       Atomic covalent radius [Angstrom]:                                  0.730

       Atomic van der Waals radius [Angstrom]:                             1.520

     GTH Potential information for                                       GTH-PBE

       Description:                       Goedecker-Teter-Hutter pseudopotential
                                           Goedecker et al., PRB 54, 1703 (1996)
                                          Hartwigsen et al., PRB 58, 3641 (1998)
                                                      Krack, TCA 114, 145 (2005)

       Gaussian exponent of the core charge distribution:               8.360253
       Electronic configuration (s p d ...):                               2   4

       Parameters of the local part of the GTH pseudopotential:

                          rloc        C1          C2          C3          C4
                        0.244554  -16.667215    2.487311

       Parameters of the non-local part of the GTH pseudopotential:

                   l      r(l)      h(i,j,l)

                   0    0.220956   18.337458
                   1    0.211332

  2. Atomic kind: C                                     Number of atoms:       1

     Orbital Basis Set                              AUG-DZVP-MOLOPT-GTH-TIER-1_3

       Number of orbital shell sets:                                           1
       Number of orbital shells:                                               8
       Number of primitive Cartesian functions:                                7
       Number of Cartesian basis functions:                                   24
       Number of spherical basis functions:                                   22
       Norm type:                                                              2

       Normalised Cartesian orbitals:

                        Set   Shell   Orbital            Exponent    Coefficient

                          1       1    2s                0.030287       0.000417
                                                         0.075145       0.000568
                                                         0.178617       0.065483
                                                         0.478316       0.306085
                                                         1.045457       0.042712
                                                         2.625196      -0.231112
                                                         6.132625      -0.263661

                          1       2    3s                0.030287       0.004833
                                                         0.075145      -0.093566
                                                         0.178617      -0.026367
                                                         0.478316       0.082670
                                                         1.045457      -0.426371
                                                         2.625196       0.514907
                                                         6.132625       0.369185

                          1       3    4s                0.030287      -0.042789
                                                         0.075145       0.005918
                                                         0.178617      -0.083716
                                                         0.478316       0.081892
                                                         1.045457      -0.041122
                                                         2.625196       0.053487
                                                         6.132625      -0.266063

                          1       4    3px               0.030287       0.000105
                                                         0.075145       0.003677
                                                         0.178617       0.052379
                                                         0.478316       0.235193
                                                         1.045457       0.379157
                                                         2.625196       0.633910
                                                         6.132625       0.562677
                          1       4    3py               0.030287       0.000105
                                                         0.075145       0.003677
                                                         0.178617       0.052379
                                                         0.478316       0.235193
                                                         1.045457       0.379157
                                                         2.625196       0.633910
                                                         6.132625       0.562677
                          1       4    3pz               0.030287       0.000105
                                                         0.075145       0.003677
                                                         0.178617       0.052379
                                                         0.478316       0.235193
                                                         1.045457       0.379157
                                                         2.625196       0.633910
                                                         6.132625       0.562677

                          1       5    4px               0.030287       0.003163
                                                         0.075145       0.027515
                                                         0.178617       0.054996
                                                         0.478316       0.021571
                                                         1.045457      -0.799738
                                                         2.625196      -0.640831
                                                         6.132625      -0.897668
                          1       5    4py               0.030287       0.003163
                                                         0.075145       0.027515
                                                         0.178617       0.054996
                                                         0.478316       0.021571
                                                         1.045457      -0.799738
                                                         2.625196      -0.640831
                                                         6.132625      -0.897668
                          1       5    4pz               0.030287       0.003163
                                                         0.075145       0.027515
                                                         0.178617       0.054996
                                                         0.478316       0.021571
                                                         1.045457      -0.799738
                                                         2.625196      -0.640831
                                                         6.132625      -0.897668

                          1       6    5px               0.030287       0.022003
                                                         0.075145      -0.017611
                                                         0.178617      -0.000111
                                                         0.478316      -0.010206
                                                         1.045457       0.199352
                                                         2.625196      -0.535741
                                                         6.132625       0.952051
                          1       6    5py               0.030287       0.022003
                                                         0.075145      -0.017611
                                                         0.178617      -0.000111
                                                         0.478316      -0.010206
                                                         1.045457       0.199352
                                                         2.625196      -0.535741
                                                         6.132625       0.952051
                          1       6    5pz               0.030287       0.022003
                                                         0.075145      -0.017611
                                                         0.178617      -0.000111
                                                         0.478316      -0.010206
                                                         1.045457       0.199352
                                                         2.625196      -0.535741
                                                         6.132625       0.952051

                          1       7    4dx2              0.030287      -0.000011
                                                         0.075145       0.003649
                                                         0.178617       0.018656
                                                         0.478316       0.191007
                                                         1.045457       0.653959
                                                         2.625196       0.375772
                                                         6.132625       0.874783
                          1       7    4dxy              0.030287      -0.000019
                                                         0.075145       0.006321
                                                         0.178617       0.032314
                                                         0.478316       0.330834
                                                         1.045457       1.132690
                                                         2.625196       0.650856
                                                         6.132625       1.515169
                          1       7    4dxz              0.030287      -0.000019
                                                         0.075145       0.006321
                                                         0.178617       0.032314
                                                         0.478316       0.330834
                                                         1.045457       1.132690
                                                         2.625196       0.650856
                                                         6.132625       1.515169
                          1       7    4dy2              0.030287      -0.000011
                                                         0.075145       0.003649
                                                         0.178617       0.018656
                                                         0.478316       0.191007
                                                         1.045457       0.653959
                                                         2.625196       0.375772
                                                         6.132625       0.874783
                          1       7    4dyz              0.030287      -0.000019
                                                         0.075145       0.006321
                                                         0.178617       0.032314
                                                         0.478316       0.330834
                                                         1.045457       1.132690
                                                         2.625196       0.650856
                                                         6.132625       1.515169
                          1       7    4dz2              0.030287      -0.000011
                                                         0.075145       0.003649
                                                         0.178617       0.018656
                                                         0.478316       0.191007
                                                         1.045457       0.653959
                                                         2.625196       0.375772
                                                         6.132625       0.874783

                          1       8    5dx2              0.030287      -0.004431
                                                         0.075145       0.007730
                                                         0.178617       0.028166
                                                         0.478316      -0.105632
                                                         1.045457      -0.391394
                                                         2.625196       1.591468
                                                         6.132625      -3.636609
                          1       8    5dxy              0.030287      -0.007674
                                                         0.075145       0.013389
                                                         0.178617       0.048786
                                                         0.478316      -0.182959
                                                         1.045457      -0.677913
                                                         2.625196       2.756503
                                                         6.132625      -6.298792
                          1       8    5dxz              0.030287      -0.007674
                                                         0.075145       0.013389
                                                         0.178617       0.048786
                                                         0.478316      -0.182959
                                                         1.045457      -0.677913
                                                         2.625196       2.756503
                                                         6.132625      -6.298792
                          1       8    5dy2              0.030287      -0.004431
                                                         0.075145       0.007730
                                                         0.178617       0.028166
                                                         0.478316      -0.105632
                                                         1.045457      -0.391394
                                                         2.625196       1.591468
                                                         6.132625      -3.636609
                          1       8    5dyz              0.030287      -0.007674
                                                         0.075145       0.013389
                                                         0.178617       0.048786
                                                         0.478316      -0.182959
                                                         1.045457      -0.677913
                                                         2.625196       2.756503
                                                         6.132625      -6.298792
                          1       8    5dz2              0.030287      -0.004431
                                                         0.075145       0.007730
                                                         0.178617       0.028166
                                                         0.478316      -0.105632
                                                         1.045457      -0.391394
                                                         2.625196       1.591468
                                                         6.132625      -3.636609

     RI Auxiliary Basis Set             RI_aug-DZVP-MOLOPT-GTH-tier-1_N_RI_106_s

       Number of orbital shell sets:                                          26
       Number of orbital shells:                                              26
       Number of primitive Cartesian functions:                               26
       Number of Cartesian basis functions:                                  136
       Number of spherical basis functions:                                  106
       Norm type:                                                              2

       Normalised Cartesian orbitals:

                        Set   Shell   Orbital            Exponent    Coefficient

                          1       1    1s                0.075717       0.102874

                          2       1    2s                0.171492       0.189930

                          3       1    3s                0.388413       0.350655

                          4       1    4s                0.879719       0.647393

                          5       1    5s                1.992482       1.195242

                          6       1    6s                4.512786       2.206702

                          7       1    7s               10.221041       4.074098

                          8       1    8px               0.075717       0.056615
                          8       1    8py               0.075717       0.056615
                          8       1    8pz               0.075717       0.056615

                          9       1    9px               0.201954       0.192977
                          9       1    9py               0.201954       0.192977
                          9       1    9pz               0.201954       0.192977

                         10       1   10px               0.538659       0.657782
                         10       1   10py               0.538659       0.657782
                         10       1   10pz               0.538659       0.657782

                         11       1   11px               1.436727       2.242115
                         11       1   11py               1.436727       2.242115
                         11       1   11pz               1.436727       2.242115

                         12       1   12px               3.832081       7.642464
                         12       1   12py               3.832081       7.642464
                         12       1   12pz               3.832081       7.642464

                         13       1   13px              10.221041      26.050077
                         13       1   13py              10.221041      26.050077
                         13       1   13pz              10.221041      26.050077

                         14       1   14dx2              0.075717       0.017989
                         14       1   14dxy              0.075717       0.031157
                         14       1   14dxz              0.075717       0.031157
                         14       1   14dy2              0.075717       0.017989
                         14       1   14dyz              0.075717       0.031157
                         14       1   14dz2              0.075717       0.017989

                         15       1   15dx2              0.201954       0.100139
                         15       1   15dxy              0.201954       0.173446
                         15       1   15dxz              0.201954       0.173446
                         15       1   15dy2              0.201954       0.100139
                         15       1   15dyz              0.201954       0.173446
                         15       1   15dz2              0.201954       0.100139

                         16       1   16dx2              0.538659       0.557453
                         16       1   16dxy              0.538659       0.965537
                         16       1   16dxz              0.538659       0.965537
                         16       1   16dy2              0.538659       0.557453
                         16       1   16dyz              0.538659       0.965537
                         16       1   16dz2              0.538659       0.557453

                         17       1   17dx2              1.436727       3.103232
                         17       1   17dxy              1.436727       5.374956
                         17       1   17dxz              1.436727       5.374956
                         17       1   17dy2              1.436727       3.103232
                         17       1   17dyz              1.436727       5.374956
                         17       1   17dz2              1.436727       3.103232

                         18       1   18dx2              3.832081      17.275082
                         18       1   18dxy              3.832081      29.921319
                         18       1   18dxz              3.832081      29.921319
                         18       1   18dy2              3.832081      17.275082
                         18       1   18dyz              3.832081      29.921319
                         18       1   18dz2              3.832081      17.275082

                         19       1   19dx2             10.221041      96.166975
                         19       1   19dxy             10.221041     166.566087
                         19       1   19dxz             10.221041     166.566087
                         19       1   19dy2             10.221041      96.166975
                         19       1   19dyz             10.221041     166.566087
                         19       1   19dz2             10.221041      96.166975

                         20       1   20fx3              0.075717       0.004427
                         20       1   20fx2y             0.075717       0.009900
                         20       1   20fx2z             0.075717       0.009900
                         20       1   20fxy2             0.075717       0.009900
                         20       1   20fxyz             0.075717       0.017147
                         20       1   20fxz2             0.075717       0.009900
                         20       1   20fy3              0.075717       0.004427
                         20       1   20fy2z             0.075717       0.009900
                         20       1   20fyz2             0.075717       0.009900
                         20       1   20fz3              0.075717       0.004427

                         21       1   21fx3              0.201954       0.040251
                         21       1   21fx2y             0.201954       0.090003
                         21       1   21fx2z             0.201954       0.090003
                         21       1   21fxy2             0.201954       0.090003
                         21       1   21fxyz             0.201954       0.155891
                         21       1   21fxz2             0.201954       0.090003
                         21       1   21fy3              0.201954       0.040251
                         21       1   21fy2z             0.201954       0.090003
                         21       1   21fyz2             0.201954       0.090003
                         21       1   21fz3              0.201954       0.040251

                         22       1   22fx3              0.538659       0.365940
                         22       1   22fx2y             0.538659       0.818267
                         22       1   22fx2z             0.538659       0.818267
                         22       1   22fxy2             0.538659       0.818267
                         22       1   22fxyz             0.538659       1.417281
                         22       1   22fxz2             0.538659       0.818267
                         22       1   22fy3              0.538659       0.365940
                         22       1   22fy2z             0.538659       0.818267
                         22       1   22fyz2             0.538659       0.818267
                         22       1   22fz3              0.538659       0.365940

                         23       1   23fx3              1.436727       3.326951
                         23       1   23fx2y             1.436727       7.439288
                         23       1   23fx2z             1.436727       7.439288
                         23       1   23fxy2             1.436727       7.439288
                         23       1   23fxyz             1.436727      12.885224
                         23       1   23fxz2             1.436727       7.439288
                         23       1   23fy3              1.436727       3.326951
                         23       1   23fy2z             1.436727       7.439288
                         23       1   23fyz2             1.436727       7.439288
                         23       1   23fz3              1.436727       3.326951

                         24       1   24fx3              3.832081      30.247009
                         24       1   24fx2y             3.832081      67.634368
                         24       1   24fx2z             3.832081      67.634368
                         24       1   24fxy2             3.832081      67.634368
                         24       1   24fxyz             3.832081     117.146161
                         24       1   24fxz2             3.832081      67.634368
                         24       1   24fy3              3.832081      30.247009
                         24       1   24fy2z             3.832081      67.634368
                         24       1   24fyz2             3.832081      67.634368
                         24       1   24fz3              3.832081      30.247009

                         25       1   25fx3             10.221041     274.991025
                         25       1   25fx2y            10.221041     614.898625
                         25       1   25fx2z            10.221041     614.898625
                         25       1   25fxy2            10.221041     614.898625
                         25       1   25fxyz            10.221041    1065.035660
                         25       1   25fxz2            10.221041     614.898625
                         25       1   25fy3             10.221041     274.991025
                         25       1   25fy2z            10.221041     614.898625
                         25       1   25fyz2            10.221041     614.898625
                         25       1   25fz3             10.221041     274.991025

                         26       1   26gx4              5.148379     100.815973
                         26       1   26gx3y             5.148379     266.733994
                         26       1   26gx3z             5.148379     266.733994
                         26       1   26gx2y2            5.148379     344.352105
                         26       1   26gx2yz            5.148379     596.435341
                         26       1   26gx2z2            5.148379     344.352105
                         26       1   26gxy3             5.148379     266.733994
                         26       1   26gxy2z            5.148379     596.435341
                         26       1   26gxyz2            5.148379     596.435341
                         26       1   26gxz3             5.148379     266.733994
                         26       1   26gy4              5.148379     100.815973
                         26       1   26gy3z             5.148379     266.733994
                         26       1   26gy2z2            5.148379     344.352105
                         26       1   26gyz3             5.148379     266.733994
                         26       1   26gz4              5.148379     100.815973

       Atomic covalent radius [Angstrom]:                                  0.770

       Atomic van der Waals radius [Angstrom]:                             1.700

     GTH Potential information for                                       GTH-PBE

       Description:                       Goedecker-Teter-Hutter pseudopotential
                                           Goedecker et al., PRB 54, 1703 (1996)
                                          Hartwigsen et al., PRB 58, 3641 (1998)
                                                      Krack, TCA 114, 145 (2005)

       Gaussian exponent of the core charge distribution:               4.364419
       Electronic configuration (s p d ...):                               2   2

       Parameters of the local part of the GTH pseudopotential:

                          rloc        C1          C2          C3          C4
                        0.338471   -8.803674    1.339211

       Parameters of the non-local part of the GTH pseudopotential:

                   l      r(l)      h(i,j,l)

                   0    0.302576    9.622487
                   1    0.291507

  3. Atomic kind: S                                     Number of atoms:       1

     Orbital Basis Set                              AUG-DZVP-MOLOPT-GTH-TIER-1_3

       Number of orbital shell sets:                                           1
       Number of orbital shells:                                               8
       Number of primitive Cartesian functions:                                6
       Number of Cartesian basis functions:                                   24
       Number of spherical basis functions:                                   22
       Norm type:                                                              2

       Normalised Cartesian orbitals:

                        Set   Shell   Orbital            Exponent    Coefficient

                          1       1    2s                0.100000       0.000000
                                                         0.140587      -0.040370
                                                         0.181514       0.000000
                                                         0.410168      -0.373736
                                                         1.131471       0.138505
                                                         2.215855       0.308496

                          1       2    3s                0.100000       0.000000
                                                         0.140587      -0.185618
                                                         0.181514       0.000000
                                                         0.410168       0.093395
                                                         1.131471      -0.142924
                                                         2.215855       0.076655

                          1       3    4s                0.100000      -0.125755
                                                         0.140587       0.002599
                                                         0.181514      -0.022521
                                                         0.410168       0.021304
                                                         1.131471       0.043761
                                                         2.215855       0.291521

                          1       4    3px               0.100000       0.000000
                                                         0.140587      -0.030976
                                                         0.181514       0.000000
                                                         0.410168      -0.335323
                                                         1.131471      -0.319283
                                                         2.215855       0.420435
                          1       4    3py               0.100000       0.000000
                                                         0.140587      -0.030976
                                                         0.181514       0.000000
                                                         0.410168      -0.335323
                                                         1.131471      -0.319283
                                                         2.215855       0.420435
                          1       4    3pz               0.100000       0.000000
                                                         0.140587      -0.030976
                                                         0.181514       0.000000
                                                         0.410168      -0.335323
                                                         1.131471      -0.319283
                                                         2.215855       0.420435

                          1       5    4px               0.100000       0.000000
                                                         0.140587       0.153766
                                                         0.181514       0.000000
                                                         0.410168      -0.189015
                                                         1.131471      -0.172502
                                                         2.215855       0.243869
                          1       5    4py               0.100000       0.000000
                                                         0.140587       0.153766
                                                         0.181514       0.000000
                                                         0.410168      -0.189015
                                                         1.131471      -0.172502
                                                         2.215855       0.243869
                          1       5    4pz               0.100000       0.000000
                                                         0.140587       0.153766
                                                         0.181514       0.000000
                                                         0.410168      -0.189015
                                                         1.131471      -0.172502
                                                         2.215855       0.243869

                          1       6    5px               0.100000       0.038044
                                                         0.140587      -0.000011
                                                         0.181514       0.093057
                                                         0.410168      -0.004999
                                                         1.131471       0.055182
                                                         2.215855      -0.046367
                          1       6    5py               0.100000       0.038044
                                                         0.140587      -0.000011
                                                         0.181514       0.093057
                                                         0.410168      -0.004999
                                                         1.131471       0.055182
                                                         2.215855      -0.046367
                          1       6    5pz               0.100000       0.038044
                                                         0.140587      -0.000011
                                                         0.181514       0.093057
                                                         0.410168      -0.004999
                                                         1.131471       0.055182
                                                         2.215855      -0.046367

                          1       7    4dx2              0.100000       0.000000
                                                         0.140587       0.008811
                                                         0.181514       0.000000
                                                         0.410168       0.228284
                                                         1.131471       0.544927
                                                         2.215855       0.573560
                          1       7    4dxy              0.100000       0.000000
                                                         0.140587       0.015260
                                                         0.181514       0.000000
                                                         0.410168       0.395400
                                                         1.131471       0.943841
                                                         2.215855       0.993435
                          1       7    4dxz              0.100000       0.000000
                                                         0.140587       0.015260
                                                         0.181514       0.000000
                                                         0.410168       0.395400
                                                         1.131471       0.943841
                                                         2.215855       0.993435
                          1       7    4dy2              0.100000       0.000000
                                                         0.140587       0.008811
                                                         0.181514       0.000000
                                                         0.410168       0.228284
                                                         1.131471       0.544927
                                                         2.215855       0.573560
                          1       7    4dyz              0.100000       0.000000
                                                         0.140587       0.015260
                                                         0.181514       0.000000
                                                         0.410168       0.395400
                                                         1.131471       0.943841
                                                         2.215855       0.993435
                          1       7    4dz2              0.100000       0.000000
                                                         0.140587       0.008811
                                                         0.181514       0.000000
                                                         0.410168       0.228284
                                                         1.131471       0.544927
                                                         2.215855       0.573560

                          1       8    5dx2              0.100000       0.043820
                                                         0.140587      -0.057373
                                                         0.181514       0.036662
                                                         0.410168       0.088731
                                                         1.131471       0.035250
                                                         2.215855       0.405951
                          1       8    5dxy              0.100000       0.075898
                                                         0.140587      -0.099373
                                                         0.181514       0.063500
                                                         0.410168       0.153686
                                                         1.131471       0.061055
                                                         2.215855       0.703128
                          1       8    5dxz              0.100000       0.075898
                                                         0.140587      -0.099373
                                                         0.181514       0.063500
                                                         0.410168       0.153686
                                                         1.131471       0.061055
                                                         2.215855       0.703128
                          1       8    5dy2              0.100000       0.043820
                                                         0.140587      -0.057373
                                                         0.181514       0.036662
                                                         0.410168       0.088731
                                                         1.131471       0.035250
                                                         2.215855       0.405951
                          1       8    5dyz              0.100000       0.075898
                                                         0.140587      -0.099373
                                                         0.181514       0.063500
                                                         0.410168       0.153686
                                                         1.131471       0.061055
                                                         2.215855       0.703128
                          1       8    5dz2              0.100000       0.043820
                                                         0.140587      -0.057373
                                                         0.181514       0.036662
                                                         0.410168       0.088731
                                                         1.131471       0.035250
                                                         2.215855       0.405951

     RI Auxiliary Basis Set             RI_aug-DZVP-MOLOPT-GTH-tier-1_N_RI_068_s

       Number of orbital shell sets:                                          20
       Number of orbital shells:                                              20
       Number of primitive Cartesian functions:                               20
       Number of Cartesian basis functions:                                   82
       Number of spherical basis functions:                                   68
       Norm type:                                                              2

       Normalised Cartesian orbitals:

                        Set   Shell   Orbital            Exponent    Coefficient

                          1       1    1s                0.210203       0.221253

                          2       1    2s                0.338643       0.316385

                          3       1    3s                0.554247       0.457812

                          4       1    4s                0.899740       0.658412

                          5       1    5s                1.439935       0.936844

                          6       1    6s                2.287182       1.325518

                          7       1    7s                3.619180       1.870113

                          8       1    8px               0.181605       0.168986
                          8       1    8py               0.181605       0.168986
                          8       1    8pz               0.181605       0.168986

                          9       1    9px               0.383839       0.430653
                          9       1    9py               0.383839       0.430653
                          9       1    9pz               0.383839       0.430653

                         10       1   10px               0.767412       1.023825
                         10       1   10py               0.767412       1.023825
                         10       1   10pz               0.767412       1.023825

                         11       1   11px               1.659157       2.684105
                         11       1   11py               1.659157       2.684105
                         11       1   11pz               1.659157       2.684105

                         12       1   12px               3.519534       6.871420
                         12       1   12py               3.519534       6.871420
                         12       1   12pz               3.519534       6.871420

                         13       1   13dx2              0.198196       0.096901
                         13       1   13dxy              0.198196       0.167837
                         13       1   13dxz              0.198196       0.167837
                         13       1   13dy2              0.198196       0.096901
                         13       1   13dyz              0.198196       0.167837
                         13       1   13dz2              0.198196       0.096901

                         14       1   14dx2              0.387470       0.313203
                         14       1   14dxy              0.387470       0.542483
                         14       1   14dxz              0.387470       0.542483
                         14       1   14dy2              0.387470       0.313203
                         14       1   14dyz              0.387470       0.542483
                         14       1   14dz2              0.387470       0.313203

                         15       1   15dx2              0.836854       1.205165
                         15       1   15dxy              0.836854       2.087407
                         15       1   15dxz              0.836854       2.087407
                         15       1   15dy2              0.836854       1.205165
                         15       1   15dyz              0.836854       2.087407
                         15       1   15dz2              0.836854       1.205165

                         16       1   16dx2              1.857042       4.862366
                         16       1   16dxy              1.857042       8.421865
                         16       1   16dxz              1.857042       8.421865
                         16       1   16dy2              1.857042       4.862366
                         16       1   16dyz              1.857042       8.421865
                         16       1   16dz2              1.857042       4.862366

                         17       1   17dx2              3.677424      16.073521
                         17       1   17dxy              3.677424      27.840155
                         17       1   17dxz              3.677424      27.840155
                         17       1   17dy2              3.677424      16.073521
                         17       1   17dyz              3.677424      27.840155
                         17       1   17dz2              3.677424      16.073521

                         18       1   18fx3              0.206207       0.042183
                         18       1   18fx2y             0.206207       0.094324
                         18       1   18fx2z             0.206207       0.094324
                         18       1   18fxy2             0.206207       0.094324
                         18       1   18fxyz             0.206207       0.163373
                         18       1   18fxz2             0.206207       0.094324
                         18       1   18fy3              0.206207       0.042183
                         18       1   18fy2z             0.206207       0.094324
                         18       1   18fyz2             0.206207       0.094324
                         18       1   18fz3              0.206207       0.042183

                         19       1   19fx3              0.771319       0.820788
                         19       1   19fx2y             0.771319       1.835337
                         19       1   19fx2z             0.771319       1.835337
                         19       1   19fxy2             0.771319       1.835337
                         19       1   19fxyz             0.771319       3.178897
                         19       1   19fxz2             0.771319       1.835337
                         19       1   19fy3              0.771319       0.820788
                         19       1   19fy2z             0.771319       1.835337
                         19       1   19fyz2             0.771319       1.835337
                         19       1   19fz3              0.771319       0.820788

                         20       1   20fx3              1.916898       6.365053
                         20       1   20fx2y             1.916898      14.232691
                         20       1   20fx2z             1.916898      14.232691
                         20       1   20fxy2             1.916898      14.232691
                         20       1   20fxyz             1.916898      24.651743
                         20       1   20fxz2             1.916898      14.232691
                         20       1   20fy3              1.916898       6.365053
                         20       1   20fy2z             1.916898      14.232691
                         20       1   20fyz2             1.916898      14.232691
                         20       1   20fz3              1.916898       6.365053

       Atomic covalent radius [Angstrom]:                                  1.020

       Atomic van der Waals radius [Angstrom]:                             1.800

     GTH Potential information for                                       GTH-PBE

       Description:                       Goedecker-Teter-Hutter pseudopotential
                                           Goedecker et al., PRB 54, 1703 (1996)
                                          Hartwigsen et al., PRB 58, 3641 (1998)
                                                      Krack, TCA 114, 145 (2005)

       Gaussian exponent of the core charge distribution:               2.834467
       Electronic configuration (s p d ...):                               2   4

       Parameters of the local part of the GTH pseudopotential:

                          rloc        C1          C2          C3          C4
                        0.420000   -5.986260

       Parameters of the non-local part of the GTH pseudopotential:

                   l      r(l)      h(i,j,l)

                   0    0.364820   13.143544   -4.241830
                                   -4.241830    5.476180
                   1    0.409480    3.700891


 MOLECULE KIND INFORMATION


 All atoms are their own molecule, skipping detailed information


 TOTAL NUMBERS AND MAXIMUM NUMBERS

  Total number of            - Atomic kinds:                                   3
                             - Atoms:                                          3
                             - Shell sets:                                     3
                             - Shells:                                        24
                             - Primitive Cartesian functions:                 20
                             - Cartesian basis functions:                     72
                             - Spherical basis functions:                     66

  Maximum angular momentum of- Orbital basis functions:                        2
                             - Local part of the GTH pseudopotential:          2
                             - Non-local part of the GTH pseudopotential:      2


 MODULE QUICKSTEP: ATOMIC COORDINATES IN ANGSTROM

   Atom Kind Element         X             Y             Z       Z(eff)     Mass
      1    1 O     8     10.000000     10.000000     11.358950   6.0000  15.9994
      2    2 C     6     10.000000     10.000000     10.201150   4.0000  12.0107
      3    3 S    16     10.000000     10.000000      8.641050   6.0000  32.0650



 SCF PARAMETERS         Density guess:                                    ATOMIC
                        --------------------------------------------------------
                        max_scf:                                             200
                        max_scf_history:                                       0
                        max_diis:                                              4
                        --------------------------------------------------------
                        eps_scf:                                        1.00E-07
                        eps_scf_history:                                0.00E+00
                        eps_diis:                                       1.00E-01
                        eps_eigval:                                     1.00E-05
                        --------------------------------------------------------
                        level_shift [a.u.]:                             0.000000
                        SCF update method:                                MIXING
                        added MOs                                        58    0
                        --------------------------------------------------------
                        Mixing method:                            BROYDEN_MIXING
                                                charge density mixing in g-space
                        --------------------------------------------------------
                        Outer loop SCF in use 
                        No variables optimised in outer loop
                        eps_scf                                         1.00E-07
                        max_scf                                               20
                        No outer loop optimization
                        step_size                                       5.00E-01

 PW_GRID| Information for grid number                                          2
 PW_GRID| Grid distributed over                                    32 processors
 PW_GRID| Real space group dimensions                                    32    1
 PW_GRID| the grid is blocked:                                                NO
 PW_GRID| Cutoff [a.u.]                                                    300.0
 PW_GRID| spherical cutoff:                                                   NO
 PW_GRID|   Bounds   1           -150     149                Points:         300
 PW_GRID|   Bounds   2           -150     149                Points:         300
 PW_GRID|   Bounds   3           -150     149                Points:         300
 PW_GRID| Volume element (a.u.^3)  0.2000E-02     Volume (a.u.^3)     53986.6767
 PW_GRID| Grid span                                                    FULLSPACE
 PW_GRID|   Distribution                         Average         Max         Min
 PW_GRID|   G-Vectors                           843750.0      843900      843600
 PW_GRID|   G-Rays                                2812.5        2813        2812
 PW_GRID|   Real Space Points                   843750.0      900000      810000

 PW_GRID| Information for grid number                                          3
 PW_GRID| Number of the reference grid                                         2
 PW_GRID| Grid distributed over                                    32 processors
 PW_GRID| Real space group dimensions                                    32    1
 PW_GRID| the grid is blocked:                                                NO
 PW_GRID| Cutoff [a.u.]                                                    100.0
 PW_GRID| spherical cutoff:                                                   NO
 PW_GRID|   Bounds   1            -90      89                Points:         180
 PW_GRID|   Bounds   2            -90      89                Points:         180
 PW_GRID|   Bounds   3            -90      89                Points:         180
 PW_GRID| Volume element (a.u.^3)  0.9257E-02     Volume (a.u.^3)     53986.6767
 PW_GRID| Grid span                                                    FULLSPACE
 PW_GRID|   Distribution                         Average         Max         Min
 PW_GRID|   G-Vectors                           182250.0      182520      181980
 PW_GRID|   G-Rays                                1012.5        1014        1011
 PW_GRID|   Real Space Points                   182250.0      194400      162000

 PW_GRID| Information for grid number                                          4
 PW_GRID| Number of the reference grid                                         2
 PW_GRID| Grid distributed over                                    32 processors
 PW_GRID| Real space group dimensions                                    32    1
 PW_GRID| the grid is blocked:                                                NO
 PW_GRID| Cutoff [a.u.]                                                     33.3
 PW_GRID| spherical cutoff:                                                   NO
 PW_GRID|   Bounds   1            -50      49                Points:         100
 PW_GRID|   Bounds   2            -50      49                Points:         100
 PW_GRID|   Bounds   3            -50      49                Points:         100
 PW_GRID| Volume element (a.u.^3)  0.5399E-01     Volume (a.u.^3)     53986.6767
 PW_GRID| Grid span                                                    FULLSPACE
 PW_GRID|   Distribution                         Average         Max         Min
 PW_GRID|   G-Vectors                            31250.0       31500       31000
 PW_GRID|   G-Rays                                 312.5         315         310
 PW_GRID|   Real Space Points                    31250.0       40000       30000

 PW_GRID| Information for grid number                                          5
 PW_GRID| Number of the reference grid                                         2
 PW_GRID| Grid distributed over                                    32 processors
 PW_GRID| Real space group dimensions                                    32    1
 PW_GRID| the grid is blocked:                                                NO
 PW_GRID| Cutoff [a.u.]                                                     11.1
 PW_GRID| spherical cutoff:                                                   NO
 PW_GRID|   Bounds   1            -30      29                Points:          60
 PW_GRID|   Bounds   2            -30      29                Points:          60
 PW_GRID|   Bounds   3            -30      29                Points:          60
 PW_GRID| Volume element (a.u.^3)  0.2499         Volume (a.u.^3)     53986.6767
 PW_GRID| Grid span                                                    FULLSPACE
 PW_GRID|   Distribution                         Average         Max         Min
 PW_GRID|   G-Vectors                             6750.0        6780        6720
 PW_GRID|   G-Rays                                 112.5         113         112
 PW_GRID|   Real Space Points                     6750.0        7200        3600

 PW_GRID| Information for grid number                                          6
 PW_GRID| Number of the reference grid                                         2
 PW_GRID| Grid distributed over                                    32 processors
 PW_GRID| Real space group dimensions                                    32    1
 PW_GRID| the grid is blocked:                                                NO
 PW_GRID| Cutoff [a.u.]                                                      3.7
 PW_GRID| spherical cutoff:                                                   NO
 PW_GRID|   Bounds   1            -18      17                Points:          36
 PW_GRID|   Bounds   2            -18      17                Points:          36
 PW_GRID|   Bounds   3            -18      17                Points:          36
 PW_GRID| Volume element (a.u.^3)   1.157         Volume (a.u.^3)     53986.6767
 PW_GRID| Grid span                                                    FULLSPACE
 PW_GRID|   Distribution                         Average         Max         Min
 PW_GRID|   G-Vectors                             1458.0        1548        1368
 PW_GRID|   G-Rays                                  40.5          43          38
 PW_GRID|   Real Space Points                     1458.0        2592        1296

 POISSON| Solver                                             MULTIPOLE (Bloechl)
 POISSON| Periodicity                                                       NONE

 RS_GRID| Information for grid number                                          2
 RS_GRID|   Bounds   1           -150     149                Points:         300
 RS_GRID|   Bounds   2           -150     149                Points:         300
 RS_GRID|   Bounds   3           -150     149                Points:         300
 RS_GRID| Real space distribution over                                  2 groups
 RS_GRID| Real space distribution along direction                              1
 RS_GRID| Border size                                                         28
 RS_GRID| Real space distribution over                                  4 groups
 RS_GRID| Real space distribution along direction                              2
 RS_GRID| Border size                                                         28
 RS_GRID| Real space distribution over                                  4 groups
 RS_GRID| Real space distribution along direction                              3
 RS_GRID| Border size                                                         28
 RS_GRID|   Distribution                         Average         Max         Min
 RS_GRID|   Planes                                 206.0         206         206
 RS_GRID|   Distribution                         Average         Max         Min
 RS_GRID|   Planes                                 131.0         131         131
 RS_GRID|   Distribution                         Average         Max         Min
 RS_GRID|   Planes                                 131.0         131         131

 RS_GRID| Information for grid number                                          3
 RS_GRID|   Bounds   1            -90      89                Points:         180
 RS_GRID|   Bounds   2            -90      89                Points:         180
 RS_GRID|   Bounds   3            -90      89                Points:         180
 RS_GRID| Real space distribution over                                  2 groups
 RS_GRID| Real space distribution along direction                              1
 RS_GRID| Border size                                                         29
 RS_GRID| Real space distribution over                                  4 groups
 RS_GRID| Real space distribution along direction                              2
 RS_GRID| Border size                                                         29
 RS_GRID| Real space distribution over                                  4 groups
 RS_GRID| Real space distribution along direction                              3
 RS_GRID| Border size                                                         29
 RS_GRID|   Distribution                         Average         Max         Min
 RS_GRID|   Planes                                 148.0         148         148
 RS_GRID|   Distribution                         Average         Max         Min
 RS_GRID|   Planes                                 103.0         103         103
 RS_GRID|   Distribution                         Average         Max         Min
 RS_GRID|   Planes                                 103.0         103         103

 RS_GRID| Information for grid number                                          4
 RS_GRID|   Bounds   1            -50      49                Points:         100
 RS_GRID|   Bounds   2            -50      49                Points:         100
 RS_GRID|   Bounds   3            -50      49                Points:         100
 RS_GRID| Real space fully replicated
 RS_GRID| Group size                                                           1

 RS_GRID| Information for grid number                                          5
 RS_GRID|   Bounds   1            -30      29                Points:          60
 RS_GRID|   Bounds   2            -30      29                Points:          60
 RS_GRID|   Bounds   3            -30      29                Points:          60
 RS_GRID| Real space fully replicated
 RS_GRID| Group size                                                           1

 RS_GRID| Information for grid number                                          6
 RS_GRID|   Bounds   1            -18      17                Points:          36
 RS_GRID|   Bounds   2            -18      17                Points:          36
 RS_GRID|   Bounds   3            -18      17                Points:          36
 RS_GRID| Real space fully replicated
 RS_GRID| Group size                                                           1

 Extrapolation method: initial_guess

 Atomic guess: The first density matrix is obtained in terms of atomic orbitals
               and electronic configurations assigned to each atomic kind

 Guess for atomic kind: O

 Electronic structure
    Total number of core electrons                                          2.00
    Total number of valence electrons                                       6.00
    Total number of electrons                                               8.00
    Multiplicity                                                   not specified
    S   [  2.00] 2.00
    P      4.00


 *******************************************************************************
                  Iteration          Convergence                     Energy [au]
 *******************************************************************************
                          1        0.729813                     -15.571028802178
                          2        0.658830                     -15.576744134551
                          3        0.678090E-02                 -15.656975124844
                          4        0.122494E-02                 -15.656983739951
                          5        0.279982E-05                 -15.656983995976
                          6        0.125538E-05                 -15.656983995977
                          7        0.109350E-07                 -15.656983995978

 Energy components [Hartree]           Total Energy ::          -15.656983995978
                                        Band Energy ::           -3.002986320531
                                     Kinetic Energy ::           11.786562322788
                                   Potential Energy ::          -27.443546318765
                                      Virial (-V/T) ::            2.328375786527
                                        Core Energy ::          -26.138628885110
                                          XC Energy ::           -3.153368229588
                                     Coulomb Energy ::           13.635013118720
                       Total Pseudopotential Energy ::          -37.960286168953
                       Local Pseudopotential Energy ::          -39.229694291918
                    Nonlocal Pseudopotential Energy ::            1.269408122965
                                        Confinement ::            0.350949610550

 Orbital energies  State     L     Occupation   Energy[a.u.]          Energy[eV]

                       1     0          2.000      -0.864986          -23.537479

                       1     1          4.000      -0.318253           -8.660114


 Total Electron Density at R=0:                                         0.000004

 Guess for atomic kind: C

 Electronic structure
    Total number of core electrons                                          2.00
    Total number of valence electrons                                       4.00
    Total number of electrons                                               6.00
    Multiplicity                                                   not specified
    S   [  2.00] 2.00
    P      2.00


 *******************************************************************************
                  Iteration          Convergence                     Energy [au]
 *******************************************************************************
                          1        0.775628E-01                  -5.260028620891
                          2        0.491879E-01                  -5.263165231583
                          3        0.651500E-03                  -5.265251930868
                          4        0.225561E-05                  -5.265252285433
                          5        0.223130E-07                  -5.265252285437

 Energy components [Hartree]           Total Energy ::           -5.265252285437
                                        Band Energy ::           -1.258662857909
                                     Kinetic Energy ::            3.451784754014
                                   Potential Energy ::           -8.717037039451
                                      Virial (-V/T) ::            2.525370977815
                                        Core Energy ::           -8.305943763740
                                          XC Energy ::           -1.393149297712
                                     Coulomb Energy ::            4.433840776015
                       Total Pseudopotential Energy ::          -11.792984479258
                       Local Pseudopotential Energy ::          -12.421822342810
                    Nonlocal Pseudopotential Energy ::            0.628837863552
                                        Confinement ::            0.352559615042

 Orbital energies  State     L     Occupation   Energy[a.u.]          Energy[eV]

                       1     0          2.000      -0.465989          -12.680216

                       1     1          2.000      -0.163342           -4.444763


 Total Electron Density at R=0:                                         0.000136

 Guess for atomic kind: S

 Electronic structure
    Total number of core electrons                                         10.00
    Total number of valence electrons                                       6.00
    Total number of electrons                                              16.00
    Multiplicity                                                   not specified
    S   [  2.00  2.00] 2.00
    P   [  6.00] 4.00


 *******************************************************************************
                  Iteration          Convergence                     Energy [au]
 *******************************************************************************
                          1        0.326534E-01                  -9.952261292550
                          2        0.240019E-01                  -9.952555474628
                          3        0.275211E-03                  -9.952732053066
                          4        0.860426E-05                  -9.952732098328
                          5        0.683758E-08                  -9.952732098351

 Energy components [Hartree]           Total Energy ::           -9.952732098351
                                        Band Energy ::           -2.176728062581
                                     Kinetic Energy ::            3.747483162181
                                   Potential Energy ::          -13.700215260531
                                      Virial (-V/T) ::            3.655844380782
                                        Core Energy ::          -16.310112285481
                                          XC Energy ::           -2.044703030244
                                     Coulomb Energy ::            8.402083217374
                       Total Pseudopotential Energy ::          -20.116044836898
                       Local Pseudopotential Energy ::          -22.203822146316
                    Nonlocal Pseudopotential Energy ::            2.087777309418
                                        Confinement ::            0.584493892361

 Orbital energies  State     L     Occupation   Energy[a.u.]          Energy[eV]

                       1     0          2.000      -0.613284          -16.688303

                       1     1          4.000      -0.237540           -6.463794


 Total Electron Density at R=0:                                         0.000423
 Re-scaling the density matrix to get the right number of electrons
                  # Electrons              Trace(P)               Scaling factor
                           16                16.000                        1.000

 Number of electrons:                                                         16
 Number of occupied orbitals:                                                  8
 Number of molecular orbitals:                                                66

 Number of orbital functions:                                                 66
 Number of independent orbital functions:                                     66


 SCF WAVEFUNCTION OPTIMIZATION

  Step     Update method      Time    Convergence         Total energy    Change
  ------------------------------------------------------------------------------
     1 NoMix/Diag. 0.20E+00    0.6     0.85400220       -31.7665001633 -3.18E+01
     2 Broy./Diag. 0.20E+00    0.9     0.12428313       -30.1502963610  1.62E+00
     3 Broy./Diag. 0.20E+00    1.0     0.07658518       -31.1793413624 -1.03E+00
     4 Broy./Diag. 0.20E+00    1.0     0.09703771       -31.7940586614 -6.15E-01
     5 Broy./Diag. 0.20E+00    1.0     0.02486762       -31.9221485143 -1.28E-01
     6 Broy./Diag. 0.20E+00    1.0     0.01002646       -31.9576413708 -3.55E-02
     7 Broy./Diag. 0.20E+00    1.0     0.00171096       -31.9254657577  3.22E-02
     8 Broy./Diag. 0.20E+00    1.0     0.00327282       -31.9226124253  2.85E-03
     9 Broy./Diag. 0.20E+00    1.0     0.00366076       -31.9217600598  8.52E-04
    10 Broy./Diag. 0.20E+00    1.1     0.00478640       -31.9240810939 -2.32E-03
    11 Broy./Diag. 0.20E+00    1.1     0.00420117       -31.9271631486 -3.08E-03
    12 Broy./Diag. 0.20E+00    1.1     0.00146752       -31.9289104134 -1.75E-03
    13 Broy./Diag. 0.20E+00    1.1     0.00159040       -31.9281169451  7.93E-04
    14 Broy./Diag. 0.20E+00    1.1     0.00036377       -31.9276873133  4.30E-04
    15 Broy./Diag. 0.20E+00    1.1     0.00221828       -31.9276502247  3.71E-05
    16 Broy./Diag. 0.20E+00    1.1     0.00046782       -31.9276522450 -2.02E-06
    17 Broy./Diag. 0.20E+00    1.1     0.00089101       -31.9277029295 -5.07E-05
    18 Broy./Diag. 0.20E+00    1.1     0.00018606       -31.9276610954  4.18E-05
    19 Broy./Diag. 0.20E+00    1.0     0.00019847       -31.9276247222  3.64E-05
    20 Broy./Diag. 0.20E+00    1.0     0.00040952       -31.9277109178 -8.62E-05
    21 Broy./Diag. 0.20E+00    1.0     0.00014945       -31.9277604796 -4.96E-05
    22 Broy./Diag. 0.20E+00    1.0     0.00016096       -31.9276907220  6.98E-05
    23 Broy./Diag. 0.20E+00    1.0     0.00003286       -31.9276682296  2.25E-05
    24 Broy./Diag. 0.20E+00    1.1     0.00005135       -31.9276949535 -2.67E-05
    25 Broy./Diag. 0.20E+00    1.0     0.00004386       -31.9277150136 -2.01E-05
    26 Broy./Diag. 0.20E+00    1.1     0.00006142       -31.9277064885  8.53E-06
    27 Broy./Diag. 0.20E+00    1.0     0.00006545       -31.9276957588  1.07E-05
    28 Broy./Diag. 0.20E+00    1.1     0.00003111       -31.9276902864  5.47E-06
    29 Broy./Diag. 0.20E+00    1.1     0.00001836       -31.9276892531  1.03E-06
    30 Broy./Diag. 0.20E+00    1.1     0.00000410       -31.9276902358 -9.83E-07
    31 Broy./Diag. 0.20E+00    1.1     0.00000616       -31.9276899574  2.78E-07
    32 Broy./Diag. 0.20E+00    1.1     0.00000095       -31.9276899601 -2.75E-09
    33 Broy./Diag. 0.20E+00    1.1     0.00000137       -31.9276897512  2.09E-07
    34 Broy./Diag. 0.20E+00    1.1     0.00000055       -31.9276901056 -3.54E-07
    35 Broy./Diag. 0.20E+00    1.1     0.00000052       -31.9276905403 -4.35E-07
    36 Broy./Diag. 0.20E+00    1.1     0.00000091       -31.9276904506  8.98E-08
    37 Broy./Diag. 0.20E+00    1.0     0.00000118       -31.9276901314  3.19E-07
    38 Broy./Diag. 0.20E+00    1.0     0.00000072       -31.9276901020  2.94E-08
    39 Broy./Diag. 0.20E+00    1.0     0.00000054       -31.9276903152 -2.13E-07
    40 Broy./Diag. 0.20E+00    1.0     0.00000014       -31.9276903073  7.85E-09
    41 Broy./Diag. 0.20E+00    1.0     0.00000019       -31.9276902433  6.40E-08
    42 Broy./Diag. 0.20E+00    1.0     0.00000020       -31.9276901995  4.38E-08
    43 Broy./Diag. 0.20E+00    1.0     0.00000008       -31.9276902092 -9.71E-09

  *** SCF run converged in    43 steps ***


  Electronic density on regular grids:        -16.0000000000        0.0000000000
  Core density on regular grids:               16.0000000000       -0.0000000000
  Total charge density on r-space grids:       -0.0000000000
  Total charge density g-space grids:          -0.0000000000

  Overlap energy of the core charge distribution:               0.00000214106459
  Self energy of the core charge distribution:                -79.04076858638221
  Core Hamiltonian energy:                                     21.24154749378079
  Hartree energy:                                              33.26107246889158
  Exchange-correlation energy:                                 -7.38954372659353

  Total energy:                                               -31.92769020923878

  outer SCF iter =    1 RMS gradient =   0.84E-07 energy =        -31.9276902092
  outer SCF loop converged in   1 iterations or   43 steps


 !-----------------------------------------------------------------------------!
                     Mulliken Population Analysis

 #  Atom  Element  Kind  Atomic population                           Net charge
       1     O        1          6.175551                             -0.175551
       2     C        2          3.752523                              0.247477
       3     S        3          6.071926                             -0.071926
 # Total charge                             16.000000                  0.000000

 !-----------------------------------------------------------------------------!

 !-----------------------------------------------------------------------------!
                           Hirshfeld Charges

  #Atom  Element  Kind  Ref Charge     Population                    Net charge
      1       O      1       6.000          6.268                        -0.268
      2       C      2       4.000          3.522                         0.478
      3       S      3       6.000          6.208                        -0.208

  Total Charge                                                            0.001
 !-----------------------------------------------------------------------------!
  
 -------------------------------------------------------------------------------
 -                                                                             -
 -                          BANDSTRUCTURE CALCULATION                          -
 -                                                                             -
 -------------------------------------------------------------------------------
  
 Number of occupied molecular orbitals (MOs) = Number of occupied bands        8
 Number of unoccupied (= virtual) MOs = Number of unoccupied bands            58
 Number of Gaussian basis functions for MOs                                   66
  
 -------------------------------------------------------------------------------
 -                                                                             -
 -                                GW CALCULATION                               -
 -                                                                             -
 -------------------------------------------------------------------------------
  
 Input: Number of time/freq. points                                           30
 Input: ω_max for fitting Σ(iω) (eV)                                        10.0
 Input: Filter threshold for sparse tensor operations                    1.0E-07
 Input: Apply Hedin shift                                                      F
 Detected: Available memory per MPI process                               7.0 GB
 
 Input: RI-RS Tikhonov regularization                                   1.00E-08
 Input: AO grid hard cutoff radius                                        8.00 Å
 Input: MPI ranks per atom in Z_lP solve                                      -1
 Input: Keep sparsity in χ/G/W panels                                          T
 Input: GW flavour                                                          G0W0
 
 Input: RI-RS grid optimization activated                                      T
 Input: RS points per AO function                                            7.0
 Input: Cutoff radius for atomic clusters                                  3.0 Å
 Input: Maximum grid optimization iterations                                 300
 
 Input: AUTO_RI basis optimization activated:                                  T
 Input: AUTO_RI number of RI functions per AO function:                      4.0
 Input: AUTO_RI frontier orbital window:                                  5.0 eV
 Input: AUTO_RI neighbor radius:                                           3.0 Å
 
 Cutoff radius for the truncated Coulomb operator in RI metric:            6.0 Å
 Regularization parameter of RI                                          0.0E+00
 Regularization parameter of minimax grids                               1.0E-06
 
 AUTO_RI| Number of automatic RI functions for χ, ε, W:                      264
 AUTO_RI| Total RI basis optimization time:                                0.6 s
 
 SCF direct band gap (eV)                                                   5.54
 Max. SCF eigval diff. (eV)                                               363.89
 E-Range for minimax grid                                                  65.67
 Number of Padé parameters for analytic continuation:                         16
 
 RI-RS basis radii (Å):
     Kind  Elem     r_AO (Å)     r_RI (Å)
        1    O         9.8246        6.6608
        2    C        12.2076        7.7208
        3    S         6.7183        4.9853
 
 Started RI-RS grid optimization
 RI-RS grid initial normalized error                          4.101978447990E-03
 RI-RS grid optimization completed, execution time:                       16.0 s
 Normalized 3C error:                                                    3.0E-05
 Maximum absolute 3C error:                                              3.9E-02
 Optimized points outside molecular Voronoi cells:                            17 / 462
 Total grid points used for RI-RS:                                           462
 
 RI-RS grid row-blocks of ϕ_μ(r_l)                                            15
 RI-RS grid points per block (max)                                            32
 
 Percentage of non-zero matrix elements in ϕ_μ(r_l)                     100.00 %
 
 RI-RS memory estimate per MPI process:
   Available memory per process (system)                                 7.60 GB
   Required for Z_lP (dense upper bound; actual is sparser)              0.00 GB
   Required for χ, W, Σ panels (peak per panel step)                     0.00 GB
   Required for Z_lP solve peak (D_local+ϕ, worst-case atom)             0.00 GB
   Worst-case local-grid number of grid points:                              462
   Worst-case memory D_local:                                            0.00 GB
 
 Started computing Z_lP
 Computed Z_lP (MPI rank 0) for atom          1 /  1,    Execution time    0.0 s
 Computed Z_lP (all MPI ranks) for all atoms,            Execution time    0.0 s

 Memory per MPI process after computing Z_lP:
 Available memory per MPI process                                7.6 GB
 Used memory per MPI process                                     1.0 GB
 Number of batches for χ, Σ matrices                                           1
 
 Percentage of non-zero matrix elements in Z_lP                         100.00 %
 Percentage of non-zero matrix elements in G_ll', χ_ll', W_ll'          100.00 %
 Percentage of non-zero matrix elements in χ_PQ for time point 1        100.00 %
 
 Computed χ(iτ,k=0) for time point            1 / 30,    Execution time    0.1 s
 Computed χ(iτ,k=0) for time point            2 / 30,    Execution time    0.0 s
 Computed χ(iτ,k=0) for time point            3 / 30,    Execution time    0.0 s
 Computed χ(iτ,k=0) for time point            4 / 30,    Execution time    0.0 s
 Computed χ(iτ,k=0) for time point            5 / 30,    Execution time    0.0 s
 Computed χ(iτ,k=0) for time point            6 / 30,    Execution time    0.0 s
 Computed χ(iτ,k=0) for time point            7 / 30,    Execution time    0.0 s
 Computed χ(iτ,k=0) for time point            8 / 30,    Execution time    0.0 s
 Computed χ(iτ,k=0) for time point            9 / 30,    Execution time    0.0 s
 Computed χ(iτ,k=0) for time point           10 / 30,    Execution time    0.0 s
 Computed χ(iτ,k=0) for time point           11 / 30,    Execution time    0.0 s
 Computed χ(iτ,k=0) for time point           12 / 30,    Execution time    0.0 s
 Computed χ(iτ,k=0) for time point           13 / 30,    Execution time    0.0 s
 Computed χ(iτ,k=0) for time point           14 / 30,    Execution time    0.0 s
 Computed χ(iτ,k=0) for time point           15 / 30,    Execution time    0.0 s
 Computed χ(iτ,k=0) for time point           16 / 30,    Execution time    0.0 s
 Computed χ(iτ,k=0) for time point           17 / 30,    Execution time    0.0 s
 Computed χ(iτ,k=0) for time point           18 / 30,    Execution time    0.0 s
 Computed χ(iτ,k=0) for time point           19 / 30,    Execution time    0.0 s
 Computed χ(iτ,k=0) for time point           20 / 30,    Execution time    0.0 s
 Computed χ(iτ,k=0) for time point           21 / 30,    Execution time    0.0 s
 Computed χ(iτ,k=0) for time point           22 / 30,    Execution time    0.0 s
 Computed χ(iτ,k=0) for time point           23 / 30,    Execution time    0.0 s
 Computed χ(iτ,k=0) for time point           24 / 30,    Execution time    0.0 s
 Computed χ(iτ,k=0) for time point           25 / 30,    Execution time    0.0 s
 Computed χ(iτ,k=0) for time point           26 / 30,    Execution time    0.0 s
 Computed χ(iτ,k=0) for time point           27 / 30,    Execution time    0.0 s
 Computed χ(iτ,k=0) for time point           28 / 30,    Execution time    0.0 s
 Computed χ(iτ,k=0) for time point           29 / 30,    Execution time    0.0 s
 Computed χ(iτ,k=0) for time point           30 / 30,    Execution time    0.0 s
 
 Computed W(iτ),                                         Execution time    0.1 s
 
 Computed Σ^x(k=0),                                      Execution time    0.0 s
 
 Computed Σ^c(iτ) for time point              1 / 30,    Execution time    0.0 s
 Computed Σ^c(iτ) for time point              2 / 30,    Execution time    0.0 s
 Computed Σ^c(iτ) for time point              3 / 30,    Execution time    0.0 s
 Computed Σ^c(iτ) for time point              4 / 30,    Execution time    0.0 s
 Computed Σ^c(iτ) for time point              5 / 30,    Execution time    0.0 s
 Computed Σ^c(iτ) for time point              6 / 30,    Execution time    0.0 s
 Computed Σ^c(iτ) for time point              7 / 30,    Execution time    0.0 s
 Computed Σ^c(iτ) for time point              8 / 30,    Execution time    0.0 s
 Computed Σ^c(iτ) for time point              9 / 30,    Execution time    0.0 s
 Computed Σ^c(iτ) for time point             10 / 30,    Execution time    0.0 s
 Computed Σ^c(iτ) for time point             11 / 30,    Execution time    0.0 s
 Computed Σ^c(iτ) for time point             12 / 30,    Execution time    0.0 s
 Computed Σ^c(iτ) for time point             13 / 30,    Execution time    0.0 s
 Computed Σ^c(iτ) for time point             14 / 30,    Execution time    0.0 s
 Computed Σ^c(iτ) for time point             15 / 30,    Execution time    0.0 s
 Computed Σ^c(iτ) for time point             16 / 30,    Execution time    0.0 s
 Computed Σ^c(iτ) for time point             17 / 30,    Execution time    0.0 s
 Computed Σ^c(iτ) for time point             18 / 30,    Execution time    0.0 s
 Computed Σ^c(iτ) for time point             19 / 30,    Execution time    0.0 s
 Computed Σ^c(iτ) for time point             20 / 30,    Execution time    0.0 s
 Computed Σ^c(iτ) for time point             21 / 30,    Execution time    0.0 s
 Computed Σ^c(iτ) for time point             22 / 30,    Execution time    0.0 s
 Computed Σ^c(iτ) for time point             23 / 30,    Execution time    0.0 s
 Computed Σ^c(iτ) for time point             24 / 30,    Execution time    0.0 s
 Computed Σ^c(iτ) for time point             25 / 30,    Execution time    0.0 s
 Computed Σ^c(iτ) for time point             26 / 30,    Execution time    0.0 s
 Computed Σ^c(iτ) for time point             27 / 30,    Execution time    0.0 s
 Computed Σ^c(iτ) for time point             28 / 30,    Execution time    0.0 s
 Computed Σ^c(iτ) for time point             29 / 30,    Execution time    0.0 s
 Computed Σ^c(iτ) for time point             30 / 30,    Execution time    0.0 s
 
 SCF valence band maximum (eV):                                           -7.477
 SCF conduction band minimum (eV):                                        -1.936
 SCF indirect band gap (eV):                                               5.542
 SCF direct band gap (eV):                                                 5.542
 
 G0W0 valence band maximum (eV):                                         -10.475
 G0W0 conduction band minimum (eV):                                        1.785
 G0W0 indirect band gap (eV):                                             12.259
 G0W0 direct band gap (eV):                                               12.259
 
 Hartree-Fock with SCF orbitals valence band maximum (eV):               -11.130
 Hartree-Fock with SCF orbitals conduction band minimum (eV)               2.933
 Hartree-Fock with SCF orbitals indirect band gap (eV):                   14.063
 Hartree-Fock with SCF orbitals direct band gap (eV):                     14.063

 ENERGY| Total FORCE_EVAL ( QS ) energy [hartree]            -31.927690209238783

 -------------------------------------------------------------------------------
 -                                                                             -
 -                                DBCSR STATISTICS                             -
 -                                                                             -
 -------------------------------------------------------------------------------
 COUNTER                                    TOTAL       BLAS       SMM       ACC
 flops    22 x    22 x     2               499488       0.0%    100.0%      0.0%     
 flops    72 x    72 x    26             16174080       0.0%    100.0%      0.0%     
 flops    26 x    72 x    72             17791488       0.0%    100.0%      0.0%     
 flops    26 x    72 x    26             18495360       0.0%    100.0%      0.0%     
 flops    26 x    26 x    72             19274112       0.0%    100.0%      0.0%     
 flops    22 x    22 x    26             23934768       0.0%    100.0%      0.0%     
 flops    26 x    22 x    26             29178864       0.0%    100.0%      0.0%     
 flops    72 x    96 x    26             43130880       0.0%    100.0%      0.0%     
 flops    96 x    72 x    26             43130880       0.0%    100.0%      0.0%     
 flops    26 x    72 x    96             47443968       0.0%    100.0%      0.0%     
 flops    26 x    96 x    72             47443968       0.0%    100.0%      0.0%     
 flops    26 x    96 x    26             49320960       0.0%    100.0%      0.0%     
 flops    26 x    26 x    96             53733888       0.0%    100.0%      0.0%     
 flops    26 x    22 x    22             62995504       0.0%    100.0%      0.0%     
 flops    26 x    26 x    22             73348704       0.0%    100.0%      0.0%     
 flops    72 x    72 x    32             80621568       0.0%    100.0%      0.0%     
 flops    32 x    72 x    72             87588864       0.0%    100.0%      0.0%     
 flops    26 x    72 x    32             90574848       0.0%    100.0%      0.0%     
 flops    32 x    72 x    26             91054080       0.0%    100.0%      0.0%     
 flops    32 x    26 x    72             94528512       0.0%    100.0%      0.0%     
 flops    26 x    32 x    72             94887936       0.0%    100.0%      0.0%     
 flops    96 x    96 x    26            115015680       0.0%    100.0%      0.0%     
 flops    26 x    96 x    96            132268032       0.0%    100.0%      0.0%     
 flops    22 x    22 x    32            133165824       0.0%    100.0%      0.0%     
 flops    32 x    22 x    26            144162304       0.0%    100.0%      0.0%     
 flops    26 x    22 x    32            144638208       0.0%    100.0%      0.0%     
 flops    72 x    96 x    32            213221376       0.0%    100.0%      0.0%     
 flops    96 x    72 x    32            214990848       0.0%    100.0%      0.0%     
 flops    32 x    72 x    96            233570304       0.0%    100.0%      0.0%     
 flops    32 x    96 x    72            233570304       0.0%    100.0%      0.0%     
 flops    26 x    96 x    32            241213440       0.0%    100.0%      0.0%     
 flops    32 x    96 x    26            242810880       0.0%    100.0%      0.0%     
 flops    32 x    26 x    96            258785280       0.0%    100.0%      0.0%     
 flops    26 x    32 x    96            264536064       0.0%    100.0%      0.0%     
 flops    32 x    22 x    22            310131712       0.0%    100.0%      0.0%     
 flops    26 x    32 x    22            362382592       0.0%    100.0%      0.0%     
 flops    32 x    26 x    22            364103168       0.0%    100.0%      0.0%     
 flops    32 x    72 x    32            446644224       0.0%    100.0%      0.0%     
 flops    32 x    32 x    72            465371136       0.0%    100.0%      0.0%     
 flops    96 x    96 x    32            568590336       0.0%    100.0%      0.0%     
 flops    32 x    96 x    96            651165696       0.0%    100.0%      0.0%     
 flops    32 x    22 x    32            713957376       0.0%    100.0%      0.0%     
 flops    32 x    96 x    32           1191247872       0.0%    100.0%      0.0%     
 flops    32 x    32 x    96           1274019840       0.0%    100.0%      0.0%     
 flops    32 x    32 x    22           1796472832       0.0%    100.0%      0.0%     
 flops inhomo. stacks                           0       0.0%      0.0%      0.0%
 flops total                        11.801188E+09       0.0%    100.0%      0.0%
 flops max/rank                      1.039502E+09       0.0%    100.0%      0.0%
 matmuls inhomo. stacks                         0       0.0%      0.0%      0.0%
 matmuls total                             139976       0.0%    100.0%      0.0%
 number of processed stacks                100473       0.0%    100.0%      0.0%
 average stack size                                     0.0       1.4       0.0
 marketing flops                    16.666289E+09
 -------------------------------------------------------------------------------
 # multiplications                            529
 max memory usage/rank              21.107425E+09
 # max total images/rank                        2
 # max 3D layers                                1
 # MPI messages exchanged                  220064
 MPI messages size (bytes):
  total size                         2.326252E+09
  min size                           0.000000E+00
  max size                          98.304000E+03
  average size                      10.570798E+03
 MPI breakdown and total messages size (bytes):
             size <=      128              144135                        0
       128 < size <=     8192                7373                 32094816
      8192 < size <=    32768               41574                700782528
     32768 < size <=   131072               26982               1593374624
    131072 < size <=  4194304                   0                        0
   4194304 < size <= 16777216                   0                        0
  16777216 < size                               0                        0
 -------------------------------------------------------------------------------

 *** WARNING in dbcsr_mm.F:301 :: Using a non-square number of MPI ranks ***
 *** might lead to poor performance. Used ranks: 32 Suggested: 36 64     ***

 -------------------------------------------------------------------------------
 -                                                                             -
 -                      DBCSR MESSAGE PASSING PERFORMANCE                      -
 -                                                                             -
 -------------------------------------------------------------------------------
 ROUTINE             CALLS      AVE VOLUME [Bytes]
 MP_Bcast               46                     12.
 MP_Allreduce         2345                     10.
 MP_Alltoall          4404                   9023.
 MP_ISend            19566                   7621.
 MP_IRecv            16180                   6653.
 -------------------------------------------------------------------------------

 -------------------------------------------------------------------------------
 -                                                                             -
 -                                GRID STATISTICS                              -
 -                                                                             -
 -------------------------------------------------------------------------------
 LP    KERNEL             BACKEND                              COUNT     PERCENT
 4     collocate ortho    CPU                                   1144      49.80%
 4     integrate ortho    CPU                                   1144      49.80%
 0     collocate general  CPU                                      6       0.26%
 0     integrate general  CPU                                      3       0.13%
 -------------------------------------------------------------------------------

 -------------------------------------------------------------------------------
 -                                                                             -
 -                          OFFLOAD MEMPOOL STATISTICS                         -
 -                                                                             -
 -------------------------------------------------------------------------------
 Memory consumption                Number of allocations  Used [MiB]  Size [MiB]
 Host                                                  7          49    21535818
 -------------------------------------------------------------------------------

 MEMORY| Estimated peak process memory [MiB]                                1112

 -------------------------------------------------------------------------------
 -                                                                             -
 -                         MESSAGE PASSING PERFORMANCE                         -
 -                                                                             -
 -------------------------------------------------------------------------------

 ROUTINE             CALLS      AVE VOLUME [Bytes]
 MP_Group                6
 MP_Bcast              489                 276844.
 MP_Allreduce         2638                   2511.
 MP_Sync                53
 MP_Alltoall           976               29513429.
 MP_SendRecv          4092                 132779.
 MP_ISendRecv         4092                 132779.
 MP_Wait              8746
 MP_comm_split          52
 MP_ISend             3938                 932225.
 MP_IRecv             3938                 932156.
 -------------------------------------------------------------------------------


 -------------------------------------------------------------------------------
 -                                                                             -
 -                           R E F E R E N C E S                               -
 -                                                                             -
 -------------------------------------------------------------------------------
 
 CP2K version 2026.2 (Development Version), the CP2K developers group (2026).
 CP2K is freely available from https://www.cp2k.org/ .
 
 M. Iannuzzi, J. Wilhelm, F. Stein, A. Bussy, H. Elgabarty, D. Golze, A. Hehn, 
 M. Graml, S. Marek, B. Sertcan Gökmen, C. Schran, H. Forbert, R. Z. 
 Khaliullin, A. Kozhevnikov, M. Taillefumier, R. Meli, V. V. Rybkin, M. Brehm, 
 R. Schade, O. Schütt, J. V. Pototschnig, H. Mirhosseini, A. Knüpfer, D. Marx, 
 M. Krack, J. Hutter, T. D. Kühne.
 J. Phys. Chem. B 130, 1237-1310 (2026).
 The CP2K Program Package Made Simple.
 https://doi.org/10.1021/acs.jpcb.5c05851

 M. Graml, K. Zollner, D. Hernangómez-Pérez, P. E. Faria Junior, J. Wilhelm.
 J. Chem. Theory Comput. 20, 2202-2208 (2024).
 Low-scaling GW algorithm applied to twisted transition-metal dichalcogenide 
 heterobilayers.
 https://doi.org/10.1021/acs.jctc.3c01230

 T. D. Kühne, M. Iannuzzi, M. Del Ben, V. V. Rybkin, P. Seewald, F. Stein, T. 
 Laino, R. Z. Khaliullin, O. Schütt, F. Schiffmann, D. Golze, J. Wilhelm, S. 
 Chulkov, M. H. Bani-Hashemian, V. Weber, U. Borstnik, M. Taillefumier, A. S. 
 Jakobovits, A. Lazzaro, H. Pabst, T. Müller, R. Schade, M. Guidon, S. 
 Andermatt, N. Holmberg, G. K. Schenter, A. Hehn, A. Bussy, F. Belleflamme, G. 
 Tabacchi, A. Glöß, M. Lass, I. Bethune, C. J. Mundy, C. Plessl, M. Watkins, 
 J. VandeVondele, M. Krack, J. Hutter.
 J. Chem. Phys. 152, 194103 (2020).
 CP2K: An electronic structure and molecular dynamics software package - 
 Quickstep: Efficient and accurate electronic structure calculations.
 https://doi.org/10.1063/5.0007045

 O. Schuett, P. Messmer, J. Hutter, J. VandeVondele.
 Electronic Structure Calculations on Graphics Processing Units, 173-190 (2016).
 GPU-Accelerated Sparse Matrix-Matrix Multiplication for Linear Scaling Density 
 Functional Theory.
 https://doi.org/10.1002/9781118670712.ch8

 U. Borstnik, J. VandeVondele, V. Weber, J. Hutter.
 Parallel Comput. 40, 47-58 (2014).
 Sparse matrix multiplication: The distributed block-compressed sparse row 
 library.
 https://doi.org/10.1016/j.parco.2014.03.012

 J. VandeVondele, J. Hutter.
 J. Chem. Phys. 127, 114105 (2007).
 Gaussian basis sets for accurate calculations on molecular systems in gas and 
 condensed phases.
 https://doi.org/10.1063/1.2770708

 J. VandeVondele, M. Krack, F. Mohamed, M. Parrinello, T. Chassaing, J. Hutter.
 Comput. Phys. Commun. 167, 103-128 (2005).
 QUICKSTEP: Fast and accurate density functional calculations using a mixed 
 Gaussian and plane waves approach.
 https://doi.org/10.1016/j.cpc.2004.12.014

 M. Krack.
 Theor. Chem. Acc. 114, 145-152 (2005).
 Pseudopotentials for H to Kr optimized for gradient-corrected 
 exchange-correlation functionals.
 https://doi.org/10.1007/s00214-005-0655-y

 M. Frigo, S. G. Johnson.
 Proc. IEEE 93, 216-231 (2005).
 The design and implementation of FFTW3.
 https://doi.org/10.1109/JPROC.2004.840301

 C. Hartwigsen, S. Goedecker, J. Hutter.
 Phys. Rev. B 58, 3641-3662 (1998).
 Relativistic separable dual-space Gaussian pseudopotentials from H to Rn.
 https://doi.org/10.1103/PhysRevB.58.3641

 G. Lippert, J. Hutter, M. Parrinello.
 Mol. Phys. 92, 477-487 (1997).
 A hybrid Gaussian and plane wave density functional scheme.
 https://doi.org/10.1080/002689797170220

 S. Goedecker, M. Teter, J. Hutter.
 Phys. Rev. B 54, 1703-1710 (1996).
 Separable dual-space Gaussian pseudopotentials.
 https://doi.org/10.1103/PhysRevB.54.1703

 J. P. Perdew, K. Burke, M. Ernzerhof.
 Phys. Rev. Lett. 77, 3865-3868 (1996).
 Generalized gradient approximation made simple.
 https://doi.org/10.1103/PhysRevLett.77.3865

 P. E. Blöchl.
 J. Chem. Phys. 103, 7422-7428 (1995).
 Electrostatic decoupling of periodic images of plane‐wave‐expanded 
 densities and derived atomic point charges.
 https://doi.org/10.1063/1.470314

 R. H. Byrd, P. H. Lu, J. Nocedal, C. Y. Zhu.
 SIAM J. Sci. Comput. 16, 1190-1208 (1995).
 A Limited Memory Algorithm for Bound Constrained Optimization.
 https://doi.org/10.1137/0916069

 C. G. Broyden.
 Math. Comput. 19, 577-593 (1965).
 A class of methods for solving nonlinear simultaneous equations.
 https://doi.org/10.1090/S0025-5718-1965-0198670-6


 -------------------------------------------------------------------------------
 -                                                                             -
 -                                T I M I N G                                  -
 -                                                                             -
 -------------------------------------------------------------------------------
 SUBROUTINE                       CALLS  ASD         SELF TIME        TOTAL TIME
                                MAXIMUM       AVERAGE  MAXIMUM  AVERAGE  MAXIMUM
 CP2K                                 1  1.0    0.028    0.037   63.707   63.708
 qs_energies                          1  2.0    0.001    0.001   63.190   63.191
 scf_env_do_scf                       1  3.0    0.000    0.001   44.533   44.535
 scf_env_do_scf_inner_loop           43  4.0    0.003    0.005   44.532   44.534
 qs_ks_build_kohn_sham_matrix        44  7.0    0.009    0.010   27.336   27.371
 qs_ks_update_qs_env                 43  5.0    0.000    0.001   27.130   27.164
 rebuild_ks_matrix                   43  6.0    0.000    0.001   27.126   27.160
 fft_wrap_pw1pw2                    872 10.0    0.017    0.020   21.946   22.391
 fft_wrap_pw1pw2_300                520 11.4    1.407    1.636   21.166   21.793
 qs_energies_properties               1  3.0    0.000    0.000   18.121   18.123
 post_scf_bandstructure               1  4.0    0.000    0.000   18.121   18.123
 qs_vxc_create                       44  8.0    0.001    0.001   17.992   18.109
 xc_vxc_pw_create                    43  9.0    0.234    0.290   17.991   18.107
 run_gw                               1  5.0    0.000    0.000   18.085   18.096
 mp_sum_d                          1248  6.1   15.286   17.137   15.286   17.137
 gw_calc_ri_rs_non_periodic           1  6.0    0.001    0.001   16.966   17.010
 optimize_ri_rs_grid                  1  7.0    0.000    0.000   16.279   16.324
 rirs_grid_LBFGS                      1  8.0    0.105    0.950   16.210   16.271
 fft3d_ps                           872 12.0    8.786    9.276   15.637   16.130
 evaluate_rirs_grid_cluster         301  9.0    0.131    1.402    1.399   15.025
 xc_pw_derive                       258 11.0    0.003    0.003   12.763   13.108
 qs_rho_update_rho_low               44  5.0    0.000    0.000   10.048   10.049
 calculate_rho_elec                  44  6.0    0.139    0.148   10.048   10.049
 xc_rho_set_and_dset_create          43 10.0    0.305    0.397    9.133    9.412
 density_rs2pw                       44  7.0    0.003    0.003    7.119    9.383
 xc_pw_divergence                    43 10.0    0.002    0.002    8.373    8.664
 gspace_mixing                       42  5.0    0.133    0.142    7.292    7.292
 mp_alltoall_z22v                   872 14.0    4.603    5.392    4.603    5.392
 broyden_mixing                      42  6.0    5.212    5.272    5.368    5.381
 transfer_rs2pw                     222  8.0    0.005    0.006    3.094    5.300
 mp_waitany                        3938 11.5    2.830    4.998    2.830    4.998
 transfer_rs2pw_300                  46  8.9    0.505    0.552    2.430    4.657
 sum_up_and_integrate                44  8.0    0.002    0.002    4.533    4.574
 integrate_v_rspace                  44  9.0    0.001    0.001    4.453    4.492
 potential_pw2rs                     44 10.0    0.009    0.010    4.424    4.433
 x_to_yz                            478 13.4    1.421    2.048    3.884    4.425
 rirs_cluster_gradient_products     301 10.0    0.388    4.177    0.388    4.177
 grid_collocate_task_list            44  7.0    2.625    4.146    2.625    4.146
 rirs_cluster_gradient_coordina     301 10.0    0.358    3.842    0.358    3.842
 yz_to_x                            394 12.6    0.804    0.873    2.944    3.598
 qs_ks_ddapc                         44  8.0    0.001    0.001    2.305    2.511
 pw_derive                          390 11.3    2.153    2.313    2.153    2.313
 xc_functional_eval                  43 11.0    0.001    0.001    2.099    2.292
 pbe_lda_eval                        43 12.0    2.098    2.292    2.098    2.292
 transfer_pw2rs                     221 11.0    0.003    0.003    2.271    2.274
 pw_scatter_p                       478 12.4    2.038    2.150    2.038    2.150
 pw_poisson_solve                    44  8.0    0.001    0.001    2.123    2.142
 pw_copy                            744 10.6    1.897    1.963    1.897    1.963
 rirs_cluster_D_ll                  301 10.0    0.167    1.790    0.167    1.790
 pw_gather_p                        394 11.6    1.557    1.691    1.557    1.691
 rirs_cluster_residual              301 10.0    0.132    1.425    0.132    1.425
 transfer_pw2rs_300                  45 11.9    0.586    0.605    1.316    1.353
 pw_poisson_set                      45  9.0    0.001    0.002    1.297    1.316
 -------------------------------------------------------------------------------

 The number of warnings for this run is : 1
 
 -------------------------------------------------------------------------------
  **** **** ******  **  PROGRAM ENDED AT                 2026-09-17 22:59:26.706
 ***** ** ***  *** **   PROGRAM RAN ON                                  n2cn0503
 **    ****   ******    PROGRAM RAN BY                                  eprop2d1
 ***** **    ** ** **   PROGRAM PROCESS ID                                283442
  **** **  *******  **  PROGRAM STOPPED IN /scratch/hpc-prf-metdyn/eprop2d1_Jan/
                                           53_benchmark_RI_opt/129_GW100_Si293_A
                                           O_frontier_optimization_coopfst/follo
                                           wups/pbe_g0w0/gw100/79_OCS/dzvp_t1
