 DBCSR| CPU Multiplication driver                                           XSMM (U)
 DBCSR| Multrec recursion limit                                              512 (U)
 DBCSR| Multiplication stack size                                           1000 (D)
 DBCSR| Maximum elements for images                                    UNLIMITED (U)
 DBCSR| Multiplicative factor virtual images                                   1 (U)
 DBCSR| Use multiplication densification                                       T (D)
 DBCSR| Multiplication size stacks                                             3 (U)
 DBCSR| Use memory pool for CPU allocation                                     F (U)
 DBCSR| Number of 3D layers                                               SINGLE (U)
 DBCSR| Use MPI memory allocation                                              F (U)
 DBCSR| Use RMA algorithm                                                      F (U)
 DBCSR| Use Communication thread                                               T (U)
 DBCSR| Communication thread load                                             53 (D)
 DBCSR| MPI: My process id                                                     0
 DBCSR| MPI: Number of processes                                              11
 DBCSR| OMP: Current number of threads                                        10
 DBCSR| OMP: Max number of threads                                            10
 DBCSR| Split modifier for TAS multiplication algorithm                  1.0E+00 (U)


  **** **** ******  **  PROGRAM STARTED AT               2026-10-03 18:56:20.979
 ***** ** ***  *** **   PROGRAM STARTED ON                              n2cn1035
 **    ****   ******    PROGRAM STARTED BY                              eprop2d1
 ***** **    ** ** **   PROGRAM PROCESS ID                               1250146
  **** **  *******  **  PROGRAM STARTED IN /scratch/hpc-prf-metdyn/eprop2d1_Jan/
                                           53_benchmark_RI_opt/418_gw100_fig5_fu
                                           ll_epsfilter_1e12_20261002/calculatio
                                           ns/rc0p5/ri5_rs03/91_C5H5N

 CP2K| version string:                 CP2K version 2026.2 (Development Version)
 CP2K| source code revision number:                                   0671c5aa6c
 CP2K| cp2kflags: omp libint fftw3 libxc parallel scalapack openblas            
 CP2K| is freely available from                            https://www.cp2k.org/
 CP2K| Program compiled at                                   2026-09-20 09:25:26
 CP2K| Program compiled on                                              n2login5
 CP2K| Program compiled for                                               x86_64
 CP2K| Data directory path    /scratch/hpc-prf-metdyn/eprop2d1_Jan/53_benchmark_
 CP2K| Input file name        /scratch/hpc-prf-metdyn/eprop2d1_Jan/53_benchmark_
 
 eprop2d1@n2cn1035 has created rank and process                      0   1250146
 eprop2d1@n2cn1035 has created rank and process                      1   1250147
 eprop2d1@n2cn1035 has created rank and process                      2   1250148
 eprop2d1@n2cn1035 has created rank and process                      3   1250149
 eprop2d1@n2cn1035 has created rank and process                      4   1250150
 eprop2d1@n2cn1035 has created rank and process                      5   1250151
 eprop2d1@n2cn1035 has created rank and process                      6   1250152
 eprop2d1@n2cn1035 has created rank and process                      7   1250153
 eprop2d1@n2cn1035 has created rank and process                      8   1250154
 eprop2d1@n2cn1035 has created rank and process                      9   1250155
 eprop2d1@n2cn1035 has created rank and process                     10   1250156
 
 eprop2d1@n2cn1035 is running                                       11 processes

 GLOBAL| Force Environment number                                              1
 GLOBAL| Basis set file name            /scratch/hpc-prf-metdyn/eprop2d1_Jan/53_
 GLOBAL| Potential file name            /scratch/hpc-prf-metdyn/eprop2d1_Jan/53_
 GLOBAL| MM Potential file name                                     MM_POTENTIAL
 GLOBAL| Coordinate file name                                      __STD_INPUT__
 GLOBAL| Method name                                                        CP2K
 GLOBAL| Project name                                             g418_a503_m091
 GLOBAL| Run type                                                         ENERGY
 GLOBAL| FFT library                                                       FFTW3
 GLOBAL| Diagonalization library                                       ScaLAPACK
 GLOBAL| Cholesky decomposition library                                ScaLAPACK
 GLOBAL| DGEMM library                                                      BLAS
 GLOBAL| Direct generalized diagonalization requested                          F
 GLOBAL| Orthonormality check for eigenvectors                          DISABLED
 GLOBAL| Matrix multiplication library                                 ScaLAPACK
 GLOBAL| All-to-all communication in single precision                          F
 GLOBAL| Grid backend                                                       AUTO
 GLOBAL| Global print level                                                  LOW
 GLOBAL| MPI I/O enabled                                                       T
 GLOBAL| Total number of message passing processes                            11
 GLOBAL| Number of distributed systems (nodes)                                 1
 GLOBAL| Number of threads for this process                                   10
 GLOBAL| This output is from process                                           0
 GLOBAL| OpenMP stack size per thread (OMP_STACKSIZE)                       512M
 GLOBAL| CPU model name                          AMD EPYC 7763 64-Core Processor

 MEMORY| system memory details [Kb]
 MEMORY|                        rank 0           min           max       average
 MEMORY| MemTotal            263897580     263897580     263897580     263897580
 MEMORY| MemFree             249199164     249199164     249199164     249199164
 MEMORY| Buffers                159696        159696        159696        159696
 MEMORY| Cached                7890884       7890884       7890884       7890884
 MEMORY| Slab                  1644904       1644904       1644904       1644904
 MEMORY| SReclaimable           312112        312112        312112        312112
 MEMORY| MemLikelyFree       257561856     257561856     257561856     257561856


 GENERATE|  Preliminary Number of Bonds generated:                             0
 GENERATE|  Achieved consistency in connectivity generation.

 *******************************************************************************
 *******************************************************************************
 **                                                                           **
 **     #####                         ##              ##                      **
 **    ##   ##            ##          ##              ##                      **
 **   ##     ##                       ##            ######                    **
 **   ##     ##  ##   ##  ##   #####  ##  ##   ####   ##    #####    #####    **
 **   ##     ##  ##   ##  ##  ##      ## ##   ##      ##   ##   ##  ##   ##   **
 **   ##  ## ##  ##   ##  ##  ##      ####     ###    ##   ######   ######    **
 **    ##  ###   ##   ##  ##  ##      ## ##      ##   ##   ##       ##        **
 **     #######   #####   ##   #####  ##  ##  ####    ##    #####   ##        **
 **           ##                                                    ##        **
 **                                                                           **
 **                                                ... make the atoms dance   **
 **                                                                           **
 **            Copyright (C) by CP2K developers group (2000-2026)             **
 **                      J. Chem. Phys. 152, 194103 (2020)                    **
 **                                                                           **
 *******************************************************************************


 TOTAL NUMBERS AND MAXIMUM NUMBERS

  Total number of            - Atomic kinds:                                   3
                             - Atoms:                                         11
                             - Shell sets:                                    11
                             - Shells:                                        79
                             - Primitive Cartesian functions:                 72
                             - Cartesian basis functions:                    249
                             - Spherical basis functions:                    219

  Maximum angular momentum of- Orbital basis functions:                        3
                             - Local part of the GTH pseudopotential:          2
                             - Non-local part of the GTH pseudopotential:      0


 SCF PARAMETERS         Density guess:                                   RESTART
                        --------------------------------------------------------
                        max_scf:                                             500
                        max_scf_history:                                       0
                        max_diis:                                              4
                        --------------------------------------------------------
                        eps_scf:                                        1.00E-08
                        eps_scf_history:                                0.00E+00
                        eps_diis:                                       0.00E+00
                        eps_eigval:                                     1.00E-05
                        --------------------------------------------------------
                        level_shift [a.u.]:                             0.000000
                        --------------------------------------------------------
                        Outer loop SCF in use 
                        No variables optimised in outer loop
                        eps_scf                                         1.00E-08
                        max_scf                                               20
                        No outer loop optimization
                        step_size                                       5.00E-01

 Extrapolation method: initial_guess

 Number of electrons:                                                         30
 Number of occupied orbitals:                                                 15
 Number of molecular orbitals:                                                15

 Number of orbital functions:                                                219
 Number of independent orbital functions:                                    219


 SCF WAVEFUNCTION OPTIMIZATION

  ----------------------------------- OT ---------------------------------------
  Minimizer      : DIIS                : direct inversion
                                         in the iterative subspace
                                         using   7 DIIS vectors
                                         safer DIIS on
  Preconditioner : FULL_KINETIC        : inversion of T + eS
  Lattice FFT   : OFF
  Precond_solver : DEFAULT
  stepsize       :    0.15000000                  energy_gap     :    0.20000000
  eps_taylor     :   0.10000E-15                  max_taylor     :             4
  ----------------------------------- OT ---------------------------------------

  Step     Update method      Time    Convergence         Total energy    Change
  ------------------------------------------------------------------------------
  Decoupling Energy:                                               0.0000211310
     1 OT DIIS     0.15E+00    1.2     5.6988E-09       -41.3462759412 -4.13E+01

  *** SCF run converged in     1 steps ***


  Electronic density on regular grids:        -30.0000000000        0.0000000000
  Core density on regular grids:               30.0000000000       -0.0000000000
  Total charge density on r-space grids:       -0.0000000000
  Total charge density g-space grids:          -0.0000000000

  Overlap energy of the core charge distribution:               0.00000302847131
  Self energy of the core charge distribution:                -98.57802826791840
  Core Hamiltonian energy:                                     30.62741167610114
  Hartree energy:                                              39.60093420635253
  Exchange-correlation energy:                                -12.99659658421697

  Total energy:                                               -41.34627594121038

  outer SCF iter =    1 RMS gradient =   0.57E-08 energy =        -41.3462759412
  outer SCF loop converged in   1 iterations or    1 steps

  
 -------------------------------------------------------------------------------
 -                                                                             -
 -                          BANDSTRUCTURE CALCULATION                          -
 -                                                                             -
 -------------------------------------------------------------------------------
  
 Number of occupied molecular orbitals (MOs) = Number of occupied bands       15
 Number of unoccupied (= virtual) MOs = Number of unoccupied bands           204
 Number of Gaussian basis functions for MOs                                  219
  
 -------------------------------------------------------------------------------
 -                                                                             -
 -                                GW CALCULATION                               -
 -                                                                             -
 -------------------------------------------------------------------------------
  
 Input: Number of time/freq. points                                           30
 Input: ω_max for fitting Σ(iω) (eV)                                        10.0
 Input: Filter threshold for sparse tensor operations                    1.0E-12
 Input: Apply Hedin shift                                                      F
 Detected: Available memory per MPI process                              19.9 GB
 
 Input: RI-RS Tikhonov regularization                                   1.00E-04
 Input: AO grid hard cutoff radius                                        8.00 Å
 Input: MPI ranks per atom in Z_lP solve                                      -1
 Input: Keep sparsity in χ/G/W panels                                          T
 Input: GW flavour                                                          G0W0
 
 Input: RI-RS grid optimization activated                                      T
 Input: RS points per AO function                                            3.0
 Input: Cutoff radius for atomic clusters                                  0.5 Å
 Input: Maximum grid optimization iterations                                 300
 
 Input: AUTO_RI basis optimization activated:                                  T
 Input: AUTO_RI number of RI functions per AO function:                      5.0
 Input: AUTO_RI frontier orbital window:                                  5.0 eV
 Input: AUTO_RI neighbor radius:                                           3.0 Å
 
 Cutoff radius for the truncated Coulomb operator in RI metric:            7.0 Å
 Regularization parameter of RI                                          0.0E+00
 Regularization parameter of minimax grids                               1.0E-06
 
 AUTO_RI| Number of automatic RI functions for χ, ε, W:                      934
 AUTO_RI| Total RI basis optimization time:                                3.4 s
  Decoupling Energy:                                               0.0000211310
 
 SCF direct band gap (eV)                                                   4.06
 Max. SCF eigval diff. (eV)                                               267.81
 E-Range for minimax grid                                                  65.95
 Number of Padé parameters for analytic continuation:                         16
 
 RI-RS basis radii (Å):
     Kind  Elem     r_AO (Å)     r_RI (Å)
        1    N        14.0505        8.8909
        2    C        15.9835       10.1279
        3    H        13.9082        8.7963
 
 Started RI-RS grid optimization
 RI-RS grid initial normalized error                          1.221330678061E-01
 RI-RS grid optimization completed, execution time:                        0.6 s
 Normalized 3C error:                                                    1.1E-03
 Maximum absolute 3C error:                                              4.4E-01
 Optimized points outside molecular Voronoi cells:                           342 / 657
 Total grid points used for RI-RS:                                           657
 
 RI-RS grid row-blocks of ϕ_μ(r_l)                                            23
 RI-RS grid points per block (max)                                            32
 
 Percentage of non-zero matrix elements in ϕ_μ(r_l)                     100.00 %
 
 RI-RS memory estimate per MPI process:
   Available memory per process (system)                                23.48 GB
   Required for Z_lP (dense upper bound; actual is sparser)              0.00 GB
   Required for χ, W, Σ panels (peak per panel step)                     0.00 GB
   Required for Z_lP solve peak (D_local+ϕ, worst-case atom)             0.01 GB
   Worst-case local-grid number of grid points:                              657
   Worst-case memory D_local:                                            0.00 GB
 
 Started computing Z_lP
 Computed Z_lP (MPI rank 0) for atom          1 /  1,    Execution time    0.3 s
 Computed Z_lP (all MPI ranks) for all atoms,            Execution time    0.4 s

 Memory per MPI process after computing Z_lP:
 Available memory per MPI process                               23.3 GB
 Used memory per MPI process                                     1.0 GB
 Number of batches for χ, Σ matrices                                           1
 
 Percentage of non-zero matrix elements in Z_lP                         100.00 %
 Percentage of non-zero matrix elements in G_ll', χ_ll', W_ll'          100.00 %
 Percentage of non-zero matrix elements in χ_PQ for time point 1        100.00 %
 
 Computed χ(iτ,k=0) for time point            1 / 30,    Execution time    0.0 s
 Computed χ(iτ,k=0) for time point            2 / 30,    Execution time    0.0 s
 Computed χ(iτ,k=0) for time point            3 / 30,    Execution time    0.0 s
 Computed χ(iτ,k=0) for time point            4 / 30,    Execution time    0.0 s
 Computed χ(iτ,k=0) for time point            5 / 30,    Execution time    0.0 s
 Computed χ(iτ,k=0) for time point            6 / 30,    Execution time    0.0 s
 Computed χ(iτ,k=0) for time point            7 / 30,    Execution time    0.0 s
 Computed χ(iτ,k=0) for time point            8 / 30,    Execution time    0.0 s
 Computed χ(iτ,k=0) for time point            9 / 30,    Execution time    0.0 s
 Computed χ(iτ,k=0) for time point           10 / 30,    Execution time    0.0 s
 Computed χ(iτ,k=0) for time point           11 / 30,    Execution time    0.0 s
 Computed χ(iτ,k=0) for time point           12 / 30,    Execution time    0.0 s
 Computed χ(iτ,k=0) for time point           13 / 30,    Execution time    0.0 s
 Computed χ(iτ,k=0) for time point           14 / 30,    Execution time    0.0 s
 Computed χ(iτ,k=0) for time point           15 / 30,    Execution time    0.0 s
 Computed χ(iτ,k=0) for time point           16 / 30,    Execution time    0.0 s
 Computed χ(iτ,k=0) for time point           17 / 30,    Execution time    0.0 s
 Computed χ(iτ,k=0) for time point           18 / 30,    Execution time    0.0 s
 Computed χ(iτ,k=0) for time point           19 / 30,    Execution time    0.0 s
 Computed χ(iτ,k=0) for time point           20 / 30,    Execution time    0.0 s
 Computed χ(iτ,k=0) for time point           21 / 30,    Execution time    0.0 s
 Computed χ(iτ,k=0) for time point           22 / 30,    Execution time    0.0 s
 Computed χ(iτ,k=0) for time point           23 / 30,    Execution time    0.0 s
 Computed χ(iτ,k=0) for time point           24 / 30,    Execution time    0.0 s
 Computed χ(iτ,k=0) for time point           25 / 30,    Execution time    0.0 s
 Computed χ(iτ,k=0) for time point           26 / 30,    Execution time    0.0 s
 Computed χ(iτ,k=0) for time point           27 / 30,    Execution time    0.0 s
 Computed χ(iτ,k=0) for time point           28 / 30,    Execution time    0.0 s
 Computed χ(iτ,k=0) for time point           29 / 30,    Execution time    0.0 s
 Computed χ(iτ,k=0) for time point           30 / 30,    Execution time    0.0 s
 
 Cholesky decomposition failed, using diagonalization.
 Discarded eigenmodes:                                                         1
 Computed W(iτ),                                         Execution time    2.0 s
 
 Computed Σ^x(k=0),                                      Execution time    0.0 s
 
 Computed Σ^c(iτ) for time point              1 / 30,    Execution time    0.0 s
 Computed Σ^c(iτ) for time point              2 / 30,    Execution time    0.0 s
 Computed Σ^c(iτ) for time point              3 / 30,    Execution time    0.0 s
 Computed Σ^c(iτ) for time point              4 / 30,    Execution time    0.0 s
 Computed Σ^c(iτ) for time point              5 / 30,    Execution time    0.0 s
 Computed Σ^c(iτ) for time point              6 / 30,    Execution time    0.0 s
 Computed Σ^c(iτ) for time point              7 / 30,    Execution time    0.0 s
 Computed Σ^c(iτ) for time point              8 / 30,    Execution time    0.0 s
 Computed Σ^c(iτ) for time point              9 / 30,    Execution time    0.0 s
 Computed Σ^c(iτ) for time point             10 / 30,    Execution time    0.0 s
 Computed Σ^c(iτ) for time point             11 / 30,    Execution time    0.0 s
 Computed Σ^c(iτ) for time point             12 / 30,    Execution time    0.0 s
 Computed Σ^c(iτ) for time point             13 / 30,    Execution time    0.0 s
 Computed Σ^c(iτ) for time point             14 / 30,    Execution time    0.0 s
 Computed Σ^c(iτ) for time point             15 / 30,    Execution time    0.0 s
 Computed Σ^c(iτ) for time point             16 / 30,    Execution time    0.0 s
 Computed Σ^c(iτ) for time point             17 / 30,    Execution time    0.0 s
 Computed Σ^c(iτ) for time point             18 / 30,    Execution time    0.0 s
 Computed Σ^c(iτ) for time point             19 / 30,    Execution time    0.0 s
 Computed Σ^c(iτ) for time point             20 / 30,    Execution time    0.0 s
 Computed Σ^c(iτ) for time point             21 / 30,    Execution time    0.0 s
 Computed Σ^c(iτ) for time point             22 / 30,    Execution time    0.0 s
 Computed Σ^c(iτ) for time point             23 / 30,    Execution time    0.0 s
 Computed Σ^c(iτ) for time point             24 / 30,    Execution time    0.0 s
 Computed Σ^c(iτ) for time point             25 / 30,    Execution time    0.0 s
 Computed Σ^c(iτ) for time point             26 / 30,    Execution time    0.0 s
 Computed Σ^c(iτ) for time point             27 / 30,    Execution time    0.0 s
 Computed Σ^c(iτ) for time point             28 / 30,    Execution time    0.0 s
 Computed Σ^c(iτ) for time point             29 / 30,    Execution time    0.0 s
 Computed Σ^c(iτ) for time point             30 / 30,    Execution time    0.0 s
 
 SCF valence band maximum (eV):                                           -5.935
 SCF conduction band minimum (eV):                                        -1.874
 SCF indirect band gap (eV):                                               4.061
 SCF direct band gap (eV):                                                 4.061
 
 G0W0 valence band maximum (eV):                                          -8.687
 G0W0 conduction band minimum (eV):                                        0.830
 G0W0 indirect band gap (eV):                                              9.517
 G0W0 direct band gap (eV):                                                9.517
 
 Hartree-Fock with SCF orbitals valence band maximum (eV):                -9.179
 Hartree-Fock with SCF orbitals conduction band minimum (eV)               1.923
 Hartree-Fock with SCF orbitals indirect band gap (eV):                   11.103
 Hartree-Fock with SCF orbitals direct band gap (eV):                     11.103

 ENERGY| Total FORCE_EVAL ( QS ) energy [hartree]            -41.346275941210379

 -------------------------------------------------------------------------------
 -                                                                             -
 -                                DBCSR STATISTICS                             -
 -                                                                             -
 -------------------------------------------------------------------------------
 COUNTER                                    TOTAL       BLAS       SMM       ACC
 flops    15 x    15 x    15                 6750       0.0%    100.0%      0.0%     
 flops    15 x    15 x     9                60750       0.0%    100.0%      0.0%     
 flops    18 x    15 x    15                64800       0.0%    100.0%      0.0%     
 flops     9 x     9 x    15                72900       0.0%    100.0%      0.0%     
 flops    18 x    15 x     9                97200       0.0%    100.0%      0.0%     
 flops    15 x    15 x    29               234900       0.0%    100.0%      0.0%     
 flops     9 x    29 x    15               234900       0.0%    100.0%      0.0%     
 flops    29 x     9 x    15               234900       0.0%    100.0%      0.0%     
 flops    29 x    15 x    15               313200       0.0%    100.0%      0.0%     
 flops     9 x    15 x     9               364500       0.0%    100.0%      0.0%     
 flops    18 x    15 x    29               375840       0.0%    100.0%      0.0%     
 flops    29 x    29 x    15              1059660       0.0%    100.0%      0.0%     
 flops     9 x    15 x    29              1409400       0.0%    100.0%      0.0%     
 flops    29 x    15 x     9              1879200       0.0%    100.0%      0.0%     
 flops    29 x    15 x    29              7266240       0.0%    100.0%      0.0%     
 flops    53 x    53 x    27             15927030       0.0%    100.0%      0.0%     
 flops    53 x    55 x    27             16528050       0.0%    100.0%      0.0%     
 flops    55 x    53 x    27             16528050       0.0%    100.0%      0.0%     
 flops    53 x    53 x    23             17056248       0.0%    100.0%      0.0%     
 flops    55 x    55 x    27             17151750       0.0%    100.0%      0.0%     
 flops    53 x    58 x    27             17429580       0.0%    100.0%      0.0%     
 flops    27 x    53 x    53             17443890       0.0%    100.0%      0.0%     
 flops    53 x    55 x    23             17699880       0.0%    100.0%      0.0%     
 flops    55 x    53 x    23             17699880       0.0%    100.0%      0.0%     
 flops    23 x    53 x    53             17831532       0.0%    100.0%      0.0%     
 flops    53 x    58 x    23             17958308       0.0%    100.0%      0.0%     
 flops    53 x    60 x    27             18030600       0.0%    100.0%      0.0%     
 flops    55 x    58 x    27             18087300       0.0%    100.0%      0.0%     
 flops    27 x    53 x    55             18102150       0.0%    100.0%      0.0%     
 flops    27 x    55 x    53             18102150       0.0%    100.0%      0.0%     
 flops    53 x    61 x    27             18331110       0.0%    100.0%      0.0%     
 flops    55 x    55 x    23             18367800       0.0%    100.0%      0.0%     
 flops    23 x    53 x    55             18504420       0.0%    100.0%      0.0%     
 flops    23 x    55 x    53             18504420       0.0%    100.0%      0.0%     
 flops    53 x    60 x    23             18577560       0.0%    100.0%      0.0%     
 flops    55 x    58 x    23             18635980       0.0%    100.0%      0.0%     
 flops    55 x    60 x    27             18711000       0.0%    100.0%      0.0%     
 flops    27 x    55 x    55             18785250       0.0%    100.0%      0.0%     
 flops    53 x    61 x    23             18887186       0.0%    100.0%      0.0%     
 flops    55 x    61 x    27             19022850       0.0%    100.0%      0.0%     
 flops    27 x    58 x    53             19089540       0.0%    100.0%      0.0%     
 flops    23 x    55 x    55             19202700       0.0%    100.0%      0.0%     
 flops    55 x    60 x    23             19278600       0.0%    100.0%      0.0%     
 flops    23 x    58 x    53             19513752       0.0%    100.0%      0.0%     
 flops    55 x    61 x    23             19599910       0.0%    100.0%      0.0%     
 flops    27 x    58 x    55             19809900       0.0%    100.0%      0.0%     
 flops    27 x    61 x    53             20076930       0.0%    100.0%      0.0%     
 flops    23 x    58 x    55             20250120       0.0%    100.0%      0.0%     
 flops    27 x    60 x    55             20493000       0.0%    100.0%      0.0%     
 flops    23 x    61 x    53             20523084       0.0%    100.0%      0.0%     
 flops    27 x    60 x    53             20606400       0.0%    100.0%      0.0%     
 flops    27 x    61 x    55             20834550       0.0%    100.0%      0.0%     
 flops    23 x    60 x    55             20948400       0.0%    100.0%      0.0%     
 flops    23 x    60 x    53             21064320       0.0%    100.0%      0.0%     
 flops     9 x     9 x    27             21213900       0.0%    100.0%      0.0%     
 flops    23 x    61 x    55             21297540       0.0%    100.0%      0.0%     
 flops     9 x     9 x    23             21778470       0.0%    100.0%      0.0%     
 flops    53 x    82 x    27             25815240       0.0%    100.0%      0.0%     
 flops    53 x    82 x    23             26388912       0.0%    100.0%      0.0%     
 flops    55 x    82 x    27             26789400       0.0%    100.0%      0.0%     
 flops    27 x    82 x    53             26988660       0.0%    100.0%      0.0%     
 flops    55 x    82 x    23             27384720       0.0%    100.0%      0.0%     
 flops    23 x    82 x    53             27588408       0.0%    100.0%      0.0%     
 flops    27 x    82 x    55             28007100       0.0%    100.0%      0.0%     
 flops    23 x    82 x    55             28629480       0.0%    100.0%      0.0%     
 flops    53 x    96 x    27             29947968       0.0%    100.0%      0.0%     
 flops    53 x    96 x    23             30894336       0.0%    100.0%      0.0%     
 flops    55 x    96 x    27             31078080       0.0%    100.0%      0.0%     
 flops    55 x    96 x    23             32060160       0.0%    100.0%      0.0%     
 flops    27 x    96 x    53             32970240       0.0%    100.0%      0.0%     
 flops    53 x   107 x    27             33379506       0.0%    100.0%      0.0%     
 flops    23 x    96 x    53             33702912       0.0%    100.0%      0.0%     
 flops    27 x    96 x    55             34214400       0.0%    100.0%      0.0%     
 flops    53 x   107 x    23             34434312       0.0%    100.0%      0.0%     
 flops    55 x   107 x    27             34639110       0.0%    100.0%      0.0%     
 flops    23 x    96 x    55             34974720       0.0%    100.0%      0.0%     
 flops    53 x   118 x    27             35460180       0.0%    100.0%      0.0%     
 flops    55 x   107 x    23             35733720       0.0%    100.0%      0.0%     
 flops    27 x   107 x    53             36748080       0.0%    100.0%      0.0%     
 flops    55 x   118 x    27             36798300       0.0%    100.0%      0.0%     
 flops    23 x   107 x    53             37564704       0.0%    100.0%      0.0%     
 flops    53 x   118 x    23             37974288       0.0%    100.0%      0.0%     
 flops    27 x   107 x    55             38134800       0.0%    100.0%      0.0%     
 flops    23 x   107 x    55             38982240       0.0%    100.0%      0.0%     
 flops    55 x   118 x    23             39407280       0.0%    100.0%      0.0%     
 flops    27 x   118 x    53             40525920       0.0%    100.0%      0.0%     
 flops    23 x   118 x    53             41426496       0.0%    100.0%      0.0%     
 flops    27 x   118 x    55             42055200       0.0%    100.0%      0.0%     
 flops    27 x    53 x    27             42500700       0.0%    100.0%      0.0%     
 flops    23 x   118 x    55             42989760       0.0%    100.0%      0.0%     
 flops    23 x    53 x    27             43576812       0.0%    100.0%      0.0%     
 flops    27 x    53 x    23             43774290       0.0%    100.0%      0.0%     
 flops    27 x    55 x    27             44104500       0.0%    100.0%      0.0%     
 flops    23 x    53 x    23             44915274       0.0%    100.0%      0.0%     
 flops    23 x    55 x    27             45221220       0.0%    100.0%      0.0%     
 flops    27 x    55 x    23             45357840       0.0%    100.0%      0.0%     
 flops    27 x    27 x    53             46364400       0.0%    100.0%      0.0%     
 flops    27 x    58 x    27             46510200       0.0%    100.0%      0.0%     
 flops    23 x    55 x    23             46610190       0.0%    100.0%      0.0%     
 flops    53 x    53 x    32             46741760       0.0%    100.0%      0.0%     
 flops    23 x    27 x    53             47065590       0.0%    100.0%      0.0%     
 flops    27 x    23 x    53             47394720       0.0%    100.0%      0.0%     
 flops    27 x    58 x    23             47687832       0.0%    100.0%      0.0%     
 flops    23 x    58 x    27             47687832       0.0%    100.0%      0.0%     
 flops    27 x    27 x    55             47713050       0.0%    100.0%      0.0%     
 flops    23 x    23 x    53             48111492       0.0%    100.0%      0.0%     
 flops    27 x    60 x    27             48114000       0.0%    100.0%      0.0%     
 flops    55 x    53 x    32             48505600       0.0%    100.0%      0.0%     
 flops    53 x    55 x    32             48692160       0.0%    100.0%      0.0%     
 flops    27 x    23 x    55             48773340       0.0%    100.0%      0.0%     
 flops    23 x    27 x    55             48841650       0.0%    100.0%      0.0%     
 flops    27 x    61 x    27             48915900       0.0%    100.0%      0.0%     
 flops    23 x    58 x    23             49213928       0.0%    100.0%      0.0%     
 flops    23 x    60 x    27             49332240       0.0%    100.0%      0.0%     
 flops    27 x    60 x    23             49406760       0.0%    100.0%      0.0%     
 flops    32 x    53 x    53             49618176       0.0%    100.0%      0.0%     
 flops    23 x    23 x    55             49927020       0.0%    100.0%      0.0%     
 flops    23 x    61 x    27             50230206       0.0%    100.0%      0.0%     
 flops    53 x    58 x    32             50364416       0.0%    100.0%      0.0%     
 flops    27 x    61 x    23             50381730       0.0%    100.0%      0.0%     
 flops    55 x    55 x    32             50529600       0.0%    100.0%      0.0%     
 flops    23 x    60 x    23             50974440       0.0%    100.0%      0.0%     
 flops    32 x    53 x    55             51490560       0.0%    100.0%      0.0%     
 flops    32 x    55 x    53             51490560       0.0%    100.0%      0.0%     
 flops    23 x    61 x    23             51824014       0.0%    100.0%      0.0%     
 flops    53 x    60 x    32             52101120       0.0%    100.0%      0.0%     
 flops    55 x    58 x    32             52264960       0.0%    100.0%      0.0%     
 flops    53 x    61 x    32             52969472       0.0%    100.0%      0.0%     
 flops    27 x     9 x     9             53034750       0.0%    100.0%      0.0%     
 flops    32 x    55 x    55             53433600       0.0%    100.0%      0.0%     
 flops    55 x    60 x    32             54067200       0.0%    100.0%      0.0%     
 flops    23 x     9 x     9             54213300       0.0%    100.0%      0.0%     
 flops    32 x    58 x    53             54299136       0.0%    100.0%      0.0%     
 flops    55 x    61 x    32             54968320       0.0%    100.0%      0.0%     
 flops    32 x    58 x    55             56348160       0.0%    100.0%      0.0%     
 flops    32 x    61 x    53             57107712       0.0%    100.0%      0.0%     
 flops    32 x    60 x    55             58291200       0.0%    100.0%      0.0%     
 flops    32 x    60 x    53             58613760       0.0%    100.0%      0.0%     
 flops    32 x    61 x    55             59262720       0.0%    100.0%      0.0%     
 flops     9 x     9 x    32             60575040       0.0%    100.0%      0.0%     
 flops    27 x     9 x    27             64350288       0.0%    100.0%      0.0%     
 flops    27 x     9 x    23             65737818       0.0%    100.0%      0.0%     
 flops    27 x    82 x    27             65755800       0.0%    100.0%      0.0%     
 flops    23 x     9 x    27             65961378       0.0%    100.0%      0.0%     
 flops    23 x    82 x    27             67318884       0.0%    100.0%      0.0%     
 flops    23 x     9 x    23             67520502       0.0%    100.0%      0.0%     
 flops    27 x    82 x    23             67726260       0.0%    100.0%      0.0%     
 flops    23 x    82 x    23             69491556       0.0%    100.0%      0.0%     
 flops    53 x   122 x    27             73324440       0.0%    100.0%      0.0%     
 flops   122 x    53 x    27             73324440       0.0%    100.0%      0.0%     
 flops    53 x    82 x    32             73430016       0.0%    100.0%      0.0%     
 flops    55 x   122 x    27             76091400       0.0%    100.0%      0.0%     
 flops   122 x    55 x    27             76091400       0.0%    100.0%      0.0%     
 flops    55 x    82 x    32             76200960       0.0%    100.0%      0.0%     
 flops    32 x    82 x    53             76767744       0.0%    100.0%      0.0%     
 flops    27 x    96 x    27             76982400       0.0%    100.0%      0.0%     
 flops    53 x   122 x    23             77630796       0.0%    100.0%      0.0%     
 flops   122 x    53 x    23             78523104       0.0%    100.0%      0.0%     
 flops    23 x    96 x    27             79170048       0.0%    100.0%      0.0%     
 flops    27 x    96 x    23             79289280       0.0%    100.0%      0.0%     
 flops    32 x    82 x    55             79664640       0.0%    100.0%      0.0%     
 flops   122 x    58 x    27             80241840       0.0%    100.0%      0.0%     
 flops    55 x   122 x    23             80560260       0.0%    100.0%      0.0%     
 flops   122 x    55 x    23             81486240       0.0%    100.0%      0.0%     
 flops    23 x    96 x    23             81965376       0.0%    100.0%      0.0%     
 flops    29 x     9 x    27             82027080       0.0%    100.0%      0.0%     
 flops    27 x    53 x   122             82053540       0.0%    100.0%      0.0%     
 flops    27 x   122 x    53             82053540       0.0%    100.0%      0.0%     
 flops     9 x    29 x    27             82449900       0.0%    100.0%      0.0%     
 flops   122 x    58 x    23             82675984       0.0%    100.0%      0.0%     
 flops   122 x    60 x    27             83008800       0.0%    100.0%      0.0%     
 flops    27 x    55 x   122             83338200       0.0%    100.0%      0.0%     
 flops    27 x   122 x    55             83338200       0.0%    100.0%      0.0%     
 flops    23 x    53 x   122             83876952       0.0%    100.0%      0.0%     
 flops    23 x   122 x    53             83876952       0.0%    100.0%      0.0%     
 flops    29 x     9 x    23             84210084       0.0%    100.0%      0.0%     
 flops   122 x    61 x    27             84392280       0.0%    100.0%      0.0%     
 flops     9 x    29 x    23             84522240       0.0%    100.0%      0.0%     
 flops    23 x    55 x   122             85190160       0.0%    100.0%      0.0%     
 flops    23 x   122 x    55             85190160       0.0%    100.0%      0.0%     
 flops   122 x    60 x    23             85526880       0.0%    100.0%      0.0%     
 flops    27 x   107 x    27             85803300       0.0%    100.0%      0.0%     
 flops    53 x    96 x    32             85966848       0.0%    100.0%      0.0%     
 flops   122 x    61 x    23             86952328       0.0%    100.0%      0.0%     
 flops    27 x   107 x    23             88374510       0.0%    100.0%      0.0%     
 flops    23 x   107 x    27             88374510       0.0%    100.0%      0.0%     
 flops    55 x    96 x    32             89210880       0.0%    100.0%      0.0%     
 flops    23 x   107 x    23             91130830       0.0%    100.0%      0.0%     
 flops    27 x    58 x   122             91704960       0.0%    100.0%      0.0%     
 flops    23 x    58 x   122             93742848       0.0%    100.0%      0.0%     
 flops    32 x    96 x    53             93782016       0.0%    100.0%      0.0%     
 flops    27 x   118 x    27             94624200       0.0%    100.0%      0.0%     
 flops    27 x    60 x   122             94867200       0.0%    100.0%      0.0%     
 flops    53 x   107 x    32             95817216       0.0%    100.0%      0.0%     
 flops    27 x    61 x   122             96448320       0.0%    100.0%      0.0%     
 flops    23 x    60 x   122             96975360       0.0%    100.0%      0.0%     
 flops    23 x   118 x    27             97313184       0.0%    100.0%      0.0%     
 flops    32 x    96 x    55             97320960       0.0%    100.0%      0.0%     
 flops    27 x   118 x    23             97459740       0.0%    100.0%      0.0%     
 flops    23 x    61 x   122             98591616       0.0%    100.0%      0.0%     
 flops    55 x   107 x    32             99432960       0.0%    100.0%      0.0%     
 flops    23 x   118 x    23            100873952       0.0%    100.0%      0.0%     
 flops    32 x   107 x    53            104527872       0.0%    100.0%      0.0%     
 flops    53 x   118 x    32            104867072       0.0%    100.0%      0.0%     
 flops    32 x   107 x    55            108472320       0.0%    100.0%      0.0%     
 flops    55 x   118 x    32            108824320       0.0%    100.0%      0.0%     
 flops    32 x   118 x    53            115273728       0.0%    100.0%      0.0%     
 flops   122 x    82 x    27            118847520       0.0%    100.0%      0.0%     
 flops    32 x   118 x    55            119623680       0.0%    100.0%      0.0%     
 flops    27 x    53 x    32            121348800       0.0%    100.0%      0.0%     
 flops    32 x    53 x    27            121440384       0.0%    100.0%      0.0%     
 flops   122 x    82 x    23            121488576       0.0%    100.0%      0.0%     
 flops    23 x    53 x    32            124981632       0.0%    100.0%      0.0%     
 flops    32 x    53 x    23            125371712       0.0%    100.0%      0.0%     
 flops    32 x    55 x    27            125928000       0.0%    100.0%      0.0%     
 flops    27 x    55 x    32            126118080       0.0%    100.0%      0.0%     
 flops    27 x    82 x   122            126950760       0.0%    100.0%      0.0%     
 flops    23 x    82 x   122            129771888       0.0%    100.0%      0.0%     
 flops    23 x    55 x    32            129778880       0.0%    100.0%      0.0%     
 flops    32 x    55 x    23            130021760       0.0%    100.0%      0.0%     
 flops    32 x    27 x    53            130049280       0.0%    100.0%      0.0%     
 flops    27 x    32 x    53            131880960       0.0%    100.0%      0.0%     
 flops    27 x    58 x    32            132696576       0.0%    100.0%      0.0%     
 flops    32 x    23 x    53            132939264       0.0%    100.0%      0.0%     
 flops    32 x    58 x    27            132997248       0.0%    100.0%      0.0%     
 flops    23 x    32 x    53            133875456       0.0%    100.0%      0.0%     
 flops    32 x    27 x    55            134956800       0.0%    100.0%      0.0%     
 flops    27 x    32 x    55            135717120       0.0%    100.0%      0.0%     
 flops    23 x    58 x    32            136772352       0.0%    100.0%      0.0%     
 flops    27 x    60 x    32            137064960       0.0%    100.0%      0.0%     
 flops    32 x    58 x    23            137369984       0.0%    100.0%      0.0%     
 flops   122 x    96 x    27            137873664       0.0%    100.0%      0.0%     
 flops    32 x    60 x    27            137894400       0.0%    100.0%      0.0%     
 flops    32 x    23 x    55            137955840       0.0%    100.0%      0.0%     
 flops    23 x    32 x    55            138927360       0.0%    100.0%      0.0%     
 flops    27 x    61 x    32            139560192       0.0%    100.0%      0.0%     
 flops    32 x    61 x    27            139981824       0.0%    100.0%      0.0%     
 flops    23 x    60 x    32            141312000       0.0%    100.0%      0.0%     
 flops    32 x    60 x    23            142106880       0.0%    100.0%      0.0%     
 flops   122 x    96 x    23            142230528       0.0%    100.0%      0.0%     
 flops    23 x    61 x    32            143577408       0.0%    100.0%      0.0%     
 flops    32 x    61 x    23            144295744       0.0%    100.0%      0.0%     
 flops    32 x     9 x     9            150854400       0.0%    100.0%      0.0%     
 flops    27 x    96 x   122            151787520       0.0%    100.0%      0.0%     
 flops   122 x   107 x    27            153671688       0.0%    100.0%      0.0%     
 flops    23 x    96 x   122            155160576       0.0%    100.0%      0.0%     
 flops   122 x   107 x    23            158527776       0.0%    100.0%      0.0%     
 flops    27 x    27 x     9            159104250       0.0%    100.0%      0.0%     
 flops    27 x    23 x     9            162639900       0.0%    100.0%      0.0%     
 flops    23 x    27 x     9            162639900       0.0%    100.0%      0.0%     
 flops   122 x   118 x    27            163250640       0.0%    100.0%      0.0%     
 flops    23 x    23 x     9            166254120       0.0%    100.0%      0.0%     
 flops    27 x   107 x   122            169179840       0.0%    100.0%      0.0%     
 flops    23 x   107 x   122            172939392       0.0%    100.0%      0.0%     
 flops   122 x   118 x    23            174825024       0.0%    100.0%      0.0%     
 flops    27 x     9 x    32            183513600       0.0%    100.0%      0.0%     
 flops    32 x     9 x    27            183902400       0.0%    100.0%      0.0%     
 flops    27 x   118 x   122            186572160       0.0%    100.0%      0.0%     
 flops    32 x    82 x    27            187888896       0.0%    100.0%      0.0%     
 flops    27 x    82 x    32            187888896       0.0%    100.0%      0.0%     
 flops    32 x     9 x    23            188466048       0.0%    100.0%      0.0%     
 flops    23 x     9 x    32            188863488       0.0%    100.0%      0.0%     
 flops    23 x   118 x   122            190718208       0.0%    100.0%      0.0%     
 flops    23 x    82 x    32            193971328       0.0%    100.0%      0.0%     
 flops    32 x    82 x    23            194092032       0.0%    100.0%      0.0%     
 flops    27 x   122 x    27            195663600       0.0%    100.0%      0.0%     
 flops    23 x   122 x    27            201072348       0.0%    100.0%      0.0%     
 flops    27 x   122 x    23            201526920       0.0%    100.0%      0.0%     
 flops    27 x    29 x     9            205293204       0.0%    100.0%      0.0%     
 flops    27 x     9 x    29            205349580       0.0%    100.0%      0.0%     
 flops    23 x   122 x    23            208328664       0.0%    100.0%      0.0%     
 flops    23 x    29 x     9            209912904       0.0%    100.0%      0.0%     
 flops    23 x     9 x    29            209912904       0.0%    100.0%      0.0%     
 flops    27 x    27 x   122            213451200       0.0%    100.0%      0.0%     
 flops    53 x   122 x    32            213947008       0.0%    100.0%      0.0%     
 flops   122 x    53 x    32            215188480       0.0%    100.0%      0.0%     
 flops    23 x    27 x   122            216679320       0.0%    100.0%      0.0%     
 flops    27 x    23 x   122            218194560       0.0%    100.0%      0.0%     
 flops    27 x    96 x    32            220133376       0.0%    100.0%      0.0%     
 flops    32 x    96 x    27            220962816       0.0%    100.0%      0.0%     
 flops    23 x    23 x   122            221494416       0.0%    100.0%      0.0%     
 flops    55 x   122 x    32            222020480       0.0%    100.0%      0.0%     
 flops   122 x    55 x    32            224167680       0.0%    100.0%      0.0%     
 flops    32 x    96 x    23            227936256       0.0%    100.0%      0.0%     
 flops    23 x    96 x    32            228642816       0.0%    100.0%      0.0%     
 flops   122 x    58 x    32            231866368       0.0%    100.0%      0.0%     
 flops    32 x    53 x   122            233396736       0.0%    100.0%      0.0%     
 flops    32 x   122 x    53            233396736       0.0%    100.0%      0.0%     
 flops    29 x     9 x    32            234223488       0.0%    100.0%      0.0%     
 flops     9 x    29 x    32            235442880       0.0%    100.0%      0.0%     
 flops    32 x    55 x   122            237050880       0.0%    100.0%      0.0%     
 flops    32 x   122 x    55            237050880       0.0%    100.0%      0.0%     
 flops   122 x    60 x    32            239861760       0.0%    100.0%      0.0%     
 flops   122 x    61 x    32            243859456       0.0%    100.0%      0.0%     
 flops    27 x   107 x    32            245726784       0.0%    100.0%      0.0%     
 flops    32 x   107 x    27            246281472       0.0%    100.0%      0.0%     
 flops    27 x    29 x    27            249336954       0.0%    100.0%      0.0%     
 flops    32 x   107 x    23            254211456       0.0%    100.0%      0.0%     
 flops    23 x   107 x    32            254683968       0.0%    100.0%      0.0%     
 flops    23 x    29 x    27            255799836       0.0%    100.0%      0.0%     
 flops    27 x    29 x    23            257240556       0.0%    100.0%      0.0%     
 flops    32 x    58 x   122            260849664       0.0%    100.0%      0.0%     
 flops    23 x    29 x    23            265429982       0.0%    100.0%      0.0%     
 flops    32 x    60 x   122            269844480       0.0%    100.0%      0.0%     
 flops    27 x   118 x    32            270580608       0.0%    100.0%      0.0%     
 flops    32 x   118 x    27            272007936       0.0%    100.0%      0.0%     
 flops    32 x    61 x   122            274341888       0.0%    100.0%      0.0%     
 flops    32 x   118 x    23            280692736       0.0%    100.0%      0.0%     
 flops    23 x   118 x    32            281387520       0.0%    100.0%      0.0%     
 flops    29 x    29 x    27            318806280       0.0%    100.0%      0.0%     
 flops    29 x    29 x    23            326819328       0.0%    100.0%      0.0%     
 flops   122 x   122 x    27            337569120       0.0%    100.0%      0.0%     
 flops   122 x    82 x    32            338055168       0.0%    100.0%      0.0%     
 flops    32 x    53 x    32            348643328       0.0%    100.0%      0.0%     
 flops   122 x   122 x    23            357394608       0.0%    100.0%      0.0%     
 flops    32 x    82 x   122            361104384       0.0%    100.0%      0.0%     
 flops    32 x    55 x    32            362024960       0.0%    100.0%      0.0%     
 flops    32 x    32 x    53            369917952       0.0%    100.0%      0.0%     
 flops    32 x    58 x    32            381771776       0.0%    100.0%      0.0%     
 flops    32 x    32 x    55            383877120       0.0%    100.0%      0.0%     
 flops    27 x   122 x   122            385793280       0.0%    100.0%      0.0%     
 flops    23 x   122 x   122            394366464       0.0%    100.0%      0.0%     
 flops    32 x    60 x    32            394690560       0.0%    100.0%      0.0%     
 flops   122 x    96 x    32            395771904       0.0%    100.0%      0.0%     
 flops    32 x    61 x    32            401268736       0.0%    100.0%      0.0%     
 flops    32 x    96 x   122            431751168       0.0%    100.0%      0.0%     
 flops   122 x   107 x    32            441120768       0.0%    100.0%      0.0%     
 flops    27 x    32 x     9            452563200       0.0%    100.0%      0.0%     
 flops    32 x    27 x     9            452687616       0.0%    100.0%      0.0%     
 flops    23 x    32 x     9            462620160       0.0%    100.0%      0.0%     
 flops    32 x    23 x     9            462858624       0.0%    100.0%      0.0%     
 flops    32 x   107 x   122            481222656       0.0%    100.0%      0.0%     
 flops   122 x   118 x    32            482784256       0.0%    100.0%      0.0%     
 flops    32 x     9 x    32            528316416       0.0%    100.0%      0.0%     
 flops    32 x   118 x   122            530694144       0.0%    100.0%      0.0%     
 flops    32 x    82 x    32            540585984       0.0%    100.0%      0.0%     
 flops    27 x   122 x    32            559084032       0.0%    100.0%      0.0%     
 flops    32 x   122 x    27            562667904       0.0%    100.0%      0.0%     
 flops    32 x   122 x    23            580415488       0.0%    100.0%      0.0%     
 flops    23 x   122 x    32            581492992       0.0%    100.0%      0.0%     
 flops    32 x    29 x     9            584105472       0.0%    100.0%      0.0%     
 flops    32 x     9 x    29            584105472       0.0%    100.0%      0.0%     
 flops    32 x    27 x   122            598717440       0.0%    100.0%      0.0%     
 flops    27 x    32 x   122            607150080       0.0%    100.0%      0.0%     
 flops    32 x    23 x   122            612022272       0.0%    100.0%      0.0%     
 flops    27 x    27 x    29            615795048       0.0%    100.0%      0.0%     
 flops    23 x    32 x   122            616332288       0.0%    100.0%      0.0%     
 flops    27 x    23 x    29            630278982       0.0%    100.0%      0.0%     
 flops    23 x    27 x    29            634421052       0.0%    100.0%      0.0%     
 flops    32 x    96 x    32            635830272       0.0%    100.0%      0.0%     
 flops    23 x    23 x    29            650857266       0.0%    100.0%      0.0%     
 flops    32 x   107 x    32            708685824       0.0%    100.0%      0.0%     
 flops    32 x    29 x    27            715298688       0.0%    100.0%      0.0%     
 flops    27 x    29 x    32            723216384       0.0%    100.0%      0.0%     
 flops    32 x    29 x    23            741490560       0.0%    100.0%      0.0%     
 flops    23 x    29 x    32            743624960       0.0%    100.0%      0.0%     
 flops    32 x   118 x    32            782024704       0.0%    100.0%      0.0%     
 flops    27 x    29 x    29            814273020       0.0%    100.0%      0.0%     
 flops    23 x    29 x    29            832367976       0.0%    100.0%      0.0%     
 flops    29 x    29 x    32            910379136       0.0%    100.0%      0.0%     
 flops   122 x   122 x    32            984963584       0.0%    100.0%      0.0%     
 flops    32 x   122 x   122           1097367552       0.0%    100.0%      0.0%     
 flops    32 x    32 x     9           1288175616       0.0%    100.0%      0.0%     
 flops    32 x   122 x    32           1617068032       0.0%    100.0%      0.0%     
 flops    32 x    32 x   122           1703018496       0.0%    100.0%      0.0%     
 flops    27 x    32 x    29           1754421120       0.0%    100.0%      0.0%     
 flops    32 x    27 x    29           1769404608       0.0%    100.0%      0.0%     
 flops    23 x    32 x    29           1811593344       0.0%    100.0%      0.0%     
 flops    32 x    23 x    29           1814666880       0.0%    100.0%      0.0%     
 flops    32 x    29 x    32           2079135744       0.0%    100.0%      0.0%     
 flops    32 x    29 x    29           2316154368       0.0%    100.0%      0.0%     
 flops    32 x    32 x    29           5050933248       0.0%    100.0%      0.0%     
 flops inhomo. stacks                 73266569244     100.0%      0.0%      0.0%
 flops total                       152.827486E+09      47.9%     52.1%      0.0%
 flops max/rank                     16.991013E+09      47.9%     52.1%      0.0%
 matmuls inhomo. stacks                    167175     100.0%      0.0%      0.0%
 matmuls total                            1574470      10.6%     89.4%      0.0%
 number of processed stacks                858409       6.0%     94.0%      0.0%
 average stack size                                     3.3       1.7       0.0
 marketing flops                   165.003362E+09
 -------------------------------------------------------------------------------
 # multiplications                            505
 max memory usage/rank              24.180490E+09
 # max total images/rank                       11
 # max 3D layers                                1
 # MPI messages exchanged                   55550
 MPI messages size (bytes):
  total size                         9.948637E+09
  min size                           0.000000E+00
  max size                         641.232000E+03
  average size                     179.093375E+03
 MPI breakdown and total messages size (bytes):
             size <=      128                5680                        0
       128 < size <=     8192                 400                  1039360
      8192 < size <=    32768                 580                 11101280
     32768 < size <=   131072               17800               1183692640
    131072 < size <=  4194304               31090               8752819760
   4194304 < size <= 16777216                   0                        0
  16777216 < size                               0                        0
 -------------------------------------------------------------------------------

 *** WARNING in dbcsr_mm.F:301 :: Using a non-square number of MPI ranks ***
 *** might lead to poor performance. Used ranks: 11 Suggested: 9 25      ***

 -------------------------------------------------------------------------------
 -                                                                             -
 -                      DBCSR MESSAGE PASSING PERFORMANCE                      -
 -                                                                             -
 -------------------------------------------------------------------------------
 ROUTINE             CALLS      AVE VOLUME [Bytes]
 MP_Bcast              373                     12.
 MP_Allreduce         2869                     25.
 MP_Alltoall          3385                  84541.
 MP_ISend            16942                  58696.
 MP_IRecv            16838                  56909.
 -------------------------------------------------------------------------------

 -------------------------------------------------------------------------------
 -                                                                             -
 -                                GRID STATISTICS                              -
 -                                                                             -
 -------------------------------------------------------------------------------
 LP    KERNEL             BACKEND                              COUNT     PERCENT
 4     collocate ortho    CPU                                    640      22.20%
 4     integrate ortho    CPU                                    640      22.20%
 6     collocate ortho    CPU                                    590      20.46%
 6     integrate ortho    CPU                                    590      20.46%
 2     collocate ortho    CPU                                    206       7.15%
 2     integrate ortho    CPU                                    206       7.15%
 0     collocate general  CPU                                     11       0.38%
 -------------------------------------------------------------------------------

 -------------------------------------------------------------------------------
 -                                                                             -
 -                          OFFLOAD MEMPOOL STATISTICS                         -
 -                                                                             -
 -------------------------------------------------------------------------------
 Memory consumption                Number of allocations  Used [MiB]  Size [MiB]
 Host                                                  6          95    22285100
 -------------------------------------------------------------------------------

 MEMORY| Estimated peak process memory [MiB]                                2249

 -------------------------------------------------------------------------------
 -                                                                             -
 -                         MESSAGE PASSING PERFORMANCE                         -
 -                                                                             -
 -------------------------------------------------------------------------------

 ROUTINE             CALLS      AVE VOLUME [Bytes]
 MP_Group                5
 MP_Bcast              363                 268068.
 MP_Allreduce         1914                   8357.
 MP_Sync                11
 MP_Alltoall            46               69903782.
 MP_SendRecv            40                 552960.
 MP_ISendRecv           40                 552960.
 MP_Wait               187
 MP_comm_split          11
 MP_ISend              125                3325235.
 MP_IRecv              125                3325235.
 -------------------------------------------------------------------------------


 -------------------------------------------------------------------------------
 -                                                                             -
 -                           R E F E R E N C E S                               -
 -                                                                             -
 -------------------------------------------------------------------------------
 
 CP2K version 2026.2 (Development Version), the CP2K developers group (2026).
 CP2K is freely available from https://www.cp2k.org/ .
 
 M. Iannuzzi, J. Wilhelm, F. Stein, A. Bussy, H. Elgabarty, D. Golze, A. Hehn, 
 M. Graml, S. Marek, B. Sertcan Gökmen, C. Schran, H. Forbert, R. Z. 
 Khaliullin, A. Kozhevnikov, M. Taillefumier, R. Meli, V. V. Rybkin, M. Brehm, 
 R. Schade, O. Schütt, J. V. Pototschnig, H. Mirhosseini, A. Knüpfer, D. Marx, 
 M. Krack, J. Hutter, T. D. Kühne.
 J. Phys. Chem. B 130, 1237-1310 (2026).
 The CP2K Program Package Made Simple.
 https://doi.org/10.1021/acs.jpcb.5c05851

 M. Graml, K. Zollner, D. Hernangómez-Pérez, P. E. Faria Junior, J. Wilhelm.
 J. Chem. Theory Comput. 20, 2202-2208 (2024).
 Low-scaling GW algorithm applied to twisted transition-metal dichalcogenide 
 heterobilayers.
 https://doi.org/10.1021/acs.jctc.3c01230

 T. D. Kühne, M. Iannuzzi, M. Del Ben, V. V. Rybkin, P. Seewald, F. Stein, T. 
 Laino, R. Z. Khaliullin, O. Schütt, F. Schiffmann, D. Golze, J. Wilhelm, S. 
 Chulkov, M. H. Bani-Hashemian, V. Weber, U. Borstnik, M. Taillefumier, A. S. 
 Jakobovits, A. Lazzaro, H. Pabst, T. Müller, R. Schade, M. Guidon, S. 
 Andermatt, N. Holmberg, G. K. Schenter, A. Hehn, A. Bussy, F. Belleflamme, G. 
 Tabacchi, A. Glöß, M. Lass, I. Bethune, C. J. Mundy, C. Plessl, M. Watkins, 
 J. VandeVondele, M. Krack, J. Hutter.
 J. Chem. Phys. 152, 194103 (2020).
 CP2K: An electronic structure and molecular dynamics software package - 
 Quickstep: Efficient and accurate electronic structure calculations.
 https://doi.org/10.1063/5.0007045

 O. Schuett, P. Messmer, J. Hutter, J. VandeVondele.
 Electronic Structure Calculations on Graphics Processing Units, 173-190 (2016).
 GPU-Accelerated Sparse Matrix-Matrix Multiplication for Linear Scaling Density 
 Functional Theory.
 https://doi.org/10.1002/9781118670712.ch8

 U. Borstnik, J. VandeVondele, V. Weber, J. Hutter.
 Parallel Comput. 40, 47-58 (2014).
 Sparse matrix multiplication: The distributed block-compressed sparse row 
 library.
 https://doi.org/10.1016/j.parco.2014.03.012

 J. VandeVondele, J. Hutter.
 J. Chem. Phys. 127, 114105 (2007).
 Gaussian basis sets for accurate calculations on molecular systems in gas and 
 condensed phases.
 https://doi.org/10.1063/1.2770708

 J. VandeVondele, M. Krack, F. Mohamed, M. Parrinello, T. Chassaing, J. Hutter.
 Comput. Phys. Commun. 167, 103-128 (2005).
 QUICKSTEP: Fast and accurate density functional calculations using a mixed 
 Gaussian and plane waves approach.
 https://doi.org/10.1016/j.cpc.2004.12.014

 M. Krack.
 Theor. Chem. Acc. 114, 145-152 (2005).
 Pseudopotentials for H to Kr optimized for gradient-corrected 
 exchange-correlation functionals.
 https://doi.org/10.1007/s00214-005-0655-y

 M. Frigo, S. G. Johnson.
 Proc. IEEE 93, 216-231 (2005).
 The design and implementation of FFTW3.
 https://doi.org/10.1109/JPROC.2004.840301

 J. VandeVondele, J. Hutter.
 J. Chem. Phys. 118, 4365-4369 (2003).
 An efficient orbital transformation method for electronic structure 
 calculations.
 https://doi.org/10.1063/1.1543154

 C. Hartwigsen, S. Goedecker, J. Hutter.
 Phys. Rev. B 58, 3641-3662 (1998).
 Relativistic separable dual-space Gaussian pseudopotentials from H to Rn.
 https://doi.org/10.1103/PhysRevB.58.3641

 G. Lippert, J. Hutter, M. Parrinello.
 Mol. Phys. 92, 477-487 (1997).
 A hybrid Gaussian and plane wave density functional scheme.
 https://doi.org/10.1080/002689797170220

 S. Goedecker, M. Teter, J. Hutter.
 Phys. Rev. B 54, 1703-1710 (1996).
 Separable dual-space Gaussian pseudopotentials.
 https://doi.org/10.1103/PhysRevB.54.1703

 J. P. Perdew, K. Burke, M. Ernzerhof.
 Phys. Rev. Lett. 77, 3865-3868 (1996).
 Generalized gradient approximation made simple.
 https://doi.org/10.1103/PhysRevLett.77.3865

 P. E. Blöchl.
 J. Chem. Phys. 103, 7422-7428 (1995).
 Electrostatic decoupling of periodic images of plane‐wave‐expanded 
 densities and derived atomic point charges.
 https://doi.org/10.1063/1.470314

 R. H. Byrd, P. H. Lu, J. Nocedal, C. Y. Zhu.
 SIAM J. Sci. Comput. 16, 1190-1208 (1995).
 A Limited Memory Algorithm for Bound Constrained Optimization.
 https://doi.org/10.1137/0916069


 -------------------------------------------------------------------------------
 -                                                                             -
 -                                T I M I N G                                  -
 -                                                                             -
 -------------------------------------------------------------------------------
 SUBROUTINE                       CALLS  ASD         SELF TIME        TOTAL TIME MAXRANK
                                MAXIMUM       AVERAGE  MAXIMUM  AVERAGE  MAXIMUM
 CP2K                                 1  1.0    0.012    0.019   11.819   11.819       0
 qs_energies                          1  2.0    0.000    0.001   10.984   10.985       6
 qs_energies_properties               1  3.0    0.000    0.000    8.633    8.633       8
 post_scf_bandstructure               1  4.0    0.000    0.000    8.633    8.633       1
 run_gw                               1  5.0    0.000    0.000    8.583    8.594       9
 gw_calc_ri_rs_non_periodic           1  6.0    0.000    0.000    4.418    4.575       9
 create_and_init_bs_env_for_gw        1  6.0    0.003    0.003    4.165    4.382       5
 generate_auto_ri_basis               1  7.0    0.000    0.000    3.366    3.366       8
 compute_W                            1  7.0    0.000    0.000    1.975    1.975       0
 compute_AB_optimized_RI_basis        1  8.0    0.000    0.000    1.807    1.807       1
 compute_AB_optimized_RI_basis_       1  9.0    0.000    0.000    1.787    1.804       1
 scf_env_do_scf                       1  3.0    0.000    0.000    1.672    1.672       0
 mp_sum_dm                           72 10.9    0.901    1.589    0.901    1.589       6
 qs_ks_build_kohn_sham_matrix         2  7.5    0.001    0.001    1.571    1.571       3
 fft_wrap_pw1pw2                     28 10.0    0.001    0.001    1.400    1.450       9
 compute_fm_W_freq                   30  8.0    0.000    0.000    1.391    1.401       3
 fft_wrap_pw1pw2_300                 16 11.2    0.073    0.087    1.325    1.391       9
 cp_fm_get_submatrix                 68 10.0    0.001    0.001    0.762    1.320       5
 compute_B_PQ_AB                      4 10.0    0.252    0.332    0.977    1.289       3
 cp_fm_gemm                         434 10.5    1.217    1.240    1.217    1.240       9
 parallel_gemm_fm_gemm              431  9.6    0.000    0.000    1.216    1.239       3
 init_scf_loop                        1  4.0    0.000    0.001    1.207    1.208       4
 qs_ks_update_qs_env                  2  5.0    0.000    0.001    1.199    1.199       5
 rebuild_ks_matrix                    1  6.0    0.000    0.000    1.199    1.199      10
 fft3d_ps                            28 12.0    0.540    0.622    1.041    1.136       8
 compute_M_pq_inv_and_V_pq            1  8.0    0.000    0.000    1.064    1.064       7
 optimize_ri_rs_grid                  1  7.0    0.000    0.000    0.828    0.983       0
 dbcsr_multiply_generic             505  9.6    0.014    0.015    0.960    0.970       9
 compute_contracted_RI_matrix         2  9.0    0.000    0.000    0.951    0.951       2
 compute_optimized_RI_matrix_bl      12 10.0    0.136    0.163    0.803    0.946       4
 qs_rho_update_rho_low                2  5.0    0.000    0.000    0.908    0.909       5
 calculate_rho_elec                   2  6.0    0.022    0.023    0.908    0.909       5
 qs_vxc_create                        2  8.5    0.000    0.000    0.811    0.826       3
 xc_vxc_pw_create                     1  9.0    0.017    0.019    0.811    0.826       6
 compute_M_PQ_AB                    432 11.0    0.001    0.001    0.688    0.807       8
 compute_M_PQ                       432 12.0    0.001    0.001    0.687    0.807       4
 int_operators_r12_ab_os            432 13.0    0.000    0.000    0.686    0.806       4
 int_operator_ab_os_low             432 14.0    0.262    0.305    0.686    0.805       4
 compute_Sigma_c_and_QP_energie       1  7.0    0.000    0.000    0.782    0.793       3
 contract_B_PQ                       18 11.9    0.519    0.691    0.560    0.744       2
 compute_Sigma_c                      1  8.0    0.000    0.001    0.727    0.727       0
 mp_bcast_dm                         48  9.1    0.504    0.687    0.504    0.687       4
 mp_alltoall_z22v                    28 14.0    0.321    0.656    0.321    0.656      10
 xc_pw_derive                         6 11.0    0.000    0.000    0.591    0.650       9
 mp_sum_d                           758  4.5    0.313    0.641    0.313    0.641      10
 contract_grid_panels_sigma_c        30  9.0    0.001    0.001    0.619    0.620       9
 rirs_grid_LBFGS                      1  8.0    0.056    0.081    0.593    0.610       3
 setup_time_and_frequency_minim       1  7.0    0.000    0.000    0.360    0.595       0
 build_minimax_time_frequency_g       1  8.0    0.000    0.000    0.359    0.595       7
 fit_l_sq_weights                     3  9.0    0.359    0.595    0.359    0.595       9
 density_rs2pw                        2  7.0    0.000    0.000    0.497    0.594       5
 multiply_cannon                    505 10.6    0.027    0.028    0.565    0.590       3
 qs_init_subsys                       1  2.0    0.001    0.001    0.515    0.516       0
 qs_env_setup                         1  3.0    0.000    0.000    0.513    0.515       4
 qs_env_rebuild_pw_env                2  3.5    0.000    0.000    0.513    0.514       1
 pw_env_rebuild                       1  5.0    0.000    0.000    0.513    0.514       5
 init_scf_run                         1  3.0    0.000    0.000    0.505    0.505       9
 scf_env_initial_rho_setup            1  4.0    0.000    0.000    0.505    0.505       0
 pw_grid_setup                        5  5.2    0.000    0.000    0.502    0.503       4
 pw_grid_setup_internal               5  6.2    0.009    0.009    0.502    0.503       5
 compute_AA_optimized_RI_basis        1  8.0    0.000    0.001    0.495    0.495       1
 evaluate_rirs_grid_cluster         301  9.0    0.039    0.076    0.248    0.483       3
 multiply_cannon_loop               505 11.6    0.032    0.036    0.464    0.482       3
 scf_env_do_scf_inner_loop            1  4.0    0.000    0.000    0.463    0.464       0
 copy_dbcsr_to_fm                   104  9.5    0.001    0.001    0.240    0.443       3
 xc_pw_divergence                     1 10.0    0.000    0.000    0.390    0.440       3
 pw_grid_sort                         5  7.2    0.295    0.299    0.426    0.432       8
 get_mat_chi_Gamma_tau                1  7.0    0.000    0.001    0.428    0.428       0
 yz_to_x                             14 12.2    0.083    0.094    0.248    0.424       7
 xc_rho_set_and_dset_create           1 10.0    0.015    0.029    0.393    0.418       3
 grid_collocate_task_list             2  7.0    0.378    0.406    0.378    0.406       0
 cp_fm_cholesky_invert               31  9.0    0.395    0.403    0.395    0.403       2
 mp_alltoall_i22                    369 11.4    0.190    0.399    0.190    0.399      10
 contract_grid_panels                31  8.0    0.001    0.001    0.394    0.397       9
 dbcsr_desymmetrize_deep            104 10.5    0.003    0.005    0.185    0.393       1
 compute_B_PQ_transition              9 10.9    0.000    0.000    0.281    0.373       4
 initialize_ri_rs_grid                1  8.0    0.002    0.004    0.217    0.373       2
 compute_V_xc                         1  7.0    0.000    0.000    0.372    0.373       4
 compute_B_PQ_exchange                9 10.9    0.000    0.000    0.280    0.371       2
 compute_Z_lP                         1  7.0    0.000    0.000    0.371    0.371       7
 compute_Z_lP_auto_ri                 1  8.0    0.000    0.001    0.371    0.371       9
 x_to_yz                             14 13.8    0.093    0.109    0.250    0.367       9
 sum_up_and_integrate                 2  8.5    0.000    0.000    0.343    0.358       8
 integrate_v_rspace                   2  9.5    0.000    0.000    0.340    0.355       3
 compute_d_lp_auto_ri_batch           1  9.0    0.000    0.000    0.234    0.351       3
 compute_d_lp_auto_ri_atom            1 10.0    0.056    0.077    0.234    0.350       3
 abc_contract_xsmm                  789 11.0    0.238    0.345    0.238    0.345       1
 potential_pw2rs                      2 10.5    0.001    0.002    0.323    0.338       9
 initialize_auto_ri_integrals         2  9.0    0.029    0.315    0.316    0.317       0
 operator2                       252261 15.0    0.258    0.305    0.258    0.305       4
 multiply_cannon_multrec           5555 12.6    0.231    0.301    0.233    0.304       0
 make_m2s                          1010 10.6    0.010    0.011    0.280    0.292       3
 transfer_rs2pw                       9  7.8    0.000    0.000    0.165    0.285       9
 create_qs_kind_set                   1  2.0    0.000    0.000    0.275    0.276       6
 read_qs_kind                         3  3.0    0.069    0.076    0.275    0.276       0
 mp_waitany                         125 11.4    0.131    0.265    0.131    0.265       5
 transfer_rs2pw_300                   3  8.3    0.055    0.060    0.134    0.254       7
 make_images                       1010 11.6    0.043    0.057    0.241    0.250       3
 mp_waitall_1                     32382 13.8    0.165    0.232    0.165    0.232      10
 qs_ks_ddapc                          2  8.5    0.000    0.000    0.220    0.229       3
 parser_read_line                 40157  4.0    0.007    0.007    0.206    0.208       9
 parser_read_line_low                46  5.0    0.007    0.055    0.200    0.202       0
 broadcast_input_information         46  6.0    0.009    0.028    0.193    0.200       0
 ab_contract                     253923 15.0    0.167    0.196    0.167    0.196       4
 multiply_cannon_metrocomm3        5555 12.6    0.010    0.010    0.121    0.184       3
 pw_poisson_solve                     2  8.5    0.000    0.000    0.169    0.178       9
 qs_energies_init_hamiltonians        1  3.0    0.000    0.000    0.173    0.173       7
 cp_fm_syevd                          6  9.2    0.000    0.000    0.168    0.169       4
 qs_env_update_s_mstruct              1  4.0    0.000    0.000    0.165    0.167       1
 cp_fm_redistribute_end               6 10.2    0.091    0.166    0.092    0.167       8
 cp_fm_syevd_base                     6 10.2    0.074    0.163    0.074    0.163       3
 cp_fm_cholesky_decompose            35  9.0    0.159    0.160    0.159    0.160       4
 rirs_cluster_gradient_coordina     301 10.0    0.081    0.149    0.081    0.149       3
 calculate_rho_core                   1  5.0    0.012    0.013    0.145    0.148       5
 cp_fm_uplo_to_full                  64  9.0    0.121    0.147    0.121    0.147      10
 build_3c_integral_block_auto_r      66 11.0    0.000    0.000    0.088    0.142       1
 compute_fm_chi_Gamma_freq           30  8.0    0.001    0.001    0.117    0.140       3
 build_3c_integral_block_auto_r      66 11.0    0.089    0.135    0.089    0.135       0
 sort_shells                          5  8.2    0.131    0.133    0.131    0.133       3
 pw_gather_p                         14 11.2    0.106    0.126    0.106    0.126       8
 compute_B_PQ_AA                     11  9.0    0.000    0.000    0.114    0.124       2
 transfer_pw2rs                       8 11.5    0.000    0.000    0.122    0.123       3
 mp_sum_root_rm                      11 10.0    0.107    0.122    0.107    0.122      10
 pw_copy                             28 10.5    0.111    0.121    0.111    0.121       8
 pw_scatter_p                        14 12.8    0.103    0.120    0.103    0.120       7
 mp_bcast_am_src                     46  7.0    0.103    0.118    0.103    0.118       8
 pw_derive                           12 11.2    0.102    0.115    0.102    0.115       6
 dbcsr_complete_redistribute        265 10.4    0.031    0.042    0.102    0.114       3
 cp_fm_geeig                          2  9.5    0.000    0.000    0.114    0.114       0
 compute_M_pq_inv                     1  9.0    0.000    0.000    0.113    0.114       3
 mp_bcast_i_src                     189  7.0    0.079    0.113    0.079    0.113       1
 build_G_ao                         121  8.5    0.000    0.001    0.105    0.110       1
 dbcsr_finalize                    2096 10.8    0.012    0.014    0.081    0.098       3
 pw_poisson_set                       3  8.3    0.000    0.000    0.089    0.098       3
 check_for_restart_files              1  7.0    0.061    0.098    0.061    0.098       7
 compute_V_MinvVsqrt                  1  8.0    0.000    0.000    0.095    0.096       3
 transfer_pw2rs_300                   2 12.5    0.038    0.044    0.085    0.092       9
 pw_integral_ab_c1d_c1d_gs            4 10.0    0.072    0.075    0.079    0.088       7
 cp_ddapc_apply_CD                    2  9.5    0.000    0.000    0.059    0.088       0
 G_occ_vir                          121  9.5    0.005    0.006    0.077    0.087       0
 xc_functional_eval                   1 11.0    0.000    0.000    0.063    0.086       3
 pbe_lda_eval                         1 12.0    0.063    0.086    0.063    0.086       5
 rirs_cluster_gradient_products     301 10.0    0.043    0.083    0.043    0.083       3
 fft_wrap_pw1pw2_100                  4 10.8    0.004    0.011    0.057    0.083       9
 cp_fm_power                          1  9.0    0.002    0.002    0.080    0.080       0
 make_images_data                  1010 12.6    0.008    0.009    0.072    0.076      10
 copy_fm_to_dbcsr                   161  9.3    0.000    0.000    0.065    0.074       8
 dbcsr_special_finalize            6060 12.6    0.015    0.017    0.064    0.072       3
 mp_sum_l                          1709 10.5    0.047    0.069    0.047    0.069      10
 rirs_cluster_AO_products           301 10.0    0.029    0.066    0.029    0.066       3
 calculate_norms                   9350 12.6    0.056    0.065    0.056    0.065       9
 hybrid_alltoall_any               1114 13.4    0.024    0.036    0.057    0.063       3
 compute_int_3c                       3  9.0    0.042    0.046    0.056    0.062       3
 dbcsr_merge_all                   1831 11.9    0.026    0.031    0.050    0.061       3
 solve_AB_eigenproblem                4 10.0    0.033    0.041    0.048    0.059       1
 dbcsr_add_d                        933  9.0    0.001    0.001    0.046    0.058       3
 dbcsr_add_anytype                  933 10.0    0.012    0.021    0.045    0.057       0
 compute_QP_energies                  1  8.0    0.000    0.000    0.054    0.056       0
 local_gemm                        5780 12.9    0.041    0.054    0.041    0.054       3
 rirs_cluster_residual              301 10.0    0.027    0.054    0.027    0.054       3
 pw_copy_to_array                    14 11.2    0.045    0.052    0.045    0.052       3
 Fourier_transform_w_to_t            30  8.0    0.000    0.001    0.020    0.049       3
 cp_fm_scale_and_add                901  9.0    0.020    0.049    0.020    0.049       0
 get_ddapc                            2 10.5    0.000    0.000    0.020    0.048       3
 to_Gamma_and_mo_real                62  9.0    0.000    0.000    0.045    0.046       9
 dbcsr_merge_single_wm             5445 13.6    0.025    0.026    0.040    0.045       9
 dbcsr_create_new                 15998 12.3    0.029    0.030    0.043    0.045       9
 pw_grid_assign                       5  7.2    0.042    0.044    0.044    0.045       9
 pw_axpy                             25  6.6    0.040    0.044    0.040    0.044       6
 make_images_sizes                 1010 12.6    0.001    0.001    0.029    0.043       3
 mp_alltoall_i44                   1010 13.6    0.028    0.042    0.028    0.042       6
 mp_sum_iv                          569 11.2    0.027    0.034    0.027    0.034       6
 eval_bandstructure_properties        1  5.0    0.000    0.000    0.032    0.033       5
 compute_Sigma_x                      1  7.0    0.000    0.000    0.032    0.033       0
 extract_masked_blocks              244  9.6    0.013    0.019    0.025    0.032       2
 transfer_pw2rs_100                   2 12.5    0.007    0.009    0.026    0.032       9
 mp_allgather_i34                   505 11.6    0.024    0.031    0.024    0.031       6
 rirs_grid_build_clusters             1  8.0    0.010    0.019    0.017    0.031       3
 diamat_all                          20 11.4    0.024    0.031    0.024    0.031       3
 extract_grid_panel                 122  9.5    0.015    0.021    0.022    0.031       2
 mp_alltoall_d11v                  1111 11.7    0.027    0.030    0.027    0.030       2
 pw_copy_from_array                  14 12.8    0.026    0.030    0.026    0.030       0
 cp_cfm_geeig                         1  6.0    0.000    0.000    0.028    0.029       4
 rirs_cluster_d_lP                  301 10.0    0.015    0.028    0.015    0.028       3
 dbcsr_work_destroy_all            7995 13.2    0.016    0.018    0.023    0.027       9
 rirs_cluster_D_ll                  301 10.0    0.015    0.027    0.015    0.027       3
 pw_grid_remap                        4  8.0    0.006    0.006    0.014    0.027      10
 transfer_rs2pw_100                   2  9.0    0.006    0.008    0.021    0.026       6
 dbcsr_data_release               70265 12.8    0.021    0.025    0.021    0.025       3
 eval_pw_TabLR                        1  2.0    0.010    0.012    0.021    0.025       3
 dbcsr_work_create                 7995 12.2    0.016    0.016    0.023    0.024       3
 calculate_first_density_matrix       1  5.0    0.000    0.000    0.024    0.024       4
 dbcsr_make_images_dense            118 11.5    0.002    0.002    0.021    0.023       3
 dbcsr_data_new                   48643 12.6    0.022    0.023    0.022    0.023       3
 multiply_cannon_metrocomm4        5050 12.6    0.010    0.010    0.022    0.022       3
 compute_reference_M_PQ_inv_fac      14 10.8    0.000    0.001    0.017    0.022       2
 collect_used_col_blocks             92  9.7    0.000    0.000    0.013    0.022       9
 dbcsr_destroy                    15840 11.0    0.013    0.014    0.019    0.021       3
 pw_zero                             25  4.7    0.017    0.021    0.017    0.021       8
 dbcsr_sort_data                   5902 14.4    0.017    0.020    0.017    0.020       0
 mp_sum_im3                           5  9.0    0.008    0.020    0.008    0.020      10
 fft_wrap_pw1pw2_40                   4 10.8    0.001    0.001    0.014    0.020       0
 dbcsr_iterator_start              6007 12.2    0.017    0.018    0.019    0.020      10
 rs_grid_zero                         5 12.0    0.018    0.020    0.018    0.020       2
 setup_buffer_matrices             1010 11.6    0.005    0.005    0.018    0.019       5
 dbcsr_make_dense_low               718 12.5    0.002    0.002    0.016    0.018       3
 create_and_init_bs_env               1  5.0    0.000    0.000    0.017    0.017       5
 fill_fm_Sigma_c_Gamma_time           1  9.0    0.000    0.000    0.017    0.017       3
 cp_fm_triangular_multiply            7 10.0    0.016    0.017    0.016    0.017       1
 make_basis_sm                        1  6.0    0.000    0.000    0.015    0.016      10
 grid_integrate_task_list             2 10.5    0.009    0.015    0.009    0.015       0
 qs_scf_new_mos                       1  5.0    0.000    0.000    0.015    0.015       5
 qs_scf_loop_do_ot                    1  6.0    0.000    0.000    0.015    0.015       2
 cp_cfm_cholesky_decompose            2  7.0    0.014    0.015    0.014    0.015      10
 buffer_matrices_ensure_size       1010 11.6    0.013    0.015    0.013    0.015       9
 dbcsr_iterator_stop               6007 12.2    0.010    0.013    0.012    0.015       3
 make_dense_data                    718 13.5    0.006    0.007    0.013    0.015       3
 abc_contract                        70 10.0    0.013    0.014    0.013    0.014       3
 mp_sum_dv                          377  9.2    0.012    0.014    0.012    0.014       1
 cp_ddapc_init                        1  5.0    0.000    0.000    0.014    0.014       3
 cp_ddapc_create                      1  6.0    0.000    0.000    0.014    0.014       0
 ot_scf_mini                          1  7.0    0.000    0.000    0.014    0.014      10
 qs_create_task_list                  1  5.0    0.000    0.000    0.006    0.014       7
 diagonalize_ks_matrix                1  6.0    0.000    0.000    0.014    0.014       9
 cp_fm_geeig_canon                    1  7.0    0.000    0.000    0.014    0.014       6
 generate_qs_task_list                1  6.0    0.000    0.001    0.006    0.014       4
 cp_dbcsr_sm_fm_multiply              2  7.5    0.000    0.000    0.013    0.013       8
 write_mo_set_to_restart              1  5.0    0.001    0.007    0.012    0.013       0
 dbcsr_data_copy_aa2                585 12.9    0.008    0.013    0.008    0.013       3
 distribute_tasks                     1  7.0    0.000    0.000    0.005    0.013       4
 cp_cfm_heevd                         1  7.0    0.000    0.000    0.012    0.012       9
 cp_cfm_heevd_base                    1  8.0    0.012    0.012    0.012    0.012       9
 load_balance_distributed             2  8.0    0.000    0.000    0.004    0.012      10
 cp_fm_triangular_invert              2 10.5    0.011    0.012    0.011    0.012       3
 get_current_loads                   12  9.0    0.000    0.000    0.004    0.012       5
 compute_load_list                    4  9.0    0.000    0.000    0.004    0.012       2
 mp_alltoall_l                       13  9.9    0.004    0.012    0.004    0.012       5
 rs_gather_matrices                   2 10.5    0.001    0.001    0.007    0.012       8
 -------------------------------------------------------------------------------

 The number of warnings for this run is : 1
 
 -------------------------------------------------------------------------------
  **** **** ******  **  PROGRAM ENDED AT                 2026-10-03 18:56:34.283
 ***** ** ***  *** **   PROGRAM RAN ON                                  n2cn1035
 **    ****   ******    PROGRAM RAN BY                                  eprop2d1
 ***** **    ** ** **   PROGRAM PROCESS ID                               1250146
  **** **  *******  **  PROGRAM STOPPED IN /scratch/hpc-prf-metdyn/eprop2d1_Jan/
                                           53_benchmark_RI_opt/418_gw100_fig5_fu
                                           ll_epsfilter_1e12_20261002/calculatio
                                           ns/rc0p5/ri5_rs03/91_C5H5N
