 DBCSR| CPU Multiplication driver                                           XSMM (U)
 DBCSR| Multrec recursion limit                                              512 (U)
 DBCSR| Multiplication stack size                                           1000 (D)
 DBCSR| Maximum elements for images                                    UNLIMITED (U)
 DBCSR| Multiplicative factor virtual images                                   1 (U)
 DBCSR| Use multiplication densification                                       T (D)
 DBCSR| Multiplication size stacks                                             3 (U)
 DBCSR| Use memory pool for CPU allocation                                     F (U)
 DBCSR| Number of 3D layers                                               SINGLE (U)
 DBCSR| Use MPI memory allocation                                              F (U)
 DBCSR| Use RMA algorithm                                                      F (U)
 DBCSR| Use Communication thread                                               T (U)
 DBCSR| Communication thread load                                             57 (D)
 DBCSR| MPI: My process id                                                     0
 DBCSR| MPI: Number of processes                                              13
 DBCSR| OMP: Current number of threads                                         9
 DBCSR| OMP: Max number of threads                                             9
 DBCSR| Split modifier for TAS multiplication algorithm                  1.0E+00 (U)


  **** **** ******  **  PROGRAM STARTED AT               2026-10-03 12:12:59.567
 ***** ** ***  *** **   PROGRAM STARTED ON                              n2cn0507
 **    ****   ******    PROGRAM STARTED BY                              eprop2d1
 ***** **    ** ** **   PROGRAM PROCESS ID                               2667202
  **** **  *******  **  PROGRAM STARTED IN /scratch/hpc-prf-metdyn/eprop2d1_Jan/
                                           53_benchmark_RI_opt/418_gw100_fig5_fu
                                           ll_epsfilter_1e12_20261002/calculatio
                                           ns/rc0p5/ri5_rs10/33_C2H3Br

 CP2K| version string:                 CP2K version 2026.2 (Development Version)
 CP2K| source code revision number:                                   0671c5aa6c
 CP2K| cp2kflags: omp libint fftw3 libxc parallel scalapack openblas            
 CP2K| is freely available from                            https://www.cp2k.org/
 CP2K| Program compiled at                                   2026-09-20 09:25:26
 CP2K| Program compiled on                                              n2login5
 CP2K| Program compiled for                                               x86_64
 CP2K| Data directory path    /scratch/hpc-prf-metdyn/eprop2d1_Jan/53_benchmark_
 CP2K| Input file name                                                 input.inp
 
 eprop2d1@n2cn0507 has created rank and process                      0   2667202
 eprop2d1@n2cn0507 has created rank and process                      1   2667203
 eprop2d1@n2cn0507 has created rank and process                      2   2667204
 eprop2d1@n2cn0507 has created rank and process                      3   2667205
 eprop2d1@n2cn0507 has created rank and process                      4   2667206
 eprop2d1@n2cn0507 has created rank and process                      5   2667207
 
 eprop2d1@n2cn0507 is running                                        6 processes

 GLOBAL| Force Environment number                                              1
 GLOBAL| Basis set file name            /scratch/hpc-prf-metdyn/eprop2d1_Jan/53_
 GLOBAL| Potential file name            /scratch/hpc-prf-metdyn/eprop2d1_Jan/53_
 GLOBAL| MM Potential file name                                     MM_POTENTIAL
 GLOBAL| Coordinate file name                                      __STD_INPUT__
 GLOBAL| Method name                                                        CP2K
 GLOBAL| Project name                                             g418_a510_m033
 GLOBAL| Run type                                                         ENERGY
 GLOBAL| FFT library                                                       FFTW3
 GLOBAL| Diagonalization library                                       ScaLAPACK
 GLOBAL| Cholesky decomposition library                                ScaLAPACK
 GLOBAL| DGEMM library                                                      BLAS
 GLOBAL| Direct generalized diagonalization requested                          F
 GLOBAL| Orthonormality check for eigenvectors                          DISABLED
 GLOBAL| Matrix multiplication library                                 ScaLAPACK
 GLOBAL| All-to-all communication in single precision                          F
 GLOBAL| Grid backend                                                       AUTO
 GLOBAL| Global print level                                                  LOW
 GLOBAL| MPI I/O enabled                                                       T
 GLOBAL| Total number of message passing processes                             6
 GLOBAL| Number of distributed systems (nodes)                                 1
 GLOBAL| Number of threads for this process                                    9
 GLOBAL| This output is from process                                           0
 GLOBAL| OpenMP stack size per thread (OMP_STACKSIZE)                       512M
 GLOBAL| CPU model name                          AMD EPYC 7763 64-Core Processor

 MEMORY| system memory details [Kb]
 MEMORY|                        rank 0           min           max       average
 MEMORY| MemTotal            263897580     263897580     263897580     263897580
 MEMORY| MemFree             239793892     239793892     239793892     239793892
 MEMORY| Buffers                282028        282028        282028        282028
 MEMORY| Cached                7212932       7212932       7212932       7212932
 MEMORY| Slab                  1949500       1949500       1949500       1949500
 MEMORY| SReclaimable           309848        309848        309848        309848
 MEMORY| MemLikelyFree       247598700     247598700     247598700     247598700


 GENERATE|  Preliminary Number of Bonds generated:                             0
 GENERATE|  Achieved consistency in connectivity generation.

 *******************************************************************************
 *******************************************************************************
 **                                                                           **
 **     #####                         ##              ##                      **
 **    ##   ##            ##          ##              ##                      **
 **   ##     ##                       ##            ######                    **
 **   ##     ##  ##   ##  ##   #####  ##  ##   ####   ##    #####    #####    **
 **   ##     ##  ##   ##  ##  ##      ## ##   ##      ##   ##   ##  ##   ##   **
 **   ##  ## ##  ##   ##  ##  ##      ####     ###    ##   ######   ######    **
 **    ##  ###   ##   ##  ##  ##      ## ##      ##   ##   ##       ##        **
 **     #######   #####   ##   #####  ##  ##  ####    ##    #####   ##        **
 **           ##                                                    ##        **
 **                                                                           **
 **                                                ... make the atoms dance   **
 **                                                                           **
 **            Copyright (C) by CP2K developers group (2000-2026)             **
 **                      J. Chem. Phys. 152, 194103 (2020)                    **
 **                                                                           **
 *******************************************************************************


 TOTAL NUMBERS AND MAXIMUM NUMBERS

  Total number of            - Atomic kinds:                                   3
                             - Atoms:                                          6
                             - Shell sets:                                     6
                             - Shells:                                        42
                             - Primitive Cartesian functions:                 37
                             - Cartesian basis functions:                    129
                             - Spherical basis functions:                    114

  Maximum angular momentum of- Orbital basis functions:                        3
                             - Local part of the GTH pseudopotential:          2
                             - Non-local part of the GTH pseudopotential:      4


 SCF PARAMETERS         Density guess:                                   RESTART
                        --------------------------------------------------------
                        max_scf:                                             500
                        max_scf_history:                                       0
                        max_diis:                                              4
                        --------------------------------------------------------
                        eps_scf:                                        1.00E-08
                        eps_scf_history:                                0.00E+00
                        eps_diis:                                       0.00E+00
                        eps_eigval:                                     1.00E-05
                        --------------------------------------------------------
                        level_shift [a.u.]:                             0.000000
                        --------------------------------------------------------
                        Outer loop SCF in use 
                        No variables optimised in outer loop
                        eps_scf                                         1.00E-08
                        max_scf                                               20
                        No outer loop optimization
                        step_size                                       5.00E-01

 Extrapolation method: initial_guess

 Number of electrons:                                                         18
 Number of occupied orbitals:                                                  9
 Number of molecular orbitals:                                                 9

 Number of orbital functions:                                                114
 Number of independent orbital functions:                                    114


 SCF WAVEFUNCTION OPTIMIZATION

  ----------------------------------- OT ---------------------------------------
  Minimizer      : DIIS                : direct inversion
                                         in the iterative subspace
                                         using   7 DIIS vectors
                                         safer DIIS on
  Preconditioner : FULL_KINETIC        : inversion of T + eS
  Lattice FFT   : OFF
  Precond_solver : DEFAULT
  stepsize       :    0.15000000                  energy_gap     :    0.20000000
  eps_taylor     :   0.10000E-15                  max_taylor     :             4
  ----------------------------------- OT ---------------------------------------

  Step     Update method      Time    Convergence         Total energy    Change
  ------------------------------------------------------------------------------
  Decoupling Energy:                                               0.0000048103
     1 OT DIIS     0.15E+00    1.9     0.00000001       -26.4969273648 -2.65E+01
  Decoupling Energy:                                               0.0000048103
     2 OT DIIS     0.15E+00    2.5     8.4773E-09       -26.4969273648 -3.55E-15

  *** SCF run converged in     2 steps ***


  Electronic density on regular grids:        -18.0000000000        0.0000000000
  Core density on regular grids:               18.0000000000       -0.0000000000
  Total charge density on r-space grids:       -0.0000000000
  Total charge density g-space grids:          -0.0000000000

  Overlap energy of the core charge distribution:               0.00000650404844
  Self energy of the core charge distribution:                -58.54672732397866
  Core Hamiltonian energy:                                     16.38775080542154
  Hartree energy:                                              22.88648089433849
  Exchange-correlation energy:                                 -7.22443824465239

  Total energy:                                               -26.49692736482257

  outer SCF iter =    1 RMS gradient =   0.85E-08 energy =        -26.4969273648
  outer SCF loop converged in   1 iterations or    2 steps

  
 -------------------------------------------------------------------------------
 -                                                                             -
 -                          BANDSTRUCTURE CALCULATION                          -
 -                                                                             -
 -------------------------------------------------------------------------------
  
 Number of occupied molecular orbitals (MOs) = Number of occupied bands        9
 Number of unoccupied (= virtual) MOs = Number of unoccupied bands           105
 Number of Gaussian basis functions for MOs                                  114
  
 -------------------------------------------------------------------------------
 -                                                                             -
 -                                GW CALCULATION                               -
 -                                                                             -
 -------------------------------------------------------------------------------
  
 Input: Number of time/freq. points                                           30
 Input: ω_max for fitting Σ(iω) (eV)                                        10.0
 Input: Filter threshold for sparse tensor operations                    1.0E-12
 Input: Apply Hedin shift                                                      F
 Detected: Available memory per MPI process                              33.5 GB
 
 Input: RI-RS Tikhonov regularization                                   1.00E-04
 Input: AO grid hard cutoff radius                                        8.00 Å
 Input: MPI ranks per atom in Z_lP solve                                      -1
 Input: Keep sparsity in χ/G/W panels                                          T
 Input: GW flavour                                                          G0W0
 
 Input: RI-RS grid optimization activated                                      T
 Input: RS points per AO function                                           10.0
 Input: Cutoff radius for atomic clusters                                  0.5 Å
 Input: Maximum grid optimization iterations                                 300
 
 Input: AUTO_RI basis optimization activated:                                  T
 Input: AUTO_RI number of RI functions per AO function:                      5.0
 Input: AUTO_RI frontier orbital window:                                  5.0 eV
 Input: AUTO_RI neighbor radius:                                           3.0 Å
 
 Cutoff radius for the truncated Coulomb operator in RI metric:            7.0 Å
 Regularization parameter of RI                                          0.0E+00
 Regularization parameter of minimax grids                               1.0E-06
 
 AUTO_RI| Number of automatic RI functions for χ, ε, W:                      491
 AUTO_RI| Total RI basis optimization time:                                1.6 s
  Decoupling Energy:                                               0.0000048103
 
 SCF direct band gap (eV)                                                   4.50
 Max. SCF eigval diff. (eV)                                               263.69
 E-Range for minimax grid                                                  58.53
 Number of Padé parameters for analytic continuation:                         16
 
 RI-RS basis radii (Å):
     Kind  Elem     r_AO (Å)     r_RI (Å)
        1    C        15.9835       10.1279
        2    H        13.9082        8.7963
        3    Br        8.1711        5.5637
 
 Started RI-RS grid optimization
 RI-RS grid initial normalized error                          3.548391985011E-02
 RI-RS grid optimization completed, execution time:                        0.8 s
 Normalized 3C error:                                                    1.3E-08
 Maximum absolute 3C error:                                              8.8E-04
 Optimized points outside molecular Voronoi cells:                           408 / 1140
 Total grid points used for RI-RS:                                          1140
 
 RI-RS grid row-blocks of ϕ_μ(r_l)                                            39
 RI-RS grid points per block (max)                                            32
 
 Percentage of non-zero matrix elements in ϕ_μ(r_l)                     100.00 %
 
 RI-RS memory estimate per MPI process:
   Available memory per process (system)                                41.55 GB
   Required for Z_lP (dense upper bound; actual is sparser)              0.00 GB
   Required for χ, W, Σ panels (peak per panel step)                     0.01 GB
   Required for Z_lP solve peak (D_local+ϕ, worst-case atom)             0.02 GB
   Worst-case local-grid number of grid points:                             1140
   Worst-case memory D_local:                                            0.01 GB
 
 Started computing Z_lP
 Computed Z_lP (MPI rank 0) for atom          1 /  1,    Execution time    0.2 s
 Computed Z_lP (all MPI ranks) for all atoms,            Execution time    0.2 s

 Memory per MPI process after computing Z_lP:
 Available memory per MPI process                               41.5 GB
 Used memory per MPI process                                     1.3 GB
 Number of batches for χ, Σ matrices                                           1
 
 Percentage of non-zero matrix elements in Z_lP                         100.00 %
 Percentage of non-zero matrix elements in G_ll', χ_ll', W_ll'          100.00 %
 Percentage of non-zero matrix elements in χ_PQ for time point 1        100.00 %
 
 Computed χ(iτ,k=0) for time point            1 / 30,    Execution time    0.0 s
 Computed χ(iτ,k=0) for time point            2 / 30,    Execution time    0.0 s
 Computed χ(iτ,k=0) for time point            3 / 30,    Execution time    0.0 s
 Computed χ(iτ,k=0) for time point            4 / 30,    Execution time    0.0 s
 Computed χ(iτ,k=0) for time point            5 / 30,    Execution time    0.0 s
 Computed χ(iτ,k=0) for time point            6 / 30,    Execution time    0.0 s
 Computed χ(iτ,k=0) for time point            7 / 30,    Execution time    0.0 s
 Computed χ(iτ,k=0) for time point            8 / 30,    Execution time    0.0 s
 Computed χ(iτ,k=0) for time point            9 / 30,    Execution time    0.0 s
 Computed χ(iτ,k=0) for time point           10 / 30,    Execution time    0.0 s
 Computed χ(iτ,k=0) for time point           11 / 30,    Execution time    0.0 s
 Computed χ(iτ,k=0) for time point           12 / 30,    Execution time    0.0 s
 Computed χ(iτ,k=0) for time point           13 / 30,    Execution time    0.0 s
 Computed χ(iτ,k=0) for time point           14 / 30,    Execution time    0.0 s
 Computed χ(iτ,k=0) for time point           15 / 30,    Execution time    0.0 s
 Computed χ(iτ,k=0) for time point           16 / 30,    Execution time    0.0 s
 Computed χ(iτ,k=0) for time point           17 / 30,    Execution time    0.0 s
 Computed χ(iτ,k=0) for time point           18 / 30,    Execution time    0.0 s
 Computed χ(iτ,k=0) for time point           19 / 30,    Execution time    0.0 s
 Computed χ(iτ,k=0) for time point           20 / 30,    Execution time    0.0 s
 Computed χ(iτ,k=0) for time point           21 / 30,    Execution time    0.0 s
 Computed χ(iτ,k=0) for time point           22 / 30,    Execution time    0.0 s
 Computed χ(iτ,k=0) for time point           23 / 30,    Execution time    0.0 s
 Computed χ(iτ,k=0) for time point           24 / 30,    Execution time    0.0 s
 Computed χ(iτ,k=0) for time point           25 / 30,    Execution time    0.0 s
 Computed χ(iτ,k=0) for time point           26 / 30,    Execution time    0.0 s
 Computed χ(iτ,k=0) for time point           27 / 30,    Execution time    0.0 s
 Computed χ(iτ,k=0) for time point           28 / 30,    Execution time    0.0 s
 Computed χ(iτ,k=0) for time point           29 / 30,    Execution time    0.0 s
 Computed χ(iτ,k=0) for time point           30 / 30,    Execution time    0.0 s
 
 Cholesky decomposition failed, using diagonalization.
 Discarded eigenmodes:                                                         2
 Computed W(iτ),                                         Execution time    0.4 s
 
 Computed Σ^x(k=0),                                      Execution time    0.0 s
 
 Computed Σ^c(iτ) for time point              1 / 30,    Execution time    0.0 s
 Computed Σ^c(iτ) for time point              2 / 30,    Execution time    0.0 s
 Computed Σ^c(iτ) for time point              3 / 30,    Execution time    0.0 s
 Computed Σ^c(iτ) for time point              4 / 30,    Execution time    0.0 s
 Computed Σ^c(iτ) for time point              5 / 30,    Execution time    0.0 s
 Computed Σ^c(iτ) for time point              6 / 30,    Execution time    0.0 s
 Computed Σ^c(iτ) for time point              7 / 30,    Execution time    0.0 s
 Computed Σ^c(iτ) for time point              8 / 30,    Execution time    0.0 s
 Computed Σ^c(iτ) for time point              9 / 30,    Execution time    0.0 s
 Computed Σ^c(iτ) for time point             10 / 30,    Execution time    0.0 s
 Computed Σ^c(iτ) for time point             11 / 30,    Execution time    0.0 s
 Computed Σ^c(iτ) for time point             12 / 30,    Execution time    0.0 s
 Computed Σ^c(iτ) for time point             13 / 30,    Execution time    0.0 s
 Computed Σ^c(iτ) for time point             14 / 30,    Execution time    0.0 s
 Computed Σ^c(iτ) for time point             15 / 30,    Execution time    0.0 s
 Computed Σ^c(iτ) for time point             16 / 30,    Execution time    0.0 s
 Computed Σ^c(iτ) for time point             17 / 30,    Execution time    0.0 s
 Computed Σ^c(iτ) for time point             18 / 30,    Execution time    0.0 s
 Computed Σ^c(iτ) for time point             19 / 30,    Execution time    0.0 s
 Computed Σ^c(iτ) for time point             20 / 30,    Execution time    0.0 s
 Computed Σ^c(iτ) for time point             21 / 30,    Execution time    0.0 s
 Computed Σ^c(iτ) for time point             22 / 30,    Execution time    0.0 s
 Computed Σ^c(iτ) for time point             23 / 30,    Execution time    0.0 s
 Computed Σ^c(iτ) for time point             24 / 30,    Execution time    0.0 s
 Computed Σ^c(iτ) for time point             25 / 30,    Execution time    0.0 s
 Computed Σ^c(iτ) for time point             26 / 30,    Execution time    0.0 s
 Computed Σ^c(iτ) for time point             27 / 30,    Execution time    0.0 s
 Computed Σ^c(iτ) for time point             28 / 30,    Execution time    0.0 s
 Computed Σ^c(iτ) for time point             29 / 30,    Execution time    0.0 s
 Computed Σ^c(iτ) for time point             30 / 30,    Execution time    0.0 s

 *** WARNING in post_scf_bandstructure_utils.F:3161 :: G0W0 reorders the   ***
 *** empty levels: the SCF conduction band minimum (SCF LUMO) is level 10, ***
 *** whereas the G0W0 conduction band minimum (G0W0 LUMO) is level 11. The ***
 *** SCF and G0W0 band edges printed below therefore belong to different   ***
 *** orbitals; see the eigenvalues in the file bandstructure_SCF_and_G0W0. ***

 
 SCF valence band maximum (eV):                                           -5.803
 SCF conduction band minimum (eV):                                        -1.298
 SCF indirect band gap (eV):                                               4.505
 SCF direct band gap (eV):                                                 4.505
 
 G0W0 valence band maximum (eV):                                          -8.558
 G0W0 conduction band minimum (eV):                                        1.453
 G0W0 indirect band gap (eV):                                             10.011
 G0W0 direct band gap (eV):                                               10.011
 
 Hartree-Fock with SCF orbitals valence band maximum (eV):                -8.848
 Hartree-Fock with SCF orbitals conduction band minimum (eV)               2.200
 Hartree-Fock with SCF orbitals indirect band gap (eV):                   11.048
 Hartree-Fock with SCF orbitals direct band gap (eV):                     11.048

 ENERGY| Total FORCE_EVAL ( QS ) energy [hartree]            -26.496927364822572

 -------------------------------------------------------------------------------
 -                                                                             -
 -                                DBCSR STATISTICS                             -
 -                                                                             -
 -------------------------------------------------------------------------------
 COUNTER                                    TOTAL       BLAS       SMM       ACC
 flops     9 x    29 x     9                56376     100.0%      0.0%      0.0%     
 flops     2 x     9 x     2                73152     100.0%      0.0%      0.0%     
 flops     2 x    66 x     2               100320     100.0%      0.0%      0.0%     
 flops     2 x     2 x    66               109296     100.0%      0.0%      0.0%     
 flops     2 x    76 x     2               116128     100.0%      0.0%      0.0%     
 flops     2 x    77 x     2               117040     100.0%      0.0%      0.0%     
 flops     2 x     2 x    76               125856     100.0%      0.0%      0.0%     
 flops     2 x    84 x     2               129024     100.0%      0.0%      0.0%     
 flops     2 x     2 x     9               185904     100.0%      0.0%      0.0%     
 flops     2 x    29 x     2               237104     100.0%      0.0%      0.0%     
 flops     9 x     9 x     9               243486     100.0%      0.0%      0.0%     
 flops    29 x    29 x     9               272484     100.0%      0.0%      0.0%     
 flops     2 x    94 x     2               286512     100.0%      0.0%      0.0%     
 flops     2 x     2 x    94               311328     100.0%      0.0%      0.0%     
 flops     9 x     9 x     2               331452     100.0%      0.0%      0.0%     
 flops     9 x     9 x    29               563760     100.0%      0.0%      0.0%     
 flops     2 x     2 x    29               606912     100.0%      0.0%      0.0%     
 flops    29 x     9 x     9               662418     100.0%      0.0%      0.0%     
 flops     2 x     9 x     9               827172     100.0%      0.0%      0.0%     
 flops    26 x     9 x     2               958464     100.0%      0.0%      0.0%     
 flops     2 x     9 x    26               970632     100.0%      0.0%      0.0%     
 flops    29 x     9 x     2              1068012     100.0%      0.0%      0.0%     
 flops     9 x    29 x     2              1080540     100.0%      0.0%      0.0%     
 flops    66 x    66 x     2              1115136     100.0%      0.0%      0.0%     
 flops     2 x    66 x    66              1254528     100.0%      0.0%      0.0%     
 flops    66 x    76 x     2              1264032     100.0%      0.0%      0.0%     
 flops    76 x    66 x     2              1284096     100.0%      0.0%      0.0%     
 flops    26 x    66 x     2              1297296     100.0%      0.0%      0.0%     
 flops    66 x    77 x     2              1300992     100.0%      0.0%      0.0%     
 flops    77 x    66 x     2              1300992     100.0%      0.0%      0.0%     
 flops     2 x    66 x    26              1345344     100.0%      0.0%      0.0%     
 flops    66 x    84 x     2              1419264     100.0%      0.0%      0.0%     
 flops    84 x    66 x     2              1419264     100.0%      0.0%      0.0%     
 flops     2 x    26 x    66              1420848     100.0%      0.0%      0.0%     
 flops    26 x     2 x    66              1420848     100.0%      0.0%      0.0%     
 flops     2 x    66 x    76              1444608     100.0%      0.0%      0.0%     
 flops     2 x    76 x    66              1444608     100.0%      0.0%      0.0%     
 flops    76 x    76 x     2              1455552     100.0%      0.0%      0.0%     
 flops     2 x    77 x    66              1463616     100.0%      0.0%      0.0%     
 flops    77 x    76 x     2              1474704     100.0%      0.0%      0.0%     
 flops    26 x    76 x     2              1493856     100.0%      0.0%      0.0%     
 flops    76 x    77 x     2              1498112     100.0%      0.0%      0.0%     
 flops    29 x     9 x    29              1498662     100.0%      0.0%      0.0%     
 flops    26 x    77 x     2              1513512     100.0%      0.0%      0.0%     
 flops    77 x    77 x     2              1517824     100.0%      0.0%      0.0%     
 flops     2 x    76 x    26              1549184     100.0%      0.0%      0.0%     
 flops     2 x    77 x    26              1569568     100.0%      0.0%      0.0%     
 flops     2 x    84 x    66              1596672     100.0%      0.0%      0.0%     
 flops    84 x    76 x     2              1608768     100.0%      0.0%      0.0%     
 flops    76 x    84 x     2              1634304     100.0%      0.0%      0.0%     
 flops     2 x    26 x    76              1636128     100.0%      0.0%      0.0%     
 flops    77 x    84 x     2              1655808     100.0%      0.0%      0.0%     
 flops    84 x    77 x     2              1655808     100.0%      0.0%      0.0%     
 flops     2 x    76 x    76              1663488     100.0%      0.0%      0.0%     
 flops    26 x    84 x     2              1677312     100.0%      0.0%      0.0%     
 flops     2 x    77 x    76              1685376     100.0%      0.0%      0.0%     
 flops    26 x     2 x    76              1707264     100.0%      0.0%      0.0%     
 flops     2 x    84 x    26              1720992     100.0%      0.0%      0.0%     
 flops    84 x    84 x     2              1806336     100.0%      0.0%      0.0%     
 flops     2 x    84 x    76              1838592     100.0%      0.0%      0.0%     
 flops    26 x     2 x     9              2429856     100.0%      0.0%      0.0%     
 flops     2 x    26 x     9              2434536     100.0%      0.0%      0.0%     
 flops     2 x     9 x    29              2734236     100.0%      0.0%      0.0%     
 flops     2 x    29 x     9              2734236     100.0%      0.0%      0.0%     
 flops    26 x    29 x     2              3121560     100.0%      0.0%      0.0%     
 flops     2 x    29 x    26              3148704     100.0%      0.0%      0.0%     
 flops    66 x    94 x     2              3151632     100.0%      0.0%      0.0%     
 flops    94 x    66 x     2              3176448     100.0%      0.0%      0.0%     
 flops    29 x    29 x     2              3481740     100.0%      0.0%      0.0%     
 flops     2 x    66 x    94              3573504     100.0%      0.0%      0.0%     
 flops     2 x    94 x    66              3573504     100.0%      0.0%      0.0%     
 flops    94 x    76 x     2              3600576     100.0%      0.0%      0.0%     
 flops    76 x    94 x     2              3629152     100.0%      0.0%      0.0%     
 flops    77 x    94 x     2              3676904     100.0%      0.0%      0.0%     
 flops    94 x    77 x     2              3705856     100.0%      0.0%      0.0%     
 flops    26 x    94 x     2              3724656     100.0%      0.0%      0.0%     
 flops     2 x    94 x    26              3802864     100.0%      0.0%      0.0%     
 flops    84 x    94 x     2              4011168     100.0%      0.0%      0.0%     
 flops    94 x    84 x     2              4042752     100.0%      0.0%      0.0%     
 flops     2 x    26 x    94              4047264     100.0%      0.0%      0.0%     
 flops     2 x    94 x    76              4114944     100.0%      0.0%      0.0%     
 flops     2 x    76 x    94              4114944     100.0%      0.0%      0.0%     
 flops    26 x     2 x    94              4135248     100.0%      0.0%      0.0%     
 flops     2 x    77 x    94              4169088     100.0%      0.0%      0.0%     
 flops     9 x     9 x    26              4359420     100.0%      0.0%      0.0%     
 flops     2 x    84 x    94              4548096     100.0%      0.0%      0.0%     
 flops     2 x    26 x    29              7898904     100.0%      0.0%      0.0%     
 flops    26 x     2 x    29              7898904     100.0%      0.0%      0.0%     
 flops     2 x    29 x    29              8810316     100.0%      0.0%      0.0%     
 flops    94 x    94 x     2              8977376     100.0%      0.0%      0.0%     
 flops     2 x    94 x    94             10179072     100.0%      0.0%      0.0%     
 flops    26 x     9 x     9             10803780     100.0%      0.0%      0.0%     
 flops    26 x     9 x    26             12764232     100.0%      0.0%      0.0%     
 flops    32 x     9 x     2             13047552     100.0%      0.0%      0.0%     
 flops     2 x     9 x    32             13189248     100.0%      0.0%      0.0%     
 flops    29 x     9 x    26             14047020     100.0%      0.0%      0.0%     
 flops    66 x    66 x    26             14270256     100.0%      0.0%      0.0%     
 flops     9 x    29 x    26             14291316     100.0%      0.0%      0.0%     
 flops    26 x    66 x    66             16308864     100.0%      0.0%      0.0%     
 flops    66 x    76 x    26             16432416     100.0%      0.0%      0.0%     
 flops    76 x    66 x    26             16432416     100.0%      0.0%      0.0%     
 flops    66 x    77 x    26             16648632     100.0%      0.0%      0.0%     
 flops    77 x    66 x    26             16648632     100.0%      0.0%      0.0%     
 flops    26 x    66 x    26             17667936     100.0%      0.0%      0.0%     
 flops    32 x    66 x     2             17867520     100.0%      0.0%      0.0%     
 flops    66 x    84 x    26             18162144     100.0%      0.0%      0.0%     
 flops    84 x    66 x    26             18162144     100.0%      0.0%      0.0%     
 flops     2 x    66 x    32             18408192     100.0%      0.0%      0.0%     
 flops    26 x    26 x    66             18471024     100.0%      0.0%      0.0%     
 flops    26 x    66 x    76             18779904     100.0%      0.0%      0.0%     
 flops    26 x    76 x    66             18779904     100.0%      0.0%      0.0%     
 flops    76 x    76 x    26             18922176     100.0%      0.0%      0.0%     
 flops    26 x    77 x    66             19027008     100.0%      0.0%      0.0%     
 flops    77 x    76 x    26             19171152     100.0%      0.0%      0.0%     
 flops    76 x    77 x    26             19171152     100.0%      0.0%      0.0%     
 flops     2 x    32 x    66             19236096     100.0%      0.0%      0.0%     
 flops    77 x    77 x    26             19423404     100.0%      0.0%      0.0%     
 flops    32 x     2 x    66             19590912     100.0%      0.0%      0.0%     
 flops    26 x    76 x    26             20344896     100.0%      0.0%      0.0%     
 flops    26 x    77 x    26             20612592     100.0%      0.0%      0.0%     
 flops    26 x    84 x    66             20756736     100.0%      0.0%      0.0%     
 flops    32 x    76 x     2             20779008     100.0%      0.0%      0.0%     
 flops    32 x    77 x     2             20796160     100.0%      0.0%      0.0%     
 flops    76 x    84 x    26             20913984     100.0%      0.0%      0.0%     
 flops    84 x    76 x    26             20913984     100.0%      0.0%      0.0%     
 flops     2 x    76 x    32             21187584     100.0%      0.0%      0.0%     
 flops    77 x    84 x    26             21189168     100.0%      0.0%      0.0%     
 flops    84 x    77 x    26             21189168     100.0%      0.0%      0.0%     
 flops     2 x    77 x    32             21476224     100.0%      0.0%      0.0%     
 flops    26 x    76 x    76             21625344     100.0%      0.0%      0.0%     
 flops    26 x    77 x    76             21909888     100.0%      0.0%      0.0%     
 flops     2 x    32 x    76             22150656     100.0%      0.0%      0.0%     
 flops    26 x    26 x    76             22194432     100.0%      0.0%      0.0%     
 flops    26 x    84 x    26             22486464     100.0%      0.0%      0.0%     
 flops    32 x     2 x    76             22851072     100.0%      0.0%      0.0%     
 flops    32 x    84 x     2             22912512     100.0%      0.0%      0.0%     
 flops    84 x    84 x    26             23115456     100.0%      0.0%      0.0%     
 flops     2 x    84 x    32             23450112     100.0%      0.0%      0.0%     
 flops    26 x    84 x    76             23901696     100.0%      0.0%      0.0%     
 flops    26 x    26 x     9             31843656     100.0%      0.0%      0.0%     
 flops     2 x    32 x     9             32853888     100.0%      0.0%      0.0%     
 flops    32 x     2 x     9             32911488     100.0%      0.0%      0.0%     
 flops    26 x     9 x    29             35545068     100.0%      0.0%      0.0%     
 flops    26 x    29 x     9             35545068     100.0%      0.0%      0.0%     
 flops    66 x    94 x    26             40648608     100.0%      0.0%      0.0%     
 flops    94 x    66 x    26             40648608     100.0%      0.0%      0.0%     
 flops    26 x    29 x    26             41286024     100.0%      0.0%      0.0%     
 flops    32 x    29 x     2             42454144     100.0%      0.0%      0.0%     
 flops     2 x    29 x    32             42784512     100.0%      0.0%      0.0%     
 flops    29 x    29 x    26             46049796     100.0%      0.0%      0.0%     
 flops    26 x    66 x    94             46455552     100.0%      0.0%      0.0%     
 flops    26 x    94 x    66             46455552     100.0%      0.0%      0.0%     
 flops    94 x    76 x    26             46807488     100.0%      0.0%      0.0%     
 flops    76 x    94 x    26             46807488     100.0%      0.0%      0.0%     
 flops    77 x    94 x    26             47423376     100.0%      0.0%      0.0%     
 flops    94 x    77 x    26             47423376     100.0%      0.0%      0.0%     
 flops    26 x    94 x    26             49183056     100.0%      0.0%      0.0%     
 flops    32 x    94 x     2             50775040     100.0%      0.0%      0.0%     
 flops    84 x    94 x    26             51734592     100.0%      0.0%      0.0%     
 flops    94 x    84 x    26             51734592     100.0%      0.0%      0.0%     
 flops     2 x    94 x    32             52315136     100.0%      0.0%      0.0%     
 flops    26 x    94 x    76             53494272     100.0%      0.0%      0.0%     
 flops    26 x    76 x    94             53494272     100.0%      0.0%      0.0%     
 flops    26 x    26 x    94             53758224     100.0%      0.0%      0.0%     
 flops    26 x    77 x    94             54198144     100.0%      0.0%      0.0%     
 flops     2 x    32 x    94             54793728     100.0%      0.0%      0.0%     
 flops    32 x     2 x    94             56345856     100.0%      0.0%      0.0%     
 flops    26 x    84 x    94             59125248     100.0%      0.0%      0.0%     
 flops     9 x     9 x    32             59429376     100.0%      0.0%      0.0%     
 flops    26 x    26 x    29            102685752     100.0%      0.0%      0.0%     
 flops    32 x     2 x    29            106701440     100.0%      0.0%      0.0%     
 flops     2 x    32 x    29            106786816     100.0%      0.0%      0.0%     
 flops    26 x    29 x    29            114534108     100.0%      0.0%      0.0%     
 flops    94 x    94 x    26            115786944     100.0%      0.0%      0.0%     
 flops    26 x    94 x    94            132327936     100.0%      0.0%      0.0%     
 flops    32 x     9 x     9            146017728     100.0%      0.0%      0.0%     
 flops    26 x     9 x    32            172852992     100.0%      0.0%      0.0%     
 flops    32 x     9 x    26            173107584     100.0%      0.0%      0.0%     
 flops    29 x     9 x    32            191644992     100.0%      0.0%      0.0%     
 flops     9 x    29 x    32            193215168     100.0%      0.0%      0.0%     
 flops    66 x    66 x    32            199051776     100.0%      0.0%      0.0%     
 flops    32 x    66 x    66            220796928     100.0%      0.0%      0.0%     
 flops    66 x    76 x    32            228248064     100.0%      0.0%      0.0%     
 flops    76 x    66 x    32            229211136     100.0%      0.0%      0.0%     
 flops    66 x    77 x    32            232227072     100.0%      0.0%      0.0%     
 flops    77 x    66 x    32            232227072     100.0%      0.0%      0.0%     
 flops    32 x    66 x    26            237110016     100.0%      0.0%      0.0%     
 flops    26 x    66 x    32            239855616     100.0%      0.0%      0.0%     
 flops    26 x    32 x    66            250069248     100.0%      0.0%      0.0%     
 flops    66 x    84 x    32            253338624     100.0%      0.0%      0.0%     
 flops    84 x    66 x    32            253338624     100.0%      0.0%      0.0%     
 flops    32 x    66 x    76            254251008     100.0%      0.0%      0.0%     
 flops    32 x    76 x    66            254251008     100.0%      0.0%      0.0%     
 flops    32 x    26 x    66            254681856     100.0%      0.0%      0.0%     
 flops    32 x    77 x    66            257596416     100.0%      0.0%      0.0%     
 flops    76 x    76 x    32            262831104     100.0%      0.0%      0.0%     
 flops    77 x    76 x    32            266289408     100.0%      0.0%      0.0%     
 flops    76 x    77 x    32            267412992     100.0%      0.0%      0.0%     
 flops    77 x    77 x    32            270931584     100.0%      0.0%      0.0%     
 flops    32 x    76 x    26            272909312     100.0%      0.0%      0.0%     
 flops    26 x    76 x    32            276197376     100.0%      0.0%      0.0%     
 flops    32 x    77 x    26            276500224     100.0%      0.0%      0.0%     
 flops    26 x    77 x    32            279831552     100.0%      0.0%      0.0%     
 flops    32 x    84 x    66            281014272     100.0%      0.0%      0.0%     
 flops    84 x    76 x    32            290497536     100.0%      0.0%      0.0%     
 flops    76 x    84 x    32            291723264     100.0%      0.0%      0.0%     
 flops    32 x    76 x    76            292773888     100.0%      0.0%      0.0%     
 flops    77 x    84 x    32            295561728     100.0%      0.0%      0.0%     
 flops    84 x    77 x    32            295561728     100.0%      0.0%      0.0%     
 flops    32 x    77 x    76            296626176     100.0%      0.0%      0.0%     
 flops    32 x    26 x    76            297063936     100.0%      0.0%      0.0%     
 flops    26 x    32 x    76            300478464     100.0%      0.0%      0.0%     
 flops    32 x    84 x    26            301916160     100.0%      0.0%      0.0%     
 flops    26 x    84 x    32            305270784     100.0%      0.0%      0.0%     
 flops    84 x    84 x    32            322430976     100.0%      0.0%      0.0%     
 flops    32 x    84 x    76            323592192     100.0%      0.0%      0.0%     
 flops    32 x    26 x     9            428717952     100.0%      0.0%      0.0%     
 flops    26 x    32 x     9            429721344     100.0%      0.0%      0.0%     
 flops    32 x    29 x     9            480624192     100.0%      0.0%      0.0%     
 flops    32 x     9 x    29            480924864     100.0%      0.0%      0.0%     
 flops    66 x    94 x    32            556275456     100.0%      0.0%      0.0%     
 flops    26 x    29 x    32            558032384     100.0%      0.0%      0.0%     
 flops    32 x    29 x    26            558804480     100.0%      0.0%      0.0%     
 flops    94 x    66 x    32            566995968     100.0%      0.0%      0.0%     
 flops    29 x    29 x    32            622958976     100.0%      0.0%      0.0%     
 flops    32 x    66 x    94            628936704     100.0%      0.0%      0.0%     
 flops    32 x    94 x    66            628936704     100.0%      0.0%      0.0%     
 flops    76 x    94 x    32            640559616     100.0%      0.0%      0.0%     
 flops    77 x    94 x    32            648988032     100.0%      0.0%      0.0%     
 flops    94 x    76 x    32            650161152     100.0%      0.0%      0.0%     
 flops    94 x    77 x    32            661495296     100.0%      0.0%      0.0%     
 flops    32 x    94 x    26            673370880     100.0%      0.0%      0.0%     
 flops    26 x    94 x    32            681817344     100.0%      0.0%      0.0%     
 flops    84 x    94 x    32            707986944     100.0%      0.0%      0.0%     
 flops    94 x    84 x    32            721631232     100.0%      0.0%      0.0%     
 flops    32 x    94 x    76            724230144     100.0%      0.0%      0.0%     
 flops    32 x    76 x    94            724230144     100.0%      0.0%      0.0%     
 flops    26 x    32 x    94            727803648     100.0%      0.0%      0.0%     
 flops    32 x    26 x    94            732496128     100.0%      0.0%      0.0%     
 flops    32 x    77 x    94            733759488     100.0%      0.0%      0.0%     
 flops    32 x    84 x    94            800464896     100.0%      0.0%      0.0%     
 flops    32 x    26 x    29           1387456512     100.0%      0.0%      0.0%     
 flops    26 x    32 x    29           1388855936     100.0%      0.0%      0.0%     
 flops    32 x    29 x    29           1550615616     100.0%      0.0%      0.0%     
 flops    94 x    94 x    32           1584542208     100.0%      0.0%      0.0%     
 flops    32 x    94 x    94           1791516672     100.0%      0.0%      0.0%     
 flops    32 x     9 x    32           2342449152     100.0%      0.0%      0.0%     
 flops    32 x    66 x    32           3237679104     100.0%      0.0%      0.0%     
 flops    32 x    32 x    66           3447865344     100.0%      0.0%      0.0%     
 flops    32 x    76 x    32           3726213120     100.0%      0.0%      0.0%     
 flops    32 x    77 x    32           3776819200     100.0%      0.0%      0.0%     
 flops    32 x    32 x    76           4021633024     100.0%      0.0%      0.0%     
 flops    32 x    84 x    32           4130144256     100.0%      0.0%      0.0%     
 flops    32 x    32 x     9           5796569088     100.0%      0.0%      0.0%     
 flops    32 x    29 x    32           7561967616     100.0%      0.0%      0.0%     
 flops    32 x    94 x    32           9208426496     100.0%      0.0%      0.0%     
 flops    32 x    32 x    94           9916485632     100.0%      0.0%      0.0%     
 flops    32 x    32 x    29          18780166144     100.0%      0.0%      0.0%     
 flops inhomo. stacks                 19760586752     100.0%      0.0%      0.0%
 flops total                       132.918148E+09     100.0%      0.0%      0.0%
 flops max/rank                     23.258592E+09     100.0%      0.0%      0.0%
 matmuls inhomo. stacks                     82639     100.0%      0.0%      0.0%
 matmuls total                            1904627     100.0%      0.0%      0.0%
 number of processed stacks                335352     100.0%      0.0%      0.0%
 average stack size                                     5.7       0.0       0.0
 marketing flops                   170.702799E+09
 -------------------------------------------------------------------------------
 # multiplications                           6747
 max memory usage/rank              22.324781E+09
 # max total images/rank                        3
 # max 3D layers                                1
 # MPI messages exchanged                   21798
 MPI messages size (bytes):
  total size                         2.736622E+09
  min size                           0.000000E+00
  max size                         589.760000E+03
  average size                     125.544641E+03
 MPI breakdown and total messages size (bytes):
             size <=      128                3204                        0
       128 < size <=     8192                1626                  5678640
      8192 < size <=    32768                3558                 79696512
     32768 < size <=   131072                6610                501087680
    131072 < size <=  4194304                6800               2150153472
   4194304 < size <= 16777216                   0                        0
  16777216 < size                               0                        0
 -------------------------------------------------------------------------------

 *** WARNING in dbcsr_mm.F:301 :: Using a non-square number of MPI ranks ***
 *** might lead to poor performance. Used ranks: 6 Suggested: 4 9        ***

 -------------------------------------------------------------------------------
 -                                                                             -
 -                      DBCSR MESSAGE PASSING PERFORMANCE                      -
 -                                                                             -
 -------------------------------------------------------------------------------
 ROUTINE             CALLS      AVE VOLUME [Bytes]
 MP_Bcast              259                     12.
 MP_Allreduce         2706                     18.
 MP_Alltoall          3427                  34663.
 MP_ISend            11188                  62176.
 MP_IRecv            10890                  62035.
 -------------------------------------------------------------------------------

 -------------------------------------------------------------------------------
 -                                                                             -
 -                                GRID STATISTICS                              -
 -                                                                             -
 -------------------------------------------------------------------------------
 LP    KERNEL             BACKEND                              COUNT     PERCENT
 4     collocate ortho    CPU                                  12792      20.97%
 4     integrate ortho    CPU                                  12792      20.97%
 6     collocate ortho    CPU                                   9399      15.41%
 6     integrate ortho    CPU                                   9399      15.41%
 2     collocate ortho    CPU                                   8073      13.24%
 2     integrate ortho    CPU                                   8073      13.24%
 0     collocate general  CPU                                    468       0.77%
 -------------------------------------------------------------------------------

 -------------------------------------------------------------------------------
 -                                                                             -
 -                          OFFLOAD MEMPOOL STATISTICS                         -
 -                                                                             -
 -------------------------------------------------------------------------------
 Memory consumption                Number of allocations  Used [MiB]  Size [MiB]
 Host                                                  6         133    22273756
 -------------------------------------------------------------------------------

 MEMORY| Estimated peak process memory [MiB]                                3108

 -------------------------------------------------------------------------------
 -                                                                             -
 -                         MESSAGE PASSING PERFORMANCE                         -
 -                                                                             -
 -------------------------------------------------------------------------------

 ROUTINE             CALLS      AVE VOLUME [Bytes]
 MP_Group                5
 MP_Bcast              651                 312695.
 MP_Allreduce         1141                  10218.
 MP_Sync                11
 MP_Alltoall            63              130607599.
 MP_SendRecv            45                3141333.
 MP_ISendRecv           45                3141333.
 MP_Wait               115
 MP_comm_split          11
 MP_ISend               56               10440000.
 MP_IRecv               56               10440000.
 -------------------------------------------------------------------------------


 -------------------------------------------------------------------------------
 -                                                                             -
 -                           R E F E R E N C E S                               -
 -                                                                             -
 -------------------------------------------------------------------------------
 
 CP2K version 2026.2 (Development Version), the CP2K developers group (2026).
 CP2K is freely available from https://www.cp2k.org/ .
 
 M. Iannuzzi, J. Wilhelm, F. Stein, A. Bussy, H. Elgabarty, D. Golze, A. Hehn, 
 M. Graml, S. Marek, B. Sertcan Gökmen, C. Schran, H. Forbert, R. Z. 
 Khaliullin, A. Kozhevnikov, M. Taillefumier, R. Meli, V. V. Rybkin, M. Brehm, 
 R. Schade, O. Schütt, J. V. Pototschnig, H. Mirhosseini, A. Knüpfer, D. Marx, 
 M. Krack, J. Hutter, T. D. Kühne.
 J. Phys. Chem. B 130, 1237-1310 (2026).
 The CP2K Program Package Made Simple.
 https://doi.org/10.1021/acs.jpcb.5c05851

 M. Graml, K. Zollner, D. Hernangómez-Pérez, P. E. Faria Junior, J. Wilhelm.
 J. Chem. Theory Comput. 20, 2202-2208 (2024).
 Low-scaling GW algorithm applied to twisted transition-metal dichalcogenide 
 heterobilayers.
 https://doi.org/10.1021/acs.jctc.3c01230

 T. D. Kühne, M. Iannuzzi, M. Del Ben, V. V. Rybkin, P. Seewald, F. Stein, T. 
 Laino, R. Z. Khaliullin, O. Schütt, F. Schiffmann, D. Golze, J. Wilhelm, S. 
 Chulkov, M. H. Bani-Hashemian, V. Weber, U. Borstnik, M. Taillefumier, A. S. 
 Jakobovits, A. Lazzaro, H. Pabst, T. Müller, R. Schade, M. Guidon, S. 
 Andermatt, N. Holmberg, G. K. Schenter, A. Hehn, A. Bussy, F. Belleflamme, G. 
 Tabacchi, A. Glöß, M. Lass, I. Bethune, C. J. Mundy, C. Plessl, M. Watkins, 
 J. VandeVondele, M. Krack, J. Hutter.
 J. Chem. Phys. 152, 194103 (2020).
 CP2K: An electronic structure and molecular dynamics software package - 
 Quickstep: Efficient and accurate electronic structure calculations.
 https://doi.org/10.1063/5.0007045

 O. Schuett, P. Messmer, J. Hutter, J. VandeVondele.
 Electronic Structure Calculations on Graphics Processing Units, 173-190 (2016).
 GPU-Accelerated Sparse Matrix-Matrix Multiplication for Linear Scaling Density 
 Functional Theory.
 https://doi.org/10.1002/9781118670712.ch8

 U. Borstnik, J. VandeVondele, V. Weber, J. Hutter.
 Parallel Comput. 40, 47-58 (2014).
 Sparse matrix multiplication: The distributed block-compressed sparse row 
 library.
 https://doi.org/10.1016/j.parco.2014.03.012

 J. VandeVondele, J. Hutter.
 J. Chem. Phys. 127, 114105 (2007).
 Gaussian basis sets for accurate calculations on molecular systems in gas and 
 condensed phases.
 https://doi.org/10.1063/1.2770708

 J. VandeVondele, M. Krack, F. Mohamed, M. Parrinello, T. Chassaing, J. Hutter.
 Comput. Phys. Commun. 167, 103-128 (2005).
 QUICKSTEP: Fast and accurate density functional calculations using a mixed 
 Gaussian and plane waves approach.
 https://doi.org/10.1016/j.cpc.2004.12.014

 M. Krack.
 Theor. Chem. Acc. 114, 145-152 (2005).
 Pseudopotentials for H to Kr optimized for gradient-corrected 
 exchange-correlation functionals.
 https://doi.org/10.1007/s00214-005-0655-y

 M. Frigo, S. G. Johnson.
 Proc. IEEE 93, 216-231 (2005).
 The design and implementation of FFTW3.
 https://doi.org/10.1109/JPROC.2004.840301

 J. VandeVondele, J. Hutter.
 J. Chem. Phys. 118, 4365-4369 (2003).
 An efficient orbital transformation method for electronic structure 
 calculations.
 https://doi.org/10.1063/1.1543154

 C. Hartwigsen, S. Goedecker, J. Hutter.
 Phys. Rev. B 58, 3641-3662 (1998).
 Relativistic separable dual-space Gaussian pseudopotentials from H to Rn.
 https://doi.org/10.1103/PhysRevB.58.3641

 G. Lippert, J. Hutter, M. Parrinello.
 Mol. Phys. 92, 477-487 (1997).
 A hybrid Gaussian and plane wave density functional scheme.
 https://doi.org/10.1080/002689797170220

 S. Goedecker, M. Teter, J. Hutter.
 Phys. Rev. B 54, 1703-1710 (1996).
 Separable dual-space Gaussian pseudopotentials.
 https://doi.org/10.1103/PhysRevB.54.1703

 J. P. Perdew, K. Burke, M. Ernzerhof.
 Phys. Rev. Lett. 77, 3865-3868 (1996).
 Generalized gradient approximation made simple.
 https://doi.org/10.1103/PhysRevLett.77.3865

 P. E. Blöchl.
 J. Chem. Phys. 103, 7422-7428 (1995).
 Electrostatic decoupling of periodic images of plane‐wave‐expanded 
 densities and derived atomic point charges.
 https://doi.org/10.1063/1.470314

 R. H. Byrd, P. H. Lu, J. Nocedal, C. Y. Zhu.
 SIAM J. Sci. Comput. 16, 1190-1208 (1995).
 A Limited Memory Algorithm for Bound Constrained Optimization.
 https://doi.org/10.1137/0916069


 -------------------------------------------------------------------------------
 -                                                                             -
 -                                T I M I N G                                  -
 -                                                                             -
 -------------------------------------------------------------------------------
 SUBROUTINE                       CALLS  ASD         SELF TIME        TOTAL TIME MAXRANK
                                MAXIMUM       AVERAGE  MAXIMUM  AVERAGE  MAXIMUM
 CP2K                                 1  1.0    0.006    0.007   12.573   12.573       0
 qs_energies                          1  2.0    0.000    0.000   11.342   11.342       5
 qs_energies_properties               1  3.0    0.000    0.000    5.295    5.295       2
 post_scf_bandstructure               1  4.0    0.000    0.000    5.295    5.295       0
 run_gw                               1  5.0    0.000    0.000    5.272    5.283       4
 scf_env_do_scf                       1  3.0    0.000    0.000    5.115    5.115       0
 qs_ks_build_kohn_sham_matrix         3  7.3    0.004    0.006    4.360    4.360       2
 fft_wrap_pw1pw2                     45 10.1    0.002    0.002    3.758    3.855       4
 qs_ks_update_qs_env                  3  5.0    0.000    0.000    3.783    3.783       0
 rebuild_ks_matrix                    2  6.0    0.000    0.000    3.783    3.783       5
 fft_wrap_pw1pw2_300                 27 11.4    0.198    0.218    3.590    3.691       5
 scf_env_do_scf_inner_loop            2  4.0    0.000    0.000    3.200    3.203       0
 gw_calc_ri_rs_non_periodic           1  6.0    0.000    0.000    2.687    2.847       5
 fft3d_ps                            45 12.1    1.597    1.689    2.707    2.815       3
 create_and_init_bs_env_for_gw        1  6.0    0.003    0.004    2.585    2.740       3
 qs_vxc_create                        3  8.3    0.000    0.000    2.581    2.596       5
 xc_vxc_pw_create                     2  9.0    0.053    0.065    2.581    2.596       3
 xc_pw_derive                        12 11.0    0.000    0.000    1.907    2.027       5
 qs_rho_update_rho_low                3  5.0    0.000    0.000    1.987    1.987       0
 calculate_rho_elec                   3  6.0    0.050    0.050    1.987    1.987       5
 init_scf_loop                        1  4.0    0.000    0.000    1.912    1.912       2
 generate_auto_ri_basis               1  7.0    0.000    0.000    1.611    1.611       4
 xc_pw_divergence                     2 10.0    0.000    0.000    1.270    1.369       3
 xc_rho_set_and_dset_create           2 10.0    0.041    0.053    1.231    1.302       3
 compute_AB_optimized_RI_basis        1  8.0    0.000    0.000    1.242    1.242       5
 compute_AB_optimized_RI_basis_       1  9.0    0.000    0.000    1.135    1.241       0
 mp_sum_dm                           30 10.7    0.825    1.172    0.825    1.172       3
 density_rs2pw                        3  7.0    0.000    0.000    1.135    1.169       5
 optimize_ri_rs_grid                  1  7.0    0.000    0.000    0.985    1.135       0
 cp_fm_get_submatrix                 26 10.0    0.000    0.000    0.658    0.939       2
 qs_init_subsys                       1  2.0    0.000    0.001    0.860    0.861       0
 qs_env_setup                         1  3.0    0.000    0.000    0.858    0.860       0
 qs_env_rebuild_pw_env                2  3.5    0.000    0.000    0.858    0.860       0
 pw_env_rebuild                       1  5.0    0.000    0.000    0.858    0.860       5
 pw_grid_setup                        5  5.2    0.000    0.000    0.848    0.849       3
 pw_grid_setup_internal               5  6.2    0.015    0.015    0.848    0.849       3
 grid_collocate_task_list             3  7.0    0.793    0.832    0.793    0.832       0
 compute_B_PQ_AB                      3 10.0    0.103    0.206    0.450    0.824       0
 rirs_grid_LBFGS                      1  8.0    0.061    0.101    0.809    0.821       1
 mp_sum_d                           593  3.8    0.404    0.763    0.404    0.763       4
 sum_up_and_integrate                 3  8.3    0.000    0.000    0.747    0.754       3
 mp_alltoall_z22v                    45 14.1    0.537    0.753    0.537    0.753       0
 pw_grid_sort                         5  7.2    0.499    0.505    0.745    0.752       1
 integrate_v_rspace                   3  9.3    0.000    0.000    0.732    0.740       3
 potential_pw2rs                      3 10.3    0.003    0.004    0.712    0.718       4
 init_scf_run                         1  3.0    0.000    0.000    0.700    0.700       0
 scf_env_initial_rho_setup            1  4.0    0.000    0.000    0.700    0.700       0
 evaluate_rirs_grid_cluster         152  9.0    0.084    0.159    0.366    0.684       5
 yz_to_x                             22 12.5    0.248    0.270    0.552    0.679       2
 compute_Sigma_c_and_QP_energie       1  7.0    0.000    0.000    0.643    0.654       5
 compute_Sigma_c                      1  8.0    0.003    0.003    0.624    0.624       3
 x_to_yz                             23 13.8    0.322    0.347    0.555    0.607       5
 compute_V_xc                         1  7.0    0.000    0.000    0.577    0.577       2
 contract_grid_panels_sigma_c        30  9.0    0.510    0.516    0.571    0.573       2
 qs_ks_ddapc                          3  8.3    0.000    0.000    0.527    0.539       3
 contract_B_PQ                       14 11.8    0.252    0.452    0.272    0.489       0
 setup_time_and_frequency_minim       1  7.0    0.000    0.000    0.347    0.488       0
 build_minimax_time_frequency_g       1  8.0    0.000    0.000    0.347    0.488       4
 fit_l_sq_weights                     3  9.0    0.347    0.488    0.347    0.488       5
 pw_poisson_solve                     3  8.3    0.000    0.000    0.438    0.440       5
 compute_W                            1  7.0    0.000    0.000    0.416    0.416       0
 get_mat_chi_Gamma_tau                1  7.0    0.000    0.001    0.406    0.406       0
 contract_grid_panels                31  8.0    0.360    0.363    0.398    0.401       2
 pw_derive                           21 11.3    0.345    0.359    0.345    0.359       5
 create_qs_kind_set                   1  2.0    0.000    0.000    0.343    0.343       0
 read_qs_kind                         3  3.0    0.161    0.169    0.343    0.343       0
 pw_gather_p                         22 11.5    0.307    0.339    0.307    0.339       5
 pw_scatter_p                        23 12.8    0.321    0.331    0.321    0.331       3
 pw_copy                             44 10.5    0.315    0.319    0.315    0.319       3
 transfer_rs2pw                      13  7.8    0.000    0.000    0.276    0.319       5
 initialize_ri_rs_grid                1  8.0    0.004    0.008    0.163    0.313       5
 mp_bcast_dm                         22  9.3    0.160    0.306    0.160    0.306       0
 compute_M_pq_inv_and_V_pq            1  8.0    0.000    0.000    0.270    0.270       0
 compute_fm_W_freq                   30  8.0    0.000    0.000    0.265    0.269       1
 transfer_rs2pw_300                   4  8.5    0.093    0.100    0.207    0.251       1
 pw_poisson_set                       4  8.5    0.000    0.000    0.248    0.250       2
 sort_shells                          5  8.2    0.246    0.247    0.246    0.247       4
 compute_B_PQ_exchange                7 10.8    0.000    0.000    0.136    0.244       0
 compute_B_PQ_transition              7 10.8    0.000    0.000    0.136    0.244       0
 xc_functional_eval                   2 11.0    0.000    0.000    0.183    0.243       4
 pbe_lda_eval                         2 12.0    0.182    0.243    0.182    0.243       3
 parallel_gemm_fm_gemm              431  9.6    0.000    0.000    0.234    0.242       1
 cp_fm_gemm                         434 10.5    0.234    0.242    0.234    0.242       5
 compute_contracted_RI_matrix         2  9.0    0.000    0.000    0.239    0.239       2
 compute_optimized_RI_matrix_bl       8 10.0    0.028    0.039    0.173    0.237       1
 rirs_cluster_gradient_coordina     152 10.0    0.120    0.236    0.120    0.236       0
 transfer_pw2rs                      12 11.3    0.000    0.000    0.235    0.235       4
 qs_energies_init_hamiltonians        1  3.0    0.000    0.000    0.231    0.231       3
 qs_env_update_s_mstruct              1  4.0    0.000    0.000    0.230    0.230       0
 compute_Z_lP                         1  7.0    0.000    0.000    0.215    0.215       0
 compute_Z_lP_auto_ri                 1  8.0    0.000    0.001    0.215    0.215       2
 calculate_rho_core                   1  5.0    0.017    0.018    0.209    0.209       3
 compute_M_PQ_AB                    130 11.0    0.000    0.000    0.157    0.208       1
 compute_M_PQ                       130 12.0    0.000    0.000    0.157    0.208       1
 int_operators_r12_ab_os            130 13.0    0.000    0.000    0.157    0.208       1
 int_operator_ab_os_low             130 14.0    0.063    0.083    0.157    0.208       1
 mp_waitany                          56 11.1    0.153    0.198    0.153    0.198       5
 pw_integral_ab_c1d_c1d_gs            6  9.8    0.176    0.181    0.183    0.185       5
 parser_read_line                 93458  4.0    0.016    0.017    0.182    0.184       1
 abc_contract_xsmm                  617 11.0    0.096    0.184    0.096    0.184       0
 transfer_pw2rs_300                   3 12.3    0.082    0.086    0.168    0.170       1
 compute_d_lp_auto_ri_batch           1  9.0    0.000    0.000    0.111    0.168       1
 parser_read_line_low                99  5.0    0.021    0.102    0.166    0.168       0
 compute_d_lp_auto_ri_atom            1 10.0    0.054    0.158    0.110    0.168       1
 broadcast_input_information         99  6.0    0.029    0.044    0.145    0.164       3
 copy_dbcsr_to_fm                   104  9.5    0.103    0.153    0.106    0.156       3
 pw_axpy                             35  7.3    0.142    0.148    0.142    0.148       4
 fft_wrap_pw1pw2_100                  6 10.7    0.009    0.011    0.136    0.142       5
 pw_copy_to_array                    22 11.5    0.128    0.140    0.128    0.140       2
 cp_ddapc_apply_CD                    3  9.3    0.000    0.000    0.125    0.127       0
 rirs_cluster_gradient_products     152 10.0    0.068    0.123    0.068    0.123       5
 compute_AA_optimized_RI_basis        1  8.0    0.000    0.000    0.099    0.099       0
 mp_bcast_am_src                     99  7.0    0.061    0.098    0.061    0.098       5
 mp_bcast_i_src                     401  7.0    0.055    0.094    0.055    0.094       1
 pw_copy_from_array                  23 12.8    0.084    0.091    0.084    0.091       3
 mp_waitall_1                        59 12.8    0.055    0.083    0.055    0.083       5
 check_for_restart_files              1  7.0    0.043    0.075    0.043    0.075       4
 operator2                        72120 15.0    0.056    0.075    0.056    0.075       1
 rirs_cluster_D_ll                  152 10.0    0.035    0.066    0.035    0.066       1
 cp_fm_cholesky_invert               31  9.0    0.063    0.063    0.063    0.063       0
 transfer_rs2pw_100                   3  9.0    0.029    0.031    0.056    0.063       5
 pw_grid_assign                       5  7.2    0.056    0.061    0.060    0.061       3
 compute_fm_chi_Gamma_freq           30  8.0    0.032    0.034    0.055    0.060       3
 build_3c_integral_block_auto_r      36 11.0    0.029    0.057    0.029    0.057       0
 transfer_pw2rs_100                   3 12.3    0.030    0.034    0.056    0.057       3
 build_3c_integral_block_auto_r      36 11.0    0.000    0.000    0.027    0.057       0
 pw_zero                             30  5.6    0.049    0.057    0.049    0.057       2
 cp_fm_syevd                          6  9.2    0.000    0.000    0.053    0.053       1
 cp_fm_redistribute_end               6 10.2    0.026    0.051    0.026    0.052       5
 ab_contract                      73782 14.9    0.039    0.051    0.039    0.051       1
 compute_B_PQ_AA                      6  9.0    0.000    0.000    0.041    0.051       0
 build_G_ao                         121  8.5    0.004    0.004    0.043    0.050       3
 cp_fm_syevd_base                     6 10.2    0.025    0.050    0.025    0.050       1
 rirs_cluster_residual              152 10.0    0.024    0.046    0.024    0.046       0
 solve_AB_eigenproblem                3 10.0    0.018    0.030    0.026    0.043       0
 compute_int_3c                       3  9.0    0.029    0.031    0.040    0.042       5
 mp_sum_iv                          144 10.1    0.032    0.042    0.032    0.042       2
 mp_sendrecv_dv                      45 10.0    0.034    0.041    0.034    0.041       2
 mp_sum_root_rm                       6 10.0    0.034    0.040    0.034    0.040       2
 extract_grid_panel                 122  9.5    0.030    0.040    0.030    0.040       5
 copy_fm_to_dbcsr                   161  9.3    0.030    0.033    0.037    0.040       5
 cp_fm_cholesky_decompose            35  9.0    0.035    0.037    0.035    0.037       1
 local_gemm                        4824 12.9    0.021    0.037    0.021    0.037       0
 rirs_cluster_d_lP                  152 10.0    0.019    0.036    0.019    0.036       1
 cp_fm_uplo_to_full                  64  9.0    0.031    0.034    0.031    0.034       5
 hadamard_product                    91  9.7    0.030    0.034    0.030    0.034       5
 get_ddapc                            3 10.3    0.000    0.000    0.031    0.033       3
 rirs_cluster_AO_products           152 10.0    0.017    0.033    0.017    0.033       5
 cp_fm_geeig                          2  9.5    0.000    0.000    0.032    0.032       0
 pw_grid_remap                        4  8.0    0.010    0.010    0.023    0.031       5
 compute_M_pq_inv                     1  9.0    0.000    0.000    0.031    0.031       0
 extract_masked_blocks              244  9.6    0.023    0.031    0.023    0.031       5
 rirs_grid_build_clusters             1  8.0    0.008    0.019    0.013    0.030       0
 rs_grid_zero                         4 11.5    0.029    0.030    0.029    0.030       2
 pw_multiply_with                     3  9.3    0.028    0.029    0.028    0.029       3
 compute_V_MinvVsqrt                  1  8.0    0.000    0.000    0.029    0.029       0
 G_occ_vir                          121  9.5    0.003    0.004    0.023    0.028       4
 fft_wrap_pw1pw2_40                   6 10.7    0.002    0.002    0.024    0.027       4
 compute_Z_lP_auto_ri_dpotrs          1  9.0    0.017    0.026    0.017    0.026       3
 pw_scale                             9  9.8    0.019    0.026    0.019    0.026       3
 cp_fm_power                          1  9.0    0.002    0.002    0.026    0.026       0
 eval_pw_TabLR                        1  2.0    0.008    0.011    0.020    0.023       5
 diamat_all                          16 11.4    0.014    0.022    0.014    0.022       0
 mp_sum_im3                           5  9.0    0.013    0.021    0.013    0.021       2
 grid_integrate_task_list             3 10.3    0.017    0.021    0.017    0.021       5
 eval_bandstructure_properties        1  5.0    0.000    0.000    0.018    0.020       2
 compute_Sigma_x                      1  7.0    0.000    0.000    0.019    0.019       0
 cp_ddapc_init                        1  5.0    0.000    0.000    0.019    0.019       5
 compute_QP_energies                  1  8.0    0.000    0.000    0.017    0.019       5
 cp_ddapc_create                      1  6.0    0.000    0.000    0.019    0.019       3
 cp_cfm_geeig                         1  6.0    0.000    0.000    0.016    0.018       1
 ddapc_eval_gfunc                     1  7.0    0.017    0.018    0.017    0.018       2
 mp_sync                             11  9.5    0.011    0.018    0.011    0.018       0
 collect_used_col_blocks             92  9.7    0.000    0.000    0.011    0.017       3
 qs_scf_new_mos                       2  5.0    0.000    0.000    0.015    0.015       5
 qs_scf_loop_do_ot                    2  6.0    0.000    0.000    0.015    0.015       1
 compute_reference_M_PQ_inv_fac      11 10.8    0.000    0.000    0.010    0.015       0
 ot_scf_mini                          2  7.0    0.001    0.001    0.014    0.014       0
 cp_cfm_cholesky_decompose            2  7.0    0.012    0.014    0.012    0.014       5
 write_mo_set_to_restart              2  5.0    0.002    0.011    0.011    0.014       0
 to_Gamma_and_mo_real                62  9.0    0.000    0.000    0.013    0.013       5
 -------------------------------------------------------------------------------

 The number of warnings for this run is : 13
 
 -------------------------------------------------------------------------------
  **** **** ******  **  PROGRAM ENDED AT                 2026-10-03 12:13:12.176
 ***** ** ***  *** **   PROGRAM RAN ON                                  n2cn0507
 **    ****   ******    PROGRAM RAN BY                                  eprop2d1
 ***** **    ** ** **   PROGRAM PROCESS ID                               2667202
  **** **  *******  **  PROGRAM STOPPED IN /scratch/hpc-prf-metdyn/eprop2d1_Jan/
                                           53_benchmark_RI_opt/418_gw100_fig5_fu
                                           ll_epsfilter_1e12_20261002/calculatio
                                           ns/rc0p5/ri5_rs10/33_C2H3Br
