 DBCSR| CPU Multiplication driver                                           XSMM (U)
 DBCSR| Multrec recursion limit                                              512 (U)
 DBCSR| Multiplication stack size                                           1000 (D)
 DBCSR| Maximum elements for images                                    UNLIMITED (U)
 DBCSR| Multiplicative factor virtual images                                   1 (U)
 DBCSR| Use multiplication densification                                       T (D)
 DBCSR| Multiplication size stacks                                             3 (U)
 DBCSR| Use memory pool for CPU allocation                                     F (U)
 DBCSR| Number of 3D layers                                               SINGLE (U)
 DBCSR| Use MPI memory allocation                                              F (U)
 DBCSR| Use RMA algorithm                                                      F (U)
 DBCSR| Use Communication thread                                               T (U)
 DBCSR| Communication thread load                                             57 (D)
 DBCSR| MPI: My process id                                                     8
 DBCSR| MPI: Number of processes                                              13
 DBCSR| OMP: Current number of threads                                         9
 DBCSR| OMP: Max number of threads                                             9
 DBCSR| Split modifier for TAS multiplication algorithm                  1.0E+00 (U)


  **** **** ******  **  PROGRAM STARTED AT               2026-10-03 12:09:23.400
 ***** ** ***  *** **   PROGRAM STARTED ON                              n2cn0521
 **    ****   ******    PROGRAM STARTED BY                              eprop2d1
 ***** **    ** ** **   PROGRAM PROCESS ID                               1226904
  **** **  *******  **  PROGRAM STARTED IN /scratch/hpc-prf-metdyn/eprop2d1_Jan/
                                           53_benchmark_RI_opt/418_gw100_fig5_fu
                                           ll_epsfilter_1e12_20261002/calculatio
                                           ns/rc5p0/ri5_rs05/75_H2O2

 CP2K| version string:                 CP2K version 2026.2 (Development Version)
 CP2K| source code revision number:                                   0671c5aa6c
 CP2K| cp2kflags: omp libint fftw3 libxc parallel scalapack openblas            
 CP2K| is freely available from                            https://www.cp2k.org/
 CP2K| Program compiled at                                   2026-09-20 09:25:26
 CP2K| Program compiled on                                              n2login5
 CP2K| Program compiled for                                               x86_64
 CP2K| Data directory path    /scratch/hpc-prf-metdyn/eprop2d1_Jan/53_benchmark_
 CP2K| Input file name                                                 input.inp
 
 eprop2d1@n2cn0521 has created rank and process                      0   1226904
 eprop2d1@n2cn0521 has created rank and process                      1   1226905
 eprop2d1@n2cn0521 has created rank and process                      2   1226906
 eprop2d1@n2cn0521 has created rank and process                      3   1226907
 eprop2d1@n2cn0521 has created rank and process                      4   1226908
 
 eprop2d1@n2cn0521 is running                                        5 processes

 GLOBAL| Force Environment number                                              1
 GLOBAL| Basis set file name            /scratch/hpc-prf-metdyn/eprop2d1_Jan/53_
 GLOBAL| Potential file name            /scratch/hpc-prf-metdyn/eprop2d1_Jan/53_
 GLOBAL| MM Potential file name                                     MM_POTENTIAL
 GLOBAL| Coordinate file name                                      __STD_INPUT__
 GLOBAL| Method name                                                        CP2K
 GLOBAL| Project name                                             g418_e505_m075
 GLOBAL| Run type                                                         ENERGY
 GLOBAL| FFT library                                                       FFTW3
 GLOBAL| Diagonalization library                                       ScaLAPACK
 GLOBAL| Cholesky decomposition library                                ScaLAPACK
 GLOBAL| DGEMM library                                                      BLAS
 GLOBAL| Direct generalized diagonalization requested                          F
 GLOBAL| Orthonormality check for eigenvectors                          DISABLED
 GLOBAL| Matrix multiplication library                                 ScaLAPACK
 GLOBAL| All-to-all communication in single precision                          F
 GLOBAL| Grid backend                                                       AUTO
 GLOBAL| Global print level                                                  LOW
 GLOBAL| MPI I/O enabled                                                       T
 GLOBAL| Total number of message passing processes                             5
 GLOBAL| Number of distributed systems (nodes)                                 1
 GLOBAL| Number of threads for this process                                    9
 GLOBAL| This output is from process                                           0
 GLOBAL| OpenMP stack size per thread (OMP_STACKSIZE)                       512M
 GLOBAL| CPU model name                          AMD EPYC 7763 64-Core Processor

 MEMORY| system memory details [Kb]
 MEMORY|                        rank 0           min           max       average
 MEMORY| MemTotal            263897584     263897584     263897584     263897584
 MEMORY| MemFree             239335404     239335404     239335404     239335404
 MEMORY| Buffers                309872        309872        309872        309872
 MEMORY| Cached                7344064       7344064       7344064       7344064
 MEMORY| Slab                  1715576       1715576       1715576       1715576
 MEMORY| SReclaimable           345160        345160        345160        345160
 MEMORY| MemLikelyFree       247334500     247334500     247334500     247334500


 GENERATE|  Preliminary Number of Bonds generated:                             0
 GENERATE|  Achieved consistency in connectivity generation.

 *******************************************************************************
 *******************************************************************************
 **                                                                           **
 **     #####                         ##              ##                      **
 **    ##   ##            ##          ##              ##                      **
 **   ##     ##                       ##            ######                    **
 **   ##     ##  ##   ##  ##   #####  ##  ##   ####   ##    #####    #####    **
 **   ##     ##  ##   ##  ##  ##      ## ##   ##      ##   ##   ##  ##   ##   **
 **   ##  ## ##  ##   ##  ##  ##      ####     ###    ##   ######   ######    **
 **    ##  ###   ##   ##  ##  ##      ## ##      ##   ##   ##       ##        **
 **     #######   #####   ##   #####  ##  ##  ####    ##    #####   ##        **
 **           ##                                                    ##        **
 **                                                                           **
 **                                                ... make the atoms dance   **
 **                                                                           **
 **            Copyright (C) by CP2K developers group (2000-2026)             **
 **                      J. Chem. Phys. 152, 194103 (2020)                    **
 **                                                                           **
 *******************************************************************************


 TOTAL NUMBERS AND MAXIMUM NUMBERS

  Total number of            - Atomic kinds:                                   2
                             - Atoms:                                          4
                             - Shell sets:                                     4
                             - Shells:                                        28
                             - Primitive Cartesian functions:                 26
                             - Cartesian basis functions:                     86
                             - Spherical basis functions:                     76

  Maximum angular momentum of- Orbital basis functions:                        3
                             - Local part of the GTH pseudopotential:          2
                             - Non-local part of the GTH pseudopotential:      0


 SCF PARAMETERS         Density guess:                                   RESTART
                        --------------------------------------------------------
                        max_scf:                                             500
                        max_scf_history:                                       0
                        max_diis:                                              4
                        --------------------------------------------------------
                        eps_scf:                                        1.00E-08
                        eps_scf_history:                                0.00E+00
                        eps_diis:                                       0.00E+00
                        eps_eigval:                                     1.00E-05
                        --------------------------------------------------------
                        level_shift [a.u.]:                             0.000000
                        --------------------------------------------------------
                        Outer loop SCF in use 
                        No variables optimised in outer loop
                        eps_scf                                         1.00E-08
                        max_scf                                               20
                        No outer loop optimization
                        step_size                                       5.00E-01

 Extrapolation method: initial_guess

 Number of electrons:                                                         14
 Number of occupied orbitals:                                                  7
 Number of molecular orbitals:                                                 7

 Number of orbital functions:                                                 76
 Number of independent orbital functions:                                     76


 SCF WAVEFUNCTION OPTIMIZATION

  ----------------------------------- OT ---------------------------------------
  Minimizer      : DIIS                : direct inversion
                                         in the iterative subspace
                                         using   7 DIIS vectors
                                         safer DIIS on
  Preconditioner : FULL_KINETIC        : inversion of T + eS
  Lattice FFT   : OFF
  Precond_solver : DEFAULT
  stepsize       :    0.15000000                  energy_gap     :    0.20000000
  eps_taylor     :   0.10000E-15                  max_taylor     :             4
  ----------------------------------- OT ---------------------------------------

  Step     Update method      Time    Convergence         Total energy    Change
  ------------------------------------------------------------------------------
  Decoupling Energy:                                               0.0000134837
     1 OT DIIS     0.15E+00    2.2     9.1152E-09       -33.1450039494 -3.31E+01

  *** SCF run converged in     1 steps ***


  Electronic density on regular grids:        -14.0000000000        0.0000000000
  Core density on regular grids:               14.0000000000       -0.0000000000
  Total charge density on r-space grids:       -0.0000000000
  Total charge density g-space grids:          -0.0000000000

  Overlap energy of the core charge distribution:               0.00000008868048
  Self energy of the core charge distribution:                -85.87336207573652
  Core Hamiltonian energy:                                     24.61219465724109
  Hartree energy:                                              35.78113693884464
  Exchange-correlation energy:                                 -7.66497355846466

  Total energy:                                               -33.14500394943497

  outer SCF iter =    1 RMS gradient =   0.91E-08 energy =        -33.1450039494
  outer SCF loop converged in   1 iterations or    1 steps

  
 -------------------------------------------------------------------------------
 -                                                                             -
 -                          BANDSTRUCTURE CALCULATION                          -
 -                                                                             -
 -------------------------------------------------------------------------------
  
 Number of occupied molecular orbitals (MOs) = Number of occupied bands        7
 Number of unoccupied (= virtual) MOs = Number of unoccupied bands            69
 Number of Gaussian basis functions for MOs                                   76
  
 -------------------------------------------------------------------------------
 -                                                                             -
 -                                GW CALCULATION                               -
 -                                                                             -
 -------------------------------------------------------------------------------
  
 Input: Number of time/freq. points                                           30
 Input: ω_max for fitting Σ(iω) (eV)                                        10.0
 Input: Filter threshold for sparse tensor operations                    1.0E-12
 Input: Apply Hedin shift                                                      F
 Detected: Available memory per MPI process                              40.0 GB
 
 Input: RI-RS Tikhonov regularization                                   1.00E-04
 Input: AO grid hard cutoff radius                                        8.00 Å
 Input: MPI ranks per atom in Z_lP solve                                      -1
 Input: Keep sparsity in χ/G/W panels                                          T
 Input: GW flavour                                                          G0W0
 
 Input: RI-RS grid optimization activated                                      T
 Input: RS points per AO function                                            5.0
 Input: Cutoff radius for atomic clusters                                  5.0 Å
 Input: Maximum grid optimization iterations                                 300
 
 Input: AUTO_RI basis optimization activated:                                  T
 Input: AUTO_RI number of RI functions per AO function:                      5.0
 Input: AUTO_RI frontier orbital window:                                  5.0 eV
 Input: AUTO_RI neighbor radius:                                           3.0 Å
 
 Cutoff radius for the truncated Coulomb operator in RI metric:            7.0 Å
 Regularization parameter of RI                                          0.0E+00
 Regularization parameter of minimax grids                               1.0E-06
 
 AUTO_RI| Number of automatic RI functions for χ, ε, W:                      356
 AUTO_RI| Total RI basis optimization time:                                0.9 s
  Decoupling Energy:                                               0.0000134837
 
 SCF direct band gap (eV)                                                   4.88
 Max. SCF eigval diff. (eV)                                               271.51
 E-Range for minimax grid                                                  55.62
 Number of Padé parameters for analytic continuation:                         16
 
 RI-RS basis radii (Å):
     Kind  Elem     r_AO (Å)     r_RI (Å)
        1    O        12.8635        8.6829
        2    H        13.9082        8.7963
 
 Started RI-RS grid optimization
 RI-RS grid initial normalized error                          1.134831152055E-02
 RI-RS grid optimization completed, execution time:                       14.9 s
 Normalized 3C error:                                                    4.1E-06
 Maximum absolute 3C error:                                              1.3E-02
 Optimized points outside molecular Voronoi cells:                            38 / 380
 Total grid points used for RI-RS:                                           380
 
 RI-RS grid row-blocks of ϕ_μ(r_l)                                            14
 RI-RS grid points per block (max)                                            32
 
 Percentage of non-zero matrix elements in ϕ_μ(r_l)                     100.00 %
 
 RI-RS memory estimate per MPI process:
   Available memory per process (system)                                50.24 GB
   Required for Z_lP (dense upper bound; actual is sparser)              0.00 GB
   Required for χ, W, Σ panels (peak per panel step)                     0.00 GB
   Required for Z_lP solve peak (D_local+ϕ, worst-case atom)             0.00 GB
   Worst-case local-grid number of grid points:                              380
   Worst-case memory D_local:                                            0.00 GB
 
 Started computing Z_lP
 Computed Z_lP (MPI rank 0) for atom          1 /  1,    Execution time    0.1 s
 Computed Z_lP (all MPI ranks) for all atoms,            Execution time    0.1 s

 Memory per MPI process after computing Z_lP:
 Available memory per MPI process                               50.2 GB
 Used memory per MPI process                                     1.3 GB
 Number of batches for χ, Σ matrices                                           1
 
 Percentage of non-zero matrix elements in Z_lP                         100.00 %
 Percentage of non-zero matrix elements in G_ll', χ_ll', W_ll'          100.00 %
 Percentage of non-zero matrix elements in χ_PQ for time point 1        100.00 %
 
 Computed χ(iτ,k=0) for time point            1 / 30,    Execution time    0.0 s
 Computed χ(iτ,k=0) for time point            2 / 30,    Execution time    0.0 s
 Computed χ(iτ,k=0) for time point            3 / 30,    Execution time    0.0 s
 Computed χ(iτ,k=0) for time point            4 / 30,    Execution time    0.0 s
 Computed χ(iτ,k=0) for time point            5 / 30,    Execution time    0.0 s
 Computed χ(iτ,k=0) for time point            6 / 30,    Execution time    0.0 s
 Computed χ(iτ,k=0) for time point            7 / 30,    Execution time    0.0 s
 Computed χ(iτ,k=0) for time point            8 / 30,    Execution time    0.0 s
 Computed χ(iτ,k=0) for time point            9 / 30,    Execution time    0.0 s
 Computed χ(iτ,k=0) for time point           10 / 30,    Execution time    0.0 s
 Computed χ(iτ,k=0) for time point           11 / 30,    Execution time    0.0 s
 Computed χ(iτ,k=0) for time point           12 / 30,    Execution time    0.0 s
 Computed χ(iτ,k=0) for time point           13 / 30,    Execution time    0.0 s
 Computed χ(iτ,k=0) for time point           14 / 30,    Execution time    0.0 s
 Computed χ(iτ,k=0) for time point           15 / 30,    Execution time    0.0 s
 Computed χ(iτ,k=0) for time point           16 / 30,    Execution time    0.0 s
 Computed χ(iτ,k=0) for time point           17 / 30,    Execution time    0.0 s
 Computed χ(iτ,k=0) for time point           18 / 30,    Execution time    0.0 s
 Computed χ(iτ,k=0) for time point           19 / 30,    Execution time    0.0 s
 Computed χ(iτ,k=0) for time point           20 / 30,    Execution time    0.0 s
 Computed χ(iτ,k=0) for time point           21 / 30,    Execution time    0.0 s
 Computed χ(iτ,k=0) for time point           22 / 30,    Execution time    0.0 s
 Computed χ(iτ,k=0) for time point           23 / 30,    Execution time    0.0 s
 Computed χ(iτ,k=0) for time point           24 / 30,    Execution time    0.0 s
 Computed χ(iτ,k=0) for time point           25 / 30,    Execution time    0.0 s
 Computed χ(iτ,k=0) for time point           26 / 30,    Execution time    0.0 s
 Computed χ(iτ,k=0) for time point           27 / 30,    Execution time    0.0 s
 Computed χ(iτ,k=0) for time point           28 / 30,    Execution time    0.0 s
 Computed χ(iτ,k=0) for time point           29 / 30,    Execution time    0.0 s
 Computed χ(iτ,k=0) for time point           30 / 30,    Execution time    0.0 s
 
 Computed W(iτ),                                         Execution time    0.3 s
 
 Computed Σ^x(k=0),                                      Execution time    0.0 s
 
 Computed Σ^c(iτ) for time point              1 / 30,    Execution time    0.0 s
 Computed Σ^c(iτ) for time point              2 / 30,    Execution time    0.0 s
 Computed Σ^c(iτ) for time point              3 / 30,    Execution time    0.0 s
 Computed Σ^c(iτ) for time point              4 / 30,    Execution time    0.0 s
 Computed Σ^c(iτ) for time point              5 / 30,    Execution time    0.0 s
 Computed Σ^c(iτ) for time point              6 / 30,    Execution time    0.0 s
 Computed Σ^c(iτ) for time point              7 / 30,    Execution time    0.0 s
 Computed Σ^c(iτ) for time point              8 / 30,    Execution time    0.0 s
 Computed Σ^c(iτ) for time point              9 / 30,    Execution time    0.0 s
 Computed Σ^c(iτ) for time point             10 / 30,    Execution time    0.0 s
 Computed Σ^c(iτ) for time point             11 / 30,    Execution time    0.0 s
 Computed Σ^c(iτ) for time point             12 / 30,    Execution time    0.0 s
 Computed Σ^c(iτ) for time point             13 / 30,    Execution time    0.0 s
 Computed Σ^c(iτ) for time point             14 / 30,    Execution time    0.0 s
 Computed Σ^c(iτ) for time point             15 / 30,    Execution time    0.0 s
 Computed Σ^c(iτ) for time point             16 / 30,    Execution time    0.0 s
 Computed Σ^c(iτ) for time point             17 / 30,    Execution time    0.0 s
 Computed Σ^c(iτ) for time point             18 / 30,    Execution time    0.0 s
 Computed Σ^c(iτ) for time point             19 / 30,    Execution time    0.0 s
 Computed Σ^c(iτ) for time point             20 / 30,    Execution time    0.0 s
 Computed Σ^c(iτ) for time point             21 / 30,    Execution time    0.0 s
 Computed Σ^c(iτ) for time point             22 / 30,    Execution time    0.0 s
 Computed Σ^c(iτ) for time point             23 / 30,    Execution time    0.0 s
 Computed Σ^c(iτ) for time point             24 / 30,    Execution time    0.0 s
 Computed Σ^c(iτ) for time point             25 / 30,    Execution time    0.0 s
 Computed Σ^c(iτ) for time point             26 / 30,    Execution time    0.0 s
 Computed Σ^c(iτ) for time point             27 / 30,    Execution time    0.0 s
 Computed Σ^c(iτ) for time point             28 / 30,    Execution time    0.0 s
 Computed Σ^c(iτ) for time point             29 / 30,    Execution time    0.0 s
 Computed Σ^c(iτ) for time point             30 / 30,    Execution time    0.0 s

 *** WARNING in post_scf_bandstructure_utils.F:3161 :: G0W0 reorders the   ***
 *** empty levels: the SCF conduction band minimum (SCF LUMO) is level 8,  ***
 *** whereas the G0W0 conduction band minimum (G0W0 LUMO) is level 9. The  ***
 *** SCF and G0W0 band edges printed below therefore belong to different   ***
 *** orbitals; see the eigenvalues in the file bandstructure_SCF_and_G0W0. ***

 
 SCF valence band maximum (eV):                                           -6.432
 SCF conduction band minimum (eV):                                        -1.550
 SCF indirect band gap (eV):                                               4.881
 SCF direct band gap (eV):                                                 4.881
 
 G0W0 valence band maximum (eV):                                         -10.643
 G0W0 conduction band minimum (eV):                                        1.741
 G0W0 indirect band gap (eV):                                             12.384
 G0W0 direct band gap (eV):                                               12.384
 
 Hartree-Fock with SCF orbitals valence band maximum (eV):               -13.262
 Hartree-Fock with SCF orbitals conduction band minimum (eV)               2.146
 Hartree-Fock with SCF orbitals indirect band gap (eV):                   15.408
 Hartree-Fock with SCF orbitals direct band gap (eV):                     15.408

 ENERGY| Total FORCE_EVAL ( QS ) energy [hartree]            -33.145003949434965

 -------------------------------------------------------------------------------
 -                                                                             -
 -                                DBCSR STATISTICS                             -
 -                                                                             -
 -------------------------------------------------------------------------------
 COUNTER                                    TOTAL       BLAS       SMM       ACC
 flops     7 x     7 x     7                  686     100.0%      0.0%      0.0%     
 flops     7 x     7 x     9                 5292     100.0%      0.0%      0.0%     
 flops     9 x     9 x     7                 6804     100.0%      0.0%      0.0%     
 flops     9 x     7 x     7                 7056     100.0%      0.0%      0.0%     
 flops     9 x    29 x     7                14616     100.0%      0.0%      0.0%     
 flops    29 x     9 x     7                14616     100.0%      0.0%      0.0%     
 flops     7 x     7 x    29                17052     100.0%      0.0%      0.0%     
 flops    29 x     7 x     7                22736     100.0%      0.0%      0.0%     
 flops     9 x     7 x     9                36288     100.0%      0.0%      0.0%     
 flops    29 x    29 x     7                70644     100.0%      0.0%      0.0%     
 flops    29 x     7 x     9               116928     100.0%      0.0%      0.0%     
 flops     9 x     7 x    29               116928     100.0%      0.0%      0.0%     
 flops    29 x     7 x    29               376768     100.0%      0.0%      0.0%     
 flops     9 x     9 x    13               623376     100.0%      0.0%      0.0%     
 flops     9 x     9 x    17               815184     100.0%      0.0%      0.0%     
 flops    13 x     9 x    13               918684     100.0%      0.0%      0.0%     
 flops    13 x     9 x    17              1201356     100.0%      0.0%      0.0%     
 flops    17 x     9 x    13              1209312     100.0%      0.0%      0.0%     
 flops    17 x     9 x    17              1597014     100.0%      0.0%      0.0%     
 flops    13 x     9 x     9              1634256     100.0%      0.0%      0.0%     
 flops    29 x     9 x    13              2008656     100.0%      0.0%      0.0%     
 flops     9 x    29 x    13              2117232     100.0%      0.0%      0.0%     
 flops    17 x     9 x     9              2137104     100.0%      0.0%      0.0%     
 flops    13 x    13 x     9              2360592     100.0%      0.0%      0.0%     
 flops    13 x    86 x    13              2441712     100.0%      0.0%      0.0%     
 flops    13 x    87 x    13              2470104     100.0%      0.0%      0.0%     
 flops    13 x    13 x    86              2557984     100.0%      0.0%      0.0%     
 flops    13 x    91 x    13              2583672     100.0%      0.0%      0.0%     
 flops    13 x    13 x    87              2587728     100.0%      0.0%      0.0%     
 flops    13 x    92 x    13              2612064     100.0%      0.0%      0.0%     
 flops    29 x     9 x    17              2626704     100.0%      0.0%      0.0%     
 flops     9 x    29 x    17              2768688     100.0%      0.0%      0.0%     
 flops    13 x    29 x    13              2960204     100.0%      0.0%      0.0%     
 flops    13 x    17 x     9              3086928     100.0%      0.0%      0.0%     
 flops    17 x    13 x     9              3086928     100.0%      0.0%      0.0%     
 flops    13 x    17 x    86              3345056     100.0%      0.0%      0.0%     
 flops    17 x    13 x    86              3345056     100.0%      0.0%      0.0%     
 flops    13 x    86 x    17              3345056     100.0%      0.0%      0.0%     
 flops    17 x    86 x    13              3345056     100.0%      0.0%      0.0%     
 flops    13 x    87 x    17              3383952     100.0%      0.0%      0.0%     
 flops    17 x    87 x    13              3383952     100.0%      0.0%      0.0%     
 flops    13 x    17 x    87              3383952     100.0%      0.0%      0.0%     
 flops    17 x    13 x    87              3383952     100.0%      0.0%      0.0%     
 flops    13 x    91 x    17              3539536     100.0%      0.0%      0.0%     
 flops    17 x    91 x    13              3539536     100.0%      0.0%      0.0%     
 flops    13 x    92 x    17              3578432     100.0%      0.0%      0.0%     
 flops    17 x    92 x    13              3578432     100.0%      0.0%      0.0%     
 flops    17 x    29 x    13              3896672     100.0%      0.0%      0.0%     
 flops    13 x    29 x    17              3999216     100.0%      0.0%      0.0%     
 flops    17 x    17 x     9              4036752     100.0%      0.0%      0.0%     
 flops    17 x    17 x    86              4374304     100.0%      0.0%      0.0%     
 flops    17 x    86 x    17              4374304     100.0%      0.0%      0.0%     
 flops    17 x    87 x    17              4425168     100.0%      0.0%      0.0%     
 flops    17 x    17 x    87              4425168     100.0%      0.0%      0.0%     
 flops    17 x    91 x    17              4628624     100.0%      0.0%      0.0%     
 flops    17 x    92 x    17              4679488     100.0%      0.0%      0.0%     
 flops    17 x    29 x    17              5229744     100.0%      0.0%      0.0%     
 flops    13 x    29 x     9              5265936     100.0%      0.0%      0.0%     
 flops    13 x     9 x    29              5265936     100.0%      0.0%      0.0%     
 flops    29 x    29 x    13              6822192     100.0%      0.0%      0.0%     
 flops    17 x    29 x     9              6886224     100.0%      0.0%      0.0%     
 flops    17 x     9 x    29              6886224     100.0%      0.0%      0.0%     
 flops    13 x    13 x    29              7606352     100.0%      0.0%      0.0%     
 flops     9 x     9 x    32              7962624     100.0%      0.0%      0.0%     
 flops    86 x    86 x    13              8076432     100.0%      0.0%      0.0%     
 flops    87 x    86 x    13              8170344     100.0%      0.0%      0.0%     
 flops    86 x    87 x    13              8170344     100.0%      0.0%      0.0%     
 flops    87 x    87 x    13              8265348     100.0%      0.0%      0.0%     
 flops    91 x    86 x    13              8545992     100.0%      0.0%      0.0%     
 flops    86 x    91 x    13              8545992     100.0%      0.0%      0.0%     
 flops    86 x    92 x    13              8639904     100.0%      0.0%      0.0%     
 flops    87 x    91 x    13              8645364     100.0%      0.0%      0.0%     
 flops    91 x    87 x    13              8645364     100.0%      0.0%      0.0%     
 flops    87 x    92 x    13              8740368     100.0%      0.0%      0.0%     
 flops    13 x    86 x    86              8845616     100.0%      0.0%      0.0%     
 flops    29 x    29 x    17              8921328     100.0%      0.0%      0.0%     
 flops    13 x    87 x    86              8948472     100.0%      0.0%      0.0%     
 flops    13 x    86 x    87              8948472     100.0%      0.0%      0.0%     
 flops    91 x    91 x    13              9042852     100.0%      0.0%      0.0%     
 flops    13 x    87 x    87              9052524     100.0%      0.0%      0.0%     
 flops    91 x    92 x    13              9142224     100.0%      0.0%      0.0%     
 flops    13 x    91 x    86              9359896     100.0%      0.0%      0.0%     
 flops    13 x    86 x    91              9359896     100.0%      0.0%      0.0%     
 flops    13 x    92 x    86              9462752     100.0%      0.0%      0.0%     
 flops    13 x    87 x    91              9468732     100.0%      0.0%      0.0%     
 flops    13 x    91 x    87              9468732     100.0%      0.0%      0.0%     
 flops    13 x    92 x    87              9572784     100.0%      0.0%      0.0%     
 flops    13 x    91 x    91              9904076     100.0%      0.0%      0.0%     
 flops    13 x    17 x    29              9946768     100.0%      0.0%      0.0%     
 flops    17 x    13 x    29              9946768     100.0%      0.0%      0.0%     
 flops    13 x    92 x    91             10012912     100.0%      0.0%      0.0%     
 flops    86 x    86 x    17             10561488     100.0%      0.0%      0.0%     
 flops    87 x    86 x    17             10684296     100.0%      0.0%      0.0%     
 flops    86 x    87 x    17             10684296     100.0%      0.0%      0.0%     
 flops    87 x    87 x    17             10808532     100.0%      0.0%      0.0%     
 flops    91 x    86 x    17             11175528     100.0%      0.0%      0.0%     
 flops    86 x    91 x    17             11175528     100.0%      0.0%      0.0%     
 flops    86 x    92 x    17             11298336     100.0%      0.0%      0.0%     
 flops    87 x    91 x    17             11305476     100.0%      0.0%      0.0%     
 flops    91 x    87 x    17             11305476     100.0%      0.0%      0.0%     
 flops    32 x     9 x    13             11389248     100.0%      0.0%      0.0%     
 flops    87 x    92 x    17             11429712     100.0%      0.0%      0.0%     
 flops    17 x    86 x    86             11567344     100.0%      0.0%      0.0%     
 flops    13 x     9 x    32             11621376     100.0%      0.0%      0.0%     
 flops    17 x    87 x    86             11701848     100.0%      0.0%      0.0%     
 flops    17 x    86 x    87             11701848     100.0%      0.0%      0.0%     
 flops    91 x    91 x    17             11825268     100.0%      0.0%      0.0%     
 flops    17 x    87 x    87             11837916     100.0%      0.0%      0.0%     
 flops    91 x    92 x    17             11955216     100.0%      0.0%      0.0%     
 flops    17 x    91 x    86             12239864     100.0%      0.0%      0.0%     
 flops    17 x    86 x    91             12239864     100.0%      0.0%      0.0%     
 flops    17 x    92 x    86             12374368     100.0%      0.0%      0.0%     
 flops    17 x    87 x    91             12382188     100.0%      0.0%      0.0%     
 flops    17 x    91 x    87             12382188     100.0%      0.0%      0.0%     
 flops    17 x    92 x    87             12518256     100.0%      0.0%      0.0%     
 flops    17 x    91 x    91             12951484     100.0%      0.0%      0.0%     
 flops    17 x    17 x    29             13007312     100.0%      0.0%      0.0%     
 flops    17 x    92 x    91             13093808     100.0%      0.0%      0.0%     
 flops    32 x     9 x    17             15236352     100.0%      0.0%      0.0%     
 flops    17 x     9 x    32             15236352     100.0%      0.0%      0.0%     
 flops    13 x    29 x    29             16968016     100.0%      0.0%      0.0%     
 flops    32 x     9 x     9             20113920     100.0%      0.0%      0.0%     
 flops    17 x    29 x    29             22188944     100.0%      0.0%      0.0%     
 flops    29 x     9 x    32             25657344     100.0%      0.0%      0.0%     
 flops     9 x    29 x    32             26058240     100.0%      0.0%      0.0%     
 flops    13 x    32 x     9             29053440     100.0%      0.0%      0.0%     
 flops    32 x    13 x     9             29053440     100.0%      0.0%      0.0%     
 flops    13 x    86 x    32             31339776     100.0%      0.0%      0.0%     
 flops    13 x    32 x    86             31482880     100.0%      0.0%      0.0%     
 flops    32 x    13 x    86             31482880     100.0%      0.0%      0.0%     
 flops    32 x    86 x    13             31482880     100.0%      0.0%      0.0%     
 flops    13 x    87 x    32             31704192     100.0%      0.0%      0.0%     
 flops    32 x    87 x    13             31848960     100.0%      0.0%      0.0%     
 flops    13 x    32 x    87             31848960     100.0%      0.0%      0.0%     
 flops    32 x    13 x    87             31848960     100.0%      0.0%      0.0%     
 flops    13 x    91 x    32             33161856     100.0%      0.0%      0.0%     
 flops    32 x    91 x    13             33313280     100.0%      0.0%      0.0%     
 flops    13 x    92 x    32             33526272     100.0%      0.0%      0.0%     
 flops    32 x    92 x    13             33679360     100.0%      0.0%      0.0%     
 flops    32 x    29 x    13             37253632     100.0%      0.0%      0.0%     
 flops    13 x    29 x    32             37591424     100.0%      0.0%      0.0%     
 flops    17 x    32 x     9             37992960     100.0%      0.0%      0.0%     
 flops    32 x    17 x     9             37992960     100.0%      0.0%      0.0%     
 flops    17 x    32 x    86             41169920     100.0%      0.0%      0.0%     
 flops    32 x    17 x    86             41169920     100.0%      0.0%      0.0%     
 flops    32 x    86 x    17             41169920     100.0%      0.0%      0.0%     
 flops    17 x    86 x    32             41169920     100.0%      0.0%      0.0%     
 flops    32 x    87 x    17             41648640     100.0%      0.0%      0.0%     
 flops    17 x    87 x    32             41648640     100.0%      0.0%      0.0%     
 flops    17 x    32 x    87             41648640     100.0%      0.0%      0.0%     
 flops    32 x    17 x    87             41648640     100.0%      0.0%      0.0%     
 flops    32 x    91 x    17             43563520     100.0%      0.0%      0.0%     
 flops    17 x    91 x    32             43563520     100.0%      0.0%      0.0%     
 flops    32 x    92 x    17             44042240     100.0%      0.0%      0.0%     
 flops    17 x    92 x    32             44042240     100.0%      0.0%      0.0%     
 flops    32 x    29 x    17             49221120     100.0%      0.0%      0.0%     
 flops    17 x    29 x    32             49221120     100.0%      0.0%      0.0%     
 flops    32 x    29 x     9             64811520     100.0%      0.0%      0.0%     
 flops    32 x     9 x    29             64811520     100.0%      0.0%      0.0%     
 flops    29 x    29 x    32             83965440     100.0%      0.0%      0.0%     
 flops    13 x    32 x    29             93616640     100.0%      0.0%      0.0%     
 flops    32 x    13 x    29             93616640     100.0%      0.0%      0.0%     
 flops    86 x    86 x    32            103188992     100.0%      0.0%      0.0%     
 flops    87 x    86 x    32            104388864     100.0%      0.0%      0.0%     
 flops    86 x    87 x    32            104388864     100.0%      0.0%      0.0%     
 flops    86 x    91 x    32            105181440     100.0%      0.0%      0.0%     
 flops    87 x    87 x    32            105602688     100.0%      0.0%      0.0%     
 flops    86 x    92 x    32            106337280     100.0%      0.0%      0.0%     
 flops    87 x    91 x    32            106404480     100.0%      0.0%      0.0%     
 flops    87 x    92 x    32            107573760     100.0%      0.0%      0.0%     
 flops    32 x    86 x    86            108869120     100.0%      0.0%      0.0%     
 flops    91 x    86 x    32            109188352     100.0%      0.0%      0.0%     
 flops    32 x    87 x    86            110135040     100.0%      0.0%      0.0%     
 flops    32 x    86 x    87            110135040     100.0%      0.0%      0.0%     
 flops    91 x    87 x    32            110457984     100.0%      0.0%      0.0%     
 flops    91 x    91 x    32            111296640     100.0%      0.0%      0.0%     
 flops    32 x    87 x    87            111415680     100.0%      0.0%      0.0%     
 flops    91 x    92 x    32            112519680     100.0%      0.0%      0.0%     
 flops    32 x    91 x    86            115198720     100.0%      0.0%      0.0%     
 flops    32 x    86 x    91            115198720     100.0%      0.0%      0.0%     
 flops    32 x    92 x    86            116464640     100.0%      0.0%      0.0%     
 flops    32 x    87 x    91            116538240     100.0%      0.0%      0.0%     
 flops    32 x    91 x    87            116538240     100.0%      0.0%      0.0%     
 flops    32 x    92 x    87            117818880     100.0%      0.0%      0.0%     
 flops    32 x    91 x    91            121896320     100.0%      0.0%      0.0%     
 flops    17 x    32 x    29            122421760     100.0%      0.0%      0.0%     
 flops    32 x    17 x    29            122421760     100.0%      0.0%      0.0%     
 flops    32 x    92 x    91            123235840     100.0%      0.0%      0.0%     
 flops    32 x     9 x    32            143695872     100.0%      0.0%      0.0%     
 flops    32 x    29 x    29            208837120     100.0%      0.0%      0.0%     
 flops    32 x    32 x     9            357580800     100.0%      0.0%      0.0%     
 flops    32 x    32 x    86            387481600     100.0%      0.0%      0.0%     
 flops    32 x    86 x    32            387481600     100.0%      0.0%      0.0%     
 flops    32 x    87 x    32            391987200     100.0%      0.0%      0.0%     
 flops    32 x    32 x    87            391987200     100.0%      0.0%      0.0%     
 flops    32 x    91 x    32            410009600     100.0%      0.0%      0.0%     
 flops    32 x    92 x    32            414515200     100.0%      0.0%      0.0%     
 flops    32 x    29 x    32            463138816     100.0%      0.0%      0.0%     
 flops    32 x    32 x    29           1152204800     100.0%      0.0%      0.0%     
 flops inhomo. stacks                  2825297920     100.0%      0.0%      0.0%
 flops total                        12.932099E+09     100.0%      0.0%      0.0%
 flops max/rank                      3.366624E+09     100.0%      0.0%      0.0%
 matmuls inhomo. stacks                     11160     100.0%      0.0%      0.0%
 matmuls total                             181471     100.0%      0.0%      0.0%
 number of processed stacks                 87843     100.0%      0.0%      0.0%
 average stack size                                     2.1       0.0       0.0
 marketing flops                    16.941545E+09
 -------------------------------------------------------------------------------
 # multiplications                           2020
 max memory usage/rank              24.932119E+09
 # max total images/rank                        5
 # max 3D layers                                1
 # MPI messages exchanged                   10100
 MPI messages size (bytes):
  total size                       956.339520E+06
  min size                           0.000000E+00
  max size                         291.840000E+03
  average size                      94.687078E+03
 MPI breakdown and total messages size (bytes):
             size <=      128                2276                        0
       128 < size <=     8192                 140                   504992
      8192 < size <=    32768                2052                 53888256
     32768 < size <=   131072                3136                247146752
    131072 < size <=  4194304                2496                654799488
   4194304 < size <= 16777216                   0                        0
  16777216 < size                               0                        0
 -------------------------------------------------------------------------------

 *** WARNING in dbcsr_mm.F:301 :: Using a non-square number of MPI ranks ***
 *** might lead to poor performance. Used ranks: 5 Suggested: 4 9        ***

 -------------------------------------------------------------------------------
 -                                                                             -
 -                      DBCSR MESSAGE PASSING PERFORMANCE                      -
 -                                                                             -
 -------------------------------------------------------------------------------
 ROUTINE             CALLS      AVE VOLUME [Bytes]
 MP_Bcast              200                     12.
 MP_Allreduce         2522                     18.
 MP_Alltoall          3385                  25563.
 MP_ISend             7816                  33503.
 MP_IRecv             7300                  27686.
 -------------------------------------------------------------------------------

 -------------------------------------------------------------------------------
 -                                                                             -
 -                                GRID STATISTICS                              -
 -                                                                             -
 -------------------------------------------------------------------------------
 LP    KERNEL             BACKEND                              COUNT     PERCENT
 4     collocate ortho    CPU                                   1312      19.52%
 4     integrate ortho    CPU                                   1312      19.52%
 6     collocate ortho    CPU                                   1168      17.38%
 6     integrate ortho    CPU                                   1168      17.38%
 2     collocate ortho    CPU                                    840      12.50%
 2     integrate ortho    CPU                                    840      12.50%
 0     collocate general  CPU                                     80       1.19%
 -------------------------------------------------------------------------------

 -------------------------------------------------------------------------------
 -                                                                             -
 -                          OFFLOAD MEMPOOL STATISTICS                         -
 -                                                                             -
 -------------------------------------------------------------------------------
 Memory consumption                Number of allocations  Used [MiB]  Size [MiB]
 Host                                                  6         132    22276410
 -------------------------------------------------------------------------------

 MEMORY| Estimated peak process memory [MiB]                                3354

 -------------------------------------------------------------------------------
 -                                                                             -
 -                         MESSAGE PASSING PERFORMANCE                         -
 -                                                                             -
 -------------------------------------------------------------------------------

 ROUTINE             CALLS      AVE VOLUME [Bytes]
 MP_Group                5
 MP_Bcast              233                 283110.
 MP_Allreduce         1844                   3439.
 MP_Sync                10
 MP_Alltoall            44              133877873.
 MP_SendRecv            24                3758933.
 MP_ISendRecv           24                3758933.
 MP_Wait                69
 MP_comm_split          10
 MP_ISend               35               11725714.
 MP_IRecv               35               11725714.
 -------------------------------------------------------------------------------


 -------------------------------------------------------------------------------
 -                                                                             -
 -                           R E F E R E N C E S                               -
 -                                                                             -
 -------------------------------------------------------------------------------
 
 CP2K version 2026.2 (Development Version), the CP2K developers group (2026).
 CP2K is freely available from https://www.cp2k.org/ .
 
 M. Iannuzzi, J. Wilhelm, F. Stein, A. Bussy, H. Elgabarty, D. Golze, A. Hehn, 
 M. Graml, S. Marek, B. Sertcan Gökmen, C. Schran, H. Forbert, R. Z. 
 Khaliullin, A. Kozhevnikov, M. Taillefumier, R. Meli, V. V. Rybkin, M. Brehm, 
 R. Schade, O. Schütt, J. V. Pototschnig, H. Mirhosseini, A. Knüpfer, D. Marx, 
 M. Krack, J. Hutter, T. D. Kühne.
 J. Phys. Chem. B 130, 1237-1310 (2026).
 The CP2K Program Package Made Simple.
 https://doi.org/10.1021/acs.jpcb.5c05851

 M. Graml, K. Zollner, D. Hernangómez-Pérez, P. E. Faria Junior, J. Wilhelm.
 J. Chem. Theory Comput. 20, 2202-2208 (2024).
 Low-scaling GW algorithm applied to twisted transition-metal dichalcogenide 
 heterobilayers.
 https://doi.org/10.1021/acs.jctc.3c01230

 T. D. Kühne, M. Iannuzzi, M. Del Ben, V. V. Rybkin, P. Seewald, F. Stein, T. 
 Laino, R. Z. Khaliullin, O. Schütt, F. Schiffmann, D. Golze, J. Wilhelm, S. 
 Chulkov, M. H. Bani-Hashemian, V. Weber, U. Borstnik, M. Taillefumier, A. S. 
 Jakobovits, A. Lazzaro, H. Pabst, T. Müller, R. Schade, M. Guidon, S. 
 Andermatt, N. Holmberg, G. K. Schenter, A. Hehn, A. Bussy, F. Belleflamme, G. 
 Tabacchi, A. Glöß, M. Lass, I. Bethune, C. J. Mundy, C. Plessl, M. Watkins, 
 J. VandeVondele, M. Krack, J. Hutter.
 J. Chem. Phys. 152, 194103 (2020).
 CP2K: An electronic structure and molecular dynamics software package - 
 Quickstep: Efficient and accurate electronic structure calculations.
 https://doi.org/10.1063/5.0007045

 O. Schuett, P. Messmer, J. Hutter, J. VandeVondele.
 Electronic Structure Calculations on Graphics Processing Units, 173-190 (2016).
 GPU-Accelerated Sparse Matrix-Matrix Multiplication for Linear Scaling Density 
 Functional Theory.
 https://doi.org/10.1002/9781118670712.ch8

 U. Borstnik, J. VandeVondele, V. Weber, J. Hutter.
 Parallel Comput. 40, 47-58 (2014).
 Sparse matrix multiplication: The distributed block-compressed sparse row 
 library.
 https://doi.org/10.1016/j.parco.2014.03.012

 J. VandeVondele, J. Hutter.
 J. Chem. Phys. 127, 114105 (2007).
 Gaussian basis sets for accurate calculations on molecular systems in gas and 
 condensed phases.
 https://doi.org/10.1063/1.2770708

 J. VandeVondele, M. Krack, F. Mohamed, M. Parrinello, T. Chassaing, J. Hutter.
 Comput. Phys. Commun. 167, 103-128 (2005).
 QUICKSTEP: Fast and accurate density functional calculations using a mixed 
 Gaussian and plane waves approach.
 https://doi.org/10.1016/j.cpc.2004.12.014

 M. Krack.
 Theor. Chem. Acc. 114, 145-152 (2005).
 Pseudopotentials for H to Kr optimized for gradient-corrected 
 exchange-correlation functionals.
 https://doi.org/10.1007/s00214-005-0655-y

 M. Frigo, S. G. Johnson.
 Proc. IEEE 93, 216-231 (2005).
 The design and implementation of FFTW3.
 https://doi.org/10.1109/JPROC.2004.840301

 J. VandeVondele, J. Hutter.
 J. Chem. Phys. 118, 4365-4369 (2003).
 An efficient orbital transformation method for electronic structure 
 calculations.
 https://doi.org/10.1063/1.1543154

 C. Hartwigsen, S. Goedecker, J. Hutter.
 Phys. Rev. B 58, 3641-3662 (1998).
 Relativistic separable dual-space Gaussian pseudopotentials from H to Rn.
 https://doi.org/10.1103/PhysRevB.58.3641

 G. Lippert, J. Hutter, M. Parrinello.
 Mol. Phys. 92, 477-487 (1997).
 A hybrid Gaussian and plane wave density functional scheme.
 https://doi.org/10.1080/002689797170220

 S. Goedecker, M. Teter, J. Hutter.
 Phys. Rev. B 54, 1703-1710 (1996).
 Separable dual-space Gaussian pseudopotentials.
 https://doi.org/10.1103/PhysRevB.54.1703

 J. P. Perdew, K. Burke, M. Ernzerhof.
 Phys. Rev. Lett. 77, 3865-3868 (1996).
 Generalized gradient approximation made simple.
 https://doi.org/10.1103/PhysRevLett.77.3865

 P. E. Blöchl.
 J. Chem. Phys. 103, 7422-7428 (1995).
 Electrostatic decoupling of periodic images of plane‐wave‐expanded 
 densities and derived atomic point charges.
 https://doi.org/10.1063/1.470314

 R. H. Byrd, P. H. Lu, J. Nocedal, C. Y. Zhu.
 SIAM J. Sci. Comput. 16, 1190-1208 (1995).
 A Limited Memory Algorithm for Bound Constrained Optimization.
 https://doi.org/10.1137/0916069


 -------------------------------------------------------------------------------
 -                                                                             -
 -                                T I M I N G                                  -
 -                                                                             -
 -------------------------------------------------------------------------------
 SUBROUTINE                       CALLS  ASD         SELF TIME        TOTAL TIME MAXRANK
                                MAXIMUM       AVERAGE  MAXIMUM  AVERAGE  MAXIMUM
 CP2K                                 1  1.0    0.010    0.019   23.653   23.654       0
 qs_energies                          1  2.0    0.000    0.000   22.422   22.422       2
 qs_energies_properties               1  3.0    0.000    0.000   18.437   18.437       0
 post_scf_bandstructure               1  4.0    0.000    0.000   18.437   18.437       4
 run_gw                               1  5.0    0.000    0.000   18.403   18.430       1
 gw_calc_ri_rs_non_periodic           1  6.0    0.000    0.000   16.359   16.497       0
 optimize_ri_rs_grid                  1  7.0    0.000    0.000   15.457   15.569       0
 mp_sum_d                           724  4.7    3.543   15.379    3.543   15.379       4
 rirs_grid_LBFGS                      1  8.0    0.442    0.552   14.979   15.362       0
 evaluate_rirs_grid_cluster         301  9.0    1.111    1.564   11.029   14.010       3
 rirs_cluster_gradient_coordina     301 10.0    3.476    4.354    3.476    4.354       0
 rirs_cluster_gradient_products     301 10.0    2.545    3.220    2.545    3.220       2
 scf_env_do_scf                       1  3.0    0.000    0.000    2.966    2.966       0
 qs_ks_build_kohn_sham_matrix         2  7.5    0.003    0.006    2.913    2.913       4
 fft_wrap_pw1pw2                     28 10.0    0.001    0.001    2.704    2.770       2
 fft_wrap_pw1pw2_300                 16 11.2    0.144    0.188    2.558    2.623       4
 init_scf_loop                        1  4.0    0.000    0.000    2.241    2.241       0
 qs_ks_update_qs_env                  2  5.0    0.000    0.000    2.238    2.238       0
 rebuild_ks_matrix                    1  6.0    0.000    0.000    2.238    2.238       1
 fft3d_ps                            28 12.0    1.056    1.165    1.970    2.183       2
 create_and_init_bs_env_for_gw        1  6.0    0.004    0.004    2.044    2.140       3
 qs_vxc_create                        2  8.5    0.000    0.000    1.523    1.544       4
 xc_vxc_pw_create                     1  9.0    0.029    0.036    1.523    1.544       2
 rirs_cluster_residual              301 10.0    1.127    1.483    1.127    1.483       3
 qs_rho_update_rho_low                2  5.0    0.000    0.000    1.445    1.445       2
 calculate_rho_elec                   2  6.0    0.040    0.041    1.445    1.445       3
 rirs_cluster_AO_products           301 10.0    1.008    1.422    1.008    1.422       0
 rirs_cluster_D_ll                  301 10.0    0.976    1.258    0.976    1.258       2
 xc_pw_derive                         6 11.0    0.000    0.000    1.138    1.215       3
 mp_alltoall_z22v                    28 14.0    0.480    1.112    0.480    1.112       0
 qs_init_subsys                       1  2.0    0.000    0.001    1.066    1.068       0
 qs_env_setup                         1  3.0    0.000    0.000    1.065    1.067       4
 qs_env_rebuild_pw_env                2  3.5    0.000    0.000    1.065    1.067       0
 pw_env_rebuild                       1  5.0    0.000    0.000    1.065    1.067       4
 pw_grid_setup                        5  5.2    0.000    0.000    1.059    1.061       0
 pw_grid_setup_internal               5  6.2    0.017    0.017    1.059    1.061       4
 rirs_cluster_d_lP                  301 10.0    0.786    1.025    0.786    1.025       0
 pw_grid_sort                         5  7.2    0.633    0.644    0.940    0.953       4
 generate_auto_ri_basis               1  7.0    0.000    0.000    0.933    0.933       0
 density_rs2pw                        2  7.0    0.000    0.000    0.884    0.929       3
 xc_pw_divergence                     1 10.0    0.000    0.000    0.755    0.814       2
 xc_rho_set_and_dset_create           1 10.0    0.025    0.036    0.721    0.783       2
 yz_to_x                             14 12.2    0.196    0.213    0.463    0.772       4
 init_scf_run                         1  3.0    0.000    0.000    0.752    0.752       0
 scf_env_initial_rho_setup            1  4.0    0.000    0.000    0.752    0.752       0
 compute_AB_optimized_RI_basis        1  8.0    0.000    0.000    0.729    0.729       0
 compute_AB_optimized_RI_basis_       1  9.0    0.000    0.000    0.713    0.728       0
 scf_env_do_scf_inner_loop            1  4.0    0.000    0.000    0.724    0.724       0
 compute_B_PQ_AB                      2 10.0    0.066    0.171    0.269    0.693       0
 x_to_yz                             14 13.8    0.236    0.261    0.449    0.677       2
 compute_V_xc                         1  7.0    0.000    0.000    0.675    0.675       2
 mp_sum_dm                           16 10.4    0.497    0.662    0.497    0.662       4
 sum_up_and_integrate                 2  8.5    0.000    0.000    0.565    0.586       1
 integrate_v_rspace                   2  9.5    0.000    0.000    0.556    0.578       1
 potential_pw2rs                      2 10.5    0.002    0.002    0.548    0.569       3
 grid_collocate_task_list             2  7.0    0.505    0.540    0.505    0.540       1
 cp_fm_get_submatrix                 12 10.0    0.000    0.000    0.426    0.533       2
 setup_time_and_frequency_minim       1  7.0    0.000    0.000    0.400    0.495       0
 build_minimax_time_frequency_g       1  8.0    0.000    0.000    0.400    0.495       4
 fit_l_sq_weights                     3  9.0    0.399    0.495    0.399    0.495       4
 rirs_grid_build_clusters             1  8.0    0.245    0.312    0.387    0.489       0
 contract_B_PQ                       10 11.8    0.150    0.398    0.161    0.426       0
 qs_ks_ddapc                          2  8.5    0.000    0.000    0.417    0.425       4
 pw_poisson_solve                     2  8.5    0.000    0.000    0.355    0.366       3
 compute_Sigma_c_and_QP_energie       1  7.0    0.000    0.000    0.301    0.327       2
 abc_contract_xsmm                 1864  9.3    0.194    0.315    0.194    0.315       0
 sort_shells                          5  8.2    0.306    0.310    0.306    0.310       0
 compute_W                            1  7.0    0.000    0.000    0.305    0.305       0
 compute_Sigma_c                      1  8.0    0.002    0.002    0.284    0.284       0
 transfer_rs2pw                       9  7.8    0.000    0.000    0.200    0.279       4
 qs_energies_init_hamiltonians        1  3.0    0.000    0.000    0.267    0.267       1
 qs_env_update_s_mstruct              1  4.0    0.000    0.000    0.265    0.266       0
 pw_copy                             28 10.5    0.235    0.254    0.235    0.254       3
 pw_gather_p                         14 11.2    0.227    0.251    0.227    0.251       1
 calculate_rho_core                   1  5.0    0.020    0.021    0.239    0.244       2
 pw_derive                           12 11.2    0.218    0.244    0.218    0.244       1
 contract_grid_panels_sigma_c        30  9.0    0.220    0.227    0.239    0.240       4
 transfer_rs2pw_300                   3  8.3    0.067    0.076    0.154    0.233       2
 pw_scatter_p                        14 12.8    0.207    0.227    0.207    0.227       2
 compute_B_PQ_exchange                5 10.8    0.000    0.000    0.081    0.213       0
 compute_B_PQ_transition              5 10.8    0.000    0.000    0.081    0.213       2
 pw_poisson_set                       3  8.3    0.000    0.000    0.198    0.210       4
 compute_fm_W_freq                   30  8.0    0.000    0.000    0.208    0.209       2
 initialize_ri_rs_grid                1  8.0    0.029    0.039    0.091    0.199       3
 parallel_gemm_fm_gemm              431  9.6    0.000    0.000    0.191    0.194       1
 cp_fm_gemm                         434 10.5    0.191    0.193    0.191    0.193       4
 mp_waitany                          35 11.0    0.113    0.179    0.113    0.179       0
 get_mat_chi_Gamma_tau                1  7.0    0.000    0.001    0.172    0.172       0
 fft_wrap_pw1pw2_100                  4 10.8    0.008    0.014    0.122    0.168       4
 mp_bcast_dm                         12  9.3    0.062    0.166    0.062    0.166       0
 contract_grid_panels                31  8.0    0.142    0.150    0.155    0.162       4
 pw_integral_ab_c1d_c1d_gs            4 10.0    0.136    0.142    0.145    0.157       2
 transfer_pw2rs                       8 11.5    0.000    0.000    0.156    0.157       4
 xc_functional_eval                   1 11.0    0.000    0.000    0.091    0.142       3
 pbe_lda_eval                         1 12.0    0.091    0.142    0.091    0.142       2
 create_qs_kind_set                   1  2.0    0.000    0.000    0.130    0.132       0
 read_qs_kind                         2  3.0    0.052    0.058    0.130    0.132       0
 cp_ddapc_apply_CD                    2  9.5    0.000    0.000    0.103    0.128       0
 compute_M_pq_inv_and_V_pq            1  8.0    0.000    0.000    0.121    0.121       2
 compute_Z_lP                         1  7.0    0.000    0.000    0.114    0.114       3
 compute_Z_lP_auto_ri                 1  8.0    0.000    0.000    0.114    0.114       0
 transfer_pw2rs_300                   2 12.5    0.049    0.055    0.106    0.113       2
 compute_d_lp_auto_ri_batch           1  9.0    0.000    0.000    0.056    0.108       0
 compute_d_lp_auto_ri_atom            1 10.0    0.024    0.053    0.056    0.108       1
 pw_axpy                             25  6.6    0.088    0.100    0.088    0.100       3
 compute_contracted_RI_matrix         2  9.0    0.000    0.000    0.099    0.099       4
 copy_dbcsr_to_fm                   104  9.5    0.063    0.096    0.065    0.098       2
 pw_copy_to_array                    14 11.2    0.093    0.098    0.093    0.098       2
 compute_optimized_RI_matrix_bl       4 10.0    0.012    0.017    0.070    0.097       3
 compute_M_PQ_AB                     52 11.0    0.000    0.000    0.065    0.086       3
 compute_M_PQ                        52 12.0    0.000    0.000    0.065    0.086       3
 int_operators_r12_ab_os             52 13.0    0.000    0.000    0.065    0.086       3
 int_operator_ab_os_low              52 14.0    0.025    0.034    0.065    0.086       3
 compute_AA_optimized_RI_basis        1  8.0    0.000    0.000    0.083    0.083       1
 parser_read_line                 27889  4.0    0.005    0.005    0.078    0.082       4
 parser_read_line_low                32  5.0    0.009    0.040    0.073    0.077       0
 broadcast_input_information         32  6.0    0.010    0.013    0.064    0.075       1
 mp_waitall_1                        34 12.8    0.040    0.074    0.040    0.074       0
 pw_grid_assign                       5  7.2    0.066    0.067    0.067    0.068       4
 pw_copy_from_array                  14 12.8    0.053    0.061    0.053    0.061       3
 cp_fm_cholesky_invert               31  9.0    0.053    0.057    0.053    0.057       4
 get_ddapc                            2 10.5    0.000    0.000    0.031    0.056       3
 mp_bcast_i_src                     133  7.0    0.036    0.050    0.036    0.050       1
 transfer_pw2rs_100                   2 12.5    0.022    0.027    0.042    0.050       2
 compute_B_PQ_AA                      4  9.0    0.000    0.000    0.046    0.049       1
 mp_sum_root_rm                       4 10.0    0.040    0.049    0.040    0.049       3
 compute_fm_chi_Gamma_freq           30  8.0    0.023    0.030    0.044    0.046       4
 build_3c_integral_block_auto_r      24 11.0    0.016    0.046    0.016    0.046       0
 build_3c_integral_block_auto_r      24 11.0    0.000    0.000    0.016    0.045       0
 build_G_ao                         121  8.5    0.003    0.004    0.043    0.045       2
 transfer_rs2pw_100                   2  9.0    0.020    0.022    0.038    0.044       2
 pw_zero                             25  4.7    0.035    0.043    0.035    0.043       2
 pw_grid_remap                        4  8.0    0.012    0.012    0.027    0.039       3
 eval_bandstructure_properties        1  5.0    0.000    0.000    0.029    0.036       0
 cp_cfm_geeig                         1  6.0    0.000    0.000    0.029    0.035       2
 solve_AB_eigenproblem                2 10.0    0.012    0.025    0.017    0.035       0
 compute_int_3c                       2  9.0    0.024    0.027    0.032    0.035       4
 cp_cfm_cholesky_decompose            2  7.0    0.027    0.034    0.027    0.034       4
 copy_fm_to_dbcsr                   161  9.3    0.023    0.027    0.028    0.033       2
 check_for_restart_files              1  7.0    0.031    0.031    0.031    0.031       1
 compute_QP_energies                  1  8.0    0.000    0.000    0.014    0.031       0
 mp_sum_iv                          142 10.0    0.018    0.031    0.018    0.031       4
 operator2                        28980 15.0    0.024    0.031    0.024    0.031       3
 mp_sendrecv_dv                      24 10.0    0.022    0.029    0.022    0.029       4
 eval_pw_TabLR                        1  2.0    0.009    0.014    0.021    0.028       4
 local_gemm                        3360 12.9    0.011    0.028    0.011    0.028       0
 fft_wrap_pw1pw2_40                   4 10.8    0.001    0.003    0.019    0.027       4
 G_occ_vir                          121  9.5    0.001    0.002    0.024    0.027       0
 mp_sum_im3                           5  9.0    0.015    0.027    0.015    0.027       3
 mp_bcast_am_src                     32  7.0    0.018    0.027    0.018    0.027       4
 cp_fm_cholesky_decompose            35  9.0    0.024    0.025    0.024    0.025       1
 pw_multiply_with                     2  9.5    0.022    0.024    0.022    0.024       2
 -------------------------------------------------------------------------------

 The number of warnings for this run is : 4
 
 -------------------------------------------------------------------------------
  **** **** ******  **  PROGRAM ENDED AT                 2026-10-03 12:09:47.087
 ***** ** ***  *** **   PROGRAM RAN ON                                  n2cn0521
 **    ****   ******    PROGRAM RAN BY                                  eprop2d1
 ***** **    ** ** **   PROGRAM PROCESS ID                               1226904
  **** **  *******  **  PROGRAM STOPPED IN /scratch/hpc-prf-metdyn/eprop2d1_Jan/
                                           53_benchmark_RI_opt/418_gw100_fig5_fu
                                           ll_epsfilter_1e12_20261002/calculatio
                                           ns/rc5p0/ri5_rs05/75_H2O2
