 DBCSR| CPU Multiplication driver                                           XSMM (U)
 DBCSR| Multrec recursion limit                                              512 (U)
 DBCSR| Multiplication stack size                                           1000 (D)
 DBCSR| Maximum elements for images                                    UNLIMITED (U)
 DBCSR| Multiplicative factor virtual images                                   1 (U)
 DBCSR| Use multiplication densification                                       T (D)
 DBCSR| Multiplication size stacks                                             3 (U)
 DBCSR| Use memory pool for CPU allocation                                     F (U)
 DBCSR| Number of 3D layers                                               SINGLE (U)
 DBCSR| Use MPI memory allocation                                              F (U)
 DBCSR| Use RMA algorithm                                                      F (U)
 DBCSR| Use Communication thread                                               T (U)
 DBCSR| Communication thread load                                             75 (D)
 DBCSR| MPI: My process id                                                     0
 DBCSR| MPI: Number of processes                                              32
 DBCSR| OMP: Current number of threads                                         4
 DBCSR| OMP: Max number of threads                                             4
 DBCSR| Split modifier for TAS multiplication algorithm                  1.0E+00 (U)


  **** **** ******  **  PROGRAM STARTED AT               2026-10-01 13:57:35.266
 ***** ** ***  *** **   PROGRAM STARTED ON                              n2cn0958
 **    ****   ******    PROGRAM STARTED BY                              eprop2d1
 ***** **    ** ** **   PROGRAM PROCESS ID                                949157
  **** **  *******  **  PROGRAM STARTED IN /scratch/hpc-prf-metdyn/eprop2d1_Jan/
                                           53_benchmark_RI_opt/403_figure4_epsfi
                                           lter_20261001/h24_rc0p5_ri3_rs07_e10

 CP2K| version string:                 CP2K version 2026.2 (Development Version)
 CP2K| source code revision number:                                   d1dff42668
 CP2K| cp2kflags: omp libint fftw3 libxc parallel scalapack mpi_f08 cosma libxs 
 CP2K|            libxsmm spglib openblas libdftd4 s_dftd3 mctc-lib tblite libvo
 CP2K|            ori libbqb
 CP2K| is freely available from                            https://www.cp2k.org/
 CP2K| Program compiled at                                   2026-09-18 06:02:26
 CP2K| Program compiled on                                              n2login6
 CP2K| Program compiled for                                               x86_64
 CP2K| Data directory path    /scratch/hpc-prf-metdyn/eprop2d1_Jan/53_benchmark_
 CP2K| Input file name        /scratch/hpc-prf-metdyn/eprop2d1_Jan/53_benchmark_
 
 eprop2d1@n2cn0958 has created rank and process                      0    949157
 eprop2d1@n2cn0958 has created rank and process                      1    949158
 eprop2d1@n2cn0958 has created rank and process                      2    949159
 eprop2d1@n2cn0958 has created rank and process                      3    949160
 eprop2d1@n2cn0958 has created rank and process                      4    949161
 eprop2d1@n2cn0958 has created rank and process                      5    949162
 eprop2d1@n2cn0958 has created rank and process                      6    949163
 eprop2d1@n2cn0958 has created rank and process                      7    949164
 eprop2d1@n2cn0958 has created rank and process                      8    949165
 eprop2d1@n2cn0958 has created rank and process                      9    949166
 eprop2d1@n2cn0958 has created rank and process                     10    949167
 eprop2d1@n2cn0958 has created rank and process                     11    949168
 eprop2d1@n2cn0958 has created rank and process                     12    949169
 eprop2d1@n2cn0958 has created rank and process                     13    949170
 eprop2d1@n2cn0958 has created rank and process                     14    949171
 eprop2d1@n2cn0958 has created rank and process                     15    949172
 eprop2d1@n2cn0958 has created rank and process                     16    949173
 eprop2d1@n2cn0958 has created rank and process                     17    949174
 eprop2d1@n2cn0958 has created rank and process                     18    949175
 eprop2d1@n2cn0958 has created rank and process                     19    949176
 eprop2d1@n2cn0958 has created rank and process                     20    949177
 eprop2d1@n2cn0958 has created rank and process                     21    949178
 eprop2d1@n2cn0958 has created rank and process                     22    949179
 eprop2d1@n2cn0958 has created rank and process                     23    949180
 eprop2d1@n2cn0958 has created rank and process                     24    949181
 eprop2d1@n2cn0958 has created rank and process                     25    949182
 eprop2d1@n2cn0958 has created rank and process                     26    949183
 eprop2d1@n2cn0958 has created rank and process                     27    949184
 eprop2d1@n2cn0958 has created rank and process                     28    949185
 eprop2d1@n2cn0958 has created rank and process                     29    949186
 eprop2d1@n2cn0958 has created rank and process                     30    949187
 eprop2d1@n2cn0958 has created rank and process                     31    949188
 
 eprop2d1@n2cn0958 is running                                       32 processes

 GLOBAL| Force Environment number                                              1
 GLOBAL| Basis set file name            /scratch/hpc-prf-metdyn/eprop2d1_Jan/53_
 GLOBAL| Potential file name            /scratch/hpc-prf-metdyn/eprop2d1_Jan/53_
 GLOBAL| MM Potential file name                                     MM_POTENTIAL
 GLOBAL| Coordinate file name           /scratch/hpc-prf-metdyn/eprop2d1_Jan/53_
 GLOBAL| Method name                                                        CP2K
 GLOBAL| Project name                                       h24_rc0p5ri3rs07_e10
 GLOBAL| Run type                                                         ENERGY
 GLOBAL| FFT library                                                       FFTW3
 GLOBAL| Diagonalization library                                       ScaLAPACK
 GLOBAL| Cholesky decomposition library                                ScaLAPACK
 GLOBAL| DGEMM library                                                      BLAS
 GLOBAL| Direct generalized diagonalization requested                          F
 GLOBAL| Orthonormality check for eigenvectors                          DISABLED
 GLOBAL| Matrix multiplication library                                     COSMA
 GLOBAL| All-to-all communication in single precision                          F
 GLOBAL| Grid backend                                                       AUTO
 GLOBAL| Global print level                                                  LOW
 GLOBAL| MPI I/O enabled                                                       T
 GLOBAL| Total number of message passing processes                            32
 GLOBAL| Number of distributed systems (nodes)                                 1
 GLOBAL| Number of threads for this process                                    4
 GLOBAL| This output is from process                                           0
 GLOBAL| OpenMP stack size per thread (OMP_STACKSIZE)                       512M
 GLOBAL| CPU model name                          AMD EPYC 7763 64-Core Processor
 GLOBAL| CPUID                                                              1002
 GLOBAL| Compiled for CPUID                                                    0

 *** HINT in environment.F:968 :: The compiler target (generic) used to ***
 *** build this binary does not enable all instruction-set extensions   ***
 *** available on this CPU (x86_avx2). Consider reconfiguring and       ***
 *** rebuilding CP2K for this target system to enable them.             ***


 MEMORY| system memory details [Kb]
 MEMORY|                        rank 0           min           max       average
 MEMORY| MemTotal            263897572     263897572     263897572     263897572
 MEMORY| MemFree             245363432     245363432     245363432     245363432
 MEMORY| Buffers                223576        223576        223576        223576
 MEMORY| Cached                7398168       7398168       7398168       7398168
 MEMORY| Slab                  1734160       1734160       1734160       1734160
 MEMORY| SReclaimable           362672        362672        362672        362672
 MEMORY| MemLikelyFree       253347848     253347848     253347848     253347848


 GENERATE|  Preliminary Number of Bonds generated:                             0
 GENERATE|  Achieved consistency in connectivity generation.

 *******************************************************************************
 *******************************************************************************
 **                                                                           **
 **     #####                         ##              ##                      **
 **    ##   ##            ##          ##              ##                      **
 **   ##     ##                       ##            ######                    **
 **   ##     ##  ##   ##  ##   #####  ##  ##   ####   ##    #####    #####    **
 **   ##     ##  ##   ##  ##  ##      ## ##   ##      ##   ##   ##  ##   ##   **
 **   ##  ## ##  ##   ##  ##  ##      ####     ###    ##   ######   ######    **
 **    ##  ###   ##   ##  ##  ##      ## ##      ##   ##   ##       ##        **
 **     #######   #####   ##   #####  ##  ##  ####    ##    #####   ##        **
 **           ##                                                    ##        **
 **                                                                           **
 **                                                ... make the atoms dance   **
 **                                                                           **
 **            Copyright (C) by CP2K developers group (2000-2026)             **
 **                      J. Chem. Phys. 152, 194103 (2020)                    **
 **                                                                           **
 *******************************************************************************


 TOTAL NUMBERS AND MAXIMUM NUMBERS

  Total number of            - Atomic kinds:                                   2
                             - Atoms:                                         88
                             - Shell sets:                                    88
                             - Shells:                                       416
                             - Primitive Cartesian functions:                488
                             - Cartesian basis functions:                   1040
                             - Spherical basis functions:                    976

  Maximum angular momentum of- Orbital basis functions:                        2
                             - Local part of the GTH pseudopotential:          2
                             - Non-local part of the GTH pseudopotential:      2


 SCF PARAMETERS         Density guess:                                   RESTART
                        --------------------------------------------------------
                        max_scf:                                             500
                        max_scf_history:                                       0
                        max_diis:                                              4
                        --------------------------------------------------------
                        eps_scf:                                        1.00E-08
                        eps_scf_history:                                0.00E+00
                        eps_diis:                                       0.00E+00
                        eps_eigval:                                     1.00E-05
                        --------------------------------------------------------
                        level_shift [a.u.]:                             0.000000
                        --------------------------------------------------------
                        Outer loop SCF in use 
                        No variables optimised in outer loop
                        eps_scf                                         1.00E-08
                        max_scf                                               20
                        No outer loop optimization
                        step_size                                       5.00E-01

 Extrapolation method: initial_guess

 Number of electrons:                                                        344
 Number of occupied orbitals:                                                172
 Number of molecular orbitals:                                               172

 Number of orbital functions:                                                976
 Number of independent orbital functions:                                    976


 SCF WAVEFUNCTION OPTIMIZATION

  ----------------------------------- OT ---------------------------------------
  Minimizer      : DIIS                : direct inversion
                                         in the iterative subspace
                                         using   7 DIIS vectors
                                         safer DIIS on
  Preconditioner : FULL_KINETIC        : inversion of T + eS
  Lattice FFT   : OFF
  Precond_solver : DEFAULT
  stepsize       :    0.15000000                  energy_gap     :    0.20000000
  eps_taylor     :   0.10000E-15                  max_taylor     :             4
  ----------------------------------- OT ---------------------------------------

  Step     Update method      Time    Convergence         Total energy    Change
  ------------------------------------------------------------------------------
     1 OT DIIS     0.15E+00    4.4     6.6754E-09      -434.9293034356 -4.35E+02

  *** SCF run converged in     1 steps ***


  Electronic density on regular grids:       -344.0000000000       -0.0000000000
  Core density on regular grids:              343.9999999995       -0.0000000005
  Total charge density on r-space grids:       -0.0000000005
  Total charge density g-space grids:          -0.0000000005

  Overlap energy of the core charge distribution:               0.00000056308076
  Self energy of the core charge distribution:              -1083.50641417148177
  Core Hamiltonian energy:                                    237.29295558748663
  Hartree energy:                                             526.30221691012707
  Exchange-correlation energy:                               -115.01806232485231

  Total energy:                                              -434.92930343563967

  outer SCF iter =    1 RMS gradient =   0.67E-08 energy =       -434.9293034356
  outer SCF loop converged in   1 iterations or    1 steps

  
 -------------------------------------------------------------------------------
 -                                                                             -
 -                          BANDSTRUCTURE CALCULATION                          -
 -                                                                             -
 -------------------------------------------------------------------------------
  
 Number of occupied molecular orbitals (MOs) = Number of occupied bands      172
 Number of unoccupied (= virtual) MOs = Number of unoccupied bands           804
 Number of Gaussian basis functions for MOs                                  976
  
 -------------------------------------------------------------------------------
 -                                                                             -
 -                                GW CALCULATION                               -
 -                                                                             -
 -------------------------------------------------------------------------------
  
 Input: Number of time/freq. points                                           30
 Input: ω_max for fitting Σ(iω) (eV)                                        10.0
 Input: Filter threshold for sparse tensor operations                    1.0E-10
 Input: Apply Hedin shift                                                      F
 Detected: Available memory per MPI process                               7.3 GB
 
 Input: RI-RS Tikhonov regularization                                   1.00E-08
 Input: AO grid hard cutoff radius                                        8.00 Å
 Input: MPI ranks per atom in Z_lP solve                                      -1
 Input: Keep sparsity in χ/G/W panels                                          T
 Input: GW flavour                                                          G0W0
 
 Input: RI-RS grid optimization activated                                      T
 Input: RS points per AO function                                            7.0
 Input: Cutoff radius for atomic clusters                                  0.5 Å
 Input: Maximum grid optimization iterations                                 100
 
 Input: AUTO_RI basis optimization activated:                                  T
 Input: AUTO_RI number of RI functions per AO function:                      3.0
 Input: AUTO_RI frontier orbital window:                                  5.0 eV
 Input: AUTO_RI neighbor radius:                                           3.0 Å
 
 Cutoff radius for the truncated Coulomb operator in RI metric:            6.0 Å
 Regularization parameter of RI                                          0.0E+00
 Regularization parameter of minimax grids                               1.0E-06
 
 AUTO_RI| Number of automatic RI functions for χ, ε, W:                     2928
 AUTO_RI| Total RI basis optimization time:                                6.3 s
 
 SCF direct band gap (eV)                                                   1.65
 Max. SCF eigval diff. (eV)                                               102.09
 E-Range for minimax grid                                                  61.83
 Number of Padé parameters for analytic continuation:                         16
 
 RI-RS basis radii (Å):
     Kind  Elem     r_AO (Å)     r_RI (Å)
        1    H        11.3560        7.1821
        2    P         8.1109        5.7991
 
 Started RI-RS grid optimization
 RI-RS grid initial normalized error                          8.389860091282E-06
 RI-RS grid optimization completed, execution time:                        0.0 s
 Normalized 3C error:                                                    3.8E-09
 Maximum absolute 3C error:                                              1.1E-03
 Optimized points outside molecular Voronoi cells:                             6 / 6832
 Total grid points used for RI-RS:                                          6832
 
 RI-RS grid row-blocks of ϕ_μ(r_l)                                           240
 RI-RS grid points per block (max)                                            32
 
 Percentage of non-zero matrix elements in ϕ_μ(r_l)                      55.18 %
 
 RI-RS memory estimate per MPI process:
   Available memory per process (system)                                 7.41 GB
   Required for Z_lP (dense upper bound; actual is sparser)              0.01 GB
   Required for χ, W, Σ panels (peak per panel step)                     0.05 GB
   Required for Z_lP solve peak (D_local+ϕ, worst-case atom)             0.41 GB
   Worst-case local-grid number of grid points:                             6592
   Worst-case memory D_local:                                            0.35 GB
 
 Started computing Z_lP
 Computed Z_lP (MPI rank 0) for atom          1 /  3,    Execution time    1.2 s
 Computed Z_lP (MPI rank 0) for atom          2 /  3,    Execution time    2.6 s
 Computed Z_lP (MPI rank 0) for atom          3 /  3,    Execution time    3.3 s
 Computed Z_lP (all MPI ranks) for all atoms,            Execution time   13.6 s

 Memory per MPI process after computing Z_lP:
 Available memory per MPI process                                7.4 GB
 Used memory per MPI process                                     1.1 GB
 Number of batches for χ, Σ matrices                                           1
 
 Percentage of non-zero matrix elements in Z_lP                          94.87 %
 Percentage of non-zero matrix elements in G_ll', χ_ll', W_ll'          100.00 %
 Percentage of non-zero matrix elements in χ_PQ for time point 1        100.00 %
 
 Computed χ(iτ,k=0) for time point            1 / 30,    Execution time    0.4 s
 Computed χ(iτ,k=0) for time point            2 / 30,    Execution time    0.3 s
 Computed χ(iτ,k=0) for time point            3 / 30,    Execution time    0.3 s
 Computed χ(iτ,k=0) for time point            4 / 30,    Execution time    0.3 s
 Computed χ(iτ,k=0) for time point            5 / 30,    Execution time    0.3 s
 Computed χ(iτ,k=0) for time point            6 / 30,    Execution time    0.3 s
 Computed χ(iτ,k=0) for time point            7 / 30,    Execution time    0.4 s
 Computed χ(iτ,k=0) for time point            8 / 30,    Execution time    0.3 s
 Computed χ(iτ,k=0) for time point            9 / 30,    Execution time    0.3 s
 Computed χ(iτ,k=0) for time point           10 / 30,    Execution time    0.3 s
 Computed χ(iτ,k=0) for time point           11 / 30,    Execution time    0.3 s
 Computed χ(iτ,k=0) for time point           12 / 30,    Execution time    0.3 s
 Computed χ(iτ,k=0) for time point           13 / 30,    Execution time    0.3 s
 Computed χ(iτ,k=0) for time point           14 / 30,    Execution time    0.3 s
 Computed χ(iτ,k=0) for time point           15 / 30,    Execution time    0.3 s
 Computed χ(iτ,k=0) for time point           16 / 30,    Execution time    0.3 s
 Computed χ(iτ,k=0) for time point           17 / 30,    Execution time    0.3 s
 Computed χ(iτ,k=0) for time point           18 / 30,    Execution time    0.3 s
 Computed χ(iτ,k=0) for time point           19 / 30,    Execution time    0.3 s
 Computed χ(iτ,k=0) for time point           20 / 30,    Execution time    0.3 s
 Computed χ(iτ,k=0) for time point           21 / 30,    Execution time    0.2 s
 Computed χ(iτ,k=0) for time point           22 / 30,    Execution time    0.2 s
 Computed χ(iτ,k=0) for time point           23 / 30,    Execution time    0.2 s
 Computed χ(iτ,k=0) for time point           24 / 30,    Execution time    0.1 s
 Computed χ(iτ,k=0) for time point           25 / 30,    Execution time    0.1 s
 Computed χ(iτ,k=0) for time point           26 / 30,    Execution time    0.1 s
 Computed χ(iτ,k=0) for time point           27 / 30,    Execution time    0.1 s
 Computed χ(iτ,k=0) for time point           28 / 30,    Execution time    0.1 s
 Computed χ(iτ,k=0) for time point           29 / 30,    Execution time    0.1 s
 Computed χ(iτ,k=0) for time point           30 / 30,    Execution time    0.1 s
 
 Computed W(iτ),                                         Execution time   10.5 s
 
 Computed Σ^x(k=0),                                      Execution time    0.4 s
 
 Computed Σ^c(iτ) for time point              1 / 30,    Execution time    0.5 s
 Computed Σ^c(iτ) for time point              2 / 30,    Execution time    0.5 s
 Computed Σ^c(iτ) for time point              3 / 30,    Execution time    0.5 s
 Computed Σ^c(iτ) for time point              4 / 30,    Execution time    0.5 s
 Computed Σ^c(iτ) for time point              5 / 30,    Execution time    0.5 s
 Computed Σ^c(iτ) for time point              6 / 30,    Execution time    0.5 s
 Computed Σ^c(iτ) for time point              7 / 30,    Execution time    0.5 s
 Computed Σ^c(iτ) for time point              8 / 30,    Execution time    0.5 s
 Computed Σ^c(iτ) for time point              9 / 30,    Execution time    0.5 s
 Computed Σ^c(iτ) for time point             10 / 30,    Execution time    0.5 s
 Computed Σ^c(iτ) for time point             11 / 30,    Execution time    0.5 s
 Computed Σ^c(iτ) for time point             12 / 30,    Execution time    0.5 s
 Computed Σ^c(iτ) for time point             13 / 30,    Execution time    0.5 s
 Computed Σ^c(iτ) for time point             14 / 30,    Execution time    0.5 s
 Computed Σ^c(iτ) for time point             15 / 30,    Execution time    0.5 s
 Computed Σ^c(iτ) for time point             16 / 30,    Execution time    0.5 s
 Computed Σ^c(iτ) for time point             17 / 30,    Execution time    0.5 s
 Computed Σ^c(iτ) for time point             18 / 30,    Execution time    0.4 s
 Computed Σ^c(iτ) for time point             19 / 30,    Execution time    0.4 s
 Computed Σ^c(iτ) for time point             20 / 30,    Execution time    0.4 s
 Computed Σ^c(iτ) for time point             21 / 30,    Execution time    0.4 s
 Computed Σ^c(iτ) for time point             22 / 30,    Execution time    0.4 s
 Computed Σ^c(iτ) for time point             23 / 30,    Execution time    0.3 s
 Computed Σ^c(iτ) for time point             24 / 30,    Execution time    0.1 s
 Computed Σ^c(iτ) for time point             25 / 30,    Execution time    0.1 s
 Computed Σ^c(iτ) for time point             26 / 30,    Execution time    0.1 s
 Computed Σ^c(iτ) for time point             27 / 30,    Execution time    0.1 s
 Computed Σ^c(iτ) for time point             28 / 30,    Execution time    0.1 s
 Computed Σ^c(iτ) for time point             29 / 30,    Execution time    0.1 s
 Computed Σ^c(iτ) for time point             30 / 30,    Execution time    0.1 s
 
 SCF valence band maximum (eV):                                           -5.044
 SCF conduction band minimum (eV):                                        -3.392
 SCF indirect band gap (eV):                                               1.651
 SCF direct band gap (eV):                                                 1.651
 
 G0W0 valence band maximum (eV):                                          -5.621
 G0W0 conduction band minimum (eV):                                       -1.944
 G0W0 indirect band gap (eV):                                              3.676
 G0W0 direct band gap (eV):                                                3.676
 
 Hartree-Fock with SCF orbitals valence band maximum (eV):                -6.839
 Hartree-Fock with SCF orbitals conduction band minimum (eV)               0.138
 Hartree-Fock with SCF orbitals indirect band gap (eV):                    6.977
 Hartree-Fock with SCF orbitals direct band gap (eV):                      6.977

 ENERGY| Total FORCE_EVAL ( QS ) energy [hartree]           -434.929303435639667

 -------------------------------------------------------------------------------
 -                                                                             -
 -                                DBCSR STATISTICS                             -
 -                                                                             -
 -------------------------------------------------------------------------------
 COUNTER                                    TOTAL       BLAS       SMM       ACC
 flops    12 x    12 x    12                 3456       0.0%    100.0%      0.0%     
 flops    26 x    12 x    12                22464       0.0%    100.0%      0.0%     
 flops     6 x    12 x    12                41472       0.0%    100.0%      0.0%     
 flops    51 x    12 x    12                44064       0.0%    100.0%      0.0%     
 flops    12 x    12 x    32                46080       0.0%    100.0%      0.0%     
 flops    12 x    32 x    12                46080       0.0%    100.0%      0.0%     
 flops    71 x    12 x    12                61344       0.0%    100.0%      0.0%     
 flops    32 x    12 x    12                73728       0.0%    100.0%      0.0%     
 flops    52 x    12 x    12                89856       0.0%    100.0%      0.0%     
 flops    58 x    12 x    12               100224       0.0%    100.0%      0.0%     
 flops    77 x    12 x    12               133056       0.0%    100.0%      0.0%     
 flops    64 x    12 x    12               165888       0.0%    100.0%      0.0%     
 flops    13 x    12 x    12               239616       0.0%    100.0%      0.0%     
 flops    26 x    12 x    32               299520       0.0%    100.0%      0.0%     
 flops    26 x    32 x    12               299520       0.0%    100.0%      0.0%     
 flops     6 x     6 x    12               518400       0.0%    100.0%      0.0%     
 flops    51 x    32 x    12               587520       0.0%    100.0%      0.0%     
 flops    51 x    12 x    32               587520       0.0%    100.0%      0.0%     
 flops    10 x    22 x    56               591360       0.0%    100.0%      0.0%     
 flops    10 x    22 x    57               601920       0.0%    100.0%      0.0%     
 flops    12 x    32 x    32               614400       0.0%    100.0%      0.0%     
 flops    10 x    24 x    57               656640       0.0%    100.0%      0.0%     
 flops    71 x    12 x    32               817920       0.0%    100.0%      0.0%     
 flops    71 x    32 x    12               817920       0.0%    100.0%      0.0%     
 flops    12 x    12 x   122               843264       0.0%    100.0%      0.0%     
 flops    10 x    31 x    63               898380       0.0%    100.0%      0.0%     
 flops    32 x    32 x    12               983040       0.0%    100.0%      0.0%     
 flops    32 x    12 x    32               983040       0.0%    100.0%      0.0%     
 flops    10 x    37 x    57              1012320       0.0%    100.0%      0.0%     
 flops    10 x    37 x    63              1118880       0.0%    100.0%      0.0%     
 flops    52 x    32 x    12              1198080       0.0%    100.0%      0.0%     
 flops    52 x    12 x    32              1198080       0.0%    100.0%      0.0%     
 flops    26 x    12 x   122              1218048       0.0%    100.0%      0.0%     
 flops    10 x    23 x    63              1275120       0.0%    100.0%      0.0%     
 flops    58 x    12 x    32              1336320       0.0%    100.0%      0.0%     
 flops    58 x    32 x    12              1336320       0.0%    100.0%      0.0%     
 flops     6 x    32 x    32              1474560       0.0%    100.0%      0.0%     
 flops    77 x    12 x    32              1774080       0.0%    100.0%      0.0%     
 flops    77 x    32 x    12              1774080       0.0%    100.0%      0.0%     
 flops    10 x    33 x    57              1805760       0.0%    100.0%      0.0%     
 flops    10 x    24 x    56              1935360       0.0%    100.0%      0.0%     
 flops    64 x    32 x    12              2211840       0.0%    100.0%      0.0%     
 flops    64 x    12 x    32              2211840       0.0%    100.0%      0.0%     
 flops    51 x    12 x   122              2389248       0.0%    100.0%      0.0%     
 flops    10 x    22 x    63              2467080       0.0%    100.0%      0.0%     
 flops     6 x    13 x    12              2875392       0.0%    100.0%      0.0%     
 flops    13 x     6 x    12              2875392       0.0%    100.0%      0.0%     
 flops     6 x    12 x     6              2985984       0.0%    100.0%      0.0%     
 flops    71 x    12 x   122              3326208       0.0%    100.0%      0.0%     
 flops    10 x    33 x    56              3548160       0.0%    100.0%      0.0%     
 flops    10 x    33 x    63              3866940       0.0%    100.0%      0.0%     
 flops    26 x    32 x    32              3993600       0.0%    100.0%      0.0%     
 flops    27 x    22 x    56              4257792       0.0%    100.0%      0.0%     
 flops    27 x    22 x    57              4333824       0.0%    100.0%      0.0%     
 flops    27 x    24 x    57              4727808       0.0%    100.0%      0.0%     
 flops    52 x    12 x   122              4872192       0.0%    100.0%      0.0%     
 flops    23 x    20 x    10              5078400       0.0%    100.0%      0.0%     
 flops    23 x    21 x    10              5428920       0.0%    100.0%      0.0%     
 flops    58 x    12 x   122              5434368       0.0%    100.0%      0.0%     
 flops    23 x    25 x    10              6509000       0.0%    100.0%      0.0%     
 flops    27 x    31 x    63              6749568       0.0%    100.0%      0.0%     
 flops    77 x    12 x   122              7214592       0.0%    100.0%      0.0%     
 flops    27 x    37 x    57              7288704       0.0%    100.0%      0.0%     
 flops    51 x    32 x    32              7833600       0.0%    100.0%      0.0%     
 flops    27 x    37 x    63              8055936       0.0%    100.0%      0.0%     
 flops    24 x    20 x    10              8169600       0.0%    100.0%      0.0%     
 flops    13 x    32 x    32              8519680       0.0%    100.0%      0.0%     
 flops    24 x    21 x    10              8709120       0.0%    100.0%      0.0%     
 flops    64 x    12 x   122              8994816       0.0%    100.0%      0.0%     
 flops    23 x    18 x    10              9290160       0.0%    100.0%      0.0%     
 flops    27 x    23 x    63              9937242       0.0%    100.0%      0.0%     
 flops    24 x    25 x    10             10440000       0.0%    100.0%      0.0%     
 flops    10 x    38 x    63             10677240       0.0%    100.0%      0.0%     
 flops    71 x    32 x    32             10905600       0.0%    100.0%      0.0%     
 flops    12 x    32 x   122             11243520       0.0%    100.0%      0.0%     
 flops    10 x    37 x    56             11934720       0.0%    100.0%      0.0%     
 flops    32 x    22 x    56             11984896       0.0%    100.0%      0.0%     
 flops    32 x    22 x    57             12198912       0.0%    100.0%      0.0%     
 flops    32 x    12 x   122             12742656       0.0%    100.0%      0.0%     
 flops    27 x    33 x    57             13001472       0.0%    100.0%      0.0%     
 flops    10 x    38 x    57             13039320       0.0%    100.0%      0.0%     
 flops    32 x    32 x    32             13107200       0.0%    100.0%      0.0%     
 flops    10 x    38 x    56             13278720       0.0%    100.0%      0.0%     
 flops    32 x    24 x    57             13307904       0.0%    100.0%      0.0%     
 flops    27 x    24 x    56             13934592       0.0%    100.0%      0.0%     
 flops    24 x    18 x    10             14912640       0.0%    100.0%      0.0%     
 flops    33 x    20 x    10             15338400       0.0%    100.0%      0.0%     
 flops    52 x    32 x    32             15974400       0.0%    100.0%      0.0%     
 flops    26 x    32 x   122             16240640       0.0%    100.0%      0.0%     
 flops    33 x    21 x    10             16354800       0.0%    100.0%      0.0%     
 flops    13 x    13 x    12             16791840       0.0%    100.0%      0.0%     
 flops     6 x    12 x    13             17252352       0.0%    100.0%      0.0%     
 flops    13 x    12 x     6             17252352       0.0%    100.0%      0.0%     
 flops    58 x    32 x    32             17817600       0.0%    100.0%      0.0%     
 flops    32 x    31 x    63             18873792       0.0%    100.0%      0.0%     
 flops    27 x    22 x    63             19010376       0.0%    100.0%      0.0%     
 flops    33 x    25 x    10             19618500       0.0%    100.0%      0.0%     
 flops    32 x    37 x    57             20516352       0.0%    100.0%      0.0%     
 flops    37 x    20 x    10             21312000       0.0%    100.0%      0.0%     
 flops    32 x    37 x    63             22675968       0.0%    100.0%      0.0%     
 flops    37 x    21 x    10             22750560       0.0%    100.0%      0.0%     
 flops    77 x    32 x    32             23654400       0.0%    100.0%      0.0%     
 flops    23 x    23 x    10             23889640       0.0%    100.0%      0.0%     
 flops    27 x    33 x    56             25546752       0.0%    100.0%      0.0%     
 flops    22 x    20 x    10             27244800       0.0%    100.0%      0.0%     
 flops    37 x    25 x    10             27269000       0.0%    100.0%      0.0%     
 flops    32 x    23 x    63             27542592       0.0%    100.0%      0.0%     
 flops    33 x    18 x    10             27989280       0.0%    100.0%      0.0%     
 flops    27 x    33 x    63             28627830       0.0%    100.0%      0.0%     
 flops    22 x    21 x    10             29069040       0.0%    100.0%      0.0%     
 flops    64 x    32 x    32             29491200       0.0%    100.0%      0.0%     
 flops    51 x    32 x   122             31856640       0.0%    100.0%      0.0%     
 flops    23 x    33 x    10             32697720       0.0%    100.0%      0.0%     
 flops    22 x    25 x    10             34859000       0.0%    100.0%      0.0%     
 flops    32 x    33 x    57             36596736       0.0%    100.0%      0.0%     
 flops    10 x    21 x    22             36608880       0.0%    100.0%      0.0%     
 flops    23 x    37 x    10             36899360       0.0%    100.0%      0.0%     
 flops    24 x    23 x    10             38375040       0.0%    100.0%      0.0%     
 flops    37 x    18 x    10             38947680       0.0%    100.0%      0.0%     
 flops    32 x    24 x    56             39223296       0.0%    100.0%      0.0%     
 flops     6 x    32 x     6             39813120       0.0%    100.0%      0.0%     
 flops    10 x    25 x    10             40630000       0.0%    100.0%      0.0%     
 flops    10 x    21 x    10             40731600       0.0%    100.0%      0.0%     
 flops    10 x    31 x    10             42742800       0.0%    100.0%      0.0%     
 flops    10 x    25 x    22             43560000       0.0%    100.0%      0.0%     
 flops    71 x    32 x   122             44349440       0.0%    100.0%      0.0%     
 flops    23 x    22 x    10             45529880       0.0%    100.0%      0.0%     
 flops    10 x    18 x    10             46976400       0.0%    100.0%      0.0%     
 flops    22 x    18 x    10             49761360       0.0%    100.0%      0.0%     
 flops    10 x    21 x    33             50436540       0.0%    100.0%      0.0%     
 flops    10 x    20 x    10             51624000       0.0%    100.0%      0.0%     
 flops    24 x    33 x    10             52477920       0.0%    100.0%      0.0%     
 flops    32 x    22 x    63             52867584       0.0%    100.0%      0.0%     
 flops    23 x    20 x    27             53058240       0.0%    100.0%      0.0%     
 flops    10 x    31 x    22             54969200       0.0%    100.0%      0.0%     
 flops    23 x    21 x    27             56024136       0.0%    100.0%      0.0%     
 flops    24 x    37 x    10             59211840       0.0%    100.0%      0.0%     
 flops    10 x    25 x    33             60060000       0.0%    100.0%      0.0%     
 flops    10 x    18 x    22             62979840       0.0%    100.0%      0.0%     
 flops    52 x    32 x   122             64962560       0.0%    100.0%      0.0%     
 flops    24 x    20 x    27             65525760       0.0%    100.0%      0.0%     
 flops    23 x    25 x    27             66819600       0.0%    100.0%      0.0%     
 flops    24 x    21 x    27             69128640       0.0%    100.0%      0.0%     
 flops    10 x    20 x    22             70356000       0.0%    100.0%      0.0%     
 flops    32 x    33 x    56             71909376       0.0%    100.0%      0.0%     
 flops    33 x    23 x    10             72013920       0.0%    100.0%      0.0%     
 flops    58 x    32 x   122             72458240       0.0%    100.0%      0.0%     
 flops    24 x    22 x    10             73117440       0.0%    100.0%      0.0%     
 flops    10 x    31 x    33             74556240       0.0%    100.0%      0.0%     
 flops    32 x    33 x    63             80232768       0.0%    100.0%      0.0%     
 flops    27 x    38 x    63             82219536       0.0%    100.0%      0.0%     
 flops    24 x    25 x    27             82490400       0.0%    100.0%      0.0%     
 flops    10 x    24 x    22             84891840       0.0%    100.0%      0.0%     
 flops    27 x    37 x    56             85929984       0.0%    100.0%      0.0%     
 flops    10 x    18 x    33             86498280       0.0%    100.0%      0.0%     
 flops    10 x    24 x    10             95155200       0.0%    100.0%      0.0%     
 flops    27 x    38 x    56             95606784       0.0%    100.0%      0.0%     
 flops    23 x    18 x    27             96041376       0.0%    100.0%      0.0%     
 flops    10 x    20 x    33             96096000       0.0%    100.0%      0.0%     
 flops    77 x    32 x   122             96194560       0.0%    100.0%      0.0%     
 flops    27 x    38 x    57             96612264       0.0%    100.0%      0.0%     
 flops    33 x    33 x    10             98423820       0.0%    100.0%      0.0%     
 flops    13 x    12 x    13             99193536       0.0%    100.0%      0.0%     
 flops    37 x    23 x    10            100179720       0.0%    100.0%      0.0%     
 flops     6 x     6 x    10            101535840       0.0%    100.0%      0.0%     
 flops    10 x    23 x    10            102198200       0.0%    100.0%      0.0%     
 flops    33 x    37 x    10            111037740       0.0%    100.0%      0.0%     
 flops    10 x    24 x    33            115394400       0.0%    100.0%      0.0%     
 flops    38 x    20 x    10            117556800       0.0%    100.0%      0.0%     
 flops    24 x    18 x    27            118506240       0.0%    100.0%      0.0%     
 flops    64 x    32 x   122            119930880       0.0%    100.0%      0.0%     
 flops    10 x    23 x    22            120853040       0.0%    100.0%      0.0%     
 flops    38 x    21 x    10            125174280       0.0%    100.0%      0.0%     
 flops    22 x    23 x    10            128038240       0.0%    100.0%      0.0%     
 flops    33 x    20 x    27            128767320       0.0%    100.0%      0.0%     
 flops    33 x    21 x    27            135879282       0.0%    100.0%      0.0%     
 flops    37 x    33 x    10            136996200       0.0%    100.0%      0.0%     
 flops    33 x    22 x    10            137214000       0.0%    100.0%      0.0%     
 flops    23 x    20 x    32            140134400       0.0%    100.0%      0.0%     
 flops    23 x    21 x    32            147944832       0.0%    100.0%      0.0%     
 flops    38 x    25 x    10            150214000       0.0%    100.0%      0.0%     
 flops    37 x    37 x    10            154587480       0.0%    100.0%      0.0%     
 flops    10 x    21 x    38            160030920       0.0%    100.0%      0.0%     
 flops    33 x    25 x    27            162117450       0.0%    100.0%      0.0%     
 flops    10 x    23 x    33            165735240       0.0%    100.0%      0.0%     
 flops    32 x    32 x   122            169902080       0.0%    100.0%      0.0%     
 flops    23 x    38 x    10            170797080       0.0%    100.0%      0.0%     
 flops    22 x    33 x    10            175125720       0.0%    100.0%      0.0%     
 flops    23 x    25 x    32            176529600       0.0%    100.0%      0.0%     
 flops    10 x     6 x    10            181587600       0.0%    100.0%      0.0%     
 flops    24 x    20 x    32            182722560       0.0%    100.0%      0.0%     
 flops    37 x    20 x    27            187851960       0.0%    100.0%      0.0%     
 flops    10 x    25 x    38            190608000       0.0%    100.0%      0.0%     
 flops    37 x    22 x    10            190883000       0.0%    100.0%      0.0%     
 flops    24 x    21 x    32            193052160       0.0%    100.0%      0.0%     
 flops    22 x    37 x    10            197574080       0.0%    100.0%      0.0%     
 flops    37 x    21 x    27            198167634       0.0%    100.0%      0.0%     
 flops    38 x    18 x    10            214269840       0.0%    100.0%      0.0%     
 flops    32 x    38 x    63            228751488       0.0%    100.0%      0.0%     
 flops     6 x    32 x    13            230031360       0.0%    100.0%      0.0%     
 flops    13 x    32 x     6            230031360       0.0%    100.0%      0.0%     
 flops    24 x    25 x    32            230361600       0.0%    100.0%      0.0%     
 flops    33 x    18 x    27            232871760       0.0%    100.0%      0.0%     
 flops    10 x    33 x    22            233713920       0.0%    100.0%      0.0%     
 flops    37 x    25 x    27            236413350       0.0%    100.0%      0.0%     
 flops    10 x    31 x    38            236660200       0.0%    100.0%      0.0%     
 flops    10 x    33 x    10            237421800       0.0%    100.0%      0.0%     
 flops    32 x    37 x    56            241876992       0.0%    100.0%      0.0%     
 flops    22 x    22 x    10            243984400       0.0%    100.0%      0.0%     
 flops    22 x    20 x    27            245226960       0.0%    100.0%      0.0%     
 flops    23 x    23 x    27            246410316       0.0%    100.0%      0.0%     
 flops    23 x    18 x    32            253434240       0.0%    100.0%      0.0%     
 flops    22 x    21 x    27            258685812       0.0%    100.0%      0.0%     
 flops    32 x    38 x    56            269115392       0.0%    100.0%      0.0%     
 flops    32 x    38 x    57            270732672       0.0%    100.0%      0.0%     
 flops    24 x    38 x    10            274110720       0.0%    100.0%      0.0%     
 flops    10 x    18 x    38            274762800       0.0%    100.0%      0.0%     
 flops    10 x    22 x    10            275154000       0.0%    100.0%      0.0%     
 flops    10 x     6 x     6            288099360       0.0%    100.0%      0.0%     
 flops    24 x    23 x    27            304637760       0.0%    100.0%      0.0%     
 flops    10 x    20 x    38            304972800       0.0%    100.0%      0.0%     
 flops    10 x    22 x    22            305336240       0.0%    100.0%      0.0%     
 flops    27 x    21 x    22            306985140       0.0%    100.0%      0.0%     
 flops    22 x    25 x    27            308583000       0.0%    100.0%      0.0%     
 flops    27 x    25 x    10            310621500       0.0%    100.0%      0.0%     
 flops    27 x    21 x    10            313414920       0.0%    100.0%      0.0%     
 flops    10 x    33 x    33            317378160       0.0%    100.0%      0.0%     
 flops    10 x    37 x    22            328042000       0.0%    100.0%      0.0%     
 flops    24 x    18 x    32            330614784       0.0%    100.0%      0.0%     
 flops    27 x    31 x    10            333109260       0.0%    100.0%      0.0%     
 flops    10 x    21 x    27            336480480       0.0%    100.0%      0.0%     
 flops    37 x    18 x    27            339715944       0.0%    100.0%      0.0%     
 flops    23 x    33 x    27            342806904       0.0%    100.0%      0.0%     
 flops    33 x    20 x    32            354647040       0.0%    100.0%      0.0%     
 flops    27 x    18 x    10            356111640       0.0%    100.0%      0.0%     
 flops    27 x    25 x    22            365161500       0.0%    100.0%      0.0%     
 flops    10 x    24 x    38            366204480       0.0%    100.0%      0.0%     
 flops    10 x    37 x    10            371480000       0.0%    100.0%      0.0%     
 flops    33 x    21 x    32            374641344       0.0%    100.0%      0.0%     
 flops    10 x    25 x    27            377325000       0.0%    100.0%      0.0%     
 flops    27 x    21 x    33            385745976       0.0%    100.0%      0.0%     
 flops    23 x    37 x    27            386748864       0.0%    100.0%      0.0%     
 flops    27 x    20 x    10            392385600       0.0%    100.0%      0.0%     
 flops    10 x    10 x    22            408201200       0.0%    100.0%      0.0%     
 flops    10 x    22 x    33            422183520       0.0%    100.0%      0.0%     
 flops    24 x    33 x    27            423317664       0.0%    100.0%      0.0%     
 flops    10 x    31 x    27            429581880       0.0%    100.0%      0.0%     
 flops    10 x    18 x    27            441424080       0.0%    100.0%      0.0%     
 flops    22 x    18 x    27            443461392       0.0%    100.0%      0.0%     
 flops    10 x    37 x    33            444907980       0.0%    100.0%      0.0%     
 flops    33 x    25 x    32            447004800       0.0%    100.0%      0.0%     
 flops    27 x    25 x    33            459221400       0.0%    100.0%      0.0%     
 flops    27 x    31 x    22            461160216       0.0%    100.0%      0.0%     
 flops    23 x    22 x    27            469945476       0.0%    100.0%      0.0%     
 flops    10 x    10 x     6            470047200       0.0%    100.0%      0.0%     
 flops    24 x    37 x    27            477601920       0.0%    100.0%      0.0%     
 flops    37 x    20 x    32            513145600       0.0%    100.0%      0.0%     
 flops    33 x    38 x    10            513914280       0.0%    100.0%      0.0%     
 flops    10 x    20 x    27            515516400       0.0%    100.0%      0.0%     
 flops    10 x    23 x    38            525676040       0.0%    100.0%      0.0%     
 flops    27 x    18 x    22            528206184       0.0%    100.0%      0.0%     
 flops    37 x    21 x    32            542184384       0.0%    100.0%      0.0%     
 flops    13 x     6 x    10            544978200       0.0%    100.0%      0.0%     
 flops    38 x    23 x    10            552158240       0.0%    100.0%      0.0%     
 flops    10 x    10 x    33            553482600       0.0%    100.0%      0.0%     
 flops    27 x    31 x    33            569931714       0.0%    100.0%      0.0%     
 flops    24 x    22 x    27            580390272       0.0%    100.0%      0.0%     
 flops    27 x    20 x    22            590245920       0.0%    100.0%      0.0%     
 flops    33 x    23 x    27            598149684       0.0%    100.0%      0.0%     
 flops     6 x    13 x    10            606173880       0.0%    100.0%      0.0%     
 flops    33 x    18 x    32            641558016       0.0%    100.0%      0.0%     
 flops    37 x    25 x    32            647056000       0.0%    100.0%      0.0%     
 flops    23 x    23 x    32            650001344       0.0%    100.0%      0.0%     
 flops    27 x    18 x    33            661599576       0.0%    100.0%      0.0%     
 flops    22 x    20 x    32            664632320       0.0%    100.0%      0.0%     
 flops    22 x    21 x    32            701737344       0.0%    100.0%      0.0%     
 flops    27 x    24 x    22            711916128       0.0%    100.0%      0.0%     
 flops    37 x    38 x    10            715625880       0.0%    100.0%      0.0%     
 flops    27 x    24 x    10            724930560       0.0%    100.0%      0.0%     
 flops    27 x    20 x    33            734682960       0.0%    100.0%      0.0%     
 flops    38 x    33 x    10            754607040       0.0%    100.0%      0.0%     
 flops    10 x    24 x    27            774619200       0.0%    100.0%      0.0%     
 flops    27 x    23 x    10            775591740       0.0%    100.0%      0.0%     
 flops    33 x    33 x    27            831752064       0.0%    100.0%      0.0%     
 flops    22 x    25 x    32            837337600       0.0%    100.0%      0.0%     
 flops    32 x    21 x    22            837365760       0.0%    100.0%      0.0%     
 flops    24 x    23 x    32            848366592       0.0%    100.0%      0.0%     
 flops    38 x    37 x    10            852007880       0.0%    100.0%      0.0%     
 flops    32 x    25 x    10            870336000       0.0%    100.0%      0.0%     
 flops    37 x    23 x    27            872896230       0.0%    100.0%      0.0%     
 flops    32 x    21 x    10            876610560       0.0%    100.0%      0.0%     
 flops    27 x    24 x    33            881961696       0.0%    100.0%      0.0%     
 flops    23 x    33 x    32            902590656       0.0%    100.0%      0.0%     
 flops    22 x    38 x    10            914500400       0.0%    100.0%      0.0%     
 flops    37 x    18 x    32            928393344       0.0%    100.0%      0.0%     
 flops    32 x    31 x    10            931587200       0.0%    100.0%      0.0%     
 flops    33 x    37 x    27            938702358       0.0%    100.0%      0.0%     
 flops    10 x    23 x    27            959569200       0.0%    100.0%      0.0%     
 flops    10 x    21 x    32            972666240       0.0%    100.0%      0.0%     
 flops     6 x     6 x    27            973137240       0.0%    100.0%      0.0%     
 flops    38 x    20 x    27            975438720       0.0%    100.0%      0.0%     
 flops    10 x    13 x    10            988358800       0.0%    100.0%      0.0%     
 flops    32 x    25 x    22            995984000       0.0%    100.0%      0.0%     
 flops    32 x    18 x    10            997701120       0.0%    100.0%      0.0%     
 flops    10 x    33 x    38           1007187720       0.0%    100.0%      0.0%     
 flops    27 x    23 x    22           1013501808       0.0%    100.0%      0.0%     
 flops    23 x    37 x    32           1018041088       0.0%    100.0%      0.0%     
 flops    38 x    21 x    27           1029209328       0.0%    100.0%      0.0%     
 flops    38 x    22 x    10           1051520800       0.0%    100.0%      0.0%     
 flops    10 x    25 x    32           1066704000       0.0%    100.0%      0.0%     
 flops    32 x    21 x    33           1072830528       0.0%    100.0%      0.0%     
 flops    32 x    20 x    10           1099558400       0.0%    100.0%      0.0%     
 flops    22 x    23 x    27           1138836996       0.0%    100.0%      0.0%     
 flops    33 x    22 x    27           1140209136       0.0%    100.0%      0.0%     
 flops    10 x    38 x    22           1145303280       0.0%    100.0%      0.0%     
 flops    10 x    38 x    10           1162708800       0.0%    100.0%      0.0%     
 flops    24 x    33 x    32           1176975360       0.0%    100.0%      0.0%     
 flops    22 x    18 x    32           1201989888       0.0%    100.0%      0.0%     
 flops    37 x    33 x    27           1213383402       0.0%    100.0%      0.0%     
 flops    10 x    31 x    32           1216489600       0.0%    100.0%      0.0%     
 flops    38 x    25 x    27           1228122000       0.0%    100.0%      0.0%     
 flops    23 x    22 x    32           1240274816       0.0%    100.0%      0.0%     
 flops    27 x    21 x    38           1243893672       0.0%    100.0%      0.0%     
 flops    32 x    31 x    22           1257586176       0.0%    100.0%      0.0%     
 flops    10 x    18 x    32           1259066880       0.0%    100.0%      0.0%     
 flops    27 x    23 x    33           1267041204       0.0%    100.0%      0.0%     
 flops    32 x    25 x    33           1277496000       0.0%    100.0%      0.0%     
 flops    13 x    32 x    13           1322580480       0.0%    100.0%      0.0%     
 flops    24 x    37 x    32           1326686208       0.0%    100.0%      0.0%     
 flops    10 x    22 x    38           1340893840       0.0%    100.0%      0.0%     
 flops    27 x     6 x    10           1348653240       0.0%    100.0%      0.0%     
 flops    37 x    37 x    27           1368961668       0.0%    100.0%      0.0%     
 flops    10 x    37 x    38           1412186400       0.0%    100.0%      0.0%     
 flops    10 x    20 x    32           1426419200       0.0%    100.0%      0.0%     
 flops    32 x    18 x    22           1440603648       0.0%    100.0%      0.0%     
 flops    27 x    25 x    38           1480979700       0.0%    100.0%      0.0%     
 flops    10 x    38 x    33           1553480280       0.0%    100.0%      0.0%     
 flops    22 x    33 x    27           1584233640       0.0%    100.0%      0.0%     
 flops    32 x    31 x    33           1584618816       0.0%    100.0%      0.0%     
 flops    32 x    20 x    22           1610132480       0.0%    100.0%      0.0%     
 flops    24 x    22 x    32           1618231296       0.0%    100.0%      0.0%     
 flops    33 x    23 x    32           1646094912       0.0%    100.0%      0.0%     
 flops    37 x    22 x    27           1663295040       0.0%    100.0%      0.0%     
 flops    10 x    13 x     6           1684313280       0.0%    100.0%      0.0%     
 flops    10 x     6 x    27           1711692000       0.0%    100.0%      0.0%     
 flops    10 x    10 x    38           1757028800       0.0%    100.0%      0.0%     
 flops    38 x    18 x    27           1764432720       0.0%    100.0%      0.0%     
 flops    23 x    38 x    27           1786793364       0.0%    100.0%      0.0%     
 flops    22 x    37 x    27           1787426784       0.0%    100.0%      0.0%     
 flops    27 x    31 x    38           1837305396       0.0%    100.0%      0.0%     
 flops    32 x    18 x    33           1839670272       0.0%    100.0%      0.0%     
 flops    27 x    33 x    10           1852353360       0.0%    100.0%      0.0%     
 flops    10 x     6 x    13           1903869240       0.0%    100.0%      0.0%     
 flops    32 x    24 x    22           1942195200       0.0%    100.0%      0.0%     
 flops    27 x    33 x    22           1960670448       0.0%    100.0%      0.0%     
 flops    10 x    33 x    27           1991545380       0.0%    100.0%      0.0%     
 flops    32 x    24 x    10           2029209600       0.0%    100.0%      0.0%     
 flops    32 x    20 x    33           2043782400       0.0%    100.0%      0.0%     
 flops    27 x    22 x    10           2095477560       0.0%    100.0%      0.0%     
 flops    27 x    18 x    38           2133238680       0.0%    100.0%      0.0%     
 flops    22 x    22 x    27           2170830024       0.0%    100.0%      0.0%     
 flops    32 x    23 x    10           2173393280       0.0%    100.0%      0.0%     
 flops    24 x    38 x    27           2206310400       0.0%    100.0%      0.0%     
 flops    10 x    24 x    32           2264570880       0.0%    100.0%      0.0%     
 flops    33 x    33 x    32           2284356096       0.0%    100.0%      0.0%     
 flops    27 x    20 x    38           2369649600       0.0%    100.0%      0.0%     
 flops    37 x    23 x    32           2381983040       0.0%    100.0%      0.0%     
 flops    27 x    33 x    33           2425688694       0.0%    100.0%      0.0%     
 flops    32 x    24 x    33           2453147136       0.0%    100.0%      0.0%     
 flops    10 x    22 x    27           2511871560       0.0%    100.0%      0.0%     
 flops    27 x    21 x    27           2540130516       0.0%    100.0%      0.0%     
 flops    27 x    22 x    22           2560282560       0.0%    100.0%      0.0%     
 flops    33 x    37 x    32           2575313664       0.0%    100.0%      0.0%     
 flops    27 x     6 x     6           2691324144       0.0%    100.0%      0.0%     
 flops    38 x    20 x    32           2691640320       0.0%    100.0%      0.0%     
 flops     6 x     6 x    32           2702644992       0.0%    100.0%      0.0%     
 flops    10 x    23 x    32           2707228800       0.0%    100.0%      0.0%     
 flops    27 x    37 x    22           2751557688       0.0%    100.0%      0.0%     
 flops    32 x    23 x    22           2764881152       0.0%    100.0%      0.0%     
 flops    38 x    21 x    32           2842820736       0.0%    100.0%      0.0%     
 flops    27 x    24 x    38           2844465984       0.0%    100.0%      0.0%     
 flops    27 x    37 x    10           2854922220       0.0%    100.0%      0.0%     
 flops    27 x    25 x    27           2860377300       0.0%    100.0%      0.0%     
 flops    10 x    37 x    27           2946250800       0.0%    100.0%      0.0%     
 flops    27 x    10 x    22           2979539640       0.0%    100.0%      0.0%     
 flops    22 x    23 x    32           3083442560       0.0%    100.0%      0.0%     
 flops    33 x    22 x    32           3139944192       0.0%    100.0%      0.0%     
 flops    10 x    10 x    13           3162000400       0.0%    100.0%      0.0%     
 flops    27 x    22 x    33           3228096564       0.0%    100.0%      0.0%     
 flops    27 x    31 x    27           3280968018       0.0%    100.0%      0.0%     
 flops    37 x    33 x    32           3305413056       0.0%    100.0%      0.0%     
 flops    27 x    18 x    27           3340047636       0.0%    100.0%      0.0%     
 flops    13 x    13 x    10           3346892900       0.0%    100.0%      0.0%     
 flops    38 x    25 x    32           3391910400       0.0%    100.0%      0.0%     
 flops    27 x    37 x    33           3400216380       0.0%    100.0%      0.0%     
 flops    32 x    21 x    38           3452416128       0.0%    100.0%      0.0%     
 flops    10 x    27 x    22           3478867920       0.0%    100.0%      0.0%     
 flops    27 x    10 x     6           3483226800       0.0%    100.0%      0.0%     
 flops    32 x    23 x    33           3524868864       0.0%    100.0%      0.0%     
 flops    37 x    37 x    32           3726571328       0.0%    100.0%      0.0%     
 flops    27 x    20 x    27           3909335400       0.0%    100.0%      0.0%     
 flops    32 x     6 x    10           3914046720       0.0%    100.0%      0.0%     
 flops    38 x    38 x    10           3944545920       0.0%    100.0%      0.0%     
 flops    27 x    10 x    33           4002175980       0.0%    100.0%      0.0%     
 flops    27 x    23 x    38           4087126404       0.0%    100.0%      0.0%     
 flops    32 x    25 x    38           4110566400       0.0%    100.0%      0.0%     
 flops    10 x    27 x    33           4260280860       0.0%    100.0%      0.0%     
 flops    22 x    33 x    32           4280124288       0.0%    100.0%      0.0%     
 flops    33 x    38 x    27           4336261776       0.0%    100.0%      0.0%     
 flops    10 x    27 x     6           4403710800       0.0%    100.0%      0.0%     
 flops    38 x    23 x    27           4534497288       0.0%    100.0%      0.0%     
 flops    37 x    22 x    32           4544177792       0.0%    100.0%      0.0%     
 flops    23 x    38 x    32           4708356864       0.0%    100.0%      0.0%     
 flops    10 x     6 x    32           4747918080       0.0%    100.0%      0.0%     
 flops    22 x    37 x    32           4825912960       0.0%    100.0%      0.0%     
 flops    38 x    18 x    32           4869160704       0.0%    100.0%      0.0%     
 flops    10 x    38 x    38           4930220320       0.0%    100.0%      0.0%     
 flops    32 x    31 x    38           5099590272       0.0%    100.0%      0.0%     
 flops    32 x    33 x    10           5183038080       0.0%    100.0%      0.0%     
 flops    32 x    33 x    22           5348378112       0.0%    100.0%      0.0%     
 flops     6 x    13 x    27           5792776236       0.0%    100.0%      0.0%     
 flops    10 x    33 x    32           5827789440       0.0%    100.0%      0.0%     
 flops    27 x    24 x    27           5840234784       0.0%    100.0%      0.0%     
 flops    32 x    22 x    10           5871810560       0.0%    100.0%      0.0%     
 flops    22 x    22 x    32           5882992896       0.0%    100.0%      0.0%     
 flops    32 x    18 x    38           5921141760       0.0%    100.0%      0.0%     
 flops    24 x    38 x    32           6136402944       0.0%    100.0%      0.0%     
 flops    38 x    33 x    27           6301718676       0.0%    100.0%      0.0%     
 flops    37 x    38 x    27           6324165504       0.0%    100.0%      0.0%     
 flops    32 x    20 x    38           6577052160       0.0%    100.0%      0.0%     
 flops    32 x    33 x    33           6746990976       0.0%    100.0%      0.0%     
 flops    32 x    22 x    22           6983477248       0.0%    100.0%      0.0%     
 flops    38 x    37 x    27           7110662220       0.0%    100.0%      0.0%     
 flops    32 x    21 x    27           7112375424       0.0%    100.0%      0.0%     
 flops    10 x    22 x    32           7120058880       0.0%    100.0%      0.0%     
 flops    13 x     6 x    27           7144798752       0.0%    100.0%      0.0%     
 flops    32 x     6 x     6           7174540800       0.0%    100.0%      0.0%     
 flops    27 x    23 x    27           7246362060       0.0%    100.0%      0.0%     
 flops    27 x    21 x    32           7296609600       0.0%    100.0%      0.0%     
 flops    32 x    37 x    22           7505314432       0.0%    100.0%      0.0%     
 flops    27 x    13 x    10           7607110680       0.0%    100.0%      0.0%     
 flops    27 x    33 x    38           7822078308       0.0%    100.0%      0.0%     
 flops    32 x    24 x    38           7894563840       0.0%    100.0%      0.0%     
 flops    32 x    37 x    10           7993420800       0.0%    100.0%      0.0%     
 flops    27 x    25 x    32           8001028800       0.0%    100.0%      0.0%     
 flops    32 x    25 x    27           8008329600       0.0%    100.0%      0.0%     
 flops    22 x    38 x    27           8257334184       0.0%    100.0%      0.0%     
 flops    32 x    10 x    22           8372460800       0.0%    100.0%      0.0%     
 flops    38 x    22 x    27           8640335880       0.0%    100.0%      0.0%     
 flops    10 x    37 x    32           8674433920       0.0%    100.0%      0.0%     
 flops    32 x    22 x    33           8980004352       0.0%    100.0%      0.0%     
 flops    27 x    38 x    10           9015708240       0.0%    100.0%      0.0%     
 flops    27 x    31 x    32           9182680128       0.0%    100.0%      0.0%     
 flops    32 x    31 x    27           9186376320       0.0%    100.0%      0.0%     
 flops    32 x    18 x    27           9351448704       0.0%    100.0%      0.0%     
 flops    27 x    18 x    32           9446222592       0.0%    100.0%      0.0%     
 flops    32 x    37 x    33           9456127296       0.0%    100.0%      0.0%     
 flops    10 x    32 x    22           9463773440       0.0%    100.0%      0.0%     
 flops    27 x    38 x    22           9607049496       0.0%    100.0%      0.0%     
 flops    32 x    10 x     6           9771985920       0.0%    100.0%      0.0%     
 flops    10 x    38 x    27          10008424800       0.0%    100.0%      0.0%     
 flops    27 x    22 x    38          10424471904       0.0%    100.0%      0.0%     
 flops    27 x    20 x    32          10735061760       0.0%    100.0%      0.0%     
 flops    32 x    20 x    27          10943735040       0.0%    100.0%      0.0%     
 flops    27 x    37 x    38          10963729296       0.0%    100.0%      0.0%     
 flops    10 x    13 x    13          11278187960       0.0%    100.0%      0.0%     
 flops    32 x    10 x    33          11310541440       0.0%    100.0%      0.0%     
 flops    32 x    23 x    38          11343205504       0.0%    100.0%      0.0%     
 flops    10 x    32 x     6          11738342400       0.0%    100.0%      0.0%     
 flops    10 x    32 x    33          11832585600       0.0%    100.0%      0.0%     
 flops    27 x    38 x    33          11872781712       0.0%    100.0%      0.0%     
 flops    33 x    38 x    32          11913361152       0.0%    100.0%      0.0%     
 flops    38 x    23 x    32          12496438016       0.0%    100.0%      0.0%     
 flops    27 x    10 x    38          12703070160       0.0%    100.0%      0.0%     
 flops    27 x     6 x    27          12753123084       0.0%    100.0%      0.0%     
 flops    10 x    13 x    27          12878533980       0.0%    100.0%      0.0%     
 flops    10 x    27 x    38          13743844560       0.0%    100.0%      0.0%     
 flops    27 x    33 x    27          15099376050       0.0%    100.0%      0.0%     
 flops    27 x    13 x     6          15763755384       0.0%    100.0%      0.0%     
 flops     6 x    13 x    32          16067860224       0.0%    100.0%      0.0%     
 flops    32 x    24 x    27          16357469184       0.0%    100.0%      0.0%     
 flops    27 x    24 x    32          16927087104       0.0%    100.0%      0.0%     
 flops    37 x    38 x    32          17234725504       0.0%    100.0%      0.0%     
 flops    38 x    33 x    32          17331122688       0.0%    100.0%      0.0%     
 flops    27 x    22 x    27          18988061796       0.0%    100.0%      0.0%     
 flops    38 x    37 x    32          19537776000       0.0%    100.0%      0.0%     
 flops    13 x     6 x    32          19845062016       0.0%    100.0%      0.0%     
 flops    32 x    23 x    27          20293644096       0.0%    100.0%      0.0%     
 flops    27 x    23 x    32          20300360832       0.0%    100.0%      0.0%     
 flops    32 x    21 x    32          20450605056       0.0%    100.0%      0.0%     
 flops    32 x    33 x    38          21710451840       0.0%    100.0%      0.0%     
 flops    27 x    37 x    27          22254127596       0.0%    100.0%      0.0%     
 flops    22 x    38 x    32          22321280256       0.0%    100.0%      0.0%     
 flops    32 x    25 x    32          22427033600       0.0%    100.0%      0.0%     
 flops    27 x     6 x    13          22560057468       0.0%    100.0%      0.0%     
 flops    32 x    13 x    10          22896182400       0.0%    100.0%      0.0%     
 flops    27 x    10 x    13          23498748000       0.0%    100.0%      0.0%     
 flops    38 x    22 x    32          23832982272       0.0%    100.0%      0.0%     
 flops    32 x    38 x    10          25231148800       0.0%    100.0%      0.0%     
 flops    27 x    27 x    22          25464174120       0.0%    100.0%      0.0%     
 flops    32 x    31 x    32          25729210368       0.0%    100.0%      0.0%     
 flops    32 x    38 x    22          26205296128       0.0%    100.0%      0.0%     
 flops    32 x    18 x    32          26476351488       0.0%    100.0%      0.0%     
 flops    32 x    22 x    38          28932502016       0.0%    100.0%      0.0%     
 flops    10 x    38 x    32          29036815360       0.0%    100.0%      0.0%     
 flops    32 x    20 x    32          30074224640       0.0%    100.0%      0.0%     
 flops    32 x    37 x    38          30430699136       0.0%    100.0%      0.0%     
 flops    27 x    27 x    33          30857721444       0.0%    100.0%      0.0%     
 flops    27 x    27 x     6          32747569380       0.0%    100.0%      0.0%     
 flops    38 x    38 x    27          32847390000       0.0%    100.0%      0.0%     
 flops    32 x    38 x    33          33019084032       0.0%    100.0%      0.0%     
 flops    27 x     6 x    32          35238281472       0.0%    100.0%      0.0%     
 flops    10 x    13 x    32          35292075520       0.0%    100.0%      0.0%     
 flops    32 x    10 x    38          35888853760       0.0%    100.0%      0.0%     
 flops    32 x     6 x    27          36947840256       0.0%    100.0%      0.0%     
 flops    10 x    27 x    13          37406399940       0.0%    100.0%      0.0%     
 flops    10 x    32 x    38          38099104000       0.0%    100.0%      0.0%     
 flops    27 x    38 x    38          38282785056       0.0%    100.0%      0.0%     
 flops    32 x    13 x     6          42009606912       0.0%    100.0%      0.0%     
 flops    32 x    33 x    27          42292990080       0.0%    100.0%      0.0%     
 flops    27 x    33 x    32          43796655936       0.0%    100.0%      0.0%     
 flops    13 x    13 x    27          43906728294       0.0%    100.0%      0.0%     
 flops    32 x    24 x    32          47469182976       0.0%    100.0%      0.0%     
 flops    32 x    22 x    27          53161346304       0.0%    100.0%      0.0%     
 flops    27 x    22 x    32          53356710528       0.0%    100.0%      0.0%     
 flops    32 x    23 x    32          56900124672       0.0%    100.0%      0.0%     
 flops    32 x     6 x    13          58112081664       0.0%    100.0%      0.0%     
 flops    32 x    37 x    27          62370718848       0.0%    100.0%      0.0%     
 flops    27 x    37 x    32          64975535424       0.0%    100.0%      0.0%     
 flops    32 x    10 x    13          65957956480       0.0%    100.0%      0.0%     
 flops    27 x    32 x    22          69354033408       0.0%    100.0%      0.0%     
 flops    32 x    27 x    22          71785992960       0.0%    100.0%      0.0%     
 flops    27 x    38 x    27          75992126400       0.0%    100.0%      0.0%     
 flops    27 x    32 x    33          85735241856       0.0%    100.0%      0.0%     
 flops    27 x    32 x     6          87281079552       0.0%    100.0%      0.0%     
 flops    32 x    27 x    33          87893600256       0.0%    100.0%      0.0%     
 flops    38 x    38 x    32          90373051904       0.0%    100.0%      0.0%     
 flops    32 x    27 x     6          91858593024       0.0%    100.0%      0.0%     
 flops    10 x    32 x    13          96399064320       0.0%    100.0%      0.0%     
 flops    27 x    13 x    27          98719179624       0.0%    100.0%      0.0%     
 flops    27 x    27 x    38          99534172464       0.0%    100.0%      0.0%     
 flops    32 x     6 x    32         101717041152       0.0%    100.0%      0.0%     
 flops    32 x    38 x    38         106256220160       0.0%    100.0%      0.0%     
 flops    13 x    13 x    32         120420487616       0.0%    100.0%      0.0%     
 flops    32 x    33 x    32         122739910656       0.0%    100.0%      0.0%     
 flops    27 x    13 x    13         133440152976       0.0%    100.0%      0.0%     
 flops    32 x    22 x    32         149553524736       0.0%    100.0%      0.0%     
 flops    32 x    37 x    32         182179371008       0.0%    100.0%      0.0%     
 flops    32 x    32 x    22         195386019840       0.0%    100.0%      0.0%     
 flops    32 x    38 x    27         212817680640       0.0%    100.0%      0.0%     
 flops    27 x    38 x    32         218449616256       0.0%    100.0%      0.0%     
 flops    32 x    32 x    33         244018722816       0.0%    100.0%      0.0%     
 flops    32 x    32 x     6         244803330048       0.0%    100.0%      0.0%     
 flops    27 x    13 x    32         266781992256       0.0%    100.0%      0.0%     
 flops    27 x    32 x    38         276032019456       0.0%    100.0%      0.0%     
 flops    27 x    27 x    13         277134356772       0.0%    100.0%      0.0%     
 flops    32 x    27 x    38         283119463296       0.0%    100.0%      0.0%     
 flops    32 x    13 x    27         290934858240       0.0%    100.0%      0.0%     
 flops    32 x    13 x    13         343993534976       0.0%    100.0%      0.0%     
 flops    32 x    38 x    32         612309893120       0.0%    100.0%      0.0%     
 flops    27 x    32 x    13         714815330112       0.0%    100.0%      0.0%     
 flops    32 x    27 x    13         778311623232       0.0%    100.0%      0.0%     
 flops    32 x    13 x    32         780546590720       0.0%    100.0%      0.0%     
 flops    32 x    32 x    38         784626860032       0.0%    100.0%      0.0%     
 flops    32 x    32 x    13        2007181176832       0.0%    100.0%      0.0%     
 flops inhomo. stacks              19211649900736     100.0%      0.0%      0.0%
 flops total                        32.156083E+12      59.7%     40.3%      0.0%
 flops max/rank                      1.114236E+12      59.5%     40.5%      0.0%
 matmuls inhomo. stacks                 171151435     100.0%      0.0%      0.0%
 matmuls total                          722432819      23.7%     76.3%      0.0%
 number of processed stacks               5711752       3.8%     96.2%      0.0%
 average stack size                                   785.3     100.3       0.0
 marketing flops                    42.950172E+12
 -------------------------------------------------------------------------------
 # multiplications                            506
 max memory usage/rank              23.115444E+09
 # max total images/rank                        2
 # max 3D layers                                1
 # MPI messages exchanged                  210496
 MPI messages size (bytes):
  total size                       413.650059E+09
  min size                           0.000000E+00
  max size                          13.019840E+06
  average size                       1.965121E+06
 MPI breakdown and total messages size (bytes):
             size <=      128               26492                        0
       128 < size <=     8192                 668                  4376288
      8192 < size <=    32768                3022                 79094400
     32768 < size <=   131072               19524               2228565120
    131072 < size <=  4194304              126287             137934740504
   4194304 < size <= 16777216               34503             273404631472
  16777216 < size                               0                        0
 -------------------------------------------------------------------------------

 *** WARNING in dbcsr_mm.F:301 :: Using a non-square number of MPI ranks ***
 *** might lead to poor performance. Used ranks: 32 Suggested: 36 64     ***

 -------------------------------------------------------------------------------
 -                                                                             -
 -                      DBCSR MESSAGE PASSING PERFORMANCE                      -
 -                                                                             -
 -------------------------------------------------------------------------------
 ROUTINE             CALLS      AVE VOLUME [Bytes]
 MP_Bcast              566                     12.
 MP_Allreduce         3257                     42.
 MP_Alltoall          3387                 211555.
 MP_ISend            22592                 622894.
 MP_IRecv            22124                 639049.
 -------------------------------------------------------------------------------

 -------------------------------------------------------------------------------
 -                                                                             -
 -                                GRID STATISTICS                              -
 -                                                                             -
 -------------------------------------------------------------------------------
 LP    KERNEL             BACKEND                              COUNT     PERCENT
 3     collocate ortho    CPU                                   1530      23.28%
 3     integrate ortho    CPU                                   1530      23.28%
 4     collocate ortho    CPU                                   1426      21.70%
 4     integrate ortho    CPU                                   1426      21.70%
 2     collocate ortho    CPU                                    286       4.35%
 2     integrate ortho    CPU                                    286       4.35%
 0     collocate general  CPU                                     88       1.34%
 -------------------------------------------------------------------------------

 -------------------------------------------------------------------------------
 -                                                                             -
 -                          OFFLOAD MEMPOOL STATISTICS                         -
 -                                                                             -
 -------------------------------------------------------------------------------
 Memory consumption                Number of allocations  Used [MiB]  Size [MiB]
 Host                                                  6         171    21945465
 -------------------------------------------------------------------------------

 MEMORY| Estimated peak process memory [MiB]                                2820

 -------------------------------------------------------------------------------
 -                                                                             -
 -                         MESSAGE PASSING PERFORMANCE                         -
 -                                                                             -
 -------------------------------------------------------------------------------

 ROUTINE             CALLS      AVE VOLUME [Bytes]
 MP_Group                5
 MP_Bcast              703                 132598.
 MP_Allreduce          797                  86184.
 MP_Sync                10
 MP_Alltoall            46              115821664.
 MP_SendRecv           124                 937600.
 MP_ISendRecv          124                 937600.
 MP_Wait               358
 MP_comm_split          12
 MP_ISend              198                3017083.
 MP_IRecv              198                3018556.
 -------------------------------------------------------------------------------


 -------------------------------------------------------------------------------
 -                                                                             -
 -                           R E F E R E N C E S                               -
 -                                                                             -
 -------------------------------------------------------------------------------
 
 CP2K version 2026.2 (Development Version), the CP2K developers group (2026).
 CP2K is freely available from https://www.cp2k.org/ .
 
 M. Iannuzzi, J. Wilhelm, F. Stein, A. Bussy, H. Elgabarty, D. Golze, A. Hehn, 
 M. Graml, S. Marek, B. Sertcan Gökmen, C. Schran, H. Forbert, R. Z. 
 Khaliullin, A. Kozhevnikov, M. Taillefumier, R. Meli, V. V. Rybkin, M. Brehm, 
 R. Schade, O. Schütt, J. V. Pototschnig, H. Mirhosseini, A. Knüpfer, D. Marx, 
 M. Krack, J. Hutter, T. D. Kühne.
 J. Phys. Chem. B 130, 1237-1310 (2026).
 The CP2K Program Package Made Simple.
 https://doi.org/10.1021/acs.jpcb.5c05851

 M. Graml, K. Zollner, D. Hernangómez-Pérez, P. E. Faria Junior, J. Wilhelm.
 J. Chem. Theory Comput. 20, 2202-2208 (2024).
 Low-scaling GW algorithm applied to twisted transition-metal dichalcogenide 
 heterobilayers.
 https://doi.org/10.1021/acs.jctc.3c01230

 T. D. Kühne, M. Iannuzzi, M. Del Ben, V. V. Rybkin, P. Seewald, F. Stein, T. 
 Laino, R. Z. Khaliullin, O. Schütt, F. Schiffmann, D. Golze, J. Wilhelm, S. 
 Chulkov, M. H. Bani-Hashemian, V. Weber, U. Borstnik, M. Taillefumier, A. S. 
 Jakobovits, A. Lazzaro, H. Pabst, T. Müller, R. Schade, M. Guidon, S. 
 Andermatt, N. Holmberg, G. K. Schenter, A. Hehn, A. Bussy, F. Belleflamme, G. 
 Tabacchi, A. Glöß, M. Lass, I. Bethune, C. J. Mundy, C. Plessl, M. Watkins, 
 J. VandeVondele, M. Krack, J. Hutter.
 J. Chem. Phys. 152, 194103 (2020).
 CP2K: An electronic structure and molecular dynamics software package - 
 Quickstep: Efficient and accurate electronic structure calculations.
 https://doi.org/10.1063/5.0007045

 O. Schuett, P. Messmer, J. Hutter, J. VandeVondele.
 Electronic Structure Calculations on Graphics Processing Units, 173-190 (2016).
 GPU-Accelerated Sparse Matrix-Matrix Multiplication for Linear Scaling Density 
 Functional Theory.
 https://doi.org/10.1002/9781118670712.ch8

 A. Heinecke, G. Henry, M. Hutchinson, H. Pabst.
 Proceedings of Intl. Supercomputing Conference, 981-991 (2016).
 LIBXSMM: Accelerating Small Matrix Multiplications by Runtime Code Generation.
 https://doi.org/10.1109/SC.2016.83

 U. Borstnik, J. VandeVondele, V. Weber, J. Hutter.
 Parallel Comput. 40, 47-58 (2014).
 Sparse matrix multiplication: The distributed block-compressed sparse row 
 library.
 https://doi.org/10.1016/j.parco.2014.03.012

 J. VandeVondele, J. Hutter.
 J. Chem. Phys. 127, 114105 (2007).
 Gaussian basis sets for accurate calculations on molecular systems in gas and 
 condensed phases.
 https://doi.org/10.1063/1.2770708

 J. VandeVondele, M. Krack, F. Mohamed, M. Parrinello, T. Chassaing, J. Hutter.
 Comput. Phys. Commun. 167, 103-128 (2005).
 QUICKSTEP: Fast and accurate density functional calculations using a mixed 
 Gaussian and plane waves approach.
 https://doi.org/10.1016/j.cpc.2004.12.014

 M. Krack.
 Theor. Chem. Acc. 114, 145-152 (2005).
 Pseudopotentials for H to Kr optimized for gradient-corrected 
 exchange-correlation functionals.
 https://doi.org/10.1007/s00214-005-0655-y

 M. Frigo, S. G. Johnson.
 Proc. IEEE 93, 216-231 (2005).
 The design and implementation of FFTW3.
 https://doi.org/10.1109/JPROC.2004.840301

 J. VandeVondele, J. Hutter.
 J. Chem. Phys. 118, 4365-4369 (2003).
 An efficient orbital transformation method for electronic structure 
 calculations.
 https://doi.org/10.1063/1.1543154

 C. Hartwigsen, S. Goedecker, J. Hutter.
 Phys. Rev. B 58, 3641-3662 (1998).
 Relativistic separable dual-space Gaussian pseudopotentials from H to Rn.
 https://doi.org/10.1103/PhysRevB.58.3641

 G. Lippert, J. Hutter, M. Parrinello.
 Mol. Phys. 92, 477-487 (1997).
 A hybrid Gaussian and plane wave density functional scheme.
 https://doi.org/10.1080/002689797170220

 S. Goedecker, M. Teter, J. Hutter.
 Phys. Rev. B 54, 1703-1710 (1996).
 Separable dual-space Gaussian pseudopotentials.
 https://doi.org/10.1103/PhysRevB.54.1703

 J. P. Perdew, K. Burke, M. Ernzerhof.
 Phys. Rev. Lett. 77, 3865-3868 (1996).
 Generalized gradient approximation made simple.
 https://doi.org/10.1103/PhysRevLett.77.3865

 P. E. Blöchl.
 J. Chem. Phys. 103, 7422-7428 (1995).
 Electrostatic decoupling of periodic images of plane‐wave‐expanded 
 densities and derived atomic point charges.
 https://doi.org/10.1063/1.470314

 R. H. Byrd, P. H. Lu, J. Nocedal, C. Y. Zhu.
 SIAM J. Sci. Comput. 16, 1190-1208 (1995).
 A Limited Memory Algorithm for Bound Constrained Optimization.
 https://doi.org/10.1137/0916069


 -------------------------------------------------------------------------------
 -                                                                             -
 -                                T I M I N G                                  -
 -                                                                             -
 -------------------------------------------------------------------------------
 SUBROUTINE                       CALLS  ASD         SELF TIME        TOTAL TIME MAXRANK
                                MAXIMUM       AVERAGE  MAXIMUM  AVERAGE  MAXIMUM
 CP2K                                 1  1.0    0.030    0.035   61.446   61.447       0
 qs_energies                          1  2.0    0.001    0.002   60.232   60.232      12
 qs_energies_properties               1  3.0    0.000    0.000   52.656   52.657      11
 post_scf_bandstructure               1  4.0    0.000    0.000   52.656   52.657       1
 run_gw                               1  5.0    0.000    0.000   52.320   52.337      24
 gw_calc_ri_rs_non_periodic           1  6.0    0.001    0.001   44.399   44.442      20
 dbcsr_multiply_generic             506  9.6    0.027    0.034   17.822   19.521      28
 multiply_cannon                    506 10.6    0.046    0.052   13.116   13.791      23
 compute_Z_lP                         1  7.0    0.000    0.000   13.625   13.625       7
 compute_Z_lP_auto_ri                 1  8.0    0.000    0.000   13.625   13.625      12
 multiply_cannon_loop               506 11.6    0.040    0.058   12.425   13.171      20
 compute_Sigma_c_and_QP_energie       1  7.0    0.000    0.000   11.758   11.775      20
 compute_Sigma_c                      1  8.0    0.001    0.001   11.259   11.259       0
 multiply_cannon_multrec           4048 12.6   10.202   11.144   10.218   11.161      14
 contract_grid_panels_sigma_c        30  9.0    0.003    0.003   10.689   10.711      23
 compute_W                            1  7.0    0.001    0.001   10.537   10.539       1
 parallel_gemm_fm_cosma             431  9.6    8.760    9.004    8.760    9.004      31
 compute_auto_ri_d_lp                 1  9.0    0.000    0.000    8.582    8.584       3
 compute_auto_ri_d_lp_AB_d_lp         1 10.0    0.002    0.003    7.645    8.549      15
 create_and_init_bs_env_for_gw        1  6.0    0.005    0.006    7.921    8.013      10
 contract_grid_panels                31  8.0    0.002    0.003    7.683    7.951      19
 get_mat_chi_Gamma_tau                1  7.0    0.000    0.001    7.900    7.901       0
 compute_d_lp_auto_ri_atom            3 11.0    3.930    4.459    7.022    7.830      20
 compute_fm_W_freq                   30  8.0    0.001    0.002    7.115    7.143      22
 generate_auto_ri_basis               1  7.0    0.000    0.001    6.303    6.304       1
 qs_ks_build_kohn_sham_matrix         2  7.5    0.001    0.002    5.625    5.626      26
 scf_env_do_scf                       1  3.0    0.000    0.000    5.620    5.620      15
 compute_M_pq_inv_and_V_pq            1  8.0    0.000    0.000    5.366    5.366       5
 fft_wrap_pw1pw2                     28 10.0    0.001    0.001    5.021    5.190      26
 fit_auto_ri_z_lp                     1  9.0    1.907    2.554    4.125    5.041       7
 fft_wrap_pw1pw2_300                 16 11.2    0.265    0.289    4.803    5.004      16
 mp_sum_l                          1710 10.5    2.059    4.876    2.059    4.876      27
 compute_contracted_RI_matrix         2  9.0    0.001    0.002    4.715    4.718       7
 compute_optimized_RI_matrix_bl     246 10.0    0.270    0.276    4.584    4.689      17
 compute_M_PQ_AB                   4088 11.0    0.005    0.005    4.338    4.441       2
 compute_M_PQ                      4088 12.0    0.006    0.006    4.333    4.436       5
 int_operators_r12_ab_os           4088 13.0    0.002    0.002    4.327    4.430       1
 int_operator_ab_os_low            4088 14.0    2.007    2.062    4.325    4.428       1
 init_scf_loop                        1  4.0    0.001    0.002    4.332    4.332       6
 qs_ks_update_qs_env                  2  5.0    0.000    0.000    4.308    4.309       3
 rebuild_ks_matrix                    1  6.0    0.000    0.001    4.308    4.308      25
 fft3d_ps                            28 12.0    2.061    2.216    3.624    3.800      12
 mp_waitall_1                     32544 13.8    2.869    3.310    2.869    3.310      19
 qs_vxc_create                        2  8.5    0.000    0.001    2.911    2.943      26
 xc_vxc_pw_create                     1  9.0    0.042    0.060    2.911    2.943      19
 compute_auto_ri_d_lp_transform       1 10.0    0.000    0.000    0.936    2.677      18
 qs_rho_update_rho_low                2  5.0    0.000    0.000    2.476    2.477      18
 calculate_rho_elec                   2  6.0    0.037    0.037    2.476    2.477      16
 make_m2s                          1012 10.6    0.012    0.013    2.308    2.368      18
 mp_sync                             10  9.2    0.918    2.358    0.918    2.358      28
 xc_pw_derive                         6 11.0    0.000    0.000    2.163    2.356       0
 make_images                       1012 11.6    0.256    0.366    2.287    2.347      16
 build_3c_integral_block_auto_r    9910 12.0    1.823    2.196    1.823    2.196      15
 mp_sum_root_rm                      99 10.1    0.844    1.944    0.844    1.944       0
 multiply_cannon_metrocomm3        4048 12.6    0.009    0.010    1.356    1.834       3
 density_rs2pw                        2  7.0    0.000    0.001    1.691    1.736      24
 fit_auto_ri_z_lp_gather_rhs          3 10.0    0.000    0.000    0.525    1.630      30
 xc_pw_divergence                     1 10.0    0.000    0.000    1.447    1.624       4
 make_images_data                  1012 12.6    0.012    0.013    1.426    1.555      27
 xc_rho_set_and_dset_create           1 10.0    0.054    0.092    1.390    1.515      22
 build_gram_jacobi_blas               3 10.0    0.260    0.397    1.078    1.461      17
 build_phi_on_sphere                  6 10.5    0.058    0.074    1.216    1.394       9
 abc_contract_xsmm                10855 12.8    1.263    1.347    1.263    1.347      19
 hybrid_alltoall_any               1116 13.4    0.084    0.434    1.272    1.345       0
 build_3c_integral_block_auto_r    9910 12.0    0.013    0.015    1.261    1.343      11
 evaluate_ao_on_points              528 11.5    1.158    1.327    1.158    1.327       0
 init_scf_run                         1  3.0    0.000    0.001    1.322    1.322      11
 scf_env_initial_rho_setup            1  4.0    0.000    0.000    1.322    1.322       6
 compute_V_xc                         1  7.0    0.000    0.000    1.319    1.320       9
 cp_fm_cholesky_invert               31  9.0    1.303    1.312    1.303    1.312      28
 scf_env_do_scf_inner_loop            1  4.0    0.000    0.001    1.281    1.288      11
 operator2                      2036052 15.0    1.234    1.273    1.234    1.273       6
 sum_up_and_integrate                 2  8.5    0.000    0.000    1.140    1.159      19
 integrate_v_rspace                   2  9.5    0.000    0.000    1.122    1.141      31
 ab_contract                    2036952 15.0    1.085    1.130    1.085    1.130      13
 potential_pw2rs                      2 10.5    0.002    0.003    1.068    1.087      20
 build_gram_jacobi_blas_dsyrk         3 11.0    0.818    1.083    0.818    1.083       7
 build_G_ao                         121  8.5    0.001    0.001    0.849    0.996      24
 yz_to_x                             14 12.2    0.360    0.393    0.753    0.980       0
 qs_init_subsys                       1  2.0    0.002    0.002    0.949    0.951      21
 qs_env_setup                         1  3.0    0.001    0.001    0.946    0.950       2
 qs_env_rebuild_pw_env                2  3.5    0.000    0.001    0.944    0.948       1
 pw_env_rebuild                       1  5.0    0.001    0.001    0.944    0.947      10
 mp_alltoall_z22v                    28 14.0    0.681    0.946    0.681    0.946      29
 pw_grid_setup                        5  5.2    0.000    0.000    0.939    0.943       7
 pw_grid_setup_internal               5  6.2    0.016    0.016    0.939    0.943      19
 G_occ_vir                          121  9.5    0.036    0.043    0.732    0.879       2
 x_to_yz                             14 13.8    0.518    0.559    0.807    0.855      11
 qs_ks_ddapc                          2  8.5    0.000    0.001    0.790    0.811      18
 pw_grid_sort                         5  7.2    0.575    0.586    0.791    0.803      17
 cp_fm_cholesky_decompose            35  9.0    0.706    0.761    0.706    0.761      13
 grid_collocate_task_list             2  7.0    0.720    0.760    0.720    0.760      18
 cp_fm_syevd                          5  9.0    0.000    0.000    0.711    0.713      14
 cp_fm_redistribute_end               5 10.0    0.356    0.708    0.356    0.709      28
 cp_fm_syevd_base                     5 10.0    0.349    0.700    0.349    0.700      14
 cp_fm_geeig                          2  9.5    0.000    0.001    0.696    0.696      21
 pw_poisson_solve                     2  8.5    0.000    0.000    0.675    0.678      10
 calculate_norms                   6816 12.6    0.584    0.671    0.584    0.671      16
 compute_M_pq_inv                     1  9.0    0.000    0.000    0.651    0.652      12
 qs_energies_init_hamiltonians        1  3.0    0.001    0.001    0.630    0.631       1
 qs_env_update_s_mstruct              1  4.0    0.000    0.000    0.611    0.614       4
 compute_AA_optimized_RI_basis        1  8.0    0.002    0.002    0.578    0.578      23
 copy_dbcsr_to_fm                   104  9.5    0.002    0.003    0.399    0.566      30
 buffer_matrices_ensure_size       1012 11.6    0.423    0.525    0.423    0.525      14
 pw_derive                           12 11.2    0.496    0.521    0.496    0.521      11
 dbcsr_complete_redistribute        265 10.4    0.146    0.172    0.488    0.507      16
 compute_QP_energies                  1  8.0    0.001    0.001    0.498    0.505       0
 pw_copy                             28 10.5    0.489    0.500    0.489    0.500      26
 compute_fm_chi_Gamma_freq           30  8.0    0.001    0.001    0.404    0.498      30
 transfer_rs2pw                       9  7.8    0.000    0.000    0.432    0.476      20
 dbcsr_finalize                    2070 10.8    0.015    0.017    0.379    0.472       3
 calculate_rho_core                   1  5.0    0.022    0.031    0.461    0.466      25
 make_images_pack                  1012 12.6    0.347    0.463    0.350    0.466      23
 extract_grid_panel                 122  9.5    0.316    0.424    0.354    0.465      16
 pw_gather_p                         14 11.2    0.419    0.463    0.419    0.463      12
 dbcsr_merge_all                   1807 11.9    0.055    0.076    0.352    0.444       1
 hadamard_product                    91  9.7    0.201    0.252    0.384    0.444       3
 compute_Sigma_x                      1  7.0    0.000    0.000    0.440    0.441      25
 dbcsr_copy                        1160 10.5    0.347    0.418    0.354    0.426      23
 Fourier_transform_w_to_t            30  8.0    0.001    0.001    0.374    0.425      18
 cp_fm_scale_and_add                901  9.0    0.373    0.424    0.373    0.424       0
 pw_poisson_set                       3  8.3    0.000    0.000    0.420    0.424      26
 to_Gamma_and_mo_real                62  9.0    0.002    0.002    0.416    0.416      20
 mp_alltoall_i22                    369 11.4    0.227    0.410    0.227    0.410      30
 pw_scatter_p                        14 12.8    0.392    0.405    0.392    0.405      19
 extract_masked_blocks              244  9.6    0.247    0.342    0.289    0.392      16
 dbcsr_desymmetrize_deep            104 10.5    0.011    0.013    0.212    0.387       9
 transfer_pw2rs                       8 11.5    0.000    0.000    0.374    0.374      16
 copy_fm_to_dbcsr                   161  9.3    0.001    0.001    0.344    0.363       4
 transfer_rs2pw_300                   3  8.3    0.178    0.196    0.325    0.361      14
 compute_AB_optimized_RI_basis        1  8.0    0.000    0.001    0.359    0.359      28
 mp_bcast_dm                        250  9.0    0.308    0.358    0.308    0.358      20
 compute_AB_optimized_RI_basis_       1  9.0    0.001    0.001    0.350    0.353      17
 compute_B_PQ_AA                     88  9.0    0.001    0.001    0.329    0.340      19
 mp_sum_iv                          568 11.3    0.158    0.306    0.158    0.306      27
 cp_fm_uplo_to_full                  63  9.0    0.200    0.301    0.200    0.301       6
 mp_waitany                         198 11.3    0.263    0.295    0.263    0.295      16
 xc_functional_eval                   1 11.0    0.000    0.000    0.185    0.281      17
 pbe_lda_eval                         1 12.0    0.185    0.281    0.185    0.281      21
 collect_used_col_blocks             92  9.7    0.002    0.003    0.134    0.277      17
 compute_B_PQ_AB                      5 10.0    0.058    0.063    0.249    0.272      12
 dbcsr_add_d                        935  9.0    0.001    0.001    0.220    0.260      16
 transfer_pw2rs_300                   2 12.5    0.128    0.138    0.251    0.260      23
 dbcsr_add_anytype                  935 10.0    0.170    0.203    0.218    0.259       7
 fft_wrap_pw1pw2_100                  4 10.8    0.012    0.019    0.179    0.257      20
 mp_alltoall_d11v                  1111 11.7    0.219    0.255    0.219    0.255      26
 multiply_cannon_metrocomm1        4048 12.6    0.006    0.006    0.180    0.223      15
 initialize_auto_ri_integrals         2  9.0    0.007    0.218    0.219    0.220       0
 sort_shells                          5  8.2    0.217    0.219    0.217    0.219      21
 check_for_restart_files              1  7.0    0.115    0.216    0.115    0.216      25
 pw_axpy                             25  6.6    0.195    0.213    0.195    0.213       7
 dbcsr_sort_data                   1460 14.0    0.165    0.212    0.165    0.212      17
 mp_allgather_i34                   506 11.6    0.171    0.209    0.171    0.209       3
 pw_copy_to_array                    14 11.2    0.181    0.201    0.181    0.201       0
 make_images_sizes                 1012 12.6    0.001    0.001    0.146    0.192       6
 mp_alltoall_i44                   1012 13.6    0.145    0.191    0.145    0.191      28
 create_qs_kind_set                   1  2.0    0.000    0.000    0.187    0.190      14
 read_qs_kind                         2  3.0    0.070    0.073    0.186    0.190       0
 dbcsr_data_copy_aa2                648 12.8    0.139    0.184    0.139    0.184      22
 setup_time_and_frequency_minim       1  7.0    0.000    0.000    0.173    0.183       0
 build_minimax_time_frequency_g       1  8.0    0.000    0.000    0.173    0.183      15
 fit_l_sq_weights                     3  9.0    0.173    0.183    0.173    0.183      15
 eval_bandstructure_properties        1  5.0    0.000    0.001    0.178    0.179      28
 pw_integral_ab_c1d_c1d_gs            4 10.0    0.166    0.169    0.170    0.173      28
 cp_ddapc_apply_CD                    2  9.5    0.000    0.000    0.168    0.172      16
 optimize_ri_rs_grid                  1  7.0    0.000    0.000    0.126    0.169       0
 contract_B_PQ                       26 11.8    0.135    0.149    0.146    0.161      19
 create_and_init_bs_env               1  5.0    0.000    0.001    0.157    0.158      14
 cp_cfm_geeig                         1  6.0    0.000    0.000    0.144    0.146       3
 diagonalize_ks_matrix                1  6.0    0.000    0.000    0.144    0.144      20
 cp_fm_geeig_canon                    1  7.0    0.000    0.000    0.144    0.144      12
 cp_ddapc_init                        1  5.0    0.000    0.000    0.139    0.140      12
 dbcsr_add_wm_from_matrix           165 10.6    0.043    0.082    0.108    0.140       9
 cp_ddapc_create                      1  6.0    0.000    0.000    0.139    0.140      12
 initialize_ri_rs_grid                1  8.0    0.002    0.002    0.094    0.137       7
 pw_copy_from_array                  14 12.8    0.126    0.132    0.126    0.132      26
 cp_fm_get_submatrix                318 10.0    0.009    0.010    0.058    0.126       3
 parser_read_line                 39091  4.0    0.007    0.008    0.121    0.126      13
 mp_sum_dm                          321 11.0    0.057    0.124    0.057    0.124       2
 parser_read_line_low                43  5.0    0.004    0.031    0.113    0.119       0
 broadcast_input_information         43  6.0    0.013    0.023    0.110    0.116       0
 ddapc_eval_AmI                       1  7.0    0.007    0.008    0.106    0.111       2
 dbcsr_set                          466 10.5    0.001    0.001    0.077    0.109       8
 dbcsr_special_finalize            1518 12.6    0.004    0.004    0.094    0.109      16
 dbcsr_zero                         466 11.5    0.076    0.109    0.076    0.109       7
 cp_cfm_heevd                         1  7.0    0.000    0.000    0.102    0.102      18
 cp_cfm_heevd_base                    1  8.0    0.102    0.102    0.102    0.102      18
 build_A_matrix                       1  8.0    0.094    0.098    0.094    0.098      15
 dbcsr_merge_single_wm              994 13.6    0.023    0.029    0.079    0.094      31
 mp_bcast_am_src                     43  7.0    0.081    0.094    0.081    0.094      26
 mp_sum_d                           468  1.7    0.049    0.091    0.049    0.091       5
 pw_grid_assign                       5  7.2    0.087    0.089    0.090    0.091      19
 dbcsr_fill_wm_from_matrix          165 11.6    0.063    0.081    0.064    0.082      16
 compute_B_PQ_exchange               13 10.8    0.000    0.000    0.074    0.081      13
 compute_B_PQ_transition             13 10.8    0.000    0.000    0.074    0.081      12
 compute_V_MinvVsqrt                  1  8.0    0.000    0.000    0.075    0.081       8
 pw_zero                             25  4.7    0.069    0.080    0.069    0.080      31
 cp_fm_triangular_multiply            7 10.0    0.075    0.078    0.075    0.078       2
 rs_grid_zero                         5 12.0    0.068    0.071    0.068    0.071      23
 transfer_pw2rs_100                   2 12.5    0.021    0.025    0.056    0.066      22
 transfer_rs2pw_100                   2  9.0    0.016    0.019    0.046    0.065      15
 get_ddapc                            2 10.5    0.000    0.000    0.060    0.064      30
 -------------------------------------------------------------------------------

 The number of warnings for this run is : 1
 
 -------------------------------------------------------------------------------
  **** **** ******  **  PROGRAM ENDED AT                 2026-10-01 13:59:03.131
 ***** ** ***  *** **   PROGRAM RAN ON                                  n2cn0958
 **    ****   ******    PROGRAM RAN BY                                  eprop2d1
 ***** **    ** ** **   PROGRAM PROCESS ID                                949157
  **** **  *******  **  PROGRAM STOPPED IN /scratch/hpc-prf-metdyn/eprop2d1_Jan/
                                           53_benchmark_RI_opt/403_figure4_epsfi
                                           lter_20261001/h24_rc0p5_ri3_rs07_e10
