 DBCSR| CPU Multiplication driver                                           XSMM (U)
 DBCSR| Multrec recursion limit                                              512 (U)
 DBCSR| Multiplication stack size                                           1000 (D)
 DBCSR| Maximum elements for images                                    UNLIMITED (U)
 DBCSR| Multiplicative factor virtual images                                   1 (U)
 DBCSR| Use multiplication densification                                       T (D)
 DBCSR| Multiplication size stacks                                             3 (U)
 DBCSR| Use memory pool for CPU allocation                                     F (U)
 DBCSR| Number of 3D layers                                               SINGLE (U)
 DBCSR| Use MPI memory allocation                                              F (U)
 DBCSR| Use RMA algorithm                                                      F (U)
 DBCSR| Use Communication thread                                               T (U)
 DBCSR| Communication thread load                                             64 (D)
 DBCSR| MPI: My process id                                                     8
 DBCSR| MPI: Number of processes                                              17
 DBCSR| OMP: Current number of threads                                         7
 DBCSR| OMP: Max number of threads                                             7
 DBCSR| Split modifier for TAS multiplication algorithm                  1.0E+00 (U)


  **** **** ******  **  PROGRAM STARTED AT               2026-10-03 12:12:52.230
 ***** ** ***  *** **   PROGRAM STARTED ON                              n2cn0943
 **    ****   ******    PROGRAM STARTED BY                              eprop2d1
 ***** **    ** ** **   PROGRAM PROCESS ID                                997776
  **** **  *******  **  PROGRAM STARTED IN /scratch/hpc-prf-metdyn/eprop2d1_Jan/
                                           53_benchmark_RI_opt/418_gw100_fig5_fu
                                           ll_epsfilter_1e12_20261002/calculatio
                                           ns/rc5p0/ri5_rs04/97_urea

 CP2K| version string:                 CP2K version 2026.2 (Development Version)
 CP2K| source code revision number:                                   0671c5aa6c
 CP2K| cp2kflags: omp libint fftw3 libxc parallel scalapack openblas            
 CP2K| is freely available from                            https://www.cp2k.org/
 CP2K| Program compiled at                                   2026-09-20 09:25:26
 CP2K| Program compiled on                                              n2login5
 CP2K| Program compiled for                                               x86_64
 CP2K| Data directory path    /scratch/hpc-prf-metdyn/eprop2d1_Jan/53_benchmark_
 CP2K| Input file name                                                 input.inp
 
 eprop2d1@n2cn0943 has created rank and process                      0    997776
 eprop2d1@n2cn0943 has created rank and process                      1    997777
 eprop2d1@n2cn0943 has created rank and process                      2    997778
 eprop2d1@n2cn0943 has created rank and process                      3    997779
 eprop2d1@n2cn0943 has created rank and process                      4    997780
 eprop2d1@n2cn0943 has created rank and process                      5    997781
 eprop2d1@n2cn0943 has created rank and process                      6    997782
 eprop2d1@n2cn0943 has created rank and process                      7    997783
 eprop2d1@n2cn0943 has created rank and process                      8    997784
 
 eprop2d1@n2cn0943 is running                                        9 processes

 GLOBAL| Force Environment number                                              1
 GLOBAL| Basis set file name            /scratch/hpc-prf-metdyn/eprop2d1_Jan/53_
 GLOBAL| Potential file name            /scratch/hpc-prf-metdyn/eprop2d1_Jan/53_
 GLOBAL| MM Potential file name                                     MM_POTENTIAL
 GLOBAL| Coordinate file name                                      __STD_INPUT__
 GLOBAL| Method name                                                        CP2K
 GLOBAL| Project name                                             g418_e504_m097
 GLOBAL| Run type                                                         ENERGY
 GLOBAL| FFT library                                                       FFTW3
 GLOBAL| Diagonalization library                                       ScaLAPACK
 GLOBAL| Cholesky decomposition library                                ScaLAPACK
 GLOBAL| DGEMM library                                                      BLAS
 GLOBAL| Direct generalized diagonalization requested                          F
 GLOBAL| Orthonormality check for eigenvectors                          DISABLED
 GLOBAL| Matrix multiplication library                                 ScaLAPACK
 GLOBAL| All-to-all communication in single precision                          F
 GLOBAL| Grid backend                                                       AUTO
 GLOBAL| Global print level                                                  LOW
 GLOBAL| MPI I/O enabled                                                       T
 GLOBAL| Total number of message passing processes                             9
 GLOBAL| Number of distributed systems (nodes)                                 1
 GLOBAL| Number of threads for this process                                    7
 GLOBAL| This output is from process                                           0
 GLOBAL| OpenMP stack size per thread (OMP_STACKSIZE)                       512M
 GLOBAL| CPU model name                          AMD EPYC 7763 64-Core Processor

 MEMORY| system memory details [Kb]
 MEMORY|                        rank 0           min           max       average
 MEMORY| MemTotal            263897596     263897596     263897596     263897596
 MEMORY| MemFree             230974604     230974604     230974604     230974604
 MEMORY| Buffers                378864        378864        378864        378864
 MEMORY| Cached               10297864      10297864      10297864      10297864
 MEMORY| Slab                  1770440       1770440       1770440       1770440
 MEMORY| SReclaimable           356000        356000        356000        356000
 MEMORY| MemLikelyFree       242007332     242007332     242007332     242007332


 GENERATE|  Preliminary Number of Bonds generated:                             0
 GENERATE|  Achieved consistency in connectivity generation.

 *******************************************************************************
 *******************************************************************************
 **                                                                           **
 **     #####                         ##              ##                      **
 **    ##   ##            ##          ##              ##                      **
 **   ##     ##                       ##            ######                    **
 **   ##     ##  ##   ##  ##   #####  ##  ##   ####   ##    #####    #####    **
 **   ##     ##  ##   ##  ##  ##      ## ##   ##      ##   ##   ##  ##   ##   **
 **   ##  ## ##  ##   ##  ##  ##      ####     ###    ##   ######   ######    **
 **    ##  ###   ##   ##  ##  ##      ## ##      ##   ##   ##       ##        **
 **     #######   #####   ##   #####  ##  ##  ####    ##    #####   ##        **
 **           ##                                                    ##        **
 **                                                                           **
 **                                                ... make the atoms dance   **
 **                                                                           **
 **            Copyright (C) by CP2K developers group (2000-2026)             **
 **                      J. Chem. Phys. 152, 194103 (2020)                    **
 **                                                                           **
 *******************************************************************************


 TOTAL NUMBERS AND MAXIMUM NUMBERS

  Total number of            - Atomic kinds:                                   4
                             - Atoms:                                          8
                             - Shell sets:                                     8
                             - Shells:                                        56
                             - Primitive Cartesian functions:                 52
                             - Cartesian basis functions:                    172
                             - Spherical basis functions:                    152

  Maximum angular momentum of- Orbital basis functions:                        3
                             - Local part of the GTH pseudopotential:          2
                             - Non-local part of the GTH pseudopotential:      0


 SCF PARAMETERS         Density guess:                                   RESTART
                        --------------------------------------------------------
                        max_scf:                                             500
                        max_scf_history:                                       0
                        max_diis:                                              4
                        --------------------------------------------------------
                        eps_scf:                                        1.00E-08
                        eps_scf_history:                                0.00E+00
                        eps_diis:                                       0.00E+00
                        eps_eigval:                                     1.00E-05
                        --------------------------------------------------------
                        level_shift [a.u.]:                             0.000000
                        --------------------------------------------------------
                        Outer loop SCF in use 
                        No variables optimised in outer loop
                        eps_scf                                         1.00E-08
                        max_scf                                               20
                        No outer loop optimization
                        step_size                                       5.00E-01

 Extrapolation method: initial_guess

 Number of electrons:                                                         24
 Number of occupied orbitals:                                                 12
 Number of molecular orbitals:                                                12

 Number of orbital functions:                                                152
 Number of independent orbital functions:                                    152


 SCF WAVEFUNCTION OPTIMIZATION

  ----------------------------------- OT ---------------------------------------
  Minimizer      : DIIS                : direct inversion
                                         in the iterative subspace
                                         using   7 DIIS vectors
                                         safer DIIS on
  Preconditioner : FULL_KINETIC        : inversion of T + eS
  Lattice FFT   : OFF
  Precond_solver : DEFAULT
  stepsize       :    0.15000000                  energy_gap     :    0.20000000
  eps_taylor     :   0.10000E-15                  max_taylor     :             4
  ----------------------------------- OT ---------------------------------------

  Step     Update method      Time    Convergence         Total energy    Change
  ------------------------------------------------------------------------------
  Decoupling Energy:                                               0.0000846252
     1 OT DIIS     0.15E+00    1.7     6.9881E-09       -44.0252937672 -4.40E+01

  *** SCF run converged in     1 steps ***


  Electronic density on regular grids:        -24.0000000000        0.0000000000
  Core density on regular grids:               24.0000000000       -0.0000000000
  Total charge density on r-space grids:       -0.0000000000
  Total charge density g-space grids:          -0.0000000000

  Overlap energy of the core charge distribution:               0.00000083685395
  Self energy of the core charge distribution:               -110.20434852073244
  Core Hamiltonian energy:                                     32.88981581993376
  Hartree energy:                                              45.09246196905933
  Exchange-correlation energy:                                -11.80322387229109

  Total energy:                                               -44.02529376717650

  outer SCF iter =    1 RMS gradient =   0.70E-08 energy =        -44.0252937672
  outer SCF loop converged in   1 iterations or    1 steps

  
 -------------------------------------------------------------------------------
 -                                                                             -
 -                          BANDSTRUCTURE CALCULATION                          -
 -                                                                             -
 -------------------------------------------------------------------------------
  
 Number of occupied molecular orbitals (MOs) = Number of occupied bands       12
 Number of unoccupied (= virtual) MOs = Number of unoccupied bands           140
 Number of Gaussian basis functions for MOs                                  152
  
 -------------------------------------------------------------------------------
 -                                                                             -
 -                                GW CALCULATION                               -
 -                                                                             -
 -------------------------------------------------------------------------------
  
 Input: Number of time/freq. points                                           30
 Input: ω_max for fitting Σ(iω) (eV)                                        10.0
 Input: Filter threshold for sparse tensor operations                    1.0E-12
 Input: Apply Hedin shift                                                      F
 Detected: Available memory per MPI process                              23.3 GB
 
 Input: RI-RS Tikhonov regularization                                   1.00E-04
 Input: AO grid hard cutoff radius                                        8.00 Å
 Input: MPI ranks per atom in Z_lP solve                                      -1
 Input: Keep sparsity in χ/G/W panels                                          T
 Input: GW flavour                                                          G0W0
 
 Input: RI-RS grid optimization activated                                      T
 Input: RS points per AO function                                            4.0
 Input: Cutoff radius for atomic clusters                                  5.0 Å
 Input: Maximum grid optimization iterations                                 300
 
 Input: AUTO_RI basis optimization activated:                                  T
 Input: AUTO_RI number of RI functions per AO function:                      5.0
 Input: AUTO_RI frontier orbital window:                                  5.0 eV
 Input: AUTO_RI neighbor radius:                                           3.0 Å
 
 Cutoff radius for the truncated Coulomb operator in RI metric:            7.0 Å
 Regularization parameter of RI                                          0.0E+00
 Regularization parameter of minimax grids                               1.0E-06
 
 AUTO_RI| Number of automatic RI functions for χ, ε, W:                      680
 AUTO_RI| Total RI basis optimization time:                                2.5 s
  Decoupling Energy:                                               0.0000846252
 
 SCF direct band gap (eV)                                                   5.09
 Max. SCF eigval diff. (eV)                                               280.84
 E-Range for minimax grid                                                  55.14
 Number of Padé parameters for analytic continuation:                         16
 
 RI-RS basis radii (Å):
     Kind  Elem     r_AO (Å)     r_RI (Å)
        1    O        12.8635        8.6829
        2    C        15.9835       10.1279
        3    N        14.0505        8.8909
        4    H        13.9082        8.7963
 
 Started RI-RS grid optimization
 RI-RS grid initial normalized error                          3.721444518862E-02
 RI-RS grid optimization completed, execution time:                      201.2 s
 Normalized 3C error:                                                    4.3E-06
 Maximum absolute 3C error:                                              1.3E-02
 Optimized points outside molecular Voronoi cells:                           139 / 608
 Total grid points used for RI-RS:                                           608
 
 RI-RS grid row-blocks of ϕ_μ(r_l)                                            24
 RI-RS grid points per block (max)                                            32
 
 Percentage of non-zero matrix elements in ϕ_μ(r_l)                     100.00 %
 
 RI-RS memory estimate per MPI process:
   Available memory per process (system)                                27.57 GB
   Required for Z_lP (dense upper bound; actual is sparser)              0.00 GB
   Required for χ, W, Σ panels (peak per panel step)                     0.00 GB
   Required for Z_lP solve peak (D_local+ϕ, worst-case atom)             0.01 GB
   Worst-case local-grid number of grid points:                              608
   Worst-case memory D_local:                                            0.00 GB
 
 Started computing Z_lP
 Computed Z_lP (MPI rank 0) for atom          1 /  1,    Execution time    0.2 s
 Computed Z_lP (all MPI ranks) for all atoms,            Execution time    0.3 s

 Memory per MPI process after computing Z_lP:
 Available memory per MPI process                               27.6 GB
 Used memory per MPI process                                     1.3 GB
 Number of batches for χ, Σ matrices                                           1
 
 Percentage of non-zero matrix elements in Z_lP                         100.00 %
 Percentage of non-zero matrix elements in G_ll', χ_ll', W_ll'          100.00 %
 Percentage of non-zero matrix elements in χ_PQ for time point 1        100.00 %
 
 Computed χ(iτ,k=0) for time point            1 / 30,    Execution time    0.0 s
 Computed χ(iτ,k=0) for time point            2 / 30,    Execution time    0.0 s
 Computed χ(iτ,k=0) for time point            3 / 30,    Execution time    0.0 s
 Computed χ(iτ,k=0) for time point            4 / 30,    Execution time    0.0 s
 Computed χ(iτ,k=0) for time point            5 / 30,    Execution time    0.0 s
 Computed χ(iτ,k=0) for time point            6 / 30,    Execution time    0.0 s
 Computed χ(iτ,k=0) for time point            7 / 30,    Execution time    0.0 s
 Computed χ(iτ,k=0) for time point            8 / 30,    Execution time    0.0 s
 Computed χ(iτ,k=0) for time point            9 / 30,    Execution time    0.0 s
 Computed χ(iτ,k=0) for time point           10 / 30,    Execution time    0.0 s
 Computed χ(iτ,k=0) for time point           11 / 30,    Execution time    0.0 s
 Computed χ(iτ,k=0) for time point           12 / 30,    Execution time    0.0 s
 Computed χ(iτ,k=0) for time point           13 / 30,    Execution time    0.0 s
 Computed χ(iτ,k=0) for time point           14 / 30,    Execution time    0.0 s
 Computed χ(iτ,k=0) for time point           15 / 30,    Execution time    0.0 s
 Computed χ(iτ,k=0) for time point           16 / 30,    Execution time    0.0 s
 Computed χ(iτ,k=0) for time point           17 / 30,    Execution time    0.0 s
 Computed χ(iτ,k=0) for time point           18 / 30,    Execution time    0.0 s
 Computed χ(iτ,k=0) for time point           19 / 30,    Execution time    0.0 s
 Computed χ(iτ,k=0) for time point           20 / 30,    Execution time    0.0 s
 Computed χ(iτ,k=0) for time point           21 / 30,    Execution time    0.0 s
 Computed χ(iτ,k=0) for time point           22 / 30,    Execution time    0.0 s
 Computed χ(iτ,k=0) for time point           23 / 30,    Execution time    0.0 s
 Computed χ(iτ,k=0) for time point           24 / 30,    Execution time    0.0 s
 Computed χ(iτ,k=0) for time point           25 / 30,    Execution time    0.0 s
 Computed χ(iτ,k=0) for time point           26 / 30,    Execution time    0.0 s
 Computed χ(iτ,k=0) for time point           27 / 30,    Execution time    0.0 s
 Computed χ(iτ,k=0) for time point           28 / 30,    Execution time    0.0 s
 Computed χ(iτ,k=0) for time point           29 / 30,    Execution time    0.0 s
 Computed χ(iτ,k=0) for time point           30 / 30,    Execution time    0.0 s
 
 Computed W(iτ),                                         Execution time    0.6 s
 
 Computed Σ^x(k=0),                                      Execution time    0.0 s
 
 Computed Σ^c(iτ) for time point              1 / 30,    Execution time    0.0 s
 Computed Σ^c(iτ) for time point              2 / 30,    Execution time    0.0 s
 Computed Σ^c(iτ) for time point              3 / 30,    Execution time    0.0 s
 Computed Σ^c(iτ) for time point              4 / 30,    Execution time    0.0 s
 Computed Σ^c(iτ) for time point              5 / 30,    Execution time    0.0 s
 Computed Σ^c(iτ) for time point              6 / 30,    Execution time    0.0 s
 Computed Σ^c(iτ) for time point              7 / 30,    Execution time    0.0 s
 Computed Σ^c(iτ) for time point              8 / 30,    Execution time    0.0 s
 Computed Σ^c(iτ) for time point              9 / 30,    Execution time    0.0 s
 Computed Σ^c(iτ) for time point             10 / 30,    Execution time    0.0 s
 Computed Σ^c(iτ) for time point             11 / 30,    Execution time    0.0 s
 Computed Σ^c(iτ) for time point             12 / 30,    Execution time    0.0 s
 Computed Σ^c(iτ) for time point             13 / 30,    Execution time    0.0 s
 Computed Σ^c(iτ) for time point             14 / 30,    Execution time    0.0 s
 Computed Σ^c(iτ) for time point             15 / 30,    Execution time    0.0 s
 Computed Σ^c(iτ) for time point             16 / 30,    Execution time    0.0 s
 Computed Σ^c(iτ) for time point             17 / 30,    Execution time    0.0 s
 Computed Σ^c(iτ) for time point             18 / 30,    Execution time    0.0 s
 Computed Σ^c(iτ) for time point             19 / 30,    Execution time    0.0 s
 Computed Σ^c(iτ) for time point             20 / 30,    Execution time    0.0 s
 Computed Σ^c(iτ) for time point             21 / 30,    Execution time    0.0 s
 Computed Σ^c(iτ) for time point             22 / 30,    Execution time    0.0 s
 Computed Σ^c(iτ) for time point             23 / 30,    Execution time    0.0 s
 Computed Σ^c(iτ) for time point             24 / 30,    Execution time    0.0 s
 Computed Σ^c(iτ) for time point             25 / 30,    Execution time    0.0 s
 Computed Σ^c(iτ) for time point             26 / 30,    Execution time    0.0 s
 Computed Σ^c(iτ) for time point             27 / 30,    Execution time    0.0 s
 Computed Σ^c(iτ) for time point             28 / 30,    Execution time    0.0 s
 Computed Σ^c(iτ) for time point             29 / 30,    Execution time    0.0 s
 Computed Σ^c(iτ) for time point             30 / 30,    Execution time    0.0 s
 
 SCF valence band maximum (eV):                                           -5.914
 SCF conduction band minimum (eV):                                        -0.821
 SCF indirect band gap (eV):                                               5.093
 SCF direct band gap (eV):                                                 5.093
 
 G0W0 valence band maximum (eV):                                          -8.917
 G0W0 conduction band minimum (eV):                                        0.998
 G0W0 indirect band gap (eV):                                              9.915
 G0W0 direct band gap (eV):                                                9.915
 
 Hartree-Fock with SCF orbitals valence band maximum (eV):               -11.444
 Hartree-Fock with SCF orbitals conduction band minimum (eV)               1.820
 Hartree-Fock with SCF orbitals indirect band gap (eV):                   13.264
 Hartree-Fock with SCF orbitals direct band gap (eV):                     13.264

 ENERGY| Total FORCE_EVAL ( QS ) energy [hartree]            -44.025293767176500

 -------------------------------------------------------------------------------
 -                                                                             -
 -                                DBCSR STATISTICS                             -
 -                                                                             -
 -------------------------------------------------------------------------------
 COUNTER                                    TOTAL       BLAS       SMM       ACC
 flops    12 x    12 x    12                 3456     100.0%      0.0%      0.0%     
 flops     4 x     4 x    71                36352     100.0%      0.0%      0.0%     
 flops     9 x     9 x    12                38880     100.0%      0.0%      0.0%     
 flops    18 x    12 x    12                41472     100.0%      0.0%      0.0%     
 flops    12 x    12 x    58                50112     100.0%      0.0%      0.0%     
 flops     4 x     4 x    72                73728     100.0%      0.0%      0.0%     
 flops    12 x    12 x    47                81216     100.0%      0.0%      0.0%     
 flops    29 x     9 x    12               100224     100.0%      0.0%      0.0%     
 flops     9 x    29 x    12               100224     100.0%      0.0%      0.0%     
 flops    18 x    12 x    58               100224     100.0%      0.0%      0.0%     
 flops    29 x    12 x    12               133632     100.0%      0.0%      0.0%     
 flops    18 x    12 x    47               162432     100.0%      0.0%      0.0%     
 flops    20 x     4 x    71               181760     100.0%      0.0%      0.0%     
 flops     4 x    20 x    71               181760     100.0%      0.0%      0.0%     
 flops     9 x    12 x     9               186624     100.0%      0.0%      0.0%     
 flops    29 x    12 x    58               322944     100.0%      0.0%      0.0%     
 flops    20 x     4 x    72               368640     100.0%      0.0%      0.0%     
 flops     4 x    20 x    72               368640     100.0%      0.0%      0.0%     
 flops    29 x    29 x    12               403680     100.0%      0.0%      0.0%     
 flops     4 x     4 x    38               447488     100.0%      0.0%      0.0%     
 flops    29 x    12 x    47               523392     100.0%      0.0%      0.0%     
 flops     4 x     4 x    47               553472     100.0%      0.0%      0.0%     
 flops    29 x    12 x     9               601344     100.0%      0.0%      0.0%     
 flops     9 x    12 x    29               601344     100.0%      0.0%      0.0%     
 flops     4 x     9 x     4               701568     100.0%      0.0%      0.0%     
 flops     4 x    67 x     4               713952     100.0%      0.0%      0.0%     
 flops     4 x    71 x     4               756576     100.0%      0.0%      0.0%     
 flops     4 x     4 x    67               823296     100.0%      0.0%      0.0%     
 flops     4 x    80 x     4               852480     100.0%      0.0%      0.0%     
 flops    32 x     4 x    71               872448     100.0%      0.0%      0.0%     
 flops    20 x    20 x    71               908800     100.0%      0.0%      0.0%     
 flops     4 x   103 x     4              1097568     100.0%      0.0%      0.0%     
 flops     4 x   107 x     4              1140192     100.0%      0.0%      0.0%     
 flops     4 x   108 x     4              1150848     100.0%      0.0%      0.0%     
 flops     4 x    32 x    71              1163264     100.0%      0.0%      0.0%     
 flops     4 x     4 x     9              1296000     100.0%      0.0%      0.0%     
 flops     4 x    72 x     4              1534464     100.0%      0.0%      0.0%     
 flops     9 x     9 x     4              1570104     100.0%      0.0%      0.0%     
 flops    32 x     4 x    72              1769472     100.0%      0.0%      0.0%     
 flops    20 x    20 x    72              1843200     100.0%      0.0%      0.0%     
 flops    29 x    12 x    29              1937664     100.0%      0.0%      0.0%     
 flops     4 x     4 x   175              1971200     100.0%      0.0%      0.0%     
 flops    20 x     4 x    38              2237440     100.0%      0.0%      0.0%     
 flops     4 x    20 x    38              2237440     100.0%      0.0%      0.0%     
 flops     4 x    29 x     4              2256896     100.0%      0.0%      0.0%     
 flops     4 x    32 x    72              2359296     100.0%      0.0%      0.0%     
 flops    20 x     4 x    47              2767360     100.0%      0.0%      0.0%     
 flops     4 x    20 x    47              2767360     100.0%      0.0%      0.0%     
 flops     4 x     4 x   246              2770944     100.0%      0.0%      0.0%     
 flops    67 x    67 x     4              2908872     100.0%      0.0%      0.0%     
 flops     4 x     4 x   259              2917376     100.0%      0.0%      0.0%     
 flops    71 x    67 x     4              3082536     100.0%      0.0%      0.0%     
 flops    67 x    71 x     4              3120592     100.0%      0.0%      0.0%     
 flops     4 x    67 x    67              3303904     100.0%      0.0%      0.0%     
 flops    71 x    71 x     4              3306896     100.0%      0.0%      0.0%     
 flops    80 x    67 x     4              3473280     100.0%      0.0%      0.0%     
 flops    67 x    80 x     4              3473280     100.0%      0.0%      0.0%     
 flops     4 x    67 x    71              3501152     100.0%      0.0%      0.0%     
 flops     4 x    71 x    67              3501152     100.0%      0.0%      0.0%     
 flops    20 x     9 x     4              3503520     100.0%      0.0%      0.0%     
 flops     4 x     9 x    20              3533760     100.0%      0.0%      0.0%     
 flops    20 x    67 x     4              3634080     100.0%      0.0%      0.0%     
 flops     4 x    67 x    20              3655520     100.0%      0.0%      0.0%     
 flops    71 x    80 x     4              3680640     100.0%      0.0%      0.0%     
 flops     4 x    71 x    71              3710176     100.0%      0.0%      0.0%     
 flops    80 x    71 x     4              3726080     100.0%      0.0%      0.0%     
 flops     4 x    71 x    20              3862400     100.0%      0.0%      0.0%     
 flops    20 x    71 x     4              3873760     100.0%      0.0%      0.0%     
 flops     4 x     9 x     9              3932064     100.0%      0.0%      0.0%     
 flops     4 x    80 x    67              3944960     100.0%      0.0%      0.0%     
 flops    20 x     4 x    67              4116480     100.0%      0.0%      0.0%     
 flops     4 x    20 x    67              4116480     100.0%      0.0%      0.0%     
 flops    80 x    80 x     4              4147200     100.0%      0.0%      0.0%     
 flops     4 x    80 x    71              4180480     100.0%      0.0%      0.0%     
 flops     4 x     4 x    29              4206624     100.0%      0.0%      0.0%     
 flops    20 x    80 x     4              4339200     100.0%      0.0%      0.0%     
 flops     4 x    80 x    20              4352000     100.0%      0.0%      0.0%     
 flops    32 x    20 x    71              4362240     100.0%      0.0%      0.0%     
 flops   103 x    67 x     4              4471848     100.0%      0.0%      0.0%     
 flops    67 x   103 x     4              4471848     100.0%      0.0%      0.0%     
 flops   107 x    67 x     4              4645512     100.0%      0.0%      0.0%     
 flops   108 x    67 x     4              4688928     100.0%      0.0%      0.0%     
 flops    67 x   108 x     4              4688928     100.0%      0.0%      0.0%     
 flops    67 x   107 x     4              4702864     100.0%      0.0%      0.0%     
 flops    71 x   103 x     4              4738824     100.0%      0.0%      0.0%     
 flops   103 x    71 x     4              4797328     100.0%      0.0%      0.0%     
 flops    71 x   108 x     4              4968864     100.0%      0.0%      0.0%     
 flops   107 x    71 x     4              4983632     100.0%      0.0%      0.0%     
 flops    71 x   107 x     4              4983632     100.0%      0.0%      0.0%     
 flops   108 x    71 x     4              5030208     100.0%      0.0%      0.0%     
 flops     9 x    29 x     4              5067576     100.0%      0.0%      0.0%     
 flops    29 x     9 x     4              5078016     100.0%      0.0%      0.0%     
 flops     4 x   103 x    67              5079136     100.0%      0.0%      0.0%     
 flops     4 x   107 x    67              5276384     100.0%      0.0%      0.0%     
 flops     4 x   108 x    67              5325696     100.0%      0.0%      0.0%     
 flops   103 x    80 x     4              5339520     100.0%      0.0%      0.0%     
 flops    80 x   103 x     4              5339520     100.0%      0.0%      0.0%     
 flops     4 x   103 x    71              5382368     100.0%      0.0%      0.0%     
 flops   107 x    80 x     4              5546880     100.0%      0.0%      0.0%     
 flops     4 x   107 x    71              5591392     100.0%      0.0%      0.0%     
 flops    80 x   108 x     4              5598720     100.0%      0.0%      0.0%     
 flops   108 x    80 x     4              5598720     100.0%      0.0%      0.0%     
 flops    80 x   107 x     4              5615360     100.0%      0.0%      0.0%     
 flops     4 x   103 x    20              5619680     100.0%      0.0%      0.0%     
 flops    20 x   103 x     4              5619680     100.0%      0.0%      0.0%     
 flops     4 x   108 x    71              5643648     100.0%      0.0%      0.0%     
 flops    20 x    32 x    71              5816320     100.0%      0.0%      0.0%     
 flops    20 x   107 x     4              5837920     100.0%      0.0%      0.0%     
 flops     4 x   107 x    20              5837920     100.0%      0.0%      0.0%     
 flops     4 x   108 x    20              5892480     100.0%      0.0%      0.0%     
 flops    20 x   108 x     4              5892480     100.0%      0.0%      0.0%     
 flops    72 x    67 x     4              6251904     100.0%      0.0%      0.0%     
 flops    67 x    72 x     4              6290496     100.0%      0.0%      0.0%     
 flops     4 x    20 x     9              6575040     100.0%      0.0%      0.0%     
 flops    20 x     4 x     9              6631200     100.0%      0.0%      0.0%     
 flops    71 x    72 x     4              6666048     100.0%      0.0%      0.0%     
 flops    72 x    71 x     4              6706944     100.0%      0.0%      0.0%     
 flops   103 x   103 x     4              6874632     100.0%      0.0%      0.0%     
 flops     4 x    72 x    67              7100928     100.0%      0.0%      0.0%     
 flops     4 x    67 x    72              7100928     100.0%      0.0%      0.0%     
 flops   107 x   103 x     4              7141608     100.0%      0.0%      0.0%     
 flops   103 x   108 x     4              7208352     100.0%      0.0%      0.0%     
 flops   108 x   103 x     4              7208352     100.0%      0.0%      0.0%     
 flops   103 x   107 x     4              7229776     100.0%      0.0%      0.0%     
 flops    72 x    80 x     4              7464960     100.0%      0.0%      0.0%     
 flops   107 x   108 x     4              7488288     100.0%      0.0%      0.0%     
 flops   107 x   107 x     4              7510544     100.0%      0.0%      0.0%     
 flops    80 x    72 x     4              7511040     100.0%      0.0%      0.0%     
 flops     4 x    72 x    71              7524864     100.0%      0.0%      0.0%     
 flops     4 x    71 x    72              7524864     100.0%      0.0%      0.0%     
 flops   108 x   108 x     4              7558272     100.0%      0.0%      0.0%     
 flops   108 x   107 x     4              7580736     100.0%      0.0%      0.0%     
 flops    20 x    72 x     4              7810560     100.0%      0.0%      0.0%     
 flops     4 x    72 x    20              7833600     100.0%      0.0%      0.0%     
 flops     9 x     9 x    20              7957440     100.0%      0.0%      0.0%     
 flops     4 x    80 x    72              8478720     100.0%      0.0%      0.0%     
 flops    32 x    20 x    72              8847360     100.0%      0.0%      0.0%     
 flops    72 x   103 x     4              9611136     100.0%      0.0%      0.0%     
 flops   103 x    72 x     4              9670464     100.0%      0.0%      0.0%     
 flops    20 x     4 x   175              9856000     100.0%      0.0%      0.0%     
 flops     4 x    20 x   175              9856000     100.0%      0.0%      0.0%     
 flops   107 x    72 x     4             10046016     100.0%      0.0%      0.0%     
 flops    72 x   108 x     4             10077696     100.0%      0.0%      0.0%     
 flops    72 x   107 x     4             10107648     100.0%      0.0%      0.0%     
 flops   108 x    72 x     4             10139904     100.0%      0.0%      0.0%     
 flops     4 x   103 x    72             10916352     100.0%      0.0%      0.0%     
 flops    20 x    20 x    38             11187200     100.0%      0.0%      0.0%     
 flops    20 x    29 x     4             11307680     100.0%      0.0%      0.0%     
 flops     4 x   107 x    72             11340288     100.0%      0.0%      0.0%     
 flops     4 x   108 x    72             11446272     100.0%      0.0%      0.0%     
 flops     4 x    29 x    20             11507200     100.0%      0.0%      0.0%     
 flops    20 x    32 x    72             11796480     100.0%      0.0%      0.0%     
 flops     4 x    29 x     9             12811968     100.0%      0.0%      0.0%     
 flops     4 x     9 x    29             12862080     100.0%      0.0%      0.0%     
 flops    72 x    72 x     4             13519872     100.0%      0.0%      0.0%     
 flops    20 x    20 x    47             13836800     100.0%      0.0%      0.0%     
 flops    20 x     4 x   246             13854720     100.0%      0.0%      0.0%     
 flops     4 x    20 x   246             13854720     100.0%      0.0%      0.0%     
 flops    32 x     4 x    38             14319616     100.0%      0.0%      0.0%     
 flops     4 x    32 x    38             14319616     100.0%      0.0%      0.0%     
 flops    20 x     4 x   259             14586880     100.0%      0.0%      0.0%     
 flops     4 x    20 x   259             14586880     100.0%      0.0%      0.0%     
 flops    67 x    67 x    20             15083040     100.0%      0.0%      0.0%     
 flops     4 x    72 x    72             15261696     100.0%      0.0%      0.0%     
 flops    67 x    71 x    20             15983520     100.0%      0.0%      0.0%     
 flops    71 x    67 x    20             15983520     100.0%      0.0%      0.0%     
 flops    29 x    29 x     4             16362496     100.0%      0.0%      0.0%     
 flops    20 x    67 x    67             16519520     100.0%      0.0%      0.0%     
 flops    71 x    71 x    20             16937760     100.0%      0.0%      0.0%     
 flops    20 x    67 x    71             17505760     100.0%      0.0%      0.0%     
 flops    20 x    71 x    67             17505760     100.0%      0.0%      0.0%     
 flops    32 x     4 x    47             17711104     100.0%      0.0%      0.0%     
 flops     4 x    32 x    47             17711104     100.0%      0.0%      0.0%     
 flops    20 x     9 x    20             17870400     100.0%      0.0%      0.0%     
 flops    80 x    67 x    20             18009600     100.0%      0.0%      0.0%     
 flops    67 x    80 x    20             18009600     100.0%      0.0%      0.0%     
 flops    20 x    71 x    71             18550880     100.0%      0.0%      0.0%     
 flops    20 x    67 x    20             18652800     100.0%      0.0%      0.0%     
 flops    80 x    71 x    20             19084800     100.0%      0.0%      0.0%     
 flops    71 x    80 x    20             19084800     100.0%      0.0%      0.0%     
 flops    20 x     9 x     9             19699200     100.0%      0.0%      0.0%     
 flops    20 x    80 x    67             19724800     100.0%      0.0%      0.0%     
 flops    20 x    71 x    20             19823200     100.0%      0.0%      0.0%     
 flops    20 x    20 x    67             20582400     100.0%      0.0%      0.0%     
 flops    20 x    80 x    71             20902400     100.0%      0.0%      0.0%     
 flops     4 x    20 x    29             21455360     100.0%      0.0%      0.0%     
 flops    80 x    80 x    20             21504000     100.0%      0.0%      0.0%     
 flops    20 x     4 x    29             21752320     100.0%      0.0%      0.0%     
 flops    32 x     9 x     4             22364928     100.0%      0.0%      0.0%     
 flops    20 x    80 x    20             22400000     100.0%      0.0%      0.0%     
 flops     4 x     9 x    32             22779648     100.0%      0.0%      0.0%     
 flops     4 x    67 x    32             23138048     100.0%      0.0%      0.0%     
 flops   103 x    67 x    20             23187360     100.0%      0.0%      0.0%     
 flops    67 x   103 x    20             23187360     100.0%      0.0%      0.0%     
 flops    32 x    67 x     4             23343872     100.0%      0.0%      0.0%     
 flops    67 x   107 x    20             24087840     100.0%      0.0%      0.0%     
 flops   107 x    67 x    20             24087840     100.0%      0.0%      0.0%     
 flops   108 x    67 x    20             24312960     100.0%      0.0%      0.0%     
 flops    67 x   108 x    20             24312960     100.0%      0.0%      0.0%     
 flops     4 x    71 x    32             24501248     100.0%      0.0%      0.0%     
 flops   103 x    71 x    20             24571680     100.0%      0.0%      0.0%     
 flops    71 x   103 x    20             24571680     100.0%      0.0%      0.0%     
 flops    32 x    71 x     4             24792064     100.0%      0.0%      0.0%     
 flops    20 x   103 x    67             25395680     100.0%      0.0%      0.0%     
 flops   107 x    71 x    20             25525920     100.0%      0.0%      0.0%     
 flops    71 x   107 x    20             25525920     100.0%      0.0%      0.0%     
 flops    29 x     9 x    20             25640640     100.0%      0.0%      0.0%     
 flops   108 x    71 x    20             25764480     100.0%      0.0%      0.0%     
 flops    71 x   108 x    20             25764480     100.0%      0.0%      0.0%     
 flops     9 x    29 x    20             25849440     100.0%      0.0%      0.0%     
 flops    32 x     4 x    67             26071040     100.0%      0.0%      0.0%     
 flops     4 x    32 x    67             26345472     100.0%      0.0%      0.0%     
 flops    20 x   107 x    67             26381920     100.0%      0.0%      0.0%     
 flops    20 x   108 x    67             26628480     100.0%      0.0%      0.0%     
 flops    20 x   103 x    71             26911840     100.0%      0.0%      0.0%     
 flops   103 x    80 x    20             27686400     100.0%      0.0%      0.0%     
 flops    80 x   103 x    20             27686400     100.0%      0.0%      0.0%     
 flops     4 x    80 x    32             27709440     100.0%      0.0%      0.0%     
 flops    32 x    80 x     4             27791360     100.0%      0.0%      0.0%     
 flops    32 x    32 x    71             27918336     100.0%      0.0%      0.0%     
 flops    20 x   107 x    71             27956960     100.0%      0.0%      0.0%     
 flops    20 x   108 x    71             28218240     100.0%      0.0%      0.0%     
 flops    80 x   107 x    20             28761600     100.0%      0.0%      0.0%     
 flops   107 x    80 x    20             28761600     100.0%      0.0%      0.0%     
 flops    20 x   103 x    20             28922400     100.0%      0.0%      0.0%     
 flops    80 x   108 x    20             29030400     100.0%      0.0%      0.0%     
 flops   108 x    80 x    20             29030400     100.0%      0.0%      0.0%     
 flops    20 x   107 x    20             30045600     100.0%      0.0%      0.0%     
 flops    20 x   108 x    20             30240000     100.0%      0.0%      0.0%     
 flops    67 x    72 x    20             32417280     100.0%      0.0%      0.0%     
 flops    72 x    67 x    20             32417280     100.0%      0.0%      0.0%     
 flops    20 x    20 x     9             33854400     100.0%      0.0%      0.0%     
 flops    72 x    71 x    20             34352640     100.0%      0.0%      0.0%     
 flops    71 x    72 x    20             34352640     100.0%      0.0%      0.0%     
 flops    20 x    72 x    67             35504640     100.0%      0.0%      0.0%     
 flops    20 x    67 x    72             35504640     100.0%      0.0%      0.0%     
 flops   103 x   103 x    20             35646240     100.0%      0.0%      0.0%     
 flops     4 x   103 x    32             35728640     100.0%      0.0%      0.0%     
 flops    32 x   103 x     4             36018688     100.0%      0.0%      0.0%     
 flops   103 x   107 x    20             37030560     100.0%      0.0%      0.0%     
 flops   107 x   103 x    20             37030560     100.0%      0.0%      0.0%     
 flops     4 x   107 x    32             37088768     100.0%      0.0%      0.0%     
 flops   103 x   108 x    20             37376640     100.0%      0.0%      0.0%     
 flops   108 x   103 x    20             37376640     100.0%      0.0%      0.0%     
 flops     4 x   108 x    32             37380096     100.0%      0.0%      0.0%     
 flops    32 x   107 x     4             37417472     100.0%      0.0%      0.0%     
 flops    20 x    72 x    71             37624320     100.0%      0.0%      0.0%     
 flops    20 x    71 x    72             37624320     100.0%      0.0%      0.0%     
 flops    32 x   108 x     4             37739520     100.0%      0.0%      0.0%     
 flops   107 x   107 x    20             38468640     100.0%      0.0%      0.0%     
 flops    80 x    72 x    20             38707200     100.0%      0.0%      0.0%     
 flops    72 x    80 x    20             38707200     100.0%      0.0%      0.0%     
 flops   108 x   107 x    20             38828160     100.0%      0.0%      0.0%     
 flops   107 x   108 x    20             38828160     100.0%      0.0%      0.0%     
 flops   108 x   108 x    20             39191040     100.0%      0.0%      0.0%     
 flops    20 x    72 x    20             40320000     100.0%      0.0%      0.0%     
 flops     4 x    29 x    29             41686688     100.0%      0.0%      0.0%     
 flops     4 x    32 x     9             42020352     100.0%      0.0%      0.0%     
 flops    20 x    80 x    72             42393600     100.0%      0.0%      0.0%     
 flops    32 x     4 x     9             42552576     100.0%      0.0%      0.0%     
 flops    20 x    20 x   175             49280000     100.0%      0.0%      0.0%     
 flops     4 x    72 x    32             49655808     100.0%      0.0%      0.0%     
 flops   103 x    72 x    20             49835520     100.0%      0.0%      0.0%     
 flops    72 x   103 x    20             49835520     100.0%      0.0%      0.0%     
 flops    32 x    72 x     4             50116608     100.0%      0.0%      0.0%     
 flops     9 x     9 x    32             50409216     100.0%      0.0%      0.0%     
 flops   107 x    72 x    20             51770880     100.0%      0.0%      0.0%     
 flops    72 x   107 x    20             51770880     100.0%      0.0%      0.0%     
 flops   108 x    72 x    20             52254720     100.0%      0.0%      0.0%     
 flops    72 x   108 x    20             52254720     100.0%      0.0%      0.0%     
 flops    20 x   103 x    72             54581760     100.0%      0.0%      0.0%     
 flops    32 x    32 x    72             56623104     100.0%      0.0%      0.0%     
 flops    20 x   107 x    72             56701440     100.0%      0.0%      0.0%     
 flops    20 x   108 x    72             57231360     100.0%      0.0%      0.0%     
 flops    20 x    29 x    20             57814400     100.0%      0.0%      0.0%     
 flops    32 x     4 x   175             63078400     100.0%      0.0%      0.0%     
 flops     4 x    32 x   175             63078400     100.0%      0.0%      0.0%     
 flops    20 x    29 x     9             64602720     100.0%      0.0%      0.0%     
 flops    20 x     9 x    29             64644480     100.0%      0.0%      0.0%     
 flops    20 x    20 x   246             69273600     100.0%      0.0%      0.0%     
 flops    72 x    72 x    20             69672960     100.0%      0.0%      0.0%     
 flops    32 x    20 x    38             71598080     100.0%      0.0%      0.0%     
 flops    20 x    32 x    38             71598080     100.0%      0.0%      0.0%     
 flops    32 x    29 x     4             72079616     100.0%      0.0%      0.0%     
 flops    20 x    20 x   259             72934400     100.0%      0.0%      0.0%     
 flops     4 x    29 x    32             73905920     100.0%      0.0%      0.0%     
 flops    20 x    72 x    72             76308480     100.0%      0.0%      0.0%     
 flops    29 x    29 x    20             83292640     100.0%      0.0%      0.0%     
 flops    32 x    20 x    47             88555520     100.0%      0.0%      0.0%     
 flops    20 x    32 x    47             88555520     100.0%      0.0%      0.0%     
 flops    32 x     4 x   246             88670208     100.0%      0.0%      0.0%     
 flops     4 x    32 x   246             88670208     100.0%      0.0%      0.0%     
 flops    32 x     4 x   259             93356032     100.0%      0.0%      0.0%     
 flops     4 x    32 x   259             93356032     100.0%      0.0%      0.0%     
 flops    67 x    67 x    32             95956864     100.0%      0.0%      0.0%     
 flops    71 x    67 x    32            101685632     100.0%      0.0%      0.0%     
 flops    67 x    71 x    32            102294528     100.0%      0.0%      0.0%     
 flops    32 x    67 x    67            105724928     100.0%      0.0%      0.0%     
 flops    71 x    71 x    32            108401664     100.0%      0.0%      0.0%     
 flops    20 x    20 x    29            109875200     100.0%      0.0%      0.0%     
 flops    32 x    67 x    71            112036864     100.0%      0.0%      0.0%     
 flops    32 x    71 x    67            112036864     100.0%      0.0%      0.0%     
 flops    32 x     9 x    20            114220800     100.0%      0.0%      0.0%     
 flops    20 x     9 x    32            114508800     100.0%      0.0%      0.0%     
 flops    80 x    67 x    32            114575360     100.0%      0.0%      0.0%     
 flops    67 x    80 x    32            114575360     100.0%      0.0%      0.0%     
 flops    32 x    71 x    71            118725632     100.0%      0.0%      0.0%     
 flops    20 x    67 x    32            118863360     100.0%      0.0%      0.0%     
 flops    32 x    67 x    20            119978240     100.0%      0.0%      0.0%     
 flops    71 x    80 x    32            121415680     100.0%      0.0%      0.0%     
 flops    80 x    71 x    32            122142720     100.0%      0.0%      0.0%     
 flops    20 x    71 x    32            125959680     100.0%      0.0%      0.0%     
 flops    32 x     9 x     9            126074880     100.0%      0.0%      0.0%     
 flops    32 x    80 x    67            126238720     100.0%      0.0%      0.0%     
 flops    32 x    71 x    20            126959360     100.0%      0.0%      0.0%     
 flops    32 x    20 x    67            130355200     100.0%      0.0%      0.0%     
 flops    20 x    32 x    67            131727360     100.0%      0.0%      0.0%     
 flops    32 x    80 x    71            133775360     100.0%      0.0%      0.0%     
 flops    80 x    80 x    32            136806400     100.0%      0.0%      0.0%     
 flops     4 x    32 x    29            137069312     100.0%      0.0%      0.0%     
 flops    32 x     4 x    29            138776832     100.0%      0.0%      0.0%     
 flops    20 x    80 x    32            141926400     100.0%      0.0%      0.0%     
 flops    32 x    80 x    20            143257600     100.0%      0.0%      0.0%     
 flops   103 x    67 x    32            147515776     100.0%      0.0%      0.0%     
 flops    67 x   103 x    32            147957440     100.0%      0.0%      0.0%     
 flops   107 x    67 x    32            153244544     100.0%      0.0%      0.0%     
 flops    67 x   107 x    32            153703360     100.0%      0.0%      0.0%     
 flops   108 x    67 x    32            154676736     100.0%      0.0%      0.0%     
 flops    67 x   108 x    32            155602944     100.0%      0.0%      0.0%     
 flops    71 x   103 x    32            156790720     100.0%      0.0%      0.0%     
 flops   103 x    71 x    32            157258752     100.0%      0.0%      0.0%     
 flops    29 x     9 x    32            162429696     100.0%      0.0%      0.0%     
 flops    32 x   103 x    67            162532352     100.0%      0.0%      0.0%     
 flops    71 x   107 x    32            162879680     100.0%      0.0%      0.0%     
 flops   107 x    71 x    32            163365888     100.0%      0.0%      0.0%     
 flops     9 x    29 x    32            164567808     100.0%      0.0%      0.0%     
 flops   108 x    71 x    32            164892672     100.0%      0.0%      0.0%     
 flops    71 x   108 x    32            164892672     100.0%      0.0%      0.0%     
 flops    32 x   107 x    67            168844288     100.0%      0.0%      0.0%     
 flops    32 x   108 x    67            170422272     100.0%      0.0%      0.0%     
 flops    32 x   103 x    71            172235776     100.0%      0.0%      0.0%     
 flops   103 x    80 x    32            176138240     100.0%      0.0%      0.0%     
 flops    80 x   103 x    32            176665600     100.0%      0.0%      0.0%     
 flops    32 x   107 x    71            178924544     100.0%      0.0%      0.0%     
 flops    32 x   108 x    71            180596736     100.0%      0.0%      0.0%     
 flops   107 x    80 x    32            182978560     100.0%      0.0%      0.0%     
 flops    80 x   107 x    32            183526400     100.0%      0.0%      0.0%     
 flops    20 x   103 x    32            183653120     100.0%      0.0%      0.0%     
 flops   108 x    80 x    32            184688640     100.0%      0.0%      0.0%     
 flops    32 x   103 x    20            184707840     100.0%      0.0%      0.0%     
 flops    80 x   108 x    32            185794560     100.0%      0.0%      0.0%     
 flops    20 x   107 x    32            190237440     100.0%      0.0%      0.0%     
 flops    32 x   107 x    20            191880960     100.0%      0.0%      0.0%     
 flops    20 x   108 x    32            192153600     100.0%      0.0%      0.0%     
 flops    32 x   108 x    20            193674240     100.0%      0.0%      0.0%     
 flops    72 x    67 x    32            206235648     100.0%      0.0%      0.0%     
 flops    67 x    72 x    32            206853120     100.0%      0.0%      0.0%     
 flops    20 x    29 x    29            208837120     100.0%      0.0%      0.0%     
 flops    32 x    20 x     9            216529920     100.0%      0.0%      0.0%     
 flops    20 x    32 x     9            216668160     100.0%      0.0%      0.0%     
 flops    71 x    72 x    32            219202560     100.0%      0.0%      0.0%     
 flops    72 x    71 x    32            219856896     100.0%      0.0%      0.0%     
 flops    32 x    72 x    67            227229696     100.0%      0.0%      0.0%     
 flops    32 x    67 x    72            227229696     100.0%      0.0%      0.0%     
 flops   103 x   103 x    32            227456960     100.0%      0.0%      0.0%     
 flops   103 x   107 x    32            236290240     100.0%      0.0%      0.0%     
 flops   107 x   103 x    32            236290240     100.0%      0.0%      0.0%     
 flops   108 x   103 x    32            238498560     100.0%      0.0%      0.0%     
 flops   103 x   108 x    32            239210496     100.0%      0.0%      0.0%     
 flops    32 x    72 x    71            240795648     100.0%      0.0%      0.0%     
 flops    32 x    71 x    72            240795648     100.0%      0.0%      0.0%     
 flops   107 x   107 x    32            245466560     100.0%      0.0%      0.0%     
 flops    72 x    80 x    32            246251520     100.0%      0.0%      0.0%     
 flops    80 x    72 x    32            246988800     100.0%      0.0%      0.0%     
 flops   108 x   107 x    32            247760640     100.0%      0.0%      0.0%     
 flops   107 x   108 x    32            248500224     100.0%      0.0%      0.0%     
 flops   108 x   108 x    32            250822656     100.0%      0.0%      0.0%     
 flops    20 x    72 x    32            255375360     100.0%      0.0%      0.0%     
 flops    32 x    72 x    20            257679360     100.0%      0.0%      0.0%     
 flops    32 x    80 x    72            271319040     100.0%      0.0%      0.0%     
 flops    32 x    20 x   175            315392000     100.0%      0.0%      0.0%     
 flops    20 x    32 x   175            315392000     100.0%      0.0%      0.0%     
 flops   103 x    72 x    32            317998080     100.0%      0.0%      0.0%     
 flops    72 x   103 x    32            317998080     100.0%      0.0%      0.0%     
 flops   107 x    72 x    32            330347520     100.0%      0.0%      0.0%     
 flops    72 x   107 x    32            330347520     100.0%      0.0%      0.0%     
 flops   108 x    72 x    32            333434880     100.0%      0.0%      0.0%     
 flops    72 x   108 x    32            334430208     100.0%      0.0%      0.0%     
 flops    32 x   103 x    72            349323264     100.0%      0.0%      0.0%     
 flops    32 x   107 x    72            362889216     100.0%      0.0%      0.0%     
 flops    32 x   108 x    72            366280704     100.0%      0.0%      0.0%     
 flops    32 x    29 x    20            370197760     100.0%      0.0%      0.0%     
 flops    20 x    29 x    32            370346240     100.0%      0.0%      0.0%     
 flops    32 x    29 x     9            413591040     100.0%      0.0%      0.0%     
 flops    32 x     9 x    29            413724672     100.0%      0.0%      0.0%     
 flops    32 x    20 x   246            443351040     100.0%      0.0%      0.0%     
 flops    20 x    32 x   246            443351040     100.0%      0.0%      0.0%     
 flops    72 x    72 x    32            444579840     100.0%      0.0%      0.0%     
 flops    32 x    32 x    38            458227712     100.0%      0.0%      0.0%     
 flops    32 x    20 x   259            466780160     100.0%      0.0%      0.0%     
 flops    20 x    32 x   259            466780160     100.0%      0.0%      0.0%     
 flops    32 x    72 x    72            488374272     100.0%      0.0%      0.0%     
 flops    29 x    29 x    32            530274048     100.0%      0.0%      0.0%     
 flops    32 x    32 x    47            566755328     100.0%      0.0%      0.0%     
 flops    32 x    20 x    29            702607360     100.0%      0.0%      0.0%     
 flops    20 x    32 x    29            703052800     100.0%      0.0%      0.0%     
 flops    32 x     9 x    32            732727296     100.0%      0.0%      0.0%     
 flops    32 x    67 x    32            760999936     100.0%      0.0%      0.0%     
 flops    32 x    71 x    32            807305216     100.0%      0.0%      0.0%     
 flops    32 x    32 x    67            834273280     100.0%      0.0%      0.0%     
 flops    32 x    80 x    32            910622720     100.0%      0.0%      0.0%     
 flops    32 x   103 x    32           1175801856     100.0%      0.0%      0.0%     
 flops    32 x   107 x    32           1219710976     100.0%      0.0%      0.0%     
 flops    32 x   108 x    32           1230446592     100.0%      0.0%      0.0%     
 flops    32 x    29 x    29           1336557568     100.0%      0.0%      0.0%     
 flops    32 x    32 x     9           1384169472     100.0%      0.0%      0.0%     
 flops    32 x    72 x    32           1635581952     100.0%      0.0%      0.0%     
 flops    32 x    32 x   175           2018508800     100.0%      0.0%      0.0%     
 flops    32 x    29 x    32           2372769792     100.0%      0.0%      0.0%     
 flops    32 x    32 x   246           2837446656     100.0%      0.0%      0.0%     
 flops    32 x    32 x   259           2987393024     100.0%      0.0%      0.0%     
 flops    32 x    32 x    29           4492886016     100.0%      0.0%      0.0%     
 flops inhomo. stacks                 13282983936     100.0%      0.0%      0.0%
 flops total                        71.595867E+09     100.0%      0.0%      0.0%
 flops max/rank                      9.305766E+09     100.0%      0.0%      0.0%
 matmuls inhomo. stacks                     19344     100.0%      0.0%      0.0%
 matmuls total                             970678     100.0%      0.0%      0.0%
 number of processed stacks                300373     100.0%      0.0%      0.0%
 average stack size                                     3.2       0.0       0.0
 marketing flops                    90.538246E+09
 -------------------------------------------------------------------------------
 # multiplications                           4545
 max memory usage/rank              23.925236E+09
 # max total images/rank                        1
 # max 3D layers                                1
 # MPI messages exchanged                   18180
 MPI messages size (bytes):
  total size                         2.474037E+09
  min size                           0.000000E+00
  max size                         536.648000E+03
  average size                     136.085656E+03
 MPI breakdown and total messages size (bytes):
             size <=      128                2430                        0
       128 < size <=     8192                 144                   655872
      8192 < size <=    32768                1698                 31835792
     32768 < size <=   131072                9192                745022256
    131072 < size <=  4194304                4716               1696523392
   4194304 < size <= 16777216                   0                        0
  16777216 < size                               0                        0
 -------------------------------------------------------------------------------
 -                                                                             -
 -                      DBCSR MESSAGE PASSING PERFORMANCE                      -
 -                                                                             -
 -------------------------------------------------------------------------------
 ROUTINE             CALLS      AVE VOLUME [Bytes]
 MP_Bcast              423                     12.
 MP_Allreduce         2967                     17.
 MP_Alltoall          3385                  45273.
 MP_ISend             7646                  47735.
 MP_IRecv             7466                  41605.
 -------------------------------------------------------------------------------

 -------------------------------------------------------------------------------
 -                                                                             -
 -                                GRID STATISTICS                              -
 -                                                                             -
 -------------------------------------------------------------------------------
 LP    KERNEL             BACKEND                              COUNT     PERCENT
 4     collocate ortho    CPU                                  11232      21.44%
 4     integrate ortho    CPU                                  11232      21.44%
 6     collocate ortho    CPU                                   8604      16.43%
 6     integrate ortho    CPU                                   8604      16.43%
 2     collocate ortho    CPU                                   6030      11.51%
 2     integrate ortho    CPU                                   6030      11.51%
 0     collocate general  CPU                                    648       1.24%
 -------------------------------------------------------------------------------

 -------------------------------------------------------------------------------
 -                                                                             -
 -                          OFFLOAD MEMPOOL STATISTICS                         -
 -                                                                             -
 -------------------------------------------------------------------------------
 Memory consumption                Number of allocations  Used [MiB]  Size [MiB]
 Host                                                  6          86    22254952
 -------------------------------------------------------------------------------

 MEMORY| Estimated peak process memory [MiB]                                2195

 -------------------------------------------------------------------------------
 -                                                                             -
 -                         MESSAGE PASSING PERFORMANCE                         -
 -                                                                             -
 -------------------------------------------------------------------------------

 ROUTINE             CALLS      AVE VOLUME [Bytes]
 MP_Group                5
 MP_Bcast              474                 295580.
 MP_Allreduce         1884                   6278.
 MP_Sync                10
 MP_Alltoall            46               70822180.
 MP_SendRecv            32                 580800.
 MP_ISendRecv           32                 580800.
 MP_Wait               176
 MP_comm_split          10
 MP_ISend              117                3224648.
 MP_IRecv              117                3222597.
 -------------------------------------------------------------------------------


 -------------------------------------------------------------------------------
 -                                                                             -
 -                           R E F E R E N C E S                               -
 -                                                                             -
 -------------------------------------------------------------------------------
 
 CP2K version 2026.2 (Development Version), the CP2K developers group (2026).
 CP2K is freely available from https://www.cp2k.org/ .
 
 M. Iannuzzi, J. Wilhelm, F. Stein, A. Bussy, H. Elgabarty, D. Golze, A. Hehn, 
 M. Graml, S. Marek, B. Sertcan Gökmen, C. Schran, H. Forbert, R. Z. 
 Khaliullin, A. Kozhevnikov, M. Taillefumier, R. Meli, V. V. Rybkin, M. Brehm, 
 R. Schade, O. Schütt, J. V. Pototschnig, H. Mirhosseini, A. Knüpfer, D. Marx, 
 M. Krack, J. Hutter, T. D. Kühne.
 J. Phys. Chem. B 130, 1237-1310 (2026).
 The CP2K Program Package Made Simple.
 https://doi.org/10.1021/acs.jpcb.5c05851

 M. Graml, K. Zollner, D. Hernangómez-Pérez, P. E. Faria Junior, J. Wilhelm.
 J. Chem. Theory Comput. 20, 2202-2208 (2024).
 Low-scaling GW algorithm applied to twisted transition-metal dichalcogenide 
 heterobilayers.
 https://doi.org/10.1021/acs.jctc.3c01230

 T. D. Kühne, M. Iannuzzi, M. Del Ben, V. V. Rybkin, P. Seewald, F. Stein, T. 
 Laino, R. Z. Khaliullin, O. Schütt, F. Schiffmann, D. Golze, J. Wilhelm, S. 
 Chulkov, M. H. Bani-Hashemian, V. Weber, U. Borstnik, M. Taillefumier, A. S. 
 Jakobovits, A. Lazzaro, H. Pabst, T. Müller, R. Schade, M. Guidon, S. 
 Andermatt, N. Holmberg, G. K. Schenter, A. Hehn, A. Bussy, F. Belleflamme, G. 
 Tabacchi, A. Glöß, M. Lass, I. Bethune, C. J. Mundy, C. Plessl, M. Watkins, 
 J. VandeVondele, M. Krack, J. Hutter.
 J. Chem. Phys. 152, 194103 (2020).
 CP2K: An electronic structure and molecular dynamics software package - 
 Quickstep: Efficient and accurate electronic structure calculations.
 https://doi.org/10.1063/5.0007045

 O. Schuett, P. Messmer, J. Hutter, J. VandeVondele.
 Electronic Structure Calculations on Graphics Processing Units, 173-190 (2016).
 GPU-Accelerated Sparse Matrix-Matrix Multiplication for Linear Scaling Density 
 Functional Theory.
 https://doi.org/10.1002/9781118670712.ch8

 U. Borstnik, J. VandeVondele, V. Weber, J. Hutter.
 Parallel Comput. 40, 47-58 (2014).
 Sparse matrix multiplication: The distributed block-compressed sparse row 
 library.
 https://doi.org/10.1016/j.parco.2014.03.012

 J. VandeVondele, J. Hutter.
 J. Chem. Phys. 127, 114105 (2007).
 Gaussian basis sets for accurate calculations on molecular systems in gas and 
 condensed phases.
 https://doi.org/10.1063/1.2770708

 J. VandeVondele, M. Krack, F. Mohamed, M. Parrinello, T. Chassaing, J. Hutter.
 Comput. Phys. Commun. 167, 103-128 (2005).
 QUICKSTEP: Fast and accurate density functional calculations using a mixed 
 Gaussian and plane waves approach.
 https://doi.org/10.1016/j.cpc.2004.12.014

 M. Krack.
 Theor. Chem. Acc. 114, 145-152 (2005).
 Pseudopotentials for H to Kr optimized for gradient-corrected 
 exchange-correlation functionals.
 https://doi.org/10.1007/s00214-005-0655-y

 M. Frigo, S. G. Johnson.
 Proc. IEEE 93, 216-231 (2005).
 The design and implementation of FFTW3.
 https://doi.org/10.1109/JPROC.2004.840301

 J. VandeVondele, J. Hutter.
 J. Chem. Phys. 118, 4365-4369 (2003).
 An efficient orbital transformation method for electronic structure 
 calculations.
 https://doi.org/10.1063/1.1543154

 C. Hartwigsen, S. Goedecker, J. Hutter.
 Phys. Rev. B 58, 3641-3662 (1998).
 Relativistic separable dual-space Gaussian pseudopotentials from H to Rn.
 https://doi.org/10.1103/PhysRevB.58.3641

 G. Lippert, J. Hutter, M. Parrinello.
 Mol. Phys. 92, 477-487 (1997).
 A hybrid Gaussian and plane wave density functional scheme.
 https://doi.org/10.1080/002689797170220

 S. Goedecker, M. Teter, J. Hutter.
 Phys. Rev. B 54, 1703-1710 (1996).
 Separable dual-space Gaussian pseudopotentials.
 https://doi.org/10.1103/PhysRevB.54.1703

 J. P. Perdew, K. Burke, M. Ernzerhof.
 Phys. Rev. Lett. 77, 3865-3868 (1996).
 Generalized gradient approximation made simple.
 https://doi.org/10.1103/PhysRevLett.77.3865

 P. E. Blöchl.
 J. Chem. Phys. 103, 7422-7428 (1995).
 Electrostatic decoupling of periodic images of plane‐wave‐expanded 
 densities and derived atomic point charges.
 https://doi.org/10.1063/1.470314

 R. H. Byrd, P. H. Lu, J. Nocedal, C. Y. Zhu.
 SIAM J. Sci. Comput. 16, 1190-1208 (1995).
 A Limited Memory Algorithm for Bound Constrained Optimization.
 https://doi.org/10.1137/0916069


 -------------------------------------------------------------------------------
 -                                                                             -
 -                                T I M I N G                                  -
 -                                                                             -
 -------------------------------------------------------------------------------
 SUBROUTINE                       CALLS  ASD         SELF TIME        TOTAL TIME MAXRANK
                                MAXIMUM       AVERAGE  MAXIMUM  AVERAGE  MAXIMUM
 CP2K                                 1  1.0    0.011    0.022  221.403  221.403       0
 qs_energies                          1  2.0    0.000    0.000  220.331  220.331       0
 qs_energies_properties               1  3.0    0.000    0.000  217.387  217.387       3
 post_scf_bandstructure               1  4.0    0.000    0.000  217.387  217.387       0
 run_gw                               1  5.0    0.000    0.000  217.356  217.367       1
 gw_calc_ri_rs_non_periodic           1  6.0    0.000    0.000  213.987  214.170       7
 optimize_ri_rs_grid                  1  7.0    0.000    0.000  212.437  212.621       0
 mp_sum_d                           724  4.7   79.555  212.173   79.555  212.173       8
 rirs_grid_LBFGS                      1  8.0    2.173    4.607  207.920  211.942       7
 evaluate_rirs_grid_cluster         301  9.0    6.728    9.199  126.275  196.125       7
 rirs_cluster_gradient_products     301 10.0   40.651   78.841   40.651   78.841       7
 rirs_cluster_gradient_coordina     301 10.0   25.726   29.665   25.726   29.665       6
 rirs_cluster_residual              301 10.0   17.471   28.956   17.471   28.956       7
 rirs_cluster_d_lP                  301 10.0   12.377   21.624   12.377   21.624       7
 rirs_cluster_D_ll                  301 10.0   11.720   18.471   11.720   18.471       7
 rirs_cluster_AO_products           301 10.0   11.602   14.595   11.602   14.595       1
 rirs_grid_build_clusters             1  8.0    2.504    6.536    4.023   10.726       0
 abc_contract_xsmm                12107  9.1    1.654    4.482    1.654    4.482       0
 create_and_init_bs_env_for_gw        1  6.0    0.003    0.004    3.369    3.586       6
 generate_auto_ri_basis               1  7.0    0.000    0.000    2.467    2.467       0
 scf_env_do_scf                       1  3.0    0.000    0.000    2.203    2.203       0
 qs_ks_build_kohn_sham_matrix         2  7.5    0.002    0.002    2.178    2.178       3
 fft_wrap_pw1pw2                     28 10.0    0.001    0.001    2.012    2.075       4
 fft_wrap_pw1pw2_300                 16 11.2    0.089    0.123    1.895    1.952       4
 fft3d_ps                            28 12.0    0.672    0.935    1.553    1.772       2
 init_scf_loop                        1  4.0    0.000    0.000    1.673    1.673       5
 qs_ks_update_qs_env                  2  5.0    0.000    0.000    1.670    1.670       0
 rebuild_ks_matrix                    1  6.0    0.000    0.000    1.670    1.670       0
 compute_AB_optimized_RI_basis        1  8.0    0.000    0.000    1.585    1.585       0
 compute_AB_optimized_RI_basis_       1  9.0    0.000    0.000    1.546    1.583       0
 mp_sum_dm                           46 10.8    0.991    1.515    0.991    1.515       8
 compute_B_PQ_AB                      3 10.0    0.171    0.355    0.660    1.322       2
 mp_alltoall_z22v                    28 14.0    0.595    1.255    0.595    1.255       8
 cp_fm_get_submatrix                 42 10.0    0.000    0.000    0.846    1.224       0
 qs_vxc_create                        2  8.5    0.000    0.000    1.154    1.178       3
 xc_vxc_pw_create                     1  9.0    0.019    0.022    1.153    1.178       2
 qs_rho_update_rho_low                2  5.0    0.000    0.000    1.044    1.044       0
 calculate_rho_elec                   2  6.0    0.022    0.023    1.044    1.044       4
 xc_pw_derive                         6 11.0    0.000    0.000    0.857    0.945       3
 density_rs2pw                        2  7.0    0.000    0.000    0.681    0.779       3
 yz_to_x                             14 12.2    0.126    0.166    0.443    0.765       3
 contract_B_PQ                       14 11.8    0.340    0.687    0.370    0.737       2
 compute_M_pq_inv_and_V_pq            1  8.0    0.000    0.000    0.699    0.699       0
 initialize_ri_rs_grid                1  8.0    0.168    0.278    0.495    0.679       3
 mp_bcast_dm                         31  9.1    0.328    0.674    0.328    0.674       8
 compute_W                            1  7.0    0.000    0.000    0.636    0.636       4
 x_to_yz                             14 13.8    0.158    0.208    0.436    0.633       2
 xc_pw_divergence                     1 10.0    0.000    0.000    0.555    0.623       3
 compute_contracted_RI_matrix         2  9.0    0.000    0.001    0.601    0.602       7
 compute_optimized_RI_matrix_bl       8 10.0    0.057    0.099    0.349    0.596       0
 xc_rho_set_and_dset_create           1 10.0    0.015    0.030    0.554    0.593       2
 qs_init_subsys                       1  2.0    0.001    0.001    0.586    0.588       0
 qs_env_setup                         1  3.0    0.000    0.000    0.584    0.586       0
 qs_env_rebuild_pw_env                2  3.5    0.000    0.000    0.584    0.586       0
 pw_env_rebuild                       1  5.0    0.000    0.000    0.584    0.586       0
 pw_grid_setup                        5  5.2    0.000    0.000    0.563    0.566       0
 pw_grid_setup_internal               5  6.2    0.010    0.010    0.563    0.566       0
 setup_time_and_frequency_minim       1  7.0    0.000    0.000    0.346    0.562       0
 build_minimax_time_frequency_g       1  8.0    0.000    0.000    0.346    0.562       8
 fit_l_sq_weights                     3  9.0    0.346    0.562    0.346    0.562       3
 init_scf_run                         1  3.0    0.000    0.000    0.544    0.544       0
 scf_env_initial_rho_setup            1  4.0    0.000    0.000    0.544    0.544       0
 scf_env_do_scf_inner_loop            1  4.0    0.000    0.000    0.529    0.530       0
 compute_M_PQ_AB                    212 11.0    0.000    0.001    0.307    0.525       0
 compute_M_PQ                       212 12.0    0.000    0.001    0.307    0.525       0
 int_operators_r12_ab_os            212 13.0    0.000    0.000    0.307    0.524       7
 int_operator_ab_os_low             212 14.0    0.115    0.160    0.307    0.524       0
 compute_V_xc                         1  7.0    0.000    0.000    0.508    0.508       0
 pw_grid_sort                         5  7.2    0.320    0.337    0.470    0.503       0
 sum_up_and_integrate                 2  8.5    0.000    0.000    0.449    0.473       5
 integrate_v_rspace                   2  9.5    0.000    0.000    0.444    0.471       5
 cp_fm_gemm                         434 10.5    0.433    0.455    0.433    0.455       7
 parallel_gemm_fm_gemm              431  9.6    0.000    0.000    0.433    0.455       6
 create_qs_kind_set                   1  2.0    0.000    0.000    0.450    0.451       0
 read_qs_kind                         4  3.0    0.111    0.150    0.450    0.451       0
 potential_pw2rs                      2 10.5    0.001    0.002    0.419    0.445       2
 compute_fm_W_freq                   30  8.0    0.000    0.000    0.436    0.444       4
 copy_dbcsr_to_fm                   104  9.5    0.300    0.406    0.303    0.408       1
 compute_Sigma_c_and_QP_energie       1  7.0    0.000    0.000    0.387    0.398       4
 compute_B_PQ_transition              7 10.8    0.000    0.000    0.182    0.374       0
 compute_B_PQ_exchange                7 10.8    0.000    0.000    0.188    0.364       0
 grid_collocate_task_list             2  7.0    0.308    0.363    0.308    0.363       2
 compute_Sigma_c                      1  8.0    0.002    0.003    0.362    0.362       3
 parser_read_line                 60548  4.0    0.011    0.012    0.339    0.345       0
 parser_read_line_low                68  5.0    0.014    0.095    0.328    0.334       0
 broadcast_input_information         68  6.0    0.017    0.047    0.314    0.331       0
 transfer_rs2pw                       9  7.8    0.000    0.000    0.187    0.328       8
 qs_ks_ddapc                          2  8.5    0.000    0.000    0.308    0.326       3
 transfer_rs2pw_300                   3  8.3    0.047    0.061    0.157    0.301       1
 mp_waitany                         117 11.3    0.146    0.301    0.146    0.301       0
 contract_grid_panels_sigma_c        30  9.0    0.270    0.277    0.297    0.299       8
 compute_Z_lP                         1  7.0    0.000    0.000    0.261    0.261       4
 compute_Z_lP_auto_ri                 1  8.0    0.000    0.000    0.261    0.261       2
 pw_poisson_solve                     2  8.5    0.000    0.000    0.230    0.249       3
 get_mat_chi_Gamma_tau                1  7.0    0.000    0.001    0.249    0.249       0
 compute_d_lp_auto_ri_batch           1  9.0    0.000    0.000    0.138    0.240       1
 compute_d_lp_auto_ri_atom            1 10.0    0.073    0.222    0.138    0.240       2
 contract_grid_panels                31  8.0    0.200    0.219    0.219    0.236       8
 operator2                       116721 15.0    0.117    0.226    0.117    0.226       0
 -------------------------------------------------------------------------------

 The number of warnings for this run is : 0
 
 -------------------------------------------------------------------------------
  **** **** ******  **  PROGRAM ENDED AT                 2026-10-03 12:16:33.661
 ***** ** ***  *** **   PROGRAM RAN ON                                  n2cn0943
 **    ****   ******    PROGRAM RAN BY                                  eprop2d1
 ***** **    ** ** **   PROGRAM PROCESS ID                                997776
  **** **  *******  **  PROGRAM STOPPED IN /scratch/hpc-prf-metdyn/eprop2d1_Jan/
                                           53_benchmark_RI_opt/418_gw100_fig5_fu
                                           ll_epsfilter_1e12_20261002/calculatio
                                           ns/rc5p0/ri5_rs04/97_urea
