 DBCSR| CPU Multiplication driver                                           XSMM (U)
 DBCSR| Multrec recursion limit                                              512 (U)
 DBCSR| Multiplication stack size                                           1000 (D)
 DBCSR| Maximum elements for images                                    UNLIMITED (U)
 DBCSR| Multiplicative factor virtual images                                   1 (U)
 DBCSR| Use multiplication densification                                       T (D)
 DBCSR| Multiplication size stacks                                             3 (U)
 DBCSR| Use memory pool for CPU allocation                                     F (U)
 DBCSR| Number of 3D layers                                               SINGLE (U)
 DBCSR| Use MPI memory allocation                                              F (U)
 DBCSR| Use RMA algorithm                                                      F (U)
 DBCSR| Use Communication thread                                               T (U)
 DBCSR| Communication thread load                                             64 (D)
 DBCSR| MPI: My process id                                                     0
 DBCSR| MPI: Number of processes                                              16
 DBCSR| OMP: Current number of threads                                         7
 DBCSR| OMP: Max number of threads                                             7
 DBCSR| Split modifier for TAS multiplication algorithm                  1.0E+00 (U)


  **** **** ******  **  PROGRAM STARTED AT               2026-10-03 18:52:48.166
 ***** ** ***  *** **   PROGRAM STARTED ON                              n2cn0751
 **    ****   ******    PROGRAM STARTED BY                              eprop2d1
 ***** **    ** ** **   PROGRAM PROCESS ID                               1374216
  **** **  *******  **  PROGRAM STARTED IN /scratch/hpc-prf-metdyn/eprop2d1_Jan/
                                           53_benchmark_RI_opt/418_gw100_fig5_fu
                                           ll_epsfilter_1e12_20261002/calculatio
                                           ns/rc3p0/ri2_rs09/29_C8H8

 CP2K| version string:                 CP2K version 2026.2 (Development Version)
 CP2K| source code revision number:                                   0671c5aa6c
 CP2K| cp2kflags: omp libint fftw3 libxc parallel scalapack openblas            
 CP2K| is freely available from                            https://www.cp2k.org/
 CP2K| Program compiled at                                   2026-09-20 09:25:26
 CP2K| Program compiled on                                              n2login5
 CP2K| Program compiled for                                               x86_64
 CP2K| Data directory path    /scratch/hpc-prf-metdyn/eprop2d1_Jan/53_benchmark_
 CP2K| Input file name        /scratch/hpc-prf-metdyn/eprop2d1_Jan/53_benchmark_
 
 eprop2d1@n2cn0751 has created rank and process                      0   1374216
 eprop2d1@n2cn0751 has created rank and process                      1   1374217
 eprop2d1@n2cn0751 has created rank and process                      2   1374218
 eprop2d1@n2cn0751 has created rank and process                      3   1374219
 eprop2d1@n2cn0751 has created rank and process                      4   1374220
 eprop2d1@n2cn0751 has created rank and process                      5   1374221
 eprop2d1@n2cn0751 has created rank and process                      6   1374222
 eprop2d1@n2cn0751 has created rank and process                      7   1374223
 eprop2d1@n2cn0751 has created rank and process                      8   1374224
 eprop2d1@n2cn0751 has created rank and process                      9   1374225
 eprop2d1@n2cn0751 has created rank and process                     10   1374226
 eprop2d1@n2cn0751 has created rank and process                     11   1374227
 eprop2d1@n2cn0751 has created rank and process                     12   1374228
 eprop2d1@n2cn0751 has created rank and process                     13   1374229
 eprop2d1@n2cn0751 has created rank and process                     14   1374230
 eprop2d1@n2cn0751 has created rank and process                     15   1374231
 
 eprop2d1@n2cn0751 is running                                       16 processes

 GLOBAL| Force Environment number                                              1
 GLOBAL| Basis set file name            /scratch/hpc-prf-metdyn/eprop2d1_Jan/53_
 GLOBAL| Potential file name            /scratch/hpc-prf-metdyn/eprop2d1_Jan/53_
 GLOBAL| MM Potential file name                                     MM_POTENTIAL
 GLOBAL| Coordinate file name                                      __STD_INPUT__
 GLOBAL| Method name                                                        CP2K
 GLOBAL| Project name                                             g418_c209_m029
 GLOBAL| Run type                                                         ENERGY
 GLOBAL| FFT library                                                       FFTW3
 GLOBAL| Diagonalization library                                       ScaLAPACK
 GLOBAL| Cholesky decomposition library                                ScaLAPACK
 GLOBAL| DGEMM library                                                      BLAS
 GLOBAL| Direct generalized diagonalization requested                          F
 GLOBAL| Orthonormality check for eigenvectors                          DISABLED
 GLOBAL| Matrix multiplication library                                 ScaLAPACK
 GLOBAL| All-to-all communication in single precision                          F
 GLOBAL| Grid backend                                                       AUTO
 GLOBAL| Global print level                                                  LOW
 GLOBAL| MPI I/O enabled                                                       T
 GLOBAL| Total number of message passing processes                            16
 GLOBAL| Number of distributed systems (nodes)                                 1
 GLOBAL| Number of threads for this process                                    7
 GLOBAL| This output is from process                                           0
 GLOBAL| OpenMP stack size per thread (OMP_STACKSIZE)                       512M
 GLOBAL| CPU model name                          AMD EPYC 7763 64-Core Processor

 MEMORY| system memory details [Kb]
 MEMORY|                        rank 0           min           max       average
 MEMORY| MemTotal            263897596     263897596     263897596     263897596
 MEMORY| MemFree             249090948     249090948     249090948     249090948
 MEMORY| Buffers                235372        235372        235372        235372
 MEMORY| Cached                7011796       7011796       7011796       7011796
 MEMORY| Slab                  1588780       1588780       1588780       1588780
 MEMORY| SReclaimable           278920        278920        278920        278920
 MEMORY| MemLikelyFree       256617036     256617036     256617036     256617036


 GENERATE|  Preliminary Number of Bonds generated:                             0
 GENERATE|  Achieved consistency in connectivity generation.

 *******************************************************************************
 *******************************************************************************
 **                                                                           **
 **     #####                         ##              ##                      **
 **    ##   ##            ##          ##              ##                      **
 **   ##     ##                       ##            ######                    **
 **   ##     ##  ##   ##  ##   #####  ##  ##   ####   ##    #####    #####    **
 **   ##     ##  ##   ##  ##  ##      ## ##   ##      ##   ##   ##  ##   ##   **
 **   ##  ## ##  ##   ##  ##  ##      ####     ###    ##   ######   ######    **
 **    ##  ###   ##   ##  ##  ##      ## ##      ##   ##   ##       ##        **
 **     #######   #####   ##   #####  ##  ##  ####    ##    #####   ##        **
 **           ##                                                    ##        **
 **                                                                           **
 **                                                ... make the atoms dance   **
 **                                                                           **
 **            Copyright (C) by CP2K developers group (2000-2026)             **
 **                      J. Chem. Phys. 152, 194103 (2020)                    **
 **                                                                           **
 *******************************************************************************


 TOTAL NUMBERS AND MAXIMUM NUMBERS

  Total number of            - Atomic kinds:                                   2
                             - Atoms:                                         16
                             - Shell sets:                                    16
                             - Shells:                                       112
                             - Primitive Cartesian functions:                104
                             - Cartesian basis functions:                    344
                             - Spherical basis functions:                    304

  Maximum angular momentum of- Orbital basis functions:                        3
                             - Local part of the GTH pseudopotential:          2
                             - Non-local part of the GTH pseudopotential:      0


 SCF PARAMETERS         Density guess:                                   RESTART
                        --------------------------------------------------------
                        max_scf:                                             500
                        max_scf_history:                                       0
                        max_diis:                                              4
                        --------------------------------------------------------
                        eps_scf:                                        1.00E-08
                        eps_scf_history:                                0.00E+00
                        eps_diis:                                       0.00E+00
                        eps_eigval:                                     1.00E-05
                        --------------------------------------------------------
                        level_shift [a.u.]:                             0.000000
                        --------------------------------------------------------
                        Outer loop SCF in use 
                        No variables optimised in outer loop
                        eps_scf                                         1.00E-08
                        max_scf                                               20
                        No outer loop optimization
                        step_size                                       5.00E-01

 Extrapolation method: initial_guess

 Number of electrons:                                                         40
 Number of occupied orbitals:                                                 20
 Number of molecular orbitals:                                                20

 Number of orbital functions:                                                304
 Number of independent orbital functions:                                    304


 SCF WAVEFUNCTION OPTIMIZATION

  ----------------------------------- OT ---------------------------------------
  Minimizer      : DIIS                : direct inversion
                                         in the iterative subspace
                                         using   7 DIIS vectors
                                         safer DIIS on
  Preconditioner : FULL_KINETIC        : inversion of T + eS
  Lattice FFT   : OFF
  Precond_solver : DEFAULT
  stepsize       :    0.15000000                  energy_gap     :    0.20000000
  eps_taylor     :   0.10000E-15                  max_taylor     :             4
  ----------------------------------- OT ---------------------------------------

  Step     Update method      Time    Convergence         Total energy    Change
  ------------------------------------------------------------------------------
  Decoupling Energy:                                               0.0000000001
     1 OT DIIS     0.15E+00    1.8     0.00000003       -50.1776941124 -5.02E+01
  Decoupling Energy:                                               0.0000000001
     2 OT DIIS     0.15E+00    2.2     0.00000002       -50.1776941124 -5.19E-13
  Decoupling Energy:                                               0.0000000001
     3 OT DIIS     0.15E+00    2.2     0.00000001       -50.1776941124 -8.60E-13
  Decoupling Energy:                                               0.0000000001
     4 OT DIIS     0.15E+00    2.2     0.00000001       -50.1776941124 -3.84E-13
  Decoupling Energy:                                               0.0000000001
     5 OT DIIS     0.15E+00    2.2     8.0419E-09       -50.1776941124 -3.34E-13

  *** SCF run converged in     5 steps ***


  Electronic density on regular grids:        -40.0000000000        0.0000000000
  Core density on regular grids:               40.0000000000       -0.0000000000
  Total charge density on r-space grids:       -0.0000000000
  Total charge density g-space grids:          -0.0000000000

  Overlap energy of the core charge distribution:               0.00000546445659
  Self energy of the core charge distribution:               -117.96385508507682
  Core Hamiltonian energy:                                     37.21049710349943
  Hartree energy:                                              47.27259225711742
  Exchange-correlation energy:                                -16.69693385236909

  Total energy:                                               -50.17769411237246

  outer SCF iter =    1 RMS gradient =   0.80E-08 energy =        -50.1776941124
  outer SCF loop converged in   1 iterations or    5 steps

  
 -------------------------------------------------------------------------------
 -                                                                             -
 -                          BANDSTRUCTURE CALCULATION                          -
 -                                                                             -
 -------------------------------------------------------------------------------
  
 Number of occupied molecular orbitals (MOs) = Number of occupied bands       20
 Number of unoccupied (= virtual) MOs = Number of unoccupied bands           284
 Number of Gaussian basis functions for MOs                                  304
  
 -------------------------------------------------------------------------------
 -                                                                             -
 -                                GW CALCULATION                               -
 -                                                                             -
 -------------------------------------------------------------------------------
  
 Input: Number of time/freq. points                                           30
 Input: ω_max for fitting Σ(iω) (eV)                                        10.0
 Input: Filter threshold for sparse tensor operations                    1.0E-12
 Input: Apply Hedin shift                                                      F
 Detected: Available memory per MPI process                              13.8 GB
 
 Input: RI-RS Tikhonov regularization                                   1.00E-04
 Input: AO grid hard cutoff radius                                        8.00 Å
 Input: MPI ranks per atom in Z_lP solve                                      -1
 Input: Keep sparsity in χ/G/W panels                                          T
 Input: GW flavour                                                          G0W0
 
 Input: RI-RS grid optimization activated                                      T
 Input: RS points per AO function                                            9.0
 Input: Cutoff radius for atomic clusters                                  3.0 Å
 Input: Maximum grid optimization iterations                                 300
 
 Input: AUTO_RI basis optimization activated:                                  T
 Input: AUTO_RI number of RI functions per AO function:                      2.0
 Input: AUTO_RI frontier orbital window:                                  5.0 eV
 Input: AUTO_RI neighbor radius:                                           3.0 Å
 
 Cutoff radius for the truncated Coulomb operator in RI metric:            7.0 Å
 Regularization parameter of RI                                          0.0E+00
 Regularization parameter of minimax grids                               1.0E-06
 
 AUTO_RI| Number of automatic RI functions for χ, ε, W:                      608
 AUTO_RI| Total RI basis optimization time:                                2.9 s
  Decoupling Energy:                                               0.0000000001
 
 SCF direct band gap (eV)                                                   2.99
 Max. SCF eigval diff. (eV)                                               267.82
 E-Range for minimax grid                                                  89.66
 Number of Padé parameters for analytic continuation:                         16
 
 RI-RS basis radii (Å):
     Kind  Elem     r_AO (Å)     r_RI (Å)
        1    C        15.9835       10.1279
        2    H        13.9082        8.7963
 
 Started RI-RS grid optimization
 RI-RS grid initial normalized error                          1.512707118712E-02
 RI-RS grid optimization completed, execution time:                      483.3 s
 Normalized 3C error:                                                    4.7E-08
 Maximum absolute 3C error:                                              1.9E-03
 Optimized points outside molecular Voronoi cells:                          1395 / 2736
 Total grid points used for RI-RS:                                          2736
 
 RI-RS grid row-blocks of ϕ_μ(r_l)                                            96
 RI-RS grid points per block (max)                                            32
 
 Percentage of non-zero matrix elements in ϕ_μ(r_l)                     100.00 %
 
 RI-RS memory estimate per MPI process:
   Available memory per process (system)                                15.84 GB
   Required for Z_lP (dense upper bound; actual is sparser)              0.00 GB
   Required for χ, W, Σ panels (peak per panel step)                     0.01 GB
   Required for Z_lP solve peak (D_local+ϕ, worst-case atom)             0.08 GB
   Worst-case local-grid number of grid points:                             2736
   Worst-case memory D_local:                                            0.06 GB
 
 Started computing Z_lP
 Computed Z_lP (MPI rank 0) for atom          1 /  1,    Execution time    0.8 s
 Computed Z_lP (all MPI ranks) for all atoms,            Execution time    1.1 s

 Memory per MPI process after computing Z_lP:
 Available memory per MPI process                               15.7 GB
 Used memory per MPI process                                     1.0 GB
 Number of batches for χ, Σ matrices                                           1
 
 Percentage of non-zero matrix elements in Z_lP                         100.00 %
 Percentage of non-zero matrix elements in G_ll', χ_ll', W_ll'          100.00 %
 Percentage of non-zero matrix elements in χ_PQ for time point 1        100.00 %
 
 Computed χ(iτ,k=0) for time point            1 / 30,    Execution time    0.1 s
 Computed χ(iτ,k=0) for time point            2 / 30,    Execution time    0.0 s
 Computed χ(iτ,k=0) for time point            3 / 30,    Execution time    0.0 s
 Computed χ(iτ,k=0) for time point            4 / 30,    Execution time    0.0 s
 Computed χ(iτ,k=0) for time point            5 / 30,    Execution time    0.0 s
 Computed χ(iτ,k=0) for time point            6 / 30,    Execution time    0.0 s
 Computed χ(iτ,k=0) for time point            7 / 30,    Execution time    0.0 s
 Computed χ(iτ,k=0) for time point            8 / 30,    Execution time    0.0 s
 Computed χ(iτ,k=0) for time point            9 / 30,    Execution time    0.0 s
 Computed χ(iτ,k=0) for time point           10 / 30,    Execution time    0.0 s
 Computed χ(iτ,k=0) for time point           11 / 30,    Execution time    0.0 s
 Computed χ(iτ,k=0) for time point           12 / 30,    Execution time    0.0 s
 Computed χ(iτ,k=0) for time point           13 / 30,    Execution time    0.0 s
 Computed χ(iτ,k=0) for time point           14 / 30,    Execution time    0.0 s
 Computed χ(iτ,k=0) for time point           15 / 30,    Execution time    0.0 s
 Computed χ(iτ,k=0) for time point           16 / 30,    Execution time    0.0 s
 Computed χ(iτ,k=0) for time point           17 / 30,    Execution time    0.0 s
 Computed χ(iτ,k=0) for time point           18 / 30,    Execution time    0.0 s
 Computed χ(iτ,k=0) for time point           19 / 30,    Execution time    0.0 s
 Computed χ(iτ,k=0) for time point           20 / 30,    Execution time    0.0 s
 Computed χ(iτ,k=0) for time point           21 / 30,    Execution time    0.0 s
 Computed χ(iτ,k=0) for time point           22 / 30,    Execution time    0.0 s
 Computed χ(iτ,k=0) for time point           23 / 30,    Execution time    0.0 s
 Computed χ(iτ,k=0) for time point           24 / 30,    Execution time    0.0 s
 Computed χ(iτ,k=0) for time point           25 / 30,    Execution time    0.0 s
 Computed χ(iτ,k=0) for time point           26 / 30,    Execution time    0.0 s
 Computed χ(iτ,k=0) for time point           27 / 30,    Execution time    0.0 s
 Computed χ(iτ,k=0) for time point           28 / 30,    Execution time    0.0 s
 Computed χ(iτ,k=0) for time point           29 / 30,    Execution time    0.0 s
 Computed χ(iτ,k=0) for time point           30 / 30,    Execution time    0.0 s
 
 Computed W(iτ),                                         Execution time    0.5 s
 
 Computed Σ^x(k=0),                                      Execution time    0.0 s
 
 Computed Σ^c(iτ) for time point              1 / 30,    Execution time    0.1 s
 Computed Σ^c(iτ) for time point              2 / 30,    Execution time    0.1 s
 Computed Σ^c(iτ) for time point              3 / 30,    Execution time    0.1 s
 Computed Σ^c(iτ) for time point              4 / 30,    Execution time    0.1 s
 Computed Σ^c(iτ) for time point              5 / 30,    Execution time    0.1 s
 Computed Σ^c(iτ) for time point              6 / 30,    Execution time    0.1 s
 Computed Σ^c(iτ) for time point              7 / 30,    Execution time    0.1 s
 Computed Σ^c(iτ) for time point              8 / 30,    Execution time    0.1 s
 Computed Σ^c(iτ) for time point              9 / 30,    Execution time    0.1 s
 Computed Σ^c(iτ) for time point             10 / 30,    Execution time    0.1 s
 Computed Σ^c(iτ) for time point             11 / 30,    Execution time    0.1 s
 Computed Σ^c(iτ) for time point             12 / 30,    Execution time    0.1 s
 Computed Σ^c(iτ) for time point             13 / 30,    Execution time    0.1 s
 Computed Σ^c(iτ) for time point             14 / 30,    Execution time    0.1 s
 Computed Σ^c(iτ) for time point             15 / 30,    Execution time    0.1 s
 Computed Σ^c(iτ) for time point             16 / 30,    Execution time    0.1 s
 Computed Σ^c(iτ) for time point             17 / 30,    Execution time    0.1 s
 Computed Σ^c(iτ) for time point             18 / 30,    Execution time    0.1 s
 Computed Σ^c(iτ) for time point             19 / 30,    Execution time    0.1 s
 Computed Σ^c(iτ) for time point             20 / 30,    Execution time    0.1 s
 Computed Σ^c(iτ) for time point             21 / 30,    Execution time    0.1 s
 Computed Σ^c(iτ) for time point             22 / 30,    Execution time    0.1 s
 Computed Σ^c(iτ) for time point             23 / 30,    Execution time    0.1 s
 Computed Σ^c(iτ) for time point             24 / 30,    Execution time    0.0 s
 Computed Σ^c(iτ) for time point             25 / 30,    Execution time    0.0 s
 Computed Σ^c(iτ) for time point             26 / 30,    Execution time    0.0 s
 Computed Σ^c(iτ) for time point             27 / 30,    Execution time    0.0 s
 Computed Σ^c(iτ) for time point             28 / 30,    Execution time    0.0 s
 Computed Σ^c(iτ) for time point             29 / 30,    Execution time    0.0 s
 Computed Σ^c(iτ) for time point             30 / 30,    Execution time    0.0 s
 
 SCF valence band maximum (eV):                                           -5.287
 SCF conduction band minimum (eV):                                        -2.300
 SCF indirect band gap (eV):                                               2.987
 SCF direct band gap (eV):                                                 2.987
 
 G0W0 valence band maximum (eV):                                          -7.714
 G0W0 conduction band minimum (eV):                                        0.393
 G0W0 indirect band gap (eV):                                              8.107
 G0W0 direct band gap (eV):                                                8.107
 
 Hartree-Fock with SCF orbitals valence band maximum (eV):                -7.809
 Hartree-Fock with SCF orbitals conduction band minimum (eV)               1.961
 Hartree-Fock with SCF orbitals indirect band gap (eV):                    9.770
 Hartree-Fock with SCF orbitals direct band gap (eV):                      9.770

 ENERGY| Total FORCE_EVAL ( QS ) energy [hartree]            -50.177694112372457

 -------------------------------------------------------------------------------
 -                                                                             -
 -                                DBCSR STATISTICS                             -
 -                                                                             -
 -------------------------------------------------------------------------------
 COUNTER                                    TOTAL       BLAS       SMM       ACC
 flops    20 x    20 x    20                80000       0.0%    100.0%      0.0%     
 flops     5 x     5 x    26               124800       0.0%    100.0%      0.0%     
 flops     5 x     5 x    28               168000       0.0%    100.0%      0.0%     
 flops     5 x     5 x    54               345600       0.0%    100.0%      0.0%     
 flops     5 x    17 x    26               424320       0.0%    100.0%      0.0%     
 flops     5 x    17 x    28               571200       0.0%    100.0%      0.0%     
 flops     9 x     9 x    20               699840       0.0%    100.0%      0.0%     
 flops     9 x    20 x    20               864000       0.0%    100.0%      0.0%     
 flops    58 x    20 x    20              1113600       0.0%    100.0%      0.0%     
 flops    17 x     5 x    26              1131520       0.0%    100.0%      0.0%     
 flops     5 x    17 x    54              1175040       0.0%    100.0%      0.0%     
 flops    17 x     5 x    28              1218560       0.0%    100.0%      0.0%     
 flops    38 x    20 x    20              1459200       0.0%    100.0%      0.0%     
 flops    29 x    20 x    20              1670400       0.0%    100.0%      0.0%     
 flops    17 x     5 x    54              1762560       0.0%    100.0%      0.0%     
 flops    29 x     9 x    20              2004480       0.0%    100.0%      0.0%     
 flops     9 x    29 x    20              2004480       0.0%    100.0%      0.0%     
 flops    38 x    38 x     5              2642520       0.0%    100.0%      0.0%     
 flops     5 x    38 x     5              2798700       0.0%    100.0%      0.0%     
 flops     9 x    20 x     9              2903040       0.0%    100.0%      0.0%     
 flops    38 x    45 x     5              3129300       0.0%    100.0%      0.0%     
 flops    45 x    38 x     5              3129300       0.0%    100.0%      0.0%     
 flops    38 x    47 x     5              3268380       0.0%    100.0%      0.0%     
 flops    47 x    38 x     5              3268380       0.0%    100.0%      0.0%     
 flops     9 x    20 x    76              3283200       0.0%    100.0%      0.0%     
 flops     5 x    45 x     5              3316500       0.0%    100.0%      0.0%     
 flops     5 x    47 x     5              3463900       0.0%    100.0%      0.0%     
 flops    38 x    50 x     5              3477000       0.0%    100.0%      0.0%     
 flops    50 x    38 x     5              3477000       0.0%    100.0%      0.0%     
 flops    45 x    45 x     5              3705750       0.0%    100.0%      0.0%     
 flops    17 x    17 x    26              3847168       0.0%    100.0%      0.0%     
 flops    47 x    45 x     5              3870450       0.0%    100.0%      0.0%     
 flops    45 x    47 x     5              3870450       0.0%    100.0%      0.0%     
 flops    47 x    47 x     5              4042470       0.0%    100.0%      0.0%     
 flops    50 x    45 x     5              4117500       0.0%    100.0%      0.0%     
 flops    45 x    50 x     5              4117500       0.0%    100.0%      0.0%     
 flops    17 x    17 x    28              4143104       0.0%    100.0%      0.0%     
 flops    58 x    20 x    76              4231680       0.0%    100.0%      0.0%     
 flops    50 x    47 x     5              4300500       0.0%    100.0%      0.0%     
 flops    47 x    50 x     5              4300500       0.0%    100.0%      0.0%     
 flops    50 x    50 x     5              4575000       0.0%    100.0%      0.0%     
 flops    20 x    20 x    76              4620800       0.0%    100.0%      0.0%     
 flops    38 x    20 x    76              5544960       0.0%    100.0%      0.0%     
 flops    17 x    17 x    54              5992704       0.0%    100.0%      0.0%     
 flops    29 x    20 x    76              6347520       0.0%    100.0%      0.0%     
 flops    38 x    26 x     5              7074080       0.0%    100.0%      0.0%     
 flops    26 x    38 x     5              7232160       0.0%    100.0%      0.0%     
 flops    29 x    29 x    20              7266240       0.0%    100.0%      0.0%     
 flops     5 x    38 x    26              7587840       0.0%    100.0%      0.0%     
 flops    38 x    28 x     5              7628880       0.0%    100.0%      0.0%     
 flops     5 x    26 x     5              7655700       0.0%    100.0%      0.0%     
 flops    28 x    38 x     5              7788480       0.0%    100.0%      0.0%     
 flops     5 x    54 x     5              7962300       0.0%    100.0%      0.0%     
 flops     5 x    32 x    26              7987200       0.0%    100.0%      0.0%     
 flops     5 x    38 x    28              8171520       0.0%    100.0%      0.0%     
 flops     5 x    28 x     5              8244600       0.0%    100.0%      0.0%     
 flops    45 x    26 x     5              8377200       0.0%    100.0%      0.0%     
 flops    26 x    45 x     5              8564400       0.0%    100.0%      0.0%     
 flops    38 x    38 x    17              8640896       0.0%    100.0%      0.0%     
 flops    47 x    26 x     5              8749520       0.0%    100.0%      0.0%     
 flops    26 x    47 x     5              8945040       0.0%    100.0%      0.0%     
 flops     5 x    45 x    26              8985600       0.0%    100.0%      0.0%     
 flops    45 x    28 x     5              9034200       0.0%    100.0%      0.0%     
 flops     5 x     9 x     5              9150300       0.0%    100.0%      0.0%     
 flops    28 x    45 x     5              9223200       0.0%    100.0%      0.0%     
 flops    50 x    26 x     5              9308000       0.0%    100.0%      0.0%     
 flops    29 x    20 x     9              9354240       0.0%    100.0%      0.0%     
 flops     9 x    20 x    29              9354240       0.0%    100.0%      0.0%     
 flops     5 x    47 x    26              9384960       0.0%    100.0%      0.0%     
 flops    47 x    28 x     5              9435720       0.0%    100.0%      0.0%     
 flops     5 x    38 x    17              9509120       0.0%    100.0%      0.0%     
 flops    17 x    38 x     5              9509120       0.0%    100.0%      0.0%     
 flops    26 x    50 x     5              9516000       0.0%    100.0%      0.0%     
 flops    28 x    47 x     5              9633120       0.0%    100.0%      0.0%     
 flops     5 x    45 x    28              9676800       0.0%    100.0%      0.0%     
 flops    50 x    28 x     5             10038000       0.0%    100.0%      0.0%     
 flops     5 x    47 x    28             10106880       0.0%    100.0%      0.0%     
 flops    38 x    45 x    17             10232640       0.0%    100.0%      0.0%     
 flops    45 x    38 x    17             10232640       0.0%    100.0%      0.0%     
 flops    28 x    50 x     5             10248000       0.0%    100.0%      0.0%     
 flops     5 x     5 x   142             10451200       0.0%    100.0%      0.0%     
 flops    38 x    47 x    17             10687424       0.0%    100.0%      0.0%     
 flops    47 x    38 x    17             10687424       0.0%    100.0%      0.0%     
 flops     5 x    32 x    28             10752000       0.0%    100.0%      0.0%     
 flops     5 x     5 x   151             11113600       0.0%    100.0%      0.0%     
 flops     5 x     5 x   153             11260800       0.0%    100.0%      0.0%     
 flops    17 x    45 x     5             11260800       0.0%    100.0%      0.0%     
 flops     5 x    45 x    17             11260800       0.0%    100.0%      0.0%     
 flops    38 x    50 x    17             11369600       0.0%    100.0%      0.0%     
 flops    50 x    38 x    17             11369600       0.0%    100.0%      0.0%     
 flops    17 x    47 x     5             11761280       0.0%    100.0%      0.0%     
 flops     5 x    47 x    17             11761280       0.0%    100.0%      0.0%     
 flops     5 x    38 x    54             11819520       0.0%    100.0%      0.0%     
 flops    45 x    45 x    17             12117600       0.0%    100.0%      0.0%     
 flops    47 x    45 x    17             12656160       0.0%    100.0%      0.0%     
 flops    45 x    47 x    17             12656160       0.0%    100.0%      0.0%     
 flops    47 x    47 x    17             13218656       0.0%    100.0%      0.0%     
 flops    50 x    45 x    17             13464000       0.0%    100.0%      0.0%     
 flops    45 x    50 x    17             13464000       0.0%    100.0%      0.0%     
 flops     5 x    45 x    54             13996800       0.0%    100.0%      0.0%     
 flops    50 x    47 x    17             14062400       0.0%    100.0%      0.0%     
 flops    47 x    50 x    17             14062400       0.0%    100.0%      0.0%     
 flops     5 x    47 x    54             14618880       0.0%    100.0%      0.0%     
 flops    50 x    50 x    17             14960000       0.0%    100.0%      0.0%     
 flops     9 x     9 x     5             16329600       0.0%    100.0%      0.0%     
 flops     5 x     5 x     9             17510400       0.0%    100.0%      0.0%     
 flops    26 x    26 x     5             19360640       0.0%    100.0%      0.0%     
 flops    32 x     5 x    26             20766720       0.0%    100.0%      0.0%     
 flops     5 x    26 x    26             20766720       0.0%    100.0%      0.0%     
 flops    28 x    26 x     5             20849920       0.0%    100.0%      0.0%     
 flops    26 x    28 x     5             20879040       0.0%    100.0%      0.0%     
 flops     5 x    54 x    26             21565440       0.0%    100.0%      0.0%     
 flops     5 x    32 x    54             22118400       0.0%    100.0%      0.0%     
 flops     5 x    26 x    28             22364160       0.0%    100.0%      0.0%     
 flops     5 x    28 x    26             22364160       0.0%    100.0%      0.0%     
 flops    32 x     5 x    28             22435840       0.0%    100.0%      0.0%     
 flops    28 x    28 x     5             22485120       0.0%    100.0%      0.0%     
 flops     5 x    54 x    28             23224320       0.0%    100.0%      0.0%     
 flops    26 x    38 x    17             23648768       0.0%    100.0%      0.0%     
 flops    38 x    26 x    17             23648768       0.0%    100.0%      0.0%     
 flops     5 x    28 x    28             24084480       0.0%    100.0%      0.0%     
 flops     5 x     5 x    76             24320000       0.0%    100.0%      0.0%     
 flops    38 x    28 x    17             25467904       0.0%    100.0%      0.0%     
 flops    28 x    38 x    17             25467904       0.0%    100.0%      0.0%     
 flops    17 x    38 x    26             25798656       0.0%    100.0%      0.0%     
 flops    17 x    26 x     5             25967500       0.0%    100.0%      0.0%     
 flops     5 x    26 x    17             26024960       0.0%    100.0%      0.0%     
 flops    17 x    54 x     5             27025920       0.0%    100.0%      0.0%     
 flops     5 x    54 x    17             27035100       0.0%    100.0%      0.0%     
 flops    17 x    38 x    28             27783168       0.0%    100.0%      0.0%     
 flops    17 x    28 x     5             27945960       0.0%    100.0%      0.0%     
 flops    26 x    45 x    17             28005120       0.0%    100.0%      0.0%     
 flops    45 x    26 x    17             28005120       0.0%    100.0%      0.0%     
 flops     5 x    28 x    17             28026880       0.0%    100.0%      0.0%     
 flops    26 x    47 x    17             29249792       0.0%    100.0%      0.0%     
 flops    47 x    26 x    17             29249792       0.0%    100.0%      0.0%     
 flops     5 x    29 x     5             30100550       0.0%    100.0%      0.0%     
 flops    29 x    20 x    29             30141440       0.0%    100.0%      0.0%     
 flops    28 x    45 x    17             30159360       0.0%    100.0%      0.0%     
 flops    45 x    28 x    17             30159360       0.0%    100.0%      0.0%     
 flops    17 x    45 x    26             30551040       0.0%    100.0%      0.0%     
 flops     5 x     9 x    17             30723930       0.0%    100.0%      0.0%     
 flops    17 x     9 x     5             30745350       0.0%    100.0%      0.0%     
 flops    26 x    50 x    17             31116800       0.0%    100.0%      0.0%     
 flops    50 x    26 x    17             31116800       0.0%    100.0%      0.0%     
 flops    28 x    47 x    17             31499776       0.0%    100.0%      0.0%     
 flops    47 x    28 x    17             31499776       0.0%    100.0%      0.0%     
 flops    17 x    47 x    26             31908864       0.0%    100.0%      0.0%     
 flops    17 x    38 x    17             32331008       0.0%    100.0%      0.0%     
 flops     5 x    26 x    54             32348160       0.0%    100.0%      0.0%     
 flops    17 x    45 x    28             32901120       0.0%    100.0%      0.0%     
 flops    32 x     5 x    54             33177600       0.0%    100.0%      0.0%     
 flops    28 x    50 x    17             33510400       0.0%    100.0%      0.0%     
 flops    50 x    28 x    17             33510400       0.0%    100.0%      0.0%     
 flops     5 x    54 x    54             33592320       0.0%    100.0%      0.0%     
 flops    17 x    47 x    28             34363392       0.0%    100.0%      0.0%     
 flops     5 x    28 x    54             34836480       0.0%    100.0%      0.0%     
 flops    17 x     5 x   142             35534080       0.0%    100.0%      0.0%     
 flops     5 x    17 x   142             35534080       0.0%    100.0%      0.0%     
 flops    17 x     5 x   151             37786240       0.0%    100.0%      0.0%     
 flops     5 x    17 x   151             37786240       0.0%    100.0%      0.0%     
 flops    17 x     5 x   153             38286720       0.0%    100.0%      0.0%     
 flops     5 x    17 x   153             38286720       0.0%    100.0%      0.0%     
 flops    17 x    45 x    17             38286720       0.0%    100.0%      0.0%     
 flops    17 x    47 x    17             39988352       0.0%    100.0%      0.0%     
 flops    17 x    38 x    54             40186368       0.0%    100.0%      0.0%     
 flops     5 x     9 x     9             41886720       0.0%    100.0%      0.0%     
 flops    17 x    45 x    54             47589120       0.0%    100.0%      0.0%     
 flops    17 x    47 x    54             49704192       0.0%    100.0%      0.0%     
 flops    29 x     9 x     5             52617600       0.0%    100.0%      0.0%     
 flops     9 x    29 x     5             54308880       0.0%    100.0%      0.0%     
 flops     9 x     9 x    17             54991872       0.0%    100.0%      0.0%     
 flops     5 x     5 x    29             56422400       0.0%    100.0%      0.0%     
 flops    17 x     5 x     9             59535360       0.0%    100.0%      0.0%     
 flops     5 x    17 x     9             59535360       0.0%    100.0%      0.0%     
 flops    26 x    26 x    17             64722944       0.0%    100.0%      0.0%     
 flops    28 x    26 x    17             69701632       0.0%    100.0%      0.0%     
 flops    26 x    28 x    17             69701632       0.0%    100.0%      0.0%     
 flops    32 x    17 x    26             70606848       0.0%    100.0%      0.0%     
 flops    17 x    26 x    26             70606848       0.0%    100.0%      0.0%     
 flops    17 x    32 x    26             72417280       0.0%    100.0%      0.0%     
 flops    17 x    54 x    26             73322496       0.0%    100.0%      0.0%     
 flops    28 x    28 x    17             75063296       0.0%    100.0%      0.0%     
 flops    17 x    26 x    28             76038144       0.0%    100.0%      0.0%     
 flops    17 x    28 x    26             76038144       0.0%    100.0%      0.0%     
 flops    32 x    17 x    28             76281856       0.0%    100.0%      0.0%     
 flops    17 x    32 x    28             77987840       0.0%    100.0%      0.0%     
 flops    17 x    54 x    28             78962688       0.0%    100.0%      0.0%     
 flops    17 x    28 x    28             81887232       0.0%    100.0%      0.0%     
 flops    17 x     5 x    76             82688000       0.0%    100.0%      0.0%     
 flops     5 x    17 x    76             82688000       0.0%    100.0%      0.0%     
 flops    17 x    26 x    17             88484864       0.0%    100.0%      0.0%     
 flops    17 x    54 x    17             91888128       0.0%    100.0%      0.0%     
 flops    17 x    28 x    17             95291392       0.0%    100.0%      0.0%     
 flops     5 x    29 x    17            100128300       0.0%    100.0%      0.0%     
 flops    17 x    29 x     5            100710040       0.0%    100.0%      0.0%     
 flops    17 x     9 x    17            103530204       0.0%    100.0%      0.0%     
 flops    17 x    26 x    54            109983744       0.0%    100.0%      0.0%     
 flops    32 x    17 x    54            112803840       0.0%    100.0%      0.0%     
 flops    17 x    32 x    54            112803840       0.0%    100.0%      0.0%     
 flops    17 x    54 x    54            114213888       0.0%    100.0%      0.0%     
 flops    17 x    28 x    54            118444032       0.0%    100.0%      0.0%     
 flops    17 x    17 x   142            120815872       0.0%    100.0%      0.0%     
 flops    17 x    17 x   151            128473216       0.0%    100.0%      0.0%     
 flops    17 x    17 x   153            130174848       0.0%    100.0%      0.0%     
 flops     5 x     9 x    29            134968320       0.0%    100.0%      0.0%     
 flops     5 x    29 x     9            134968320       0.0%    100.0%      0.0%     
 flops    17 x     9 x     9            142414848       0.0%    100.0%      0.0%     
 flops    38 x    38 x    32            168566784       0.0%    100.0%      0.0%     
 flops    29 x    29 x     5            174995280       0.0%    100.0%      0.0%     
 flops    29 x     9 x    17            177196032       0.0%    100.0%      0.0%     
 flops     9 x    29 x    17            177834960       0.0%    100.0%      0.0%     
 flops    32 x    38 x     5            179627520       0.0%    100.0%      0.0%     
 flops     5 x    38 x    32            181111040       0.0%    100.0%      0.0%     
 flops    17 x     5 x    29            191836160       0.0%    100.0%      0.0%     
 flops     5 x    17 x    29            191836160       0.0%    100.0%      0.0%     
 flops    38 x    45 x    32            199618560       0.0%    100.0%      0.0%     
 flops    45 x    38 x    32            199618560       0.0%    100.0%      0.0%     
 flops    17 x    17 x     9            202420224       0.0%    100.0%      0.0%     
 flops    38 x    47 x    32            208490496       0.0%    100.0%      0.0%     
 flops    47 x    38 x    32            208490496       0.0%    100.0%      0.0%     
 flops    32 x    45 x     5            212817600       0.0%    100.0%      0.0%     
 flops     5 x    45 x    32            214401600       0.0%    100.0%      0.0%     
 flops    38 x    50 x    32            221798400       0.0%    100.0%      0.0%     
 flops    50 x    38 x    32            221798400       0.0%    100.0%      0.0%     
 flops    32 x    47 x     5            222922880       0.0%    100.0%      0.0%     
 flops     5 x    47 x    32            223960640       0.0%    100.0%      0.0%     
 flops    45 x    45 x    32            236390400       0.0%    100.0%      0.0%     
 flops    47 x    45 x    32            246896640       0.0%    100.0%      0.0%     
 flops    45 x    47 x    32            246896640       0.0%    100.0%      0.0%     
 flops    47 x    47 x    32            257869824       0.0%    100.0%      0.0%     
 flops    50 x    45 x    32            262656000       0.0%    100.0%      0.0%     
 flops    45 x    50 x    32            262656000       0.0%    100.0%      0.0%     
 flops    50 x    47 x    32            274329600       0.0%    100.0%      0.0%     
 flops    47 x    50 x    32            274329600       0.0%    100.0%      0.0%     
 flops    17 x    17 x    76            281139200       0.0%    100.0%      0.0%     
 flops    50 x    50 x    32            291840000       0.0%    100.0%      0.0%     
 flops    17 x    29 x    17            336312768       0.0%    100.0%      0.0%     
 flops     5 x    29 x    29            452121600       0.0%    100.0%      0.0%     
 flops    17 x     9 x    29            458892288       0.0%    100.0%      0.0%     
 flops    17 x    29 x     9            458892288       0.0%    100.0%      0.0%     
 flops    38 x    26 x    32            461024512       0.0%    100.0%      0.0%     
 flops    26 x    38 x    32            461340672       0.0%    100.0%      0.0%     
 flops    32 x    38 x    26            485621760       0.0%    100.0%      0.0%     
 flops    32 x    26 x     5            490963200       0.0%    100.0%      0.0%     
 flops     5 x    26 x    32            492469120       0.0%    100.0%      0.0%     
 flops    38 x    28 x    32            496487936       0.0%    100.0%      0.0%     
 flops    28 x    38 x    32            496828416       0.0%    100.0%      0.0%     
 flops    32 x    54 x     5            512058240       0.0%    100.0%      0.0%     
 flops     5 x    54 x    32            514546560       0.0%    100.0%      0.0%     
 flops    32 x    38 x    28            522977280       0.0%    100.0%      0.0%     
 flops    32 x    28 x     5            528218880       0.0%    100.0%      0.0%     
 flops     5 x    28 x    32            530503680       0.0%    100.0%      0.0%     
 flops    45 x    26 x    32            545950080       0.0%    100.0%      0.0%     
 flops    26 x    45 x    32            546324480       0.0%    100.0%      0.0%     
 flops    47 x    26 x    32            570214528       0.0%    100.0%      0.0%     
 flops    26 x    47 x    32            570605568       0.0%    100.0%      0.0%     
 flops    29 x    29 x    17            573023760       0.0%    100.0%      0.0%     
 flops    32 x    45 x    26            575078400       0.0%    100.0%      0.0%     
 flops    45 x    28 x    32            587946240       0.0%    100.0%      0.0%     
 flops    28 x    45 x    32            588349440       0.0%    100.0%      0.0%     
 flops    32 x     9 x     5            592683840       0.0%    100.0%      0.0%     
 flops     5 x     9 x    32            599578560       0.0%    100.0%      0.0%     
 flops    32 x    47 x    26            600637440       0.0%    100.0%      0.0%     
 flops    50 x    26 x    32            606611200       0.0%    100.0%      0.0%     
 flops    26 x    50 x    32            607027200       0.0%    100.0%      0.0%     
 flops    17 x    38 x    32            608583680       0.0%    100.0%      0.0%     
 flops    32 x    38 x    17            608625024       0.0%    100.0%      0.0%     
 flops    47 x    28 x    32            614077184       0.0%    100.0%      0.0%     
 flops    28 x    47 x    32            614498304       0.0%    100.0%      0.0%     
 flops    32 x    45 x    28            619315200       0.0%    100.0%      0.0%     
 flops    32 x    47 x    28            646840320       0.0%    100.0%      0.0%     
 flops    17 x    17 x    29            652242944       0.0%    100.0%      0.0%     
 flops    50 x    28 x    32            653273600       0.0%    100.0%      0.0%     
 flops    28 x    50 x    32            653721600       0.0%    100.0%      0.0%     
 flops    32 x     5 x   142            668876800       0.0%    100.0%      0.0%     
 flops     5 x    32 x   142            668876800       0.0%    100.0%      0.0%     
 flops    32 x     5 x   151            711270400       0.0%    100.0%      0.0%     
 flops     5 x    32 x   151            711270400       0.0%    100.0%      0.0%     
 flops    32 x     5 x   153            720691200       0.0%    100.0%      0.0%     
 flops     5 x    32 x   153            720691200       0.0%    100.0%      0.0%     
 flops    17 x    45 x    32            720691200       0.0%    100.0%      0.0%     
 flops    32 x    45 x    17            720789120       0.0%    100.0%      0.0%     
 flops    17 x    47 x    32            752721920       0.0%    100.0%      0.0%     
 flops    32 x    47 x    17            754920768       0.0%    100.0%      0.0%     
 flops    32 x    38 x    54            756449280       0.0%    100.0%      0.0%     
 flops    32 x    45 x    54            895795200       0.0%    100.0%      0.0%     
 flops    32 x    47 x    54            935608320       0.0%    100.0%      0.0%     
 flops     9 x     9 x    32           1075244544       0.0%    100.0%      0.0%     
 flops    32 x     5 x     9           1120665600       0.0%    100.0%      0.0%     
 flops     5 x    32 x     9           1120665600       0.0%    100.0%      0.0%     
 flops    26 x    26 x    32           1261751296       0.0%    100.0%      0.0%     
 flops    32 x    26 x    26           1329070080       0.0%    100.0%      0.0%     
 flops    32 x    32 x    26           1329070080       0.0%    100.0%      0.0%     
 flops    28 x    26 x    32           1358809088       0.0%    100.0%      0.0%     
 flops    26 x    28 x    32           1358809088       0.0%    100.0%      0.0%     
 flops    32 x    54 x    26           1380188160       0.0%    100.0%      0.0%     
 flops    32 x    26 x    28           1431306240       0.0%    100.0%      0.0%     
 flops    32 x    28 x    26           1431306240       0.0%    100.0%      0.0%     
 flops    32 x    32 x    28           1435893760       0.0%    100.0%      0.0%     
 flops    28 x    28 x    32           1463332864       0.0%    100.0%      0.0%     
 flops    32 x    54 x    28           1486356480       0.0%    100.0%      0.0%     
 flops    17 x    29 x    29           1537213440       0.0%    100.0%      0.0%     
 flops    32 x    28 x    28           1541406720       0.0%    100.0%      0.0%     
 flops    32 x     5 x    76           1556480000       0.0%    100.0%      0.0%     
 flops     5 x    32 x    76           1556480000       0.0%    100.0%      0.0%     
 flops    17 x    26 x    32           1665597440       0.0%    100.0%      0.0%     
 flops    32 x    26 x    17           1665682304       0.0%    100.0%      0.0%     
 flops    17 x    54 x    32           1729658880       0.0%    100.0%      0.0%     
 flops    32 x    54 x    17           1734829056       0.0%    100.0%      0.0%     
 flops    17 x    28 x    32           1793720320       0.0%    100.0%      0.0%     
 flops    32 x    28 x    17           1794634240       0.0%    100.0%      0.0%     
 flops    32 x    29 x     5           1939928320       0.0%    100.0%      0.0%     
 flops     5 x    29 x    32           1945375680       0.0%    100.0%      0.0%     
 flops    32 x     9 x    17           1981587456       0.0%    100.0%      0.0%     
 flops    17 x     9 x    32           2022772608       0.0%    100.0%      0.0%     
 flops    32 x    26 x    54           2070282240       0.0%    100.0%      0.0%     
 flops    32 x    32 x    54           2123366400       0.0%    100.0%      0.0%     
 flops    32 x    54 x    54           2149908480       0.0%    100.0%      0.0%     
 flops    32 x    28 x    54           2229534720       0.0%    100.0%      0.0%     
 flops    32 x    17 x   142           2274181120       0.0%    100.0%      0.0%     
 flops    17 x    32 x   142           2274181120       0.0%    100.0%      0.0%     
 flops    32 x    17 x   151           2418319360       0.0%    100.0%      0.0%     
 flops    17 x    32 x   151           2418319360       0.0%    100.0%      0.0%     
 flops    32 x    17 x   153           2450350080       0.0%    100.0%      0.0%     
 flops    17 x    32 x   153           2450350080       0.0%    100.0%      0.0%     
 flops    32 x     9 x     9           2680750080       0.0%    100.0%      0.0%     
 flops    29 x     9 x    32           3464676864       0.0%    100.0%      0.0%     
 flops     9 x    29 x    32           3495412224       0.0%    100.0%      0.0%     
 flops     5 x    32 x    29           3611033600       0.0%    100.0%      0.0%     
 flops    32 x     5 x    29           3699713280       0.0%    100.0%      0.0%     
 flops    32 x    17 x     9           3810263040       0.0%    100.0%      0.0%     
 flops    17 x    32 x     9           3810263040       0.0%    100.0%      0.0%     
 flops    32 x    17 x    76           5292032000       0.0%    100.0%      0.0%     
 flops    17 x    32 x    76           5292032000       0.0%    100.0%      0.0%     
 flops    32 x    29 x    17           6522113920       0.0%    100.0%      0.0%     
 flops    17 x    29 x    32           6583892736       0.0%    100.0%      0.0%     
 flops    32 x     9 x    29           8637972480       0.0%    100.0%      0.0%     
 flops    32 x    29 x     9           8637972480       0.0%    100.0%      0.0%     
 flops    29 x    29 x    32          11262994944       0.0%    100.0%      0.0%     
 flops    32 x    38 x    32          11711889408       0.0%    100.0%      0.0%     
 flops    17 x    32 x    29          12277514240       0.0%    100.0%      0.0%     
 flops    32 x    17 x    29          12580760512       0.0%    100.0%      0.0%     
 flops    32 x    45 x    32          13875978240       0.0%    100.0%      0.0%     
 flops    32 x    47 x    32          14482485248       0.0%    100.0%      0.0%     
 flops    32 x    29 x    29          28935782400       0.0%    100.0%      0.0%     
 flops    32 x    26 x    32          31808225280       0.0%    100.0%      0.0%     
 flops    32 x    54 x    32          33279897600       0.0%    100.0%      0.0%     
 flops    32 x    28 x    32          34260058112       0.0%    100.0%      0.0%     
 flops    32 x     9 x    32          38514714624       0.0%    100.0%      0.0%     
 flops    32 x    32 x   142          42808115200       0.0%    100.0%      0.0%     
 flops    32 x    32 x   151          45521305600       0.0%    100.0%      0.0%     
 flops    32 x    32 x   153          46124236800       0.0%    100.0%      0.0%     
 flops    32 x    32 x     9          71722598400       0.0%    100.0%      0.0%     
 flops    32 x    32 x    76          99614720000       0.0%    100.0%      0.0%     
 flops    32 x    29 x    32         124981139456       0.0%    100.0%      0.0%     
 flops    32 x    32 x    29         237693911040       0.0%    100.0%      0.0%     
 flops inhomo. stacks                233795452416     100.0%      0.0%      0.0%
 flops total                         1.319912E+12      17.7%     82.3%      0.0%
 flops max/rank                     96.325090E+09      17.3%     82.7%      0.0%
 matmuls inhomo. stacks                   1408058     100.0%      0.0%      0.0%
 matmuls total                           27352638       5.1%     94.9%      0.0%
 number of processed stacks                983440       2.7%     97.3%      0.0%
 average stack size                                    52.9      27.1       0.0
 marketing flops                     1.599129E+12
 -------------------------------------------------------------------------------
 # multiplications                            561
 max memory usage/rank              22.636036E+09
 # max total images/rank                        1
 # max 3D layers                                1
 # MPI messages exchanged                   53856
 MPI messages size (bytes):
  total size                        31.096111E+09
  min size                           0.000000E+00
  max size                           4.718592E+06
  average size                     577.393625E+03
 MPI breakdown and total messages size (bytes):
             size <=      128                9090                        0
       128 < size <=     8192                 102                   326400
      8192 < size <=    32768                1320                 18883584
     32768 < size <=   131072                5817                269309952
    131072 < size <=  4194304               36843              27748166232
   4194304 < size <= 16777216                 684               3059417088
  16777216 < size                               0                        0
 -------------------------------------------------------------------------------
 -                                                                             -
 -                      DBCSR MESSAGE PASSING PERFORMANCE                      -
 -                                                                             -
 -------------------------------------------------------------------------------
 ROUTINE             CALLS      AVE VOLUME [Bytes]
 MP_Bcast              358                     12.
 MP_Allreduce         3104                     23.
 MP_Alltoall          3553                  26794.
 MP_ISend            11362                 191234.
 MP_IRecv            11362                 181675.
 -------------------------------------------------------------------------------

 -------------------------------------------------------------------------------
 -                                                                             -
 -                                GRID STATISTICS                              -
 -                                                                             -
 -------------------------------------------------------------------------------
 LP    KERNEL             BACKEND                              COUNT     PERCENT
 4     collocate ortho    CPU                                   1056      22.66%
 4     integrate ortho    CPU                                   1056      22.66%
 6     collocate ortho    CPU                                    828      17.77%
 6     integrate ortho    CPU                                    828      17.77%
 2     collocate ortho    CPU                                    438       9.40%
 2     integrate ortho    CPU                                    438       9.40%
 0     collocate general  CPU                                     16       0.34%
 -------------------------------------------------------------------------------

 -------------------------------------------------------------------------------
 -                                                                             -
 -                          OFFLOAD MEMPOOL STATISTICS                         -
 -                                                                             -
 -------------------------------------------------------------------------------
 Memory consumption                Number of allocations  Used [MiB]  Size [MiB]
 Host                                                  6          93    21665729
 -------------------------------------------------------------------------------

 MEMORY| Estimated peak process memory [MiB]                                2033

 -------------------------------------------------------------------------------
 -                                                                             -
 -                         MESSAGE PASSING PERFORMANCE                         -
 -                                                                             -
 -------------------------------------------------------------------------------

 ROUTINE             CALLS      AVE VOLUME [Bytes]
 MP_Group                5
 MP_Bcast              288                 201930.
 MP_Allreduce         1817                  22015.
 MP_Sync                10
 MP_Alltoall           122               96424114.
 MP_SendRecv           180                 526336.
 MP_ISendRecv          180                 526336.
 MP_Wait               755
 MP_comm_split          10
 MP_ISend              500                2076374.
 MP_IRecv              500                2077411.
 -------------------------------------------------------------------------------


 -------------------------------------------------------------------------------
 -                                                                             -
 -                           R E F E R E N C E S                               -
 -                                                                             -
 -------------------------------------------------------------------------------
 
 CP2K version 2026.2 (Development Version), the CP2K developers group (2026).
 CP2K is freely available from https://www.cp2k.org/ .
 
 M. Iannuzzi, J. Wilhelm, F. Stein, A. Bussy, H. Elgabarty, D. Golze, A. Hehn, 
 M. Graml, S. Marek, B. Sertcan Gökmen, C. Schran, H. Forbert, R. Z. 
 Khaliullin, A. Kozhevnikov, M. Taillefumier, R. Meli, V. V. Rybkin, M. Brehm, 
 R. Schade, O. Schütt, J. V. Pototschnig, H. Mirhosseini, A. Knüpfer, D. Marx, 
 M. Krack, J. Hutter, T. D. Kühne.
 J. Phys. Chem. B 130, 1237-1310 (2026).
 The CP2K Program Package Made Simple.
 https://doi.org/10.1021/acs.jpcb.5c05851

 M. Graml, K. Zollner, D. Hernangómez-Pérez, P. E. Faria Junior, J. Wilhelm.
 J. Chem. Theory Comput. 20, 2202-2208 (2024).
 Low-scaling GW algorithm applied to twisted transition-metal dichalcogenide 
 heterobilayers.
 https://doi.org/10.1021/acs.jctc.3c01230

 T. D. Kühne, M. Iannuzzi, M. Del Ben, V. V. Rybkin, P. Seewald, F. Stein, T. 
 Laino, R. Z. Khaliullin, O. Schütt, F. Schiffmann, D. Golze, J. Wilhelm, S. 
 Chulkov, M. H. Bani-Hashemian, V. Weber, U. Borstnik, M. Taillefumier, A. S. 
 Jakobovits, A. Lazzaro, H. Pabst, T. Müller, R. Schade, M. Guidon, S. 
 Andermatt, N. Holmberg, G. K. Schenter, A. Hehn, A. Bussy, F. Belleflamme, G. 
 Tabacchi, A. Glöß, M. Lass, I. Bethune, C. J. Mundy, C. Plessl, M. Watkins, 
 J. VandeVondele, M. Krack, J. Hutter.
 J. Chem. Phys. 152, 194103 (2020).
 CP2K: An electronic structure and molecular dynamics software package - 
 Quickstep: Efficient and accurate electronic structure calculations.
 https://doi.org/10.1063/5.0007045

 O. Schuett, P. Messmer, J. Hutter, J. VandeVondele.
 Electronic Structure Calculations on Graphics Processing Units, 173-190 (2016).
 GPU-Accelerated Sparse Matrix-Matrix Multiplication for Linear Scaling Density 
 Functional Theory.
 https://doi.org/10.1002/9781118670712.ch8

 U. Borstnik, J. VandeVondele, V. Weber, J. Hutter.
 Parallel Comput. 40, 47-58 (2014).
 Sparse matrix multiplication: The distributed block-compressed sparse row 
 library.
 https://doi.org/10.1016/j.parco.2014.03.012

 J. VandeVondele, J. Hutter.
 J. Chem. Phys. 127, 114105 (2007).
 Gaussian basis sets for accurate calculations on molecular systems in gas and 
 condensed phases.
 https://doi.org/10.1063/1.2770708

 J. VandeVondele, M. Krack, F. Mohamed, M. Parrinello, T. Chassaing, J. Hutter.
 Comput. Phys. Commun. 167, 103-128 (2005).
 QUICKSTEP: Fast and accurate density functional calculations using a mixed 
 Gaussian and plane waves approach.
 https://doi.org/10.1016/j.cpc.2004.12.014

 M. Krack.
 Theor. Chem. Acc. 114, 145-152 (2005).
 Pseudopotentials for H to Kr optimized for gradient-corrected 
 exchange-correlation functionals.
 https://doi.org/10.1007/s00214-005-0655-y

 M. Frigo, S. G. Johnson.
 Proc. IEEE 93, 216-231 (2005).
 The design and implementation of FFTW3.
 https://doi.org/10.1109/JPROC.2004.840301

 J. VandeVondele, J. Hutter.
 J. Chem. Phys. 118, 4365-4369 (2003).
 An efficient orbital transformation method for electronic structure 
 calculations.
 https://doi.org/10.1063/1.1543154

 C. Hartwigsen, S. Goedecker, J. Hutter.
 Phys. Rev. B 58, 3641-3662 (1998).
 Relativistic separable dual-space Gaussian pseudopotentials from H to Rn.
 https://doi.org/10.1103/PhysRevB.58.3641

 G. Lippert, J. Hutter, M. Parrinello.
 Mol. Phys. 92, 477-487 (1997).
 A hybrid Gaussian and plane wave density functional scheme.
 https://doi.org/10.1080/002689797170220

 S. Goedecker, M. Teter, J. Hutter.
 Phys. Rev. B 54, 1703-1710 (1996).
 Separable dual-space Gaussian pseudopotentials.
 https://doi.org/10.1103/PhysRevB.54.1703

 J. P. Perdew, K. Burke, M. Ernzerhof.
 Phys. Rev. Lett. 77, 3865-3868 (1996).
 Generalized gradient approximation made simple.
 https://doi.org/10.1103/PhysRevLett.77.3865

 P. E. Blöchl.
 J. Chem. Phys. 103, 7422-7428 (1995).
 Electrostatic decoupling of periodic images of plane‐wave‐expanded 
 densities and derived atomic point charges.
 https://doi.org/10.1063/1.470314

 R. H. Byrd, P. H. Lu, J. Nocedal, C. Y. Zhu.
 SIAM J. Sci. Comput. 16, 1190-1208 (1995).
 A Limited Memory Algorithm for Bound Constrained Optimization.
 https://doi.org/10.1137/0916069


 -------------------------------------------------------------------------------
 -                                                                             -
 -                                T I M I N G                                  -
 -                                                                             -
 -------------------------------------------------------------------------------
 SUBROUTINE                       CALLS  ASD         SELF TIME        TOTAL TIME MAXRANK
                                MAXIMUM       AVERAGE  MAXIMUM  AVERAGE  MAXIMUM
 CP2K                                 1  1.0    0.086    0.088  516.098  516.099       0
 qs_energies                          1  2.0    0.011    0.011  515.237  515.237      13
 qs_energies_properties               1  3.0    0.005    0.006  502.925  502.926       5
 post_scf_bandstructure               1  4.0    0.001    0.001  502.920  502.926       3
 run_gw                               1  5.0    0.000    0.000  502.789  502.799       0
 gw_calc_ri_rs_non_periodic           1  6.0    0.005    0.005  498.852  499.101       8
 optimize_ri_rs_grid                  1  7.0    0.003    0.021  494.378  494.619       8
 rirs_grid_LBFGS                      1  8.0    4.209    6.008  485.189  487.216       4
 evaluate_rirs_grid_cluster         258  9.0   18.275   30.866  288.068  476.299       1
 mp_sum_d                           793  4.9  193.092  380.480  193.092  380.480       9
 rirs_cluster_gradient_products     258 10.0   99.950  167.936   99.950  167.936       3
 rirs_cluster_D_ll                  258 10.0   51.165   88.361   51.165   88.361       4
 rirs_cluster_gradient_coordina     258 10.0   49.805   80.713   49.805   80.713       7
 rirs_cluster_residual              258 10.0   28.510   49.811   28.510   49.811       1
 rirs_cluster_d_lP                  258 10.0   23.713   41.191   23.713   41.191       4
 rirs_cluster_AO_products           258 10.0   16.650   29.075   16.650   29.075       1
 scf_env_do_scf                       1  3.0    0.007    0.007   11.263   11.263       7
 scf_env_do_scf_inner_loop            5  4.0    0.002    0.002    9.454    9.455      11
 qs_ks_build_kohn_sham_matrix         6  7.2    0.018    0.024    8.985    8.985      15
 qs_ks_update_qs_env                  6  5.0    0.000    0.000    8.480    8.480       5
 rebuild_ks_matrix                    5  6.0    0.000    0.001    8.479    8.479       7
 fft_wrap_pw1pw2                     96 10.2    0.003    0.004    7.680    8.119      11
 fft_wrap_pw1pw2_300                 60 11.7    0.381    0.545    7.390    7.904      10
 rirs_grid_build_clusters             1  8.0    2.212    4.038    3.509    6.462       1
 fft3d_ps                            96 12.2    2.630    3.365    5.880    6.294      10
 mp_bcast_dm                         71  9.2    3.798    6.090    3.798    6.090       9
 qs_vxc_create                        6  8.2    0.000    0.001    5.887    5.961      14
 xc_vxc_pw_create                     5  9.0    0.092    0.127    5.886    5.960      10
 initialize_ri_rs_grid                1  8.0    2.194    5.513    5.677    5.899       1
 xc_pw_derive                        30 11.0    0.000    0.000    4.390    4.822      11
 create_and_init_bs_env_for_gw        1  6.0    0.007    0.034    3.937    4.160       0
 xc_pw_divergence                     5 10.0    0.000    0.000    2.915    3.293       2
 qs_rho_update_rho_low                6  5.0    0.006    0.007    3.218    3.220       7
 calculate_rho_elec                   6  6.0    0.066    0.068    3.212    3.213      12
 mp_alltoall_z22v                    96 14.2    2.074    3.187    2.074    3.187      15
 xc_rho_set_and_dset_create           5 10.0    0.087    0.187    2.772    3.014      10
 generate_auto_ri_basis               1  7.0    0.001    0.001    2.928    2.928       9
 abc_contract_xsmm                12314  9.1    1.550    2.820    1.550    2.820       1
 dbcsr_multiply_generic             561  9.6    0.018    0.021    2.330    2.370      10
 yz_to_x                             46 12.7    0.486    0.614    1.528    2.237      11
 density_rs2pw                        6  7.0    0.007    0.007    1.975    2.052      13
 x_to_yz                             50 13.8    0.679    0.851    1.712    1.987      10
 init_scf_loop                        1  4.0    0.009    0.009    1.801    1.801       6
 compute_Sigma_c_and_QP_energie       1  7.0    0.000    0.000    1.705    1.716       5
 compute_Sigma_c                      1  8.0    0.001    0.001    1.606    1.606       0
 multiply_cannon                    561 10.6    0.037    0.045    1.440    1.580      10
 mp_sum_dm                          100 10.9    0.867    1.573    0.867    1.573      12
 contract_grid_panels_sigma_c        30  9.0    0.001    0.002    1.504    1.509       2
 compute_AB_optimized_RI_basis        1  8.0    0.004    0.007    1.448    1.448       9
 compute_AB_optimized_RI_basis_       1  9.0    0.002    0.006    1.370    1.444       5
 sum_up_and_integrate                 6  8.2    0.006    0.007    1.416    1.434       3
 integrate_v_rspace                   6  9.2    0.000    0.001    1.382    1.404       6
 multiply_cannon_loop               561 11.6    0.016    0.021    1.246    1.399      10
 potential_pw2rs                      6 10.2    0.003    0.005    1.320    1.341      10
 compute_B_PQ_AB                      3 10.0    0.216    0.337    0.809    1.276       0
 grid_collocate_task_list             6  7.0    1.082    1.141    1.082    1.141       1
 get_mat_chi_Gamma_tau                1  7.0    0.000    0.001    1.076    1.077       0
 compute_Z_lP                         1  7.0    0.001    0.001    1.072    1.072       1
 compute_Z_lP_auto_ri                 1  8.0    0.007    0.011    1.071    1.071       3
 contract_grid_panels                31  8.0    0.008    0.008    1.007    1.022      10
 qs_ks_ddapc                          6  8.2    0.000    0.000    0.895    0.954       2
 cp_fm_get_submatrix                 96 10.0    0.001    0.002    0.524    0.939       0
 multiply_cannon_multrec           2244 12.6    0.823    0.922    0.828    0.926       8
 compute_M_pq_inv_and_V_pq            1  8.0    0.000    0.000    0.904    0.904       3
 compute_contracted_RI_matrix         2  9.0    0.000    0.000    0.859    0.860       8
 compute_optimized_RI_matrix_bl      18 10.0    0.047    0.051    0.777    0.856       2
 compute_d_lp_auto_ri_batch           1  9.0    0.006    0.006    0.579    0.836      15
 compute_M_PQ_AB                    542 11.0    0.001    0.001    0.749    0.831       6
 mp_waitall_1                     27183 13.9    0.613    0.831    0.613    0.831       9
 compute_d_lp_auto_ri_atom            1 10.0    0.275    0.479    0.574    0.831       2
 compute_M_PQ                       542 12.0    0.001    0.001    0.748    0.830       4
 int_operators_r12_ab_os            542 13.0    0.000    0.000    0.747    0.829       4
 int_operator_ab_os_low             542 14.0    0.291    0.329    0.747    0.829       6
 contract_B_PQ                       14 11.9    0.415    0.678    0.448    0.731       0
 pw_scatter_p                        50 12.8    0.527    0.712    0.527    0.712      10
 pw_poisson_solve                     6  8.2    0.001    0.003    0.663    0.688       8
 init_scf_run                         1  3.0    0.007    0.007    0.684    0.684      12
 pw_derive                           48 11.3    0.601    0.678    0.601    0.678       9
 scf_env_initial_rho_setup            1  4.0    0.001    0.001    0.677    0.677       4
 setup_time_and_frequency_minim       1  7.0    0.000    0.000    0.363    0.598       3
 build_minimax_time_frequency_g       1  8.0    0.000    0.001    0.363    0.598       3
 fit_l_sq_weights                     3  9.0    0.363    0.598    0.363    0.598       2
 pw_gather_p                         46 11.7    0.507    0.591    0.507    0.591      11
 compute_AA_optimized_RI_basis        1  8.0    0.001    0.002    0.576    0.576      10
 transfer_rs2pw                      25  7.9    0.000    0.001    0.457    0.575      11
 xc_functional_eval                   5 11.0    0.000    0.002    0.402    0.564      15
 pbe_lda_eval                         5 12.0    0.402    0.564    0.402    0.564       8
 qs_init_subsys                       1  2.0    0.011    0.011    0.553    0.553      12
 make_m2s                          1122 10.6    0.013    0.014    0.497    0.543      11
 pw_copy                             92 10.5    0.512    0.540    0.512    0.540       0
 qs_env_setup                         1  3.0    0.004    0.004    0.536    0.536       1
 qs_env_rebuild_pw_env                2  3.5    0.000    0.001    0.528    0.528       4
 pw_env_rebuild                       1  5.0    0.008    0.008    0.528    0.528      15
 compute_W                            1  7.0    0.007    0.007    0.521    0.521      11
 -------------------------------------------------------------------------------

 The number of warnings for this run is : 0
 
 -------------------------------------------------------------------------------
  **** **** ******  **  PROGRAM ENDED AT                 2026-10-03 19:01:26.329
 ***** ** ***  *** **   PROGRAM RAN ON                                  n2cn0751
 **    ****   ******    PROGRAM RAN BY                                  eprop2d1
 ***** **    ** ** **   PROGRAM PROCESS ID                               1374216
  **** **  *******  **  PROGRAM STOPPED IN /scratch/hpc-prf-metdyn/eprop2d1_Jan/
                                           53_benchmark_RI_opt/418_gw100_fig5_fu
                                           ll_epsfilter_1e12_20261002/calculatio
                                           ns/rc3p0/ri2_rs09/29_C8H8
