 DBCSR| CPU Multiplication driver                                           XSMM (U)
 DBCSR| Multrec recursion limit                                              512 (U)
 DBCSR| Multiplication stack size                                           1000 (D)
 DBCSR| Maximum elements for images                                    UNLIMITED (U)
 DBCSR| Multiplicative factor virtual images                                   1 (U)
 DBCSR| Use multiplication densification                                       T (D)
 DBCSR| Multiplication size stacks                                             3 (U)
 DBCSR| Use memory pool for CPU allocation                                     F (U)
 DBCSR| Number of 3D layers                                               SINGLE (U)
 DBCSR| Use MPI memory allocation                                              F (U)
 DBCSR| Use RMA algorithm                                                      F (U)
 DBCSR| Use Communication thread                                               T (U)
 DBCSR| Communication thread load                                             75 (D)
 DBCSR| MPI: My process id                                                     0
 DBCSR| MPI: Number of processes                                              32
 DBCSR| OMP: Current number of threads                                         4
 DBCSR| OMP: Max number of threads                                             4
 DBCSR| Split modifier for TAS multiplication algorithm                  1.0E+00 (U)


  **** **** ******  **  PROGRAM STARTED AT               2026-09-18 03:46:04.461
 ***** ** ***  *** **   PROGRAM STARTED ON                              n2cn1169
 **    ****   ******    PROGRAM STARTED BY                              eprop2d1
 ***** **    ** ** **   PROGRAM PROCESS ID                                596729
  **** **  *******  **  PROGRAM STARTED IN /scratch/hpc-prf-metdyn/eprop2d1_Jan/
                                           53_benchmark_RI_opt/129_GW100_Si293_A
                                           O_frontier_optimization_coopfst/follo
                                           wups/pbe_g0w0/gw100/08_Na2/dzvp_t1

 CP2K| version string:                 CP2K version 2026.2 (Development Version)
 CP2K| source code revision number:                                      d1dff42
 CP2K| cp2kflags: omp libint fftw3 libxc parallel scalapack openblas            
 CP2K| is freely available from                            https://www.cp2k.org/
 CP2K| Program compiled at                                   2026-09-18 03:34:22
 CP2K| Program compiled on                                              n2login5
 CP2K| Program compiled for                                               x86_64
 CP2K| Data directory path    /scratch/hpc-prf-metdyn/eprop2d1_Jan/53_benchmark_
 CP2K| Input file name        /scratch/hpc-prf-metdyn/eprop2d1_Jan/53_benchmark_

 GLOBAL| Force Environment number                                              1
 GLOBAL| Basis set file name            /scratch/hpc-prf-metdyn/eprop2d1_Jan/53_
 GLOBAL| Potential file name            /scratch/hpc-prf-metdyn/eprop2d1_Jan/53_
 GLOBAL| MM Potential file name                                     MM_POTENTIAL
 GLOBAL| Coordinate file name                                      __STD_INPUT__
 GLOBAL| Method name                                                        CP2K
 GLOBAL| Project name                                              gw129g_008_d1
 GLOBAL| Run type                                                         ENERGY
 GLOBAL| FFT library                                                       FFTW3
 GLOBAL| Diagonalization library                                       ScaLAPACK
 GLOBAL| Cholesky decomposition library                                ScaLAPACK
 GLOBAL| DGEMM library                                                      BLAS
 GLOBAL| Direct generalized diagonalization requested                          F
 GLOBAL| Orthonormality check for eigenvectors                          DISABLED
 GLOBAL| Matrix multiplication library                                 ScaLAPACK
 GLOBAL| All-to-all communication in single precision                          F
 GLOBAL| Grid backend                                                       AUTO
 GLOBAL| Global print level                                               MEDIUM
 GLOBAL| MPI I/O enabled                                                       T
 GLOBAL| Total number of message passing processes                            32
 GLOBAL| Number of distributed systems (nodes)                                 1
 GLOBAL| Number of threads for this process                                    4
 GLOBAL| This output is from process                                           0
 GLOBAL| OpenMP stack size per thread (OMP_STACKSIZE)                       512M
 GLOBAL| CPU model name                          AMD EPYC 7763 64-Core Processor

 MEMORY| system memory details [Kb]
 MEMORY|                        rank 0           min           max       average
 MEMORY| MemTotal            263897564     263897564     263897564     263897564
 MEMORY| MemFree             243486332     243486332     243486332     243486332
 MEMORY| Buffers                364664        364664        364664        364664
 MEMORY| Cached                8838548       8838548       8838548       8838548
 MEMORY| Slab                  2012796       2012796       2012796       2012796
 MEMORY| SReclaimable           514552        514552        514552        514552
 MEMORY| MemLikelyFree       253204096     253204096     253204096     253204096


 *** Fundamental physical constants (SI units) ***

 *** Literature: B. J. Mohr and B. N. Taylor,
 ***             CODATA recommended values of the fundamental physical
 ***             constants: 2006, Web Version 5.1
 ***             http://physics.nist.gov/constants

 Speed of light in vacuum [m/s]                             2.99792458000000E+08
 Magnetic constant or permeability of vacuum [N/A**2]       1.25663706143592E-06
 Electric constant or permittivity of vacuum [F/m]          8.85418781762039E-12
 Planck constant (h) [J*s]                                  6.62606896000000E-34
 Planck constant (h-bar) [J*s]                              1.05457162825177E-34
 Elementary charge [C]                                      1.60217648700000E-19
 Electron mass [kg]                                         9.10938215000000E-31
 Electron g factor [ ]                                     -2.00231930436220E+00
 Proton mass [kg]                                           1.67262163700000E-27
 Fine-structure constant                                    7.29735253760000E-03
 Rydberg constant [1/m]                                     1.09737315685270E+07
 Avogadro constant [1/mol]                                  6.02214179000000E+23
 Boltzmann constant [J/K]                                   1.38065040000000E-23
 Atomic mass unit [kg]                                      1.66053878200000E-27
 Bohr radius [m]                                            5.29177208590000E-11

 *** Conversion factors ***

 [u] -> [a.u.]                                              1.82288848426455E+03
 [Angstrom] -> [Bohr] = [a.u.]                              1.88972613288564E+00
 [a.u.] = [Bohr] -> [Angstrom]                              5.29177208590000E-01
 [a.u.] -> [s]                                              2.41888432650478E-17
 [a.u.] -> [fs]                                             2.41888432650478E-02
 [a.u.] -> [J]                                              4.35974393937059E-18
 [a.u.] -> [N]                                              8.23872205491840E-08
 [a.u.] -> [K]                                              3.15774647902944E+05
 [a.u.] -> [kJ/mol]                                         2.62549961709828E+03
 [a.u.] -> [kcal/mol]                                       6.27509468713739E+02
 [a.u.] -> [Pa]                                             2.94210107994716E+13
 [a.u.] -> [bar]                                            2.94210107994716E+08
 [a.u.] -> [atm]                                            2.90362800883016E+08
 [a.u.] -> [eV]                                             2.72113838565563E+01
 [a.u.] -> [Hz]                                             6.57968392072181E+15
 [a.u.] -> [1/cm] (wave numbers)                            2.19474631370540E+05
 [a.u./Bohr**2] -> [1/cm]                                   5.14048714338585E+03
 

 CELL| Volume [angstrom^3]:                                          8000.000000
 CELL| Vector a [angstrom]:      20.000     0.000     0.000   |a| =    20.000000
 CELL| Vector b [angstrom]:       0.000    20.000     0.000   |b| =    20.000000
 CELL| Vector c [angstrom]:       0.000     0.000    20.000   |c| =    20.000000
 CELL| Angle (b,c), alpha [degree]:                                    90.000000
 CELL| Angle (a,c), beta  [degree]:                                    90.000000
 CELL| Angle (a,b), gamma [degree]:                                    90.000000
 CELL| Numerically orthorhombic:                                             YES
 CELL| Periodicity                                                          NONE

 CELL_REF| Volume [angstrom^3]:                                      8000.000000
 CELL_REF| Vector a [angstrom    20.000     0.000     0.000   |a| =    20.000000
 CELL_REF| Vector b [angstrom     0.000    20.000     0.000   |b| =    20.000000
 CELL_REF| Vector c [angstrom     0.000     0.000    20.000   |c| =    20.000000
 CELL_REF| Angle (b,c), alpha [degree]:                                90.000000
 CELL_REF| Angle (a,c), beta  [degree]:                                90.000000
 CELL_REF| Angle (a,b), gamma [degree]:                                90.000000
 CELL_REF| Numerically orthorhombic:                                         YES
 CELL_REF| Periodicity                                                      NONE

 GENERATE|  Preliminary Number of Bonds generated:                             0
 GENERATE|  Achieved consistency in connectivity generation.

 PW_GRID| Information for grid number                                          1
 PW_GRID| Cutoff [a.u.]                                                      8.0
 PW_GRID| spherical cutoff:                                                   NO
 PW_GRID|   Bounds   1              0      49                Points:          50
 PW_GRID|   Bounds   2              0      49                Points:          50
 PW_GRID|   Bounds   3              0      49                Points:          50
 PW_GRID| Volume element (a.u.^3)  0.4319         Volume (a.u.^3)     53986.6767
 PW_GRID| Grid span                                                    HALFSPACE

 *******************************************************************************
 *******************************************************************************
 **                                                                           **
 **     #####                         ##              ##                      **
 **    ##   ##            ##          ##              ##                      **
 **   ##     ##                       ##            ######                    **
 **   ##     ##  ##   ##  ##   #####  ##  ##   ####   ##    #####    #####    **
 **   ##     ##  ##   ##  ##  ##      ## ##   ##      ##   ##   ##  ##   ##   **
 **   ##  ## ##  ##   ##  ##  ##      ####     ###    ##   ######   ######    **
 **    ##  ###   ##   ##  ##  ##      ## ##      ##   ##   ##       ##        **
 **     #######   #####   ##   #####  ##  ##  ####    ##    #####   ##        **
 **           ##                                                    ##        **
 **                                                                           **
 **                                                ... make the atoms dance   **
 **                                                                           **
 **            Copyright (C) by CP2K developers group (2000-2026)             **
 **                      J. Chem. Phys. 152, 194103 (2020)                    **
 **                                                                           **
 *******************************************************************************

 DFT| Spin restricted Kohn-Sham (RKS) calculation                            RKS
 DFT| Multiplicity                                                             1
 DFT| Number of spin states                                                    1
 DFT| Charge                                                                   0
 DFT| Self-interaction correction (SIC)                                       NO
 DFT| Cutoffs: density                                              1.000000E-10
 DFT|          gradient                                             1.000000E-10
 DFT|          tau                                                  1.000000E-10
 DFT|          cutoff_smoothing_range                               0.000000E+00
 DFT| XC density smoothing                                                  NONE
 DFT| XC derivatives                                                          PW

 FUNCTIONAL| PBE:
 FUNCTIONAL| J.P.Perdew, K.Burke, M.Ernzerhof, Phys. Rev. Letter, vol. 77, n 18,
 FUNCTIONAL|  pp. 3865-3868, (1996) {spin unpolarized}                          


 QS| Method:                                                                 GPW
 QS| Density plane wave grid type                        NON-SPHERICAL FULLSPACE
 QS| Number of grid levels:                                                    5
 QS| Density cutoff [a.u.]:                                                300.0
 QS| Multi grid cutoff [a.u.]: 1) grid level                               300.0
 QS|                           2) grid level                               100.0
 QS|                           3) grid level                                33.3
 QS|                           4) grid level                                11.1
 QS|                           5) grid level                                 3.7
 QS| Grid level progression factor:                                          3.0
 QS| Relative density cutoff [a.u.]:                                        30.0
 QS| Interaction thresholds: eps_pgf_orb:                                1.0E-12
 QS|                         eps_filter_matrix:                          0.0E+00
 QS|                         eps_core_charge:                            1.0E-14
 QS|                         eps_rho_gspace:                             1.0E-12
 QS|                         eps_rho_rspace:                             1.0E-12
 QS|                         eps_gvg_rspace:                             1.0E-06
 QS|                         eps_ppl:                                    1.0E-02
 QS|                         eps_ppnl:                                   1.0E-08


 ATOMIC KIND INFORMATION

  1. Atomic kind: Na                                    Number of atoms:       2

     Orbital Basis Set                              AUG-DZVP-MOLOPT-GTH-TIER-1_4

       Number of orbital shell sets:                                           1
       Number of orbital shells:                                               7
       Number of primitive Cartesian functions:                                8
       Number of Cartesian basis functions:                                   13
       Number of spherical basis functions:                                   13
       Norm type:                                                              2

       Normalised Cartesian orbitals:

                        Set   Shell   Orbital            Exponent    Coefficient

                          1       1    2s                0.041082      -0.010348
                                                         0.080000       0.000000
                                                         0.160574      -0.037203
                                                         0.463672      -0.069683
                                                         1.260954      -0.458926
                                                         3.486609      -0.410648
                                                        10.057600       0.579121
                                                        23.790812       0.389951

                          1       2    3s                0.041082       0.053250
                                                         0.080000       0.000000
                                                         0.160574       0.069967
                                                         0.463672      -0.122774
                                                         1.260954      -0.207581
                                                         3.486609      -0.138995
                                                        10.057600       0.172103
                                                        23.790812       0.106868

                          1       3    4s                0.041082       0.090474
                                                         0.080000       0.000000
                                                         0.160574      -0.398379
                                                         0.463672       0.320278
                                                         1.260954       0.132465
                                                         3.486609       0.061276
                                                        10.057600      -0.025962
                                                        23.790812       0.015408

                          1       4    5s                0.041082       0.005437
                                                         0.080000      -0.089028
                                                         0.160574       0.099979
                                                         0.463672       0.615663
                                                         1.260954      -0.752303
                                                         3.486609       0.533887
                                                        10.057600      -0.738278
                                                        23.790812       1.099090

                          1       5    3px               0.041082      -0.002513
                                                         0.080000       0.000000
                                                         0.160574      -0.010269
                                                         0.463672      -0.128190
                                                         1.260954      -0.760162
                                                         3.486609      -2.367380
                                                        10.057600      -4.107990
                                                        23.790812      -2.798927
                          1       5    3py               0.041082      -0.002513
                                                         0.080000       0.000000
                                                         0.160574      -0.010269
                                                         0.463672      -0.128190
                                                         1.260954      -0.760162
                                                         3.486609      -2.367380
                                                        10.057600      -4.107990
                                                        23.790812      -2.798927
                          1       5    3pz               0.041082      -0.002513
                                                         0.080000       0.000000
                                                         0.160574      -0.010269
                                                         0.463672      -0.128190
                                                         1.260954      -0.760162
                                                         3.486609      -2.367380
                                                        10.057600      -4.107990
                                                        23.790812      -2.798927

                          1       6    4px               0.041082       0.021592
                                                         0.080000       0.000000
                                                         0.160574       0.040198
                                                         0.463672      -0.022347
                                                         1.260954      -0.229465
                                                         3.486609      -0.636011
                                                        10.057600      -1.115759
                                                        23.790812      -0.654970
                          1       6    4py               0.041082       0.021592
                                                         0.080000       0.000000
                                                         0.160574       0.040198
                                                         0.463672      -0.022347
                                                         1.260954      -0.229465
                                                         3.486609      -0.636011
                                                        10.057600      -1.115759
                                                        23.790812      -0.654970
                          1       6    4pz               0.041082       0.021592
                                                         0.080000       0.000000
                                                         0.160574       0.040198
                                                         0.463672      -0.022347
                                                         1.260954      -0.229465
                                                         3.486609      -0.636011
                                                        10.057600      -1.115759
                                                        23.790812      -0.654970

                          1       7    5px               0.041082      -0.002997
                                                         0.080000       0.046638
                                                         0.160574       0.045522
                                                         0.463672       0.050705
                                                         1.260954      -0.113563
                                                         3.486609      -0.149172
                                                        10.057600      -0.287194
                                                        23.790812      -0.047943
                          1       7    5py               0.041082      -0.002997
                                                         0.080000       0.046638
                                                         0.160574       0.045522
                                                         0.463672       0.050705
                                                         1.260954      -0.113563
                                                         3.486609      -0.149172
                                                        10.057600      -0.287194
                                                        23.790812      -0.047943
                          1       7    5pz               0.041082      -0.002997
                                                         0.080000       0.046638
                                                         0.160574       0.045522
                                                         0.463672       0.050705
                                                         1.260954      -0.113563
                                                         3.486609      -0.149172
                                                        10.057600      -0.287194
                                                        23.790812      -0.047943

     RI Auxiliary Basis Set             RI_aug-DZVP-MOLOPT-GTH-tier-1_N_RI_050_s

       Number of orbital shell sets:                                          18
       Number of orbital shells:                                              18
       Number of primitive Cartesian functions:                               18
       Number of Cartesian basis functions:                                   55
       Number of spherical basis functions:                                   50
       Norm type:                                                              2

       Normalised Cartesian orbitals:

                        Set   Shell   Orbital            Exponent    Coefficient

                          1       1    1s                0.100168       0.126899

                          2       1    2s                0.271718       0.268225

                          3       1    3s                0.780123       0.591606

                          4       1    4s                1.865496       1.137643

                          5       1    5s                4.693659       2.272708

                          6       1    6s               14.055822       5.173712

                          7       1    7s               39.319591      11.190947

                          8       1    8px               0.102161       0.082327
                          8       1    8py               0.102161       0.082327
                          8       1    8pz               0.102161       0.082327

                          9       1    9px               0.371156       0.412939
                          9       1    9py               0.371156       0.412939
                          9       1    9pz               0.371156       0.412939

                         10       1   10px               1.364596       2.102303
                         10       1   10py               1.364596       2.102303
                         10       1   10pz               1.364596       2.102303

                         11       1   11px               3.458896       6.723756
                         11       1   11py               3.458896       6.723756
                         11       1   11pz               3.458896       6.723756

                         12       1   12px               5.682197      12.505050
                         12       1   12py               5.682197      12.505050
                         12       1   12pz               5.682197      12.505050

                         13       1   13px              23.987910      75.671198
                         13       1   13py              23.987910      75.671198
                         13       1   13pz              23.987910      75.671198

                         14       1   14dx2              0.103905       0.031298
                         14       1   14dxy              0.103905       0.054210
                         14       1   14dxz              0.103905       0.054210
                         14       1   14dy2              0.103905       0.031298
                         14       1   14dyz              0.103905       0.054210
                         14       1   14dz2              0.103905       0.031298

                         15       1   15dx2              0.526409       0.535458
                         15       1   15dxy              0.526409       0.927441
                         15       1   15dxz              0.526409       0.927441
                         15       1   15dy2              0.526409       0.535458
                         15       1   15dyz              0.526409       0.927441
                         15       1   15dz2              0.526409       0.535458

                         16       1   16dx2              1.857878       4.866194
                         16       1   16dxy              1.857878       8.428495
                         16       1   16dxz              1.857878       8.428495
                         16       1   16dy2              1.857878       4.866194
                         16       1   16dyz              1.857878       8.428495
                         16       1   16dz2              1.857878       4.866194

                         17       1   17dx2              9.341942      82.162661
                         17       1   17dxy              9.341942     142.309904
                         17       1   17dxz              9.341942     142.309904
                         17       1   17dy2              9.341942      82.162661
                         17       1   17dyz              9.341942     142.309904
                         17       1   17dz2              9.341942      82.162661

                         18       1   18dx2             32.859859     742.291410
                         18       1   18dxy             32.859859    1285.686436
                         18       1   18dxz             32.859859    1285.686436
                         18       1   18dy2             32.859859     742.291410
                         18       1   18dyz             32.859859    1285.686436
                         18       1   18dz2             32.859859     742.291410

       Atomic covalent radius [Angstrom]:                                  1.540

       Atomic van der Waals radius [Angstrom]:                             2.270

     GTH Potential information for                                       GTH-PBE

       Description:                       Goedecker-Teter-Hutter pseudopotential
                                           Goedecker et al., PRB 54, 1703 (1996)
                                          Hartwigsen et al., PRB 58, 3641 (1998)
                                                      Krack, TCA 114, 145 (2005)

       Gaussian exponent of the core charge distribution:              15.432099
       Electronic configuration (s p d ...):                               3   6

       Parameters of the local part of the GTH pseudopotential:

                          rloc        C1          C2          C3          C4
                        0.180000   -8.879924    3.944438

       Parameters of the non-local part of the GTH pseudopotential:

                   l      r(l)      h(i,j,l)

                   0    0.140244   38.694399
                   1    0.148004   -7.533267


 MOLECULE KIND INFORMATION


 All atoms are their own molecule, skipping detailed information


 TOTAL NUMBERS AND MAXIMUM NUMBERS

  Total number of            - Atomic kinds:                                   1
                             - Atoms:                                          2
                             - Shell sets:                                     2
                             - Shells:                                        14
                             - Primitive Cartesian functions:                 16
                             - Cartesian basis functions:                     26
                             - Spherical basis functions:                     26

  Maximum angular momentum of- Orbital basis functions:                        1
                             - Local part of the GTH pseudopotential:          2
                             - Non-local part of the GTH pseudopotential:      1


 MODULE QUICKSTEP: ATOMIC COORDINATES IN ANGSTROM

   Atom Kind Element         X             Y             Z       Z(eff)     Mass
      1    1 Na   11     10.000000     10.000000      8.460550   9.0000  22.9898
      2    1 Na   11     10.000000     10.000000     11.539450   9.0000  22.9898



 SCF PARAMETERS         Density guess:                                    ATOMIC
                        --------------------------------------------------------
                        max_scf:                                             200
                        max_scf_history:                                       0
                        max_diis:                                              4
                        --------------------------------------------------------
                        eps_scf:                                        1.00E-07
                        eps_scf_history:                                0.00E+00
                        eps_diis:                                       1.00E-01
                        eps_eigval:                                     1.00E-05
                        --------------------------------------------------------
                        level_shift [a.u.]:                             0.000000
                        SCF update method:                                MIXING
                        added MOs                                        17    0
                        --------------------------------------------------------
                        Mixing method:                            BROYDEN_MIXING
                                                charge density mixing in g-space
                        --------------------------------------------------------
                        Outer loop SCF in use 
                        No variables optimised in outer loop
                        eps_scf                                         1.00E-07
                        max_scf                                               20
                        No outer loop optimization
                        step_size                                       5.00E-01

 PW_GRID| Information for grid number                                          2
 PW_GRID| Grid distributed over                                    32 processors
 PW_GRID| Real space group dimensions                                    32    1
 PW_GRID| the grid is blocked:                                                NO
 PW_GRID| Cutoff [a.u.]                                                    300.0
 PW_GRID| spherical cutoff:                                                   NO
 PW_GRID|   Bounds   1           -150     149                Points:         300
 PW_GRID|   Bounds   2           -150     149                Points:         300
 PW_GRID|   Bounds   3           -150     149                Points:         300
 PW_GRID| Volume element (a.u.^3)  0.2000E-02     Volume (a.u.^3)     53986.6767
 PW_GRID| Grid span                                                    FULLSPACE
 PW_GRID|   Distribution                         Average         Max         Min
 PW_GRID|   G-Vectors                           843750.0      843900      843600
 PW_GRID|   G-Rays                                2812.5        2813        2812
 PW_GRID|   Real Space Points                   843750.0      900000      810000

 PW_GRID| Information for grid number                                          3
 PW_GRID| Number of the reference grid                                         2
 PW_GRID| Grid distributed over                                    32 processors
 PW_GRID| Real space group dimensions                                    32    1
 PW_GRID| the grid is blocked:                                                NO
 PW_GRID| Cutoff [a.u.]                                                    100.0
 PW_GRID| spherical cutoff:                                                   NO
 PW_GRID|   Bounds   1            -90      89                Points:         180
 PW_GRID|   Bounds   2            -90      89                Points:         180
 PW_GRID|   Bounds   3            -90      89                Points:         180
 PW_GRID| Volume element (a.u.^3)  0.9257E-02     Volume (a.u.^3)     53986.6767
 PW_GRID| Grid span                                                    FULLSPACE
 PW_GRID|   Distribution                         Average         Max         Min
 PW_GRID|   G-Vectors                           182250.0      182520      181980
 PW_GRID|   G-Rays                                1012.5        1014        1011
 PW_GRID|   Real Space Points                   182250.0      194400      162000

 PW_GRID| Information for grid number                                          4
 PW_GRID| Number of the reference grid                                         2
 PW_GRID| Grid distributed over                                    32 processors
 PW_GRID| Real space group dimensions                                    32    1
 PW_GRID| the grid is blocked:                                                NO
 PW_GRID| Cutoff [a.u.]                                                     33.3
 PW_GRID| spherical cutoff:                                                   NO
 PW_GRID|   Bounds   1            -50      49                Points:         100
 PW_GRID|   Bounds   2            -50      49                Points:         100
 PW_GRID|   Bounds   3            -50      49                Points:         100
 PW_GRID| Volume element (a.u.^3)  0.5399E-01     Volume (a.u.^3)     53986.6767
 PW_GRID| Grid span                                                    FULLSPACE
 PW_GRID|   Distribution                         Average         Max         Min
 PW_GRID|   G-Vectors                            31250.0       31500       31000
 PW_GRID|   G-Rays                                 312.5         315         310
 PW_GRID|   Real Space Points                    31250.0       40000       30000

 PW_GRID| Information for grid number                                          5
 PW_GRID| Number of the reference grid                                         2
 PW_GRID| Grid distributed over                                    32 processors
 PW_GRID| Real space group dimensions                                    32    1
 PW_GRID| the grid is blocked:                                                NO
 PW_GRID| Cutoff [a.u.]                                                     11.1
 PW_GRID| spherical cutoff:                                                   NO
 PW_GRID|   Bounds   1            -30      29                Points:          60
 PW_GRID|   Bounds   2            -30      29                Points:          60
 PW_GRID|   Bounds   3            -30      29                Points:          60
 PW_GRID| Volume element (a.u.^3)  0.2499         Volume (a.u.^3)     53986.6767
 PW_GRID| Grid span                                                    FULLSPACE
 PW_GRID|   Distribution                         Average         Max         Min
 PW_GRID|   G-Vectors                             6750.0        6780        6720
 PW_GRID|   G-Rays                                 112.5         113         112
 PW_GRID|   Real Space Points                     6750.0        7200        3600

 PW_GRID| Information for grid number                                          6
 PW_GRID| Number of the reference grid                                         2
 PW_GRID| Grid distributed over                                    32 processors
 PW_GRID| Real space group dimensions                                    32    1
 PW_GRID| the grid is blocked:                                                NO
 PW_GRID| Cutoff [a.u.]                                                      3.7
 PW_GRID| spherical cutoff:                                                   NO
 PW_GRID|   Bounds   1            -18      17                Points:          36
 PW_GRID|   Bounds   2            -18      17                Points:          36
 PW_GRID|   Bounds   3            -18      17                Points:          36
 PW_GRID| Volume element (a.u.^3)   1.157         Volume (a.u.^3)     53986.6767
 PW_GRID| Grid span                                                    FULLSPACE
 PW_GRID|   Distribution                         Average         Max         Min
 PW_GRID|   G-Vectors                             1458.0        1548        1368
 PW_GRID|   G-Rays                                  40.5          43          38
 PW_GRID|   Real Space Points                     1458.0        2592        1296

 POISSON| Solver                                             MULTIPOLE (Bloechl)
 POISSON| Periodicity                                                       NONE

 RS_GRID| Information for grid number                                          2
 RS_GRID|   Bounds   1           -150     149                Points:         300
 RS_GRID|   Bounds   2           -150     149                Points:         300
 RS_GRID|   Bounds   3           -150     149                Points:         300
 RS_GRID| Real space distribution over                                  2 groups
 RS_GRID| Real space distribution along direction                              1
 RS_GRID| Border size                                                         26
 RS_GRID| Real space distribution over                                  4 groups
 RS_GRID| Real space distribution along direction                              2
 RS_GRID| Border size                                                         26
 RS_GRID| Real space distribution over                                  4 groups
 RS_GRID| Real space distribution along direction                              3
 RS_GRID| Border size                                                         26
 RS_GRID|   Distribution                         Average         Max         Min
 RS_GRID|   Planes                                 202.0         202         202
 RS_GRID|   Distribution                         Average         Max         Min
 RS_GRID|   Planes                                 127.0         127         127
 RS_GRID|   Distribution                         Average         Max         Min
 RS_GRID|   Planes                                 127.0         127         127

 RS_GRID| Information for grid number                                          3
 RS_GRID|   Bounds   1            -90      89                Points:         180
 RS_GRID|   Bounds   2            -90      89                Points:         180
 RS_GRID|   Bounds   3            -90      89                Points:         180
 RS_GRID| Real space distribution over                                  2 groups
 RS_GRID| Real space distribution along direction                              1
 RS_GRID| Border size                                                         26
 RS_GRID| Real space distribution over                                  4 groups
 RS_GRID| Real space distribution along direction                              2
 RS_GRID| Border size                                                         26
 RS_GRID| Real space distribution over                                  4 groups
 RS_GRID| Real space distribution along direction                              3
 RS_GRID| Border size                                                         26
 RS_GRID|   Distribution                         Average         Max         Min
 RS_GRID|   Planes                                 142.0         142         142
 RS_GRID|   Distribution                         Average         Max         Min
 RS_GRID|   Planes                                  97.0          97          97
 RS_GRID|   Distribution                         Average         Max         Min
 RS_GRID|   Planes                                  97.0          97          97

 RS_GRID| Information for grid number                                          4
 RS_GRID|   Bounds   1            -50      49                Points:         100
 RS_GRID|   Bounds   2            -50      49                Points:         100
 RS_GRID|   Bounds   3            -50      49                Points:         100
 RS_GRID| Real space fully replicated
 RS_GRID| Group size                                                           1

 RS_GRID| Information for grid number                                          5
 RS_GRID|   Bounds   1            -30      29                Points:          60
 RS_GRID|   Bounds   2            -30      29                Points:          60
 RS_GRID|   Bounds   3            -30      29                Points:          60
 RS_GRID| Real space fully replicated
 RS_GRID| Group size                                                           1

 RS_GRID| Information for grid number                                          6
 RS_GRID|   Bounds   1            -18      17                Points:          36
 RS_GRID|   Bounds   2            -18      17                Points:          36
 RS_GRID|   Bounds   3            -18      17                Points:          36
 RS_GRID| Real space fully replicated
 RS_GRID| Group size                                                           1

 Extrapolation method: initial_guess

 Atomic guess: The first density matrix is obtained in terms of atomic orbitals
               and electronic configurations assigned to each atomic kind

 Guess for atomic kind: Na

 Electronic structure
    Total number of core electrons                                          2.00
    Total number of valence electrons                                       9.00
    Total number of electrons                                              11.00
    Multiplicity                                                   not specified
    S   [  2.00] 2.00  1.00
    P      6.00


 *******************************************************************************
                  Iteration          Convergence                     Energy [au]
 *******************************************************************************
                          1        0.775997                     -47.482228762091
                          2        0.303499                     -47.553802989475
                          3        0.628967E-02                 -47.576736566272
                          4        0.137169E-04                 -47.576744077609
                          5        0.582320E-05                 -47.576744077816
                          6        0.265541E-05                 -47.576744077822
                          7        0.980578E-08                 -47.576744077824

 Energy components [Hartree]           Total Energy ::          -47.576744077824
                                        Band Energy ::          -10.325448424253
                                     Kinetic Energy ::           38.944342679257
                                   Potential Energy ::          -86.521086757081
                                      Virial (-V/T) ::            2.221659958923
                                        Core Energy ::          -80.058042889822
                                          XC Energy ::           -6.968980219232
                                     Coulomb Energy ::           39.450279031230
                       Total Pseudopotential Energy ::         -119.035180361491
                       Local Pseudopotential Energy ::         -114.566870960280
                    Nonlocal Pseudopotential Energy ::           -4.468309401212
                                        Confinement ::            0.327947924117

 Orbital energies  State     L     Occupation   Energy[a.u.]          Energy[eV]

                       1     0          2.000      -2.053936          -55.890437
                       2     0          1.000      -0.073503           -2.000131

                       1     1          6.000      -1.024012          -27.864789


 Total Electron Density at R=0:                                         0.002721
 Re-scaling the density matrix to get the right number of electrons
                  # Electrons              Trace(P)               Scaling factor
                           18                18.000                        1.000

 Number of electrons:                                                         18
 Number of occupied orbitals:                                                  9
 Number of molecular orbitals:                                                26

 Number of orbital functions:                                                 26
 Number of independent orbital functions:                                     26


 SCF WAVEFUNCTION OPTIMIZATION

  Step     Update method      Time    Convergence         Total energy    Change
  ------------------------------------------------------------------------------
     1 NoMix/Diag. 0.20E+00    0.8     0.60380554       -95.6635004179 -9.57E+01
     2 Broy./Diag. 0.20E+00    0.9     0.00519314       -95.3858416084  2.78E-01
     3 Broy./Diag. 0.20E+00    0.9     0.02437384       -95.6412741290 -2.55E-01
     4 Broy./Diag. 0.20E+00    1.0     0.00298435       -95.7261864400 -8.49E-02
     5 Broy./Diag. 0.20E+00    1.0     0.00582150       -95.6780347933  4.82E-02
     6 Broy./Diag. 0.20E+00    1.0     0.00433669       -95.6675856272  1.04E-02
     7 Broy./Diag. 0.20E+00    1.0     0.00716606       -95.6748382030 -7.25E-03
     8 Broy./Diag. 0.20E+00    1.0     0.00049668       -95.6785003676 -3.66E-03
     9 Broy./Diag. 0.20E+00    1.0     0.00119727       -95.6778781042  6.22E-04
    10 Broy./Diag. 0.20E+00    1.0     0.00030264       -95.6777878886  9.02E-05
    11 Broy./Diag. 0.20E+00    1.0     0.00271877       -95.6785111165 -7.23E-04
    12 Broy./Diag. 0.20E+00    1.0     0.00126575       -95.6783408157  1.70E-04
    13 Broy./Diag. 0.20E+00    1.0     0.00024724       -95.6780360094  3.05E-04
    14 Broy./Diag. 0.20E+00    1.0     0.00001982       -95.6782187720 -1.83E-04
    15 Broy./Diag. 0.20E+00    1.0     0.00019050       -95.6782619408 -4.32E-05
    16 Broy./Diag. 0.20E+00    1.0     0.00009543       -95.6781143284  1.48E-04
    17 Broy./Diag. 0.20E+00    1.0     0.00004277       -95.6777177714  3.97E-04
    18 Broy./Diag. 0.20E+00    1.0     0.00005574       -95.6778660797 -1.48E-04
    19 Broy./Diag. 0.20E+00    1.0     0.00008973       -95.6781687701 -3.03E-04
    20 Broy./Diag. 0.20E+00    1.0     0.00001946       -95.6781954611 -2.67E-05
    21 Broy./Diag. 0.20E+00    1.0     0.00000477       -95.6781392120  5.62E-05
    22 Broy./Diag. 0.20E+00    1.0     0.00000378       -95.6781400698 -8.58E-07
    23 Broy./Diag. 0.20E+00    1.0     0.00000191       -95.6781507930 -1.07E-05
    24 Broy./Diag. 0.20E+00    1.0     0.00000066       -95.6781548089 -4.02E-06
    25 Broy./Diag. 0.20E+00    1.0     0.00000260       -95.6781518640  2.94E-06
    26 Broy./Diag. 0.20E+00    1.0     0.00000465       -95.6781531209 -1.26E-06
    27 Broy./Diag. 0.20E+00    1.0     0.00000282       -95.6781545733 -1.45E-06
    28 Broy./Diag. 0.20E+00    1.0     0.00000092       -95.6781533837  1.19E-06
    29 Broy./Diag. 0.20E+00    1.0     0.00000142       -95.6781505713  2.81E-06
    30 Broy./Diag. 0.20E+00    1.1     0.00000093       -95.6781479701  2.60E-06
    31 Broy./Diag. 0.20E+00    1.0     0.00000046       -95.6781499659 -2.00E-06
    32 Broy./Diag. 0.20E+00    1.0     0.00000039       -95.6781524837 -2.52E-06
    33 Broy./Diag. 0.20E+00    1.0     0.00000052       -95.6781537553 -1.27E-06
    34 Broy./Diag. 0.20E+00    1.0     0.00000003       -95.6781534897  2.66E-07

  *** SCF run converged in    34 steps ***


  Electronic density on regular grids:        -17.9999984499        0.0000015501
  Core density on regular grids:               18.0000000000       -0.0000000000
  Total charge density on r-space grids:        0.0000015501
  Total charge density g-space grids:           0.0000015501

  Overlap energy of the core charge distribution:               0.00000000000000
  Self energy of the core charge distribution:               -253.88531259649037
  Core Hamiltonian energy:                                     71.06229644125433
  Hartree energy:                                             101.54839765434589
  Exchange-correlation energy:                                -14.40353498876896

  Total energy:                                               -95.67815348965908

  outer SCF iter =    1 RMS gradient =   0.27E-07 energy =        -95.6781534897
  outer SCF loop converged in   1 iterations or   34 steps


 !-----------------------------------------------------------------------------!
                     Mulliken Population Analysis

 #  Atom  Element  Kind  Atomic population                           Net charge
       1     Na       1          9.000000                              0.000000
       2     Na       1          9.000000                             -0.000000
 # Total charge                             18.000000                 -0.000000

 !-----------------------------------------------------------------------------!

 !-----------------------------------------------------------------------------!
                           Hirshfeld Charges

  #Atom  Element  Kind  Ref Charge     Population                    Net charge
      1       Na     1       9.000          9.000                         0.000
      2       Na     1       9.000          9.000                         0.000

  Total Charge                                                            0.000
 !-----------------------------------------------------------------------------!
  
 -------------------------------------------------------------------------------
 -                                                                             -
 -                          BANDSTRUCTURE CALCULATION                          -
 -                                                                             -
 -------------------------------------------------------------------------------
  
 Number of occupied molecular orbitals (MOs) = Number of occupied bands        9
 Number of unoccupied (= virtual) MOs = Number of unoccupied bands            17
 Number of Gaussian basis functions for MOs                                   26
  
 -------------------------------------------------------------------------------
 -                                                                             -
 -                                GW CALCULATION                               -
 -                                                                             -
 -------------------------------------------------------------------------------
  
 Input: Number of time/freq. points                                           30
 Input: ω_max for fitting Σ(iω) (eV)                                        10.0
 Input: Filter threshold for sparse tensor operations                    1.0E-07
 Input: Apply Hedin shift                                                      F
 Detected: Available memory per MPI process                               7.0 GB
 
 Input: RI-RS Tikhonov regularization                                   1.00E-08
 Input: AO grid hard cutoff radius                                        8.00 Å
 Input: MPI ranks per atom in Z_lP solve                                      -1
 Input: Keep sparsity in χ/G/W panels                                          T
 Input: GW flavour                                                          G0W0
 
 Input: RI-RS grid optimization activated                                      T
 Input: RS points per AO function                                            7.0
 Input: Cutoff radius for atomic clusters                                  3.0 Å
 Input: Maximum grid optimization iterations                                 300
 
 Input: AUTO_RI basis optimization activated:                                  T
 Input: AUTO_RI number of RI functions per AO function:                      4.0
 Input: AUTO_RI frontier orbital window:                                  5.0 eV
 Input: AUTO_RI neighbor radius:                                           3.0 Å
 
 Cutoff radius for the truncated Coulomb operator in RI metric:            6.0 Å
 Regularization parameter of RI                                          0.0E+00
 Regularization parameter of minimax grids                               1.0E-06
 
 AUTO_RI| Number of automatic RI functions for χ, ε, W:                       96
 AUTO_RI| Total RI basis optimization time:                                0.3 s
 
 SCF direct band gap (eV)                                                   1.36
 Max. SCF eigval diff. (eV)                                               155.96
 E-Range for minimax grid                                                 114.26
 Number of Padé parameters for analytic continuation:                         16
 
 RI-RS basis radii (Å):
     Kind  Elem     r_AO (Å)     r_RI (Å)
        1    Na       10.4817        6.7126
 
 RI-RS initial grid rank saturation for atom 1: 79 / 91
 Started RI-RS grid optimization
 RI-RS grid initial normalized error                          1.049400618240E-05
 RI-RS grid optimization completed, execution time:                        0.2 s
 Normalized 3C error:                                                    1.9E-09
 Maximum absolute 3C error:                                              2.0E-04
 Optimized points outside molecular Voronoi cells:                             3 / 154
 Total grid points used for RI-RS:                                           154
 
 RI-RS grid row-blocks of ϕ_μ(r_l)                                             6
 RI-RS grid points per block (max)                                            32
 
 Percentage of non-zero matrix elements in ϕ_μ(r_l)                     100.00 %
 
 RI-RS memory estimate per MPI process:
   Available memory per process (system)                                 7.64 GB
   Required for Z_lP (dense upper bound; actual is sparser)              0.00 GB
   Required for χ, W, Σ panels (peak per panel step)                     0.00 GB
   Required for Z_lP solve peak (D_local+ϕ, worst-case atom)             0.00 GB
   Worst-case local-grid number of grid points:                              154
   Worst-case memory D_local:                                            0.00 GB
 
 Started computing Z_lP
 Computed Z_lP (MPI rank 0) for atom          1 /  1,    Execution time    0.0 s
 Computed Z_lP (all MPI ranks) for all atoms,            Execution time    0.0 s

 Memory per MPI process after computing Z_lP:
 Available memory per MPI process                                7.6 GB
 Used memory per MPI process                                     1.0 GB
 Number of batches for χ, Σ matrices                                           1
 
 Percentage of non-zero matrix elements in Z_lP                         100.00 %
 Percentage of non-zero matrix elements in G_ll', χ_ll', W_ll'          100.00 %
 Percentage of non-zero matrix elements in χ_PQ for time point 1        100.00 %
 
 Computed χ(iτ,k=0) for time point            1 / 30,    Execution time    0.0 s
 Computed χ(iτ,k=0) for time point            2 / 30,    Execution time    0.0 s
 Computed χ(iτ,k=0) for time point            3 / 30,    Execution time    0.0 s
 Computed χ(iτ,k=0) for time point            4 / 30,    Execution time    0.0 s
 Computed χ(iτ,k=0) for time point            5 / 30,    Execution time    0.0 s
 Computed χ(iτ,k=0) for time point            6 / 30,    Execution time    0.0 s
 Computed χ(iτ,k=0) for time point            7 / 30,    Execution time    0.0 s
 Computed χ(iτ,k=0) for time point            8 / 30,    Execution time    0.0 s
 Computed χ(iτ,k=0) for time point            9 / 30,    Execution time    0.0 s
 Computed χ(iτ,k=0) for time point           10 / 30,    Execution time    0.0 s
 Computed χ(iτ,k=0) for time point           11 / 30,    Execution time    0.0 s
 Computed χ(iτ,k=0) for time point           12 / 30,    Execution time    0.0 s
 Computed χ(iτ,k=0) for time point           13 / 30,    Execution time    0.0 s
 Computed χ(iτ,k=0) for time point           14 / 30,    Execution time    0.0 s
 Computed χ(iτ,k=0) for time point           15 / 30,    Execution time    0.0 s
 Computed χ(iτ,k=0) for time point           16 / 30,    Execution time    0.0 s
 Computed χ(iτ,k=0) for time point           17 / 30,    Execution time    0.0 s
 Computed χ(iτ,k=0) for time point           18 / 30,    Execution time    0.0 s
 Computed χ(iτ,k=0) for time point           19 / 30,    Execution time    0.0 s
 Computed χ(iτ,k=0) for time point           20 / 30,    Execution time    0.0 s
 Computed χ(iτ,k=0) for time point           21 / 30,    Execution time    0.0 s
 Computed χ(iτ,k=0) for time point           22 / 30,    Execution time    0.0 s
 Computed χ(iτ,k=0) for time point           23 / 30,    Execution time    0.0 s
 Computed χ(iτ,k=0) for time point           24 / 30,    Execution time    0.0 s
 Computed χ(iτ,k=0) for time point           25 / 30,    Execution time    0.0 s
 Computed χ(iτ,k=0) for time point           26 / 30,    Execution time    0.0 s
 Computed χ(iτ,k=0) for time point           27 / 30,    Execution time    0.0 s
 Computed χ(iτ,k=0) for time point           28 / 30,    Execution time    0.0 s
 Computed χ(iτ,k=0) for time point           29 / 30,    Execution time    0.0 s
 Computed χ(iτ,k=0) for time point           30 / 30,    Execution time    0.0 s
 
 Computed W(iτ),                                         Execution time    0.1 s
 
 Computed Σ^x(k=0),                                      Execution time    0.0 s
 
 Computed Σ^c(iτ) for time point              1 / 30,    Execution time    0.0 s
 Computed Σ^c(iτ) for time point              2 / 30,    Execution time    0.0 s
 Computed Σ^c(iτ) for time point              3 / 30,    Execution time    0.0 s
 Computed Σ^c(iτ) for time point              4 / 30,    Execution time    0.0 s
 Computed Σ^c(iτ) for time point              5 / 30,    Execution time    0.0 s
 Computed Σ^c(iτ) for time point              6 / 30,    Execution time    0.0 s
 Computed Σ^c(iτ) for time point              7 / 30,    Execution time    0.0 s
 Computed Σ^c(iτ) for time point              8 / 30,    Execution time    0.0 s
 Computed Σ^c(iτ) for time point              9 / 30,    Execution time    0.0 s
 Computed Σ^c(iτ) for time point             10 / 30,    Execution time    0.0 s
 Computed Σ^c(iτ) for time point             11 / 30,    Execution time    0.0 s
 Computed Σ^c(iτ) for time point             12 / 30,    Execution time    0.0 s
 Computed Σ^c(iτ) for time point             13 / 30,    Execution time    0.0 s
 Computed Σ^c(iτ) for time point             14 / 30,    Execution time    0.0 s
 Computed Σ^c(iτ) for time point             15 / 30,    Execution time    0.0 s
 Computed Σ^c(iτ) for time point             16 / 30,    Execution time    0.0 s
 Computed Σ^c(iτ) for time point             17 / 30,    Execution time    0.0 s
 Computed Σ^c(iτ) for time point             18 / 30,    Execution time    0.0 s
 Computed Σ^c(iτ) for time point             19 / 30,    Execution time    0.0 s
 Computed Σ^c(iτ) for time point             20 / 30,    Execution time    0.0 s
 Computed Σ^c(iτ) for time point             21 / 30,    Execution time    0.0 s
 Computed Σ^c(iτ) for time point             22 / 30,    Execution time    0.0 s
 Computed Σ^c(iτ) for time point             23 / 30,    Execution time    0.0 s
 Computed Σ^c(iτ) for time point             24 / 30,    Execution time    0.0 s
 Computed Σ^c(iτ) for time point             25 / 30,    Execution time    0.0 s
 Computed Σ^c(iτ) for time point             26 / 30,    Execution time    0.0 s
 Computed Σ^c(iτ) for time point             27 / 30,    Execution time    0.0 s
 Computed Σ^c(iτ) for time point             28 / 30,    Execution time    0.0 s
 Computed Σ^c(iτ) for time point             29 / 30,    Execution time    0.0 s
 Computed Σ^c(iτ) for time point             30 / 30,    Execution time    0.0 s
 
 SCF valence band maximum (eV):                                           -3.120
 SCF conduction band minimum (eV):                                        -1.755
 SCF indirect band gap (eV):                                               1.365
 SCF direct band gap (eV):                                                 1.365
 
 G0W0 valence band maximum (eV):                                          -4.739
 G0W0 conduction band minimum (eV):                                       -0.170
 G0W0 indirect band gap (eV):                                              4.569
 G0W0 direct band gap (eV):                                                4.569
 
 Hartree-Fock with SCF orbitals valence band maximum (eV):                -4.438
 Hartree-Fock with SCF orbitals conduction band minimum (eV)               0.582
 Hartree-Fock with SCF orbitals indirect band gap (eV):                    5.020
 Hartree-Fock with SCF orbitals direct band gap (eV):                      5.020

 ENERGY| Total FORCE_EVAL ( QS ) energy [hartree]            -95.678153489659081

 -------------------------------------------------------------------------------
 -                                                                             -
 -                                DBCSR STATISTICS                             -
 -                                                                             -
 -------------------------------------------------------------------------------
 COUNTER                                    TOTAL       BLAS       SMM       ACC
 flops    11 x    13 x    11               242242       0.0%    100.0%      0.0%     
 flops    15 x    13 x    11               334620       0.0%    100.0%      0.0%     
 flops    11 x    13 x    15               334620       0.0%    100.0%      0.0%     
 flops    15 x    13 x    15               456300       0.0%    100.0%      0.0%     
 flops    11 x    11 x    48               464640       0.0%    100.0%      0.0%     
 flops    11 x    48 x    11               511104       0.0%    100.0%      0.0%     
 flops    13 x    13 x    11               550264       0.0%    100.0%      0.0%     
 flops    11 x    11 x    13               610324       0.0%    100.0%      0.0%     
 flops    15 x    11 x    48               633600       0.0%    100.0%      0.0%     
 flops    11 x    15 x    48               633600       0.0%    100.0%      0.0%     
 flops    15 x    48 x    11               696960       0.0%    100.0%      0.0%     
 flops    11 x    48 x    15               728640       0.0%    100.0%      0.0%     
 flops    13 x    13 x    15               790920       0.0%    100.0%      0.0%     
 flops    15 x    11 x    13               832260       0.0%    100.0%      0.0%     
 flops    11 x    15 x    13               832260       0.0%    100.0%      0.0%     
 flops    15 x    15 x    48               864000       0.0%    100.0%      0.0%     
 flops    13 x    13 x    26               896376       0.0%    100.0%      0.0%     
 flops    15 x    48 x    15               993600       0.0%    100.0%      0.0%     
 flops    15 x    15 x    13              1123200       0.0%    100.0%      0.0%     
 flops    11 x    13 x    13              1472328       0.0%    100.0%      0.0%     
 flops    15 x    13 x    13              2007720       0.0%    100.0%      0.0%     
 flops    32 x    13 x    11              2818816       0.0%    100.0%      0.0%     
 flops    11 x    13 x    32              2846272       0.0%    100.0%      0.0%     
 flops    32 x    13 x    15              3893760       0.0%    100.0%      0.0%     
 flops    15 x    13 x    32              3893760       0.0%    100.0%      0.0%     
 flops    11 x    48 x    48              4055040       0.0%    100.0%      0.0%     
 flops    48 x    48 x    11              4257792       0.0%    100.0%      0.0%     
 flops    32 x    11 x    48              5406720       0.0%    100.0%      0.0%     
 flops    11 x    32 x    48              5406720       0.0%    100.0%      0.0%     
 flops    15 x    48 x    48              5529600       0.0%    100.0%      0.0%     
 flops    48 x    48 x    15              5806080       0.0%    100.0%      0.0%     
 flops    11 x    48 x    32              5947392       0.0%    100.0%      0.0%     
 flops    32 x    48 x    11              6183936       0.0%    100.0%      0.0%     
 flops    13 x    13 x    32              6403072       0.0%    100.0%      0.0%     
 flops    11 x    32 x    13              7101952       0.0%    100.0%      0.0%     
 flops    32 x    11 x    13              7120256       0.0%    100.0%      0.0%     
 flops    32 x    15 x    48              7372800       0.0%    100.0%      0.0%     
 flops    15 x    32 x    48              7372800       0.0%    100.0%      0.0%     
 flops    15 x    48 x    32              8110080       0.0%    100.0%      0.0%     
 flops    32 x    48 x    15              8847360       0.0%    100.0%      0.0%     
 flops    15 x    32 x    13              9684480       0.0%    100.0%      0.0%     
 flops    32 x    15 x    13              9709440       0.0%    100.0%      0.0%     
 flops    32 x    13 x    13             17305600       0.0%    100.0%      0.0%     
 flops    32 x    13 x    32             33200128       0.0%    100.0%      0.0%     
 flops    32 x    48 x    48             47185920       0.0%    100.0%      0.0%     
 flops    48 x    48 x    32             50724864       0.0%    100.0%      0.0%     
 flops    32 x    32 x    48             62914560       0.0%    100.0%      0.0%     
 flops    32 x    48 x    32             70287360       0.0%    100.0%      0.0%     
 flops    32 x    32 x    13             82853888       0.0%    100.0%      0.0%     
 flops inhomo. stacks                           0       0.0%      0.0%      0.0%
 flops total                       508.250026E+06       0.0%    100.0%      0.0%
 flops max/rank                    100.564688E+06       0.0%    100.0%      0.0%
 matmuls inhomo. stacks                         0       0.0%      0.0%      0.0%
 matmuls total                              17239       0.0%    100.0%      0.0%
 number of processed stacks                 14622       0.0%    100.0%      0.0%
 average stack size                                     0.0       1.2       0.0
 marketing flops                   713.663680E+06
 -------------------------------------------------------------------------------
 # multiplications                            520
 max memory usage/rank              19.252003E+09
 # max total images/rank                        2
 # max 3D layers                                1
 # MPI messages exchanged                  216320
 MPI messages size (bytes):
  total size                       284.938048E+06
  min size                           0.000000E+00
  max size                          24.576000E+03
  average size                       1.317206E+03
 MPI breakdown and total messages size (bytes):
             size <=      128              172374                        0
       128 < size <=     8192               34236                137247280
      8192 < size <=    32768                9710                147690752
     32768 < size <=   131072                   0                        0
    131072 < size <=  4194304                   0                        0
   4194304 < size <= 16777216                   0                        0
  16777216 < size                               0                        0
 -------------------------------------------------------------------------------

 *** WARNING in dbcsr_mm.F:301 :: Using a non-square number of MPI ranks ***
 *** might lead to poor performance. Used ranks: 32 Suggested: 36 64     ***

 -------------------------------------------------------------------------------
 -                                                                             -
 -                      DBCSR MESSAGE PASSING PERFORMANCE                      -
 -                                                                             -
 -------------------------------------------------------------------------------
 ROUTINE             CALLS      AVE VOLUME [Bytes]
 MP_Bcast               50                     12.
 MP_Allreduce         2308                      9.
 MP_Alltoall          4152                   4103.
 MP_ISend            18590                   1605.
 MP_IRecv            15858                   1131.
 -------------------------------------------------------------------------------

 -------------------------------------------------------------------------------
 -                                                                             -
 -                                GRID STATISTICS                              -
 -                                                                             -
 -------------------------------------------------------------------------------
 LP    KERNEL             BACKEND                              COUNT     PERCENT
 2     collocate ortho    CPU                                    315      49.53%
 2     integrate ortho    CPU                                    315      49.53%
 0     collocate general  CPU                                      4       0.63%
 0     integrate general  CPU                                      2       0.31%
 -------------------------------------------------------------------------------

 -------------------------------------------------------------------------------
 -                                                                             -
 -                          OFFLOAD MEMPOOL STATISTICS                         -
 -                                                                             -
 -------------------------------------------------------------------------------
 Memory consumption                Number of allocations  Used [MiB]  Size [MiB]
 Host                                                  7          45    21761158
 -------------------------------------------------------------------------------

 MEMORY| Estimated peak process memory [MiB]                                1089

 -------------------------------------------------------------------------------
 -                                                                             -
 -                         MESSAGE PASSING PERFORMANCE                         -
 -                                                                             -
 -------------------------------------------------------------------------------

 ROUTINE             CALLS      AVE VOLUME [Bytes]
 MP_Group                6
 MP_Bcast              223                 225666.
 MP_Allreduce         2456                   1272.
 MP_Sync                44
 MP_Alltoall           778               29337427.
 MP_SendRecv          3255                 132779.
 MP_ISendRecv         3255                 132779.
 MP_Wait              6973
 MP_comm_split          43
 MP_ISend             3146                 840620.
 MP_IRecv             3146                 840535.
 -------------------------------------------------------------------------------


 -------------------------------------------------------------------------------
 -                                                                             -
 -                           R E F E R E N C E S                               -
 -                                                                             -
 -------------------------------------------------------------------------------
 
 CP2K version 2026.2 (Development Version), the CP2K developers group (2026).
 CP2K is freely available from https://www.cp2k.org/ .
 
 M. Iannuzzi, J. Wilhelm, F. Stein, A. Bussy, H. Elgabarty, D. Golze, A. Hehn, 
 M. Graml, S. Marek, B. Sertcan Gökmen, C. Schran, H. Forbert, R. Z. 
 Khaliullin, A. Kozhevnikov, M. Taillefumier, R. Meli, V. V. Rybkin, M. Brehm, 
 R. Schade, O. Schütt, J. V. Pototschnig, H. Mirhosseini, A. Knüpfer, D. Marx, 
 M. Krack, J. Hutter, T. D. Kühne.
 J. Phys. Chem. B 130, 1237-1310 (2026).
 The CP2K Program Package Made Simple.
 https://doi.org/10.1021/acs.jpcb.5c05851

 M. Graml, K. Zollner, D. Hernangómez-Pérez, P. E. Faria Junior, J. Wilhelm.
 J. Chem. Theory Comput. 20, 2202-2208 (2024).
 Low-scaling GW algorithm applied to twisted transition-metal dichalcogenide 
 heterobilayers.
 https://doi.org/10.1021/acs.jctc.3c01230

 T. D. Kühne, M. Iannuzzi, M. Del Ben, V. V. Rybkin, P. Seewald, F. Stein, T. 
 Laino, R. Z. Khaliullin, O. Schütt, F. Schiffmann, D. Golze, J. Wilhelm, S. 
 Chulkov, M. H. Bani-Hashemian, V. Weber, U. Borstnik, M. Taillefumier, A. S. 
 Jakobovits, A. Lazzaro, H. Pabst, T. Müller, R. Schade, M. Guidon, S. 
 Andermatt, N. Holmberg, G. K. Schenter, A. Hehn, A. Bussy, F. Belleflamme, G. 
 Tabacchi, A. Glöß, M. Lass, I. Bethune, C. J. Mundy, C. Plessl, M. Watkins, 
 J. VandeVondele, M. Krack, J. Hutter.
 J. Chem. Phys. 152, 194103 (2020).
 CP2K: An electronic structure and molecular dynamics software package - 
 Quickstep: Efficient and accurate electronic structure calculations.
 https://doi.org/10.1063/5.0007045

 O. Schuett, P. Messmer, J. Hutter, J. VandeVondele.
 Electronic Structure Calculations on Graphics Processing Units, 173-190 (2016).
 GPU-Accelerated Sparse Matrix-Matrix Multiplication for Linear Scaling Density 
 Functional Theory.
 https://doi.org/10.1002/9781118670712.ch8

 U. Borstnik, J. VandeVondele, V. Weber, J. Hutter.
 Parallel Comput. 40, 47-58 (2014).
 Sparse matrix multiplication: The distributed block-compressed sparse row 
 library.
 https://doi.org/10.1016/j.parco.2014.03.012

 J. VandeVondele, J. Hutter.
 J. Chem. Phys. 127, 114105 (2007).
 Gaussian basis sets for accurate calculations on molecular systems in gas and 
 condensed phases.
 https://doi.org/10.1063/1.2770708

 J. VandeVondele, M. Krack, F. Mohamed, M. Parrinello, T. Chassaing, J. Hutter.
 Comput. Phys. Commun. 167, 103-128 (2005).
 QUICKSTEP: Fast and accurate density functional calculations using a mixed 
 Gaussian and plane waves approach.
 https://doi.org/10.1016/j.cpc.2004.12.014

 M. Krack.
 Theor. Chem. Acc. 114, 145-152 (2005).
 Pseudopotentials for H to Kr optimized for gradient-corrected 
 exchange-correlation functionals.
 https://doi.org/10.1007/s00214-005-0655-y

 M. Frigo, S. G. Johnson.
 Proc. IEEE 93, 216-231 (2005).
 The design and implementation of FFTW3.
 https://doi.org/10.1109/JPROC.2004.840301

 C. Hartwigsen, S. Goedecker, J. Hutter.
 Phys. Rev. B 58, 3641-3662 (1998).
 Relativistic separable dual-space Gaussian pseudopotentials from H to Rn.
 https://doi.org/10.1103/PhysRevB.58.3641

 G. Lippert, J. Hutter, M. Parrinello.
 Mol. Phys. 92, 477-487 (1997).
 A hybrid Gaussian and plane wave density functional scheme.
 https://doi.org/10.1080/002689797170220

 S. Goedecker, M. Teter, J. Hutter.
 Phys. Rev. B 54, 1703-1710 (1996).
 Separable dual-space Gaussian pseudopotentials.
 https://doi.org/10.1103/PhysRevB.54.1703

 J. P. Perdew, K. Burke, M. Ernzerhof.
 Phys. Rev. Lett. 77, 3865-3868 (1996).
 Generalized gradient approximation made simple.
 https://doi.org/10.1103/PhysRevLett.77.3865

 P. E. Blöchl.
 J. Chem. Phys. 103, 7422-7428 (1995).
 Electrostatic decoupling of periodic images of plane‐wave‐expanded 
 densities and derived atomic point charges.
 https://doi.org/10.1063/1.470314

 R. H. Byrd, P. H. Lu, J. Nocedal, C. Y. Zhu.
 SIAM J. Sci. Comput. 16, 1190-1208 (1995).
 A Limited Memory Algorithm for Bound Constrained Optimization.
 https://doi.org/10.1137/0916069

 C. G. Broyden.
 Math. Comput. 19, 577-593 (1965).
 A class of methods for solving nonlinear simultaneous equations.
 https://doi.org/10.1090/S0025-5718-1965-0198670-6


 -------------------------------------------------------------------------------
 -                                                                             -
 -                                T I M I N G                                  -
 -                                                                             -
 -------------------------------------------------------------------------------
 SUBROUTINE                       CALLS  ASD         SELF TIME        TOTAL TIME
                                MAXIMUM       AVERAGE  MAXIMUM  AVERAGE  MAXIMUM
 CP2K                                 1  1.0    0.101    0.104   37.543   37.543
 qs_energies                          1  2.0    0.016    0.016   36.962   36.962
 scf_env_do_scf                       1  3.0    0.001    0.001   34.626   34.626
 scf_env_do_scf_inner_loop           34  4.0    0.011    0.013   34.624   34.625
 qs_ks_build_kohn_sham_matrix        35  7.0    0.028    0.036   21.623   21.639
 qs_ks_update_qs_env                 34  5.0    0.001    0.001   21.424   21.439
 rebuild_ks_matrix                   34  6.0    0.001    0.001   21.420   21.435
 fft_wrap_pw1pw2                    692 10.0    0.013    0.015   17.409   17.787
 fft_wrap_pw1pw2_300                412 11.4    1.124    1.348   16.776   17.288
 qs_vxc_create                       35  8.0    0.003    0.003   14.296   14.400
 xc_vxc_pw_create                    34  9.0    0.190    0.248   14.293   14.397
 fft3d_ps                           692 12.0    6.917    7.325   12.411   12.843
 xc_pw_derive                       204 11.0    0.002    0.002   10.163   10.504
 qs_rho_update_rho_low               35  5.0    0.000    0.001    7.572    7.574
 calculate_rho_elec                  35  6.0    0.111    0.118    7.572    7.573
 xc_rho_set_and_dset_create          34 10.0    0.258    0.336    7.206    7.523
 density_rs2pw                       35  7.0    0.003    0.004    5.576    7.086
 xc_pw_divergence                    34 10.0    0.001    0.001    6.703    7.002
 gspace_mixing                       33  5.0    0.106    0.112    5.592    5.592
 mp_alltoall_z22v                   692 14.0    3.707    4.452    3.707    4.452
 broyden_mixing                      33  6.0    3.998    4.045    4.108    4.123
 transfer_rs2pw                     177  8.0    0.004    0.006    2.388    3.845
 mp_waitany                        3146 11.5    2.234    3.664    2.234    3.664
 sum_up_and_integrate                35  8.0    0.008    0.008    3.504    3.525
 x_to_yz                            379 13.4    1.118    1.576    3.066    3.453
 integrate_v_rspace                  35  9.0    0.001    0.001    3.427    3.448
 potential_pw2rs                     35 10.0    0.007    0.008    3.411    3.420
 transfer_rs2pw_300                  37  8.9    0.376    0.415    1.907    3.380
 yz_to_x                            313 12.6    0.639    0.690    2.398    3.059
 grid_collocate_task_list            35  7.0    1.754    2.966    1.754    2.966
 qs_ks_ddapc                         35  8.0    0.004    0.004    1.811    1.959
 xc_functional_eval                  34 11.0    0.002    0.003    1.643    1.875
 pbe_lda_eval                        34 12.0    1.641    1.874    1.641    1.874
 pw_derive                          309 11.3    1.708    1.818    1.708    1.818
 pw_scatter_p                       379 12.4    1.609    1.718    1.609    1.718
 transfer_pw2rs                     176 11.0    0.002    0.003    1.697    1.699
 pw_poisson_solve                    35  8.0    0.001    0.001    1.686    1.699
 qs_energies_properties               1  3.0    0.001    0.001    1.601    1.601
 post_scf_bandstructure               1  4.0    0.001    0.002    1.600    1.601
 pw_copy                            591 10.6    1.506    1.569    1.506    1.569
 run_gw                               1  5.0    0.001    0.001    1.551    1.561
 pw_gather_p                        313 11.6    1.225    1.322    1.225    1.322
 pw_poisson_set                      36  8.9    0.002    0.003    1.033    1.046
 transfer_pw2rs_300                  36 11.9    0.417    0.449    0.970    1.012
 create_and_init_bs_env_for_gw        1  6.0    0.013    0.017    0.902    0.905
 mp_sum_d                          1140  5.8    0.565    0.844    0.565    0.844
 -------------------------------------------------------------------------------

 The number of warnings for this run is : 1
 
 -------------------------------------------------------------------------------
  **** **** ******  **  PROGRAM ENDED AT                 2026-09-18 03:47:08.969
 ***** ** ***  *** **   PROGRAM RAN ON                                  n2cn1169
 **    ****   ******    PROGRAM RAN BY                                  eprop2d1
 ***** **    ** ** **   PROGRAM PROCESS ID                                596729
  **** **  *******  **  PROGRAM STOPPED IN /scratch/hpc-prf-metdyn/eprop2d1_Jan/
                                           53_benchmark_RI_opt/129_GW100_Si293_A
                                           O_frontier_optimization_coopfst/follo
                                           wups/pbe_g0w0/gw100/08_Na2/dzvp_t1
