 DBCSR| CPU Multiplication driver                                           XSMM (U)
 DBCSR| Multrec recursion limit                                              512 (U)
 DBCSR| Multiplication stack size                                           1000 (D)
 DBCSR| Maximum elements for images                                    UNLIMITED (U)
 DBCSR| Multiplicative factor virtual images                                   1 (U)
 DBCSR| Use multiplication densification                                       T (D)
 DBCSR| Multiplication size stacks                                             3 (U)
 DBCSR| Use memory pool for CPU allocation                                     F (U)
 DBCSR| Number of 3D layers                                               SINGLE (U)
 DBCSR| Use MPI memory allocation                                              F (U)
 DBCSR| Use RMA algorithm                                                      F (U)
 DBCSR| Use Communication thread                                               T (U)
 DBCSR| Communication thread load                                             60 (D)
 DBCSR| MPI: My process id                                                     0
 DBCSR| MPI: Number of processes                                              15
 DBCSR| OMP: Current number of threads                                         8
 DBCSR| OMP: Max number of threads                                             8
 DBCSR| Split modifier for TAS multiplication algorithm                  1.0E+00 (U)


  **** **** ******  **  PROGRAM STARTED AT               2026-10-03 18:52:55.744
 ***** ** ***  *** **   PROGRAM STARTED ON                              n2cn0489
 **    ****   ******    PROGRAM STARTED BY                              eprop2d1
 ***** **    ** ** **   PROGRAM PROCESS ID                               1312033
  **** **  *******  **  PROGRAM STARTED IN /scratch/hpc-prf-metdyn/eprop2d1_Jan/
                                           53_benchmark_RI_opt/418_gw100_fig5_fu
                                           ll_epsfilter_1e12_20261002/calculatio
                                           ns/rc0p5/ri5_rs02/86_C7H8

 CP2K| version string:                 CP2K version 2026.2 (Development Version)
 CP2K| source code revision number:                                   0671c5aa6c
 CP2K| cp2kflags: omp libint fftw3 libxc parallel scalapack openblas            
 CP2K| is freely available from                            https://www.cp2k.org/
 CP2K| Program compiled at                                   2026-09-20 09:25:26
 CP2K| Program compiled on                                              n2login5
 CP2K| Program compiled for                                               x86_64
 CP2K| Data directory path    /scratch/hpc-prf-metdyn/eprop2d1_Jan/53_benchmark_
 CP2K| Input file name        /scratch/hpc-prf-metdyn/eprop2d1_Jan/53_benchmark_
 
 eprop2d1@n2cn0489 has created rank and process                      0   1312033
 eprop2d1@n2cn0489 has created rank and process                      1   1312034
 eprop2d1@n2cn0489 has created rank and process                      2   1312035
 eprop2d1@n2cn0489 has created rank and process                      3   1312036
 eprop2d1@n2cn0489 has created rank and process                      4   1312037
 eprop2d1@n2cn0489 has created rank and process                      5   1312038
 eprop2d1@n2cn0489 has created rank and process                      6   1312039
 eprop2d1@n2cn0489 has created rank and process                      7   1312040
 eprop2d1@n2cn0489 has created rank and process                      8   1312041
 eprop2d1@n2cn0489 has created rank and process                      9   1312042
 eprop2d1@n2cn0489 has created rank and process                     10   1312043
 eprop2d1@n2cn0489 has created rank and process                     11   1312044
 eprop2d1@n2cn0489 has created rank and process                     12   1312045
 eprop2d1@n2cn0489 has created rank and process                     13   1312046
 eprop2d1@n2cn0489 has created rank and process                     14   1312047
 
 eprop2d1@n2cn0489 is running                                       15 processes

 GLOBAL| Force Environment number                                              1
 GLOBAL| Basis set file name            /scratch/hpc-prf-metdyn/eprop2d1_Jan/53_
 GLOBAL| Potential file name            /scratch/hpc-prf-metdyn/eprop2d1_Jan/53_
 GLOBAL| MM Potential file name                                     MM_POTENTIAL
 GLOBAL| Coordinate file name                                      __STD_INPUT__
 GLOBAL| Method name                                                        CP2K
 GLOBAL| Project name                                             g418_a502_m086
 GLOBAL| Run type                                                         ENERGY
 GLOBAL| FFT library                                                       FFTW3
 GLOBAL| Diagonalization library                                       ScaLAPACK
 GLOBAL| Cholesky decomposition library                                ScaLAPACK
 GLOBAL| DGEMM library                                                      BLAS
 GLOBAL| Direct generalized diagonalization requested                          F
 GLOBAL| Orthonormality check for eigenvectors                          DISABLED
 GLOBAL| Matrix multiplication library                                 ScaLAPACK
 GLOBAL| All-to-all communication in single precision                          F
 GLOBAL| Grid backend                                                       AUTO
 GLOBAL| Global print level                                                  LOW
 GLOBAL| MPI I/O enabled                                                       T
 GLOBAL| Total number of message passing processes                            15
 GLOBAL| Number of distributed systems (nodes)                                 1
 GLOBAL| Number of threads for this process                                    8
 GLOBAL| This output is from process                                           0
 GLOBAL| OpenMP stack size per thread (OMP_STACKSIZE)                       512M
 GLOBAL| CPU model name                          AMD EPYC 7763 64-Core Processor

 MEMORY| system memory details [Kb]
 MEMORY|                        rank 0           min           max       average
 MEMORY| MemTotal            263897608     263897608     263897608     263897608
 MEMORY| MemFree             249019072     249019072     249019576     249019139
 MEMORY| Buffers                308688        308688        308688        308688
 MEMORY| Cached                7196748       7196748       7196748       7196748
 MEMORY| Slab                  1639940       1639940       1639940       1639940
 MEMORY| SReclaimable           295764        295764        295764        295764
 MEMORY| MemLikelyFree       256820272     256820272     256820776     256820339


 GENERATE|  Preliminary Number of Bonds generated:                             0
 GENERATE|  Achieved consistency in connectivity generation.

 *******************************************************************************
 *******************************************************************************
 **                                                                           **
 **     #####                         ##              ##                      **
 **    ##   ##            ##          ##              ##                      **
 **   ##     ##                       ##            ######                    **
 **   ##     ##  ##   ##  ##   #####  ##  ##   ####   ##    #####    #####    **
 **   ##     ##  ##   ##  ##  ##      ## ##   ##      ##   ##   ##  ##   ##   **
 **   ##  ## ##  ##   ##  ##  ##      ####     ###    ##   ######   ######    **
 **    ##  ###   ##   ##  ##  ##      ## ##      ##   ##   ##       ##        **
 **     #######   #####   ##   #####  ##  ##  ####    ##    #####   ##        **
 **           ##                                                    ##        **
 **                                                                           **
 **                                                ... make the atoms dance   **
 **                                                                           **
 **            Copyright (C) by CP2K developers group (2000-2026)             **
 **                      J. Chem. Phys. 152, 194103 (2020)                    **
 **                                                                           **
 *******************************************************************************


 TOTAL NUMBERS AND MAXIMUM NUMBERS

  Total number of            - Atomic kinds:                                   2
                             - Atoms:                                         15
                             - Shell sets:                                    15
                             - Shells:                                       103
                             - Primitive Cartesian functions:                 97
                             - Cartesian basis functions:                    310
                             - Spherical basis functions:                    275

  Maximum angular momentum of- Orbital basis functions:                        3
                             - Local part of the GTH pseudopotential:          2
                             - Non-local part of the GTH pseudopotential:      0


 SCF PARAMETERS         Density guess:                                   RESTART
                        --------------------------------------------------------
                        max_scf:                                             500
                        max_scf_history:                                       0
                        max_diis:                                              4
                        --------------------------------------------------------
                        eps_scf:                                        1.00E-08
                        eps_scf_history:                                0.00E+00
                        eps_diis:                                       0.00E+00
                        eps_eigval:                                     1.00E-05
                        --------------------------------------------------------
                        level_shift [a.u.]:                             0.000000
                        --------------------------------------------------------
                        Outer loop SCF in use 
                        No variables optimised in outer loop
                        eps_scf                                         1.00E-08
                        max_scf                                               20
                        No outer loop optimization
                        step_size                                       5.00E-01

 Extrapolation method: initial_guess

 Number of electrons:                                                         36
 Number of occupied orbitals:                                                 18
 Number of molecular orbitals:                                                18

 Number of orbital functions:                                                275
 Number of independent orbital functions:                                    275


 SCF WAVEFUNCTION OPTIMIZATION

  ----------------------------------- OT ---------------------------------------
  Minimizer      : DIIS                : direct inversion
                                         in the iterative subspace
                                         using   7 DIIS vectors
                                         safer DIIS on
  Preconditioner : FULL_KINETIC        : inversion of T + eS
  Lattice FFT   : OFF
  Precond_solver : DEFAULT
  stepsize       :    0.15000000                  energy_gap     :    0.20000000
  eps_taylor     :   0.10000E-15                  max_taylor     :             4
  ----------------------------------- OT ---------------------------------------

  Step     Update method      Time    Convergence         Total energy    Change
  ------------------------------------------------------------------------------
  Decoupling Energy:                                               0.0000002441
     1 OT DIIS     0.15E+00    1.4     4.5584E-09       -44.5775693077 -4.46E+01

  *** SCF run converged in     1 steps ***


  Electronic density on regular grids:        -36.0000000000        0.0000000000
  Core density on regular grids:               36.0000000000       -0.0000000000
  Total charge density on r-space grids:       -0.0000000000
  Total charge density g-space grids:          -0.0000000000

  Overlap energy of the core charge distribution:               0.00000267634191
  Self energy of the core charge distribution:               -104.62884715831160
  Core Hamiltonian energy:                                     32.99792971387720
  Hartree energy:                                              42.03649890139614
  Exchange-correlation energy:                                -14.98315344101774

  Total energy:                                               -44.57756930771409

  outer SCF iter =    1 RMS gradient =   0.46E-08 energy =        -44.5775693077
  outer SCF loop converged in   1 iterations or    1 steps

  
 -------------------------------------------------------------------------------
 -                                                                             -
 -                          BANDSTRUCTURE CALCULATION                          -
 -                                                                             -
 -------------------------------------------------------------------------------
  
 Number of occupied molecular orbitals (MOs) = Number of occupied bands       18
 Number of unoccupied (= virtual) MOs = Number of unoccupied bands           257
 Number of Gaussian basis functions for MOs                                  275
  
 -------------------------------------------------------------------------------
 -                                                                             -
 -                                GW CALCULATION                               -
 -                                                                             -
 -------------------------------------------------------------------------------
  
 Input: Number of time/freq. points                                           30
 Input: ω_max for fitting Σ(iω) (eV)                                        10.0
 Input: Filter threshold for sparse tensor operations                    1.0E-12
 Input: Apply Hedin shift                                                      F
 Detected: Available memory per MPI process                              14.7 GB
 
 Input: RI-RS Tikhonov regularization                                   1.00E-04
 Input: AO grid hard cutoff radius                                        8.00 Å
 Input: MPI ranks per atom in Z_lP solve                                      -1
 Input: Keep sparsity in χ/G/W panels                                          T
 Input: GW flavour                                                          G0W0
 
 Input: RI-RS grid optimization activated                                      T
 Input: RS points per AO function                                            2.0
 Input: Cutoff radius for atomic clusters                                  0.5 Å
 Input: Maximum grid optimization iterations                                 300
 
 Input: AUTO_RI basis optimization activated:                                  T
 Input: AUTO_RI number of RI functions per AO function:                      5.0
 Input: AUTO_RI frontier orbital window:                                  5.0 eV
 Input: AUTO_RI neighbor radius:                                           3.0 Å
 
 Cutoff radius for the truncated Coulomb operator in RI metric:            7.0 Å
 Regularization parameter of RI                                          0.0E+00
 Regularization parameter of minimax grids                               1.0E-06
 
 AUTO_RI| Number of automatic RI functions for χ, ε, W:                     1203
 AUTO_RI| Total RI basis optimization time:                                3.7 s
  Decoupling Energy:                                               0.0000002441
 
 SCF direct band gap (eV)                                                   4.78
 Max. SCF eigval diff. (eV)                                               267.61
 E-Range for minimax grid                                                  55.98
 Number of Padé parameters for analytic continuation:                         16
 
 RI-RS basis radii (Å):
     Kind  Elem     r_AO (Å)     r_RI (Å)
        1    C        15.9835       10.1279
        2    H        13.9082        8.7963
 
 Started RI-RS grid optimization
 RI-RS grid initial normalized error                          2.783322044466E-01
 RI-RS grid optimization completed, execution time:                        0.4 s
 Normalized 3C error:                                                    3.1E-03
 Maximum absolute 3C error:                                              1.2E+00
 Optimized points outside molecular Voronoi cells:                           290 / 550
 Total grid points used for RI-RS:                                           550
 
 RI-RS grid row-blocks of ϕ_μ(r_l)                                            22
 RI-RS grid points per block (max)                                            32
 
 Percentage of non-zero matrix elements in ϕ_μ(r_l)                     100.00 %
 
 RI-RS memory estimate per MPI process:
   Available memory per process (system)                                17.02 GB
   Required for Z_lP (dense upper bound; actual is sparser)              0.00 GB
   Required for χ, W, Σ panels (peak per panel step)                     0.00 GB
   Required for Z_lP solve peak (D_local+ϕ, worst-case atom)             0.01 GB
   Worst-case local-grid number of grid points:                              550
   Worst-case memory D_local:                                            0.00 GB
 
 Started computing Z_lP
 Computed Z_lP (MPI rank 0) for atom          1 /  1,    Execution time    0.5 s
 Computed Z_lP (all MPI ranks) for all atoms,            Execution time    0.5 s

 Memory per MPI process after computing Z_lP:
 Available memory per MPI process                               16.9 GB
 Used memory per MPI process                                     1.0 GB
 Number of batches for χ, Σ matrices                                           1
 
 Percentage of non-zero matrix elements in Z_lP                         100.00 %
 Percentage of non-zero matrix elements in G_ll', χ_ll', W_ll'          100.00 %
 Percentage of non-zero matrix elements in χ_PQ for time point 1        100.00 %
 
 Computed χ(iτ,k=0) for time point            1 / 30,    Execution time    0.0 s
 Computed χ(iτ,k=0) for time point            2 / 30,    Execution time    0.0 s
 Computed χ(iτ,k=0) for time point            3 / 30,    Execution time    0.0 s
 Computed χ(iτ,k=0) for time point            4 / 30,    Execution time    0.0 s
 Computed χ(iτ,k=0) for time point            5 / 30,    Execution time    0.0 s
 Computed χ(iτ,k=0) for time point            6 / 30,    Execution time    0.0 s
 Computed χ(iτ,k=0) for time point            7 / 30,    Execution time    0.0 s
 Computed χ(iτ,k=0) for time point            8 / 30,    Execution time    0.0 s
 Computed χ(iτ,k=0) for time point            9 / 30,    Execution time    0.0 s
 Computed χ(iτ,k=0) for time point           10 / 30,    Execution time    0.0 s
 Computed χ(iτ,k=0) for time point           11 / 30,    Execution time    0.0 s
 Computed χ(iτ,k=0) for time point           12 / 30,    Execution time    0.0 s
 Computed χ(iτ,k=0) for time point           13 / 30,    Execution time    0.0 s
 Computed χ(iτ,k=0) for time point           14 / 30,    Execution time    0.0 s
 Computed χ(iτ,k=0) for time point           15 / 30,    Execution time    0.0 s
 Computed χ(iτ,k=0) for time point           16 / 30,    Execution time    0.0 s
 Computed χ(iτ,k=0) for time point           17 / 30,    Execution time    0.0 s
 Computed χ(iτ,k=0) for time point           18 / 30,    Execution time    0.0 s
 Computed χ(iτ,k=0) for time point           19 / 30,    Execution time    0.0 s
 Computed χ(iτ,k=0) for time point           20 / 30,    Execution time    0.0 s
 Computed χ(iτ,k=0) for time point           21 / 30,    Execution time    0.0 s
 Computed χ(iτ,k=0) for time point           22 / 30,    Execution time    0.0 s
 Computed χ(iτ,k=0) for time point           23 / 30,    Execution time    0.0 s
 Computed χ(iτ,k=0) for time point           24 / 30,    Execution time    0.0 s
 Computed χ(iτ,k=0) for time point           25 / 30,    Execution time    0.0 s
 Computed χ(iτ,k=0) for time point           26 / 30,    Execution time    0.0 s
 Computed χ(iτ,k=0) for time point           27 / 30,    Execution time    0.0 s
 Computed χ(iτ,k=0) for time point           28 / 30,    Execution time    0.0 s
 Computed χ(iτ,k=0) for time point           29 / 30,    Execution time    0.0 s
 Computed χ(iτ,k=0) for time point           30 / 30,    Execution time    0.0 s
 
 Cholesky decomposition failed, using diagonalization.
 Discarded eigenmodes:                                                         4
 Computed W(iτ),                                         Execution time    1.7 s
 
 Computed Σ^x(k=0),                                      Execution time    0.0 s
 
 Computed Σ^c(iτ) for time point              1 / 30,    Execution time    0.0 s
 Computed Σ^c(iτ) for time point              2 / 30,    Execution time    0.0 s
 Computed Σ^c(iτ) for time point              3 / 30,    Execution time    0.0 s
 Computed Σ^c(iτ) for time point              4 / 30,    Execution time    0.0 s
 Computed Σ^c(iτ) for time point              5 / 30,    Execution time    0.0 s
 Computed Σ^c(iτ) for time point              6 / 30,    Execution time    0.0 s
 Computed Σ^c(iτ) for time point              7 / 30,    Execution time    0.0 s
 Computed Σ^c(iτ) for time point              8 / 30,    Execution time    0.0 s
 Computed Σ^c(iτ) for time point              9 / 30,    Execution time    0.0 s
 Computed Σ^c(iτ) for time point             10 / 30,    Execution time    0.0 s
 Computed Σ^c(iτ) for time point             11 / 30,    Execution time    0.0 s
 Computed Σ^c(iτ) for time point             12 / 30,    Execution time    0.0 s
 Computed Σ^c(iτ) for time point             13 / 30,    Execution time    0.0 s
 Computed Σ^c(iτ) for time point             14 / 30,    Execution time    0.0 s
 Computed Σ^c(iτ) for time point             15 / 30,    Execution time    0.0 s
 Computed Σ^c(iτ) for time point             16 / 30,    Execution time    0.0 s
 Computed Σ^c(iτ) for time point             17 / 30,    Execution time    0.0 s
 Computed Σ^c(iτ) for time point             18 / 30,    Execution time    0.0 s
 Computed Σ^c(iτ) for time point             19 / 30,    Execution time    0.0 s
 Computed Σ^c(iτ) for time point             20 / 30,    Execution time    0.0 s
 Computed Σ^c(iτ) for time point             21 / 30,    Execution time    0.0 s
 Computed Σ^c(iτ) for time point             22 / 30,    Execution time    0.0 s
 Computed Σ^c(iτ) for time point             23 / 30,    Execution time    0.0 s
 Computed Σ^c(iτ) for time point             24 / 30,    Execution time    0.0 s
 Computed Σ^c(iτ) for time point             25 / 30,    Execution time    0.0 s
 Computed Σ^c(iτ) for time point             26 / 30,    Execution time    0.0 s
 Computed Σ^c(iτ) for time point             27 / 30,    Execution time    0.0 s
 Computed Σ^c(iτ) for time point             28 / 30,    Execution time    0.0 s
 Computed Σ^c(iτ) for time point             29 / 30,    Execution time    0.0 s
 Computed Σ^c(iτ) for time point             30 / 30,    Execution time    0.0 s

 *** WARNING in post_scf_bandstructure_utils.F:3161 :: G0W0 reorders the   ***
 *** empty levels: the SCF conduction band minimum (SCF LUMO) is level 19, ***
 *** whereas the G0W0 conduction band minimum (G0W0 LUMO) is level 21. The ***
 *** SCF and G0W0 band edges printed below therefore belong to different   ***
 *** orbitals; see the eigenvalues in the file bandstructure_SCF_and_G0W0. ***

 
 SCF valence band maximum (eV):                                           -5.981
 SCF conduction band minimum (eV):                                        -1.201
 SCF indirect band gap (eV):                                               4.780
 SCF direct band gap (eV):                                                 4.780
 
 G0W0 valence band maximum (eV):                                          -8.075
 G0W0 conduction band minimum (eV):                                        0.927
 G0W0 indirect band gap (eV):                                              9.002
 G0W0 direct band gap (eV):                                                9.002
 
 Hartree-Fock with SCF orbitals valence band maximum (eV):                -8.494
 Hartree-Fock with SCF orbitals conduction band minimum (eV)               2.032
 Hartree-Fock with SCF orbitals indirect band gap (eV):                   10.526
 Hartree-Fock with SCF orbitals direct band gap (eV):                     10.526

 ENERGY| Total FORCE_EVAL ( QS ) energy [hartree]            -44.577569307714086

 -------------------------------------------------------------------------------
 -                                                                             -
 -                                DBCSR STATISTICS                             -
 -                                                                             -
 -------------------------------------------------------------------------------
 COUNTER                                    TOTAL       BLAS       SMM       ACC
 flops    18 x    18 x    18                58320       0.0%    100.0%      0.0%     
 flops     9 x    18 x    18                93312       0.0%    100.0%      0.0%     
 flops    38 x    18 x    18                98496       0.0%    100.0%      0.0%     
 flops    38 x    18 x     9               196992       0.0%    100.0%      0.0%     
 flops    29 x    18 x    18               375840       0.0%    100.0%      0.0%     
 flops    38 x    18 x    29               555408       0.0%    100.0%      0.0%     
 flops     9 x    18 x     9              1306368       0.0%    100.0%      0.0%     
 flops     9 x    18 x    29              3683232       0.0%    100.0%      0.0%     
 flops    29 x    18 x     9              3908736       0.0%    100.0%      0.0%     
 flops    29 x    18 x    29             11020464       0.0%    100.0%      0.0%     
 flops    52 x    52 x    18             16353792       0.0%    100.0%      0.0%     
 flops    52 x    53 x    18             16668288       0.0%    100.0%      0.0%     
 flops    53 x    52 x    18             16668288       0.0%    100.0%      0.0%     
 flops    53 x    53 x    18             16988832       0.0%    100.0%      0.0%     
 flops    58 x    52 x    18             18240768       0.0%    100.0%      0.0%     
 flops    58 x    53 x    18             18591552       0.0%    100.0%      0.0%     
 flops    52 x    52 x    26             20669376       0.0%    100.0%      0.0%     
 flops    52 x    53 x    26             21066864       0.0%    100.0%      0.0%     
 flops    53 x    52 x    26             21066864       0.0%    100.0%      0.0%     
 flops    53 x    53 x    26             21471996       0.0%    100.0%      0.0%     
 flops    58 x    52 x    26             23054304       0.0%    100.0%      0.0%     
 flops    58 x    53 x    26             23497656       0.0%    100.0%      0.0%     
 flops    52 x    52 x    32             25439232       0.0%    100.0%      0.0%     
 flops    52 x    82 x    18             25788672       0.0%    100.0%      0.0%     
 flops    82 x    52 x    18             25788672       0.0%    100.0%      0.0%     
 flops    52 x    53 x    32             25928448       0.0%    100.0%      0.0%     
 flops    53 x    52 x    32             25928448       0.0%    100.0%      0.0%     
 flops    53 x    82 x    18             26284608       0.0%    100.0%      0.0%     
 flops    82 x    53 x    18             26284608       0.0%    100.0%      0.0%     
 flops    53 x    53 x    32             26427072       0.0%    100.0%      0.0%     
 flops    58 x    52 x    32             28374528       0.0%    100.0%      0.0%     
 flops    58 x    82 x    18             28764288       0.0%    100.0%      0.0%     
 flops    58 x    53 x    32             28920192       0.0%    100.0%      0.0%     
 flops    52 x    95 x    18             29877120       0.0%    100.0%      0.0%     
 flops    95 x    52 x    18             29877120       0.0%    100.0%      0.0%     
 flops    53 x    95 x    18             30451680       0.0%    100.0%      0.0%     
 flops    95 x    53 x    18             30451680       0.0%    100.0%      0.0%     
 flops    82 x    52 x    26             32594016       0.0%    100.0%      0.0%     
 flops    52 x    82 x    26             32815744       0.0%    100.0%      0.0%     
 flops    82 x    53 x    26             33220824       0.0%    100.0%      0.0%     
 flops    58 x    95 x    18             33324480       0.0%    100.0%      0.0%     
 flops    53 x    82 x    26             33446816       0.0%    100.0%      0.0%     
 flops    52 x   107 x    18             33651072       0.0%    100.0%      0.0%     
 flops   107 x    52 x    18             33651072       0.0%    100.0%      0.0%     
 flops    53 x   107 x    18             34298208       0.0%    100.0%      0.0%     
 flops   107 x    53 x    18             34298208       0.0%    100.0%      0.0%     
 flops    52 x   111 x    18             34909056       0.0%    100.0%      0.0%     
 flops    52 x    56 x    18             35223552       0.0%    100.0%      0.0%     
 flops    56 x    52 x    18             35223552       0.0%    100.0%      0.0%     
 flops    53 x   111 x    18             35580384       0.0%    100.0%      0.0%     
 flops    56 x    53 x    18             35900928       0.0%    100.0%      0.0%     
 flops    53 x    56 x    18             35900928       0.0%    100.0%      0.0%     
 flops    52 x   115 x    18             36167040       0.0%    100.0%      0.0%     
 flops    52 x    58 x    18             36481536       0.0%    100.0%      0.0%     
 flops    58 x    82 x    26             36602176       0.0%    100.0%      0.0%     
 flops    53 x   115 x    18             36862560       0.0%    100.0%      0.0%     
 flops    52 x    59 x    18             37110528       0.0%    100.0%      0.0%     
 flops    59 x    52 x    18             37110528       0.0%    100.0%      0.0%     
 flops    53 x    58 x    18             37183104       0.0%    100.0%      0.0%     
 flops    58 x   107 x    18             37533888       0.0%    100.0%      0.0%     
 flops    95 x    52 x    26             37761360       0.0%    100.0%      0.0%     
 flops    53 x    59 x    18             37824192       0.0%    100.0%      0.0%     
 flops    59 x    53 x    18             37824192       0.0%    100.0%      0.0%     
 flops    95 x    53 x    26             38487540       0.0%    100.0%      0.0%     
 flops    52 x    95 x    26             38532000       0.0%    100.0%      0.0%     
 flops    18 x    52 x    56             38578176       0.0%    100.0%      0.0%     
 flops    58 x   111 x    18             38937024       0.0%    100.0%      0.0%     
 flops    53 x    95 x    26             39273000       0.0%    100.0%      0.0%     
 flops    58 x    56 x    18             39287808       0.0%    100.0%      0.0%     
 flops    18 x    53 x    56             39320064       0.0%    100.0%      0.0%     
 flops    18 x    52 x    58             39955968       0.0%    100.0%      0.0%     
 flops    82 x    52 x    32             40115712       0.0%    100.0%      0.0%     
 flops    58 x   115 x    18             40340160       0.0%    100.0%      0.0%     
 flops    18 x    52 x    59             40644864       0.0%    100.0%      0.0%     
 flops    82 x    82 x    18             40666752       0.0%    100.0%      0.0%     
 flops    58 x    58 x    18             40690944       0.0%    100.0%      0.0%     
 flops    18 x    53 x    58             40724352       0.0%    100.0%      0.0%     
 flops    82 x    53 x    32             40887168       0.0%    100.0%      0.0%     
 flops    52 x    82 x    32             40934400       0.0%    100.0%      0.0%     
 flops    58 x    59 x    18             41392512       0.0%    100.0%      0.0%     
 flops    18 x    53 x    59             41426496       0.0%    100.0%      0.0%     
 flops    53 x    82 x    32             41721600       0.0%    100.0%      0.0%     
 flops   107 x    52 x    26             42531216       0.0%    100.0%      0.0%     
 flops    52 x   107 x    26             42820544       0.0%    100.0%      0.0%     
 flops    58 x    95 x    26             42978000       0.0%    100.0%      0.0%     
 flops   107 x    53 x    26             43349124       0.0%    100.0%      0.0%     
 flops    53 x   107 x    26             43644016       0.0%    100.0%      0.0%     
 flops    52 x   111 x    26             44121168       0.0%    100.0%      0.0%     
 flops    52 x    56 x    26             44518656       0.0%    100.0%      0.0%     
 flops    56 x    52 x    26             44518656       0.0%    100.0%      0.0%     
 flops    53 x   111 x    26             44969652       0.0%    100.0%      0.0%     
 flops    56 x    53 x    26             45374784       0.0%    100.0%      0.0%     
 flops    53 x    56 x    26             45374784       0.0%    100.0%      0.0%     
 flops    58 x    82 x    32             45657600       0.0%    100.0%      0.0%     
 flops    52 x   115 x    26             46022080       0.0%    100.0%      0.0%     
 flops    52 x    58 x    26             46108608       0.0%    100.0%      0.0%     
 flops    18 x    52 x    18             46129824       0.0%    100.0%      0.0%     
 flops    95 x    52 x    32             46475520       0.0%    100.0%      0.0%     
 flops    52 x    59 x    26             46903584       0.0%    100.0%      0.0%     
 flops    59 x    52 x    26             46903584       0.0%    100.0%      0.0%     
 flops    53 x   115 x    26             46907120       0.0%    100.0%      0.0%     
 flops    53 x    58 x    26             46995312       0.0%    100.0%      0.0%     
 flops    82 x    95 x    18             47113920       0.0%    100.0%      0.0%     
 flops    95 x    82 x    18             47113920       0.0%    100.0%      0.0%     
 flops    18 x    53 x    18             47188656       0.0%    100.0%      0.0%     
 flops    95 x    53 x    32             47369280       0.0%    100.0%      0.0%     
 flops    52 x    95 x    32             47424000       0.0%    100.0%      0.0%     
 flops    58 x   107 x    26             47761376       0.0%    100.0%      0.0%     
 flops    53 x    59 x    26             47805576       0.0%    100.0%      0.0%     
 flops    59 x    53 x    26             47805576       0.0%    100.0%      0.0%     
 flops    53 x    95 x    32             48336000       0.0%    100.0%      0.0%     
 flops    26 x    52 x    56             48758528       0.0%    100.0%      0.0%     
 flops    58 x   111 x    26             49212072       0.0%    100.0%      0.0%     
 flops    58 x    56 x    26             49655424       0.0%    100.0%      0.0%     
 flops    26 x    53 x    56             49696192       0.0%    100.0%      0.0%     
 flops    26 x    52 x    58             50499904       0.0%    100.0%      0.0%     
 flops    58 x   115 x    26             51332320       0.0%    100.0%      0.0%     
 flops    26 x    52 x    59             51370592       0.0%    100.0%      0.0%     
 flops    58 x    58 x    26             51428832       0.0%    100.0%      0.0%     
 flops    26 x    53 x    58             51471056       0.0%    100.0%      0.0%     
 flops    82 x    82 x    26             51747904       0.0%    100.0%      0.0%     
 flops    58 x    59 x    26             52315536       0.0%    100.0%      0.0%     
 flops   107 x    52 x    32             52346112       0.0%    100.0%      0.0%     
 flops    26 x    53 x    59             52358488       0.0%    100.0%      0.0%     
 flops    58 x    95 x    32             52896000       0.0%    100.0%      0.0%     
 flops   107 x    82 x    18             53065152       0.0%    100.0%      0.0%     
 flops    82 x   107 x    18             53065152       0.0%    100.0%      0.0%     
 flops   107 x    53 x    32             53352768       0.0%    100.0%      0.0%     
 flops    52 x   107 x    32             53414400       0.0%    100.0%      0.0%     
 flops    53 x   107 x    32             54441600       0.0%    100.0%      0.0%     
 flops    95 x    95 x    18             54583200       0.0%    100.0%      0.0%     
 flops    52 x   111 x    32             54672384       0.0%    100.0%      0.0%     
 flops    52 x    56 x    32             54792192       0.0%    100.0%      0.0%     
 flops    56 x    52 x    32             54792192       0.0%    100.0%      0.0%     
 flops    82 x   111 x    18             55048896       0.0%    100.0%      0.0%     
 flops    56 x    82 x    18             55544832       0.0%    100.0%      0.0%     
 flops    82 x    56 x    18             55544832       0.0%    100.0%      0.0%     
 flops    53 x   111 x    32             55723776       0.0%    100.0%      0.0%     
 flops    56 x    53 x    32             55845888       0.0%    100.0%      0.0%     
 flops    53 x    56 x    32             55845888       0.0%    100.0%      0.0%     
 flops     9 x     9 x    18             56736612       0.0%    100.0%      0.0%     
 flops    52 x    58 x    32             56749056       0.0%    100.0%      0.0%     
 flops    82 x   115 x    18             57032640       0.0%    100.0%      0.0%     
 flops    52 x   115 x    32             57408000       0.0%    100.0%      0.0%     
 flops    82 x    58 x    18             57528576       0.0%    100.0%      0.0%     
 flops    52 x    59 x    32             57727488       0.0%    100.0%      0.0%     
 flops    59 x    52 x    32             57727488       0.0%    100.0%      0.0%     
 flops    53 x    58 x    32             57840384       0.0%    100.0%      0.0%     
 flops    53 x   115 x    32             58512000       0.0%    100.0%      0.0%     
 flops    59 x    82 x    18             58520448       0.0%    100.0%      0.0%     
 flops    82 x    59 x    18             58520448       0.0%    100.0%      0.0%     
 flops    53 x    59 x    32             58837632       0.0%    100.0%      0.0%     
 flops    59 x    53 x    32             58837632       0.0%    100.0%      0.0%     
 flops    58 x   107 x    32             59577600       0.0%    100.0%      0.0%     
 flops    26 x    52 x    18             59671872       0.0%    100.0%      0.0%     
 flops    95 x    82 x    26             59951840       0.0%    100.0%      0.0%     
 flops    18 x    52 x    26             59963904       0.0%    100.0%      0.0%     
 flops    32 x    52 x    56             60010496       0.0%    100.0%      0.0%     
 flops    26 x    53 x    18             60670584       0.0%    100.0%      0.0%     
 flops    82 x    95 x    26             60762000       0.0%    100.0%      0.0%     
 flops    18 x    82 x    56             60834816       0.0%    100.0%      0.0%     
 flops    58 x   111 x    32             60980736       0.0%    100.0%      0.0%     
 flops    18 x    53 x    26             61017840       0.0%    100.0%      0.0%     
 flops    58 x    56 x    32             61114368       0.0%    100.0%      0.0%     
 flops    32 x    53 x    56             61164544       0.0%    100.0%      0.0%     
 flops   107 x    95 x    18             61477920       0.0%    100.0%      0.0%     
 flops    95 x   107 x    18             61477920       0.0%    100.0%      0.0%     
 flops    32 x    52 x    58             62153728       0.0%    100.0%      0.0%     
 flops    18 x    82 x    58             63007488       0.0%    100.0%      0.0%     
 flops    32 x    52 x    59             63225344       0.0%    100.0%      0.0%     
 flops    58 x    58 x    32             63297024       0.0%    100.0%      0.0%     
 flops    32 x    53 x    58             63348992       0.0%    100.0%      0.0%     
 flops    95 x   111 x    18             63776160       0.0%    100.0%      0.0%     
 flops    58 x   115 x    32             64032000       0.0%    100.0%      0.0%     
 flops    18 x    82 x    59             64093824       0.0%    100.0%      0.0%     
 flops    56 x    95 x    18             64350720       0.0%    100.0%      0.0%     
 flops    95 x    56 x    18             64350720       0.0%    100.0%      0.0%     
 flops    58 x    59 x    32             64388352       0.0%    100.0%      0.0%     
 flops    32 x    53 x    59             64441216       0.0%    100.0%      0.0%     
 flops    82 x    82 x    32             64550400       0.0%    100.0%      0.0%     
 flops    95 x   115 x    18             66074400       0.0%    100.0%      0.0%     
 flops    95 x    58 x    18             66648960       0.0%    100.0%      0.0%     
 flops   107 x    82 x    26             67524704       0.0%    100.0%      0.0%     
 flops    82 x   107 x    26             67524704       0.0%    100.0%      0.0%     
 flops    59 x    95 x    18             67798080       0.0%    100.0%      0.0%     
 flops    95 x    59 x    18             67798080       0.0%    100.0%      0.0%     
 flops   107 x   107 x    18             69243552       0.0%    100.0%      0.0%     
 flops    82 x   111 x    26             69575688       0.0%    100.0%      0.0%     
 flops    82 x    56 x    26             70202496       0.0%    100.0%      0.0%     
 flops    95 x    95 x    26             70395000       0.0%    100.0%      0.0%     
 flops    18 x    95 x    56             70479360       0.0%    100.0%      0.0%     
 flops    56 x    82 x    26             70680064       0.0%    100.0%      0.0%     
 flops   107 x   111 x    18             71832096       0.0%    100.0%      0.0%     
 flops    56 x   107 x    18             72479232       0.0%    100.0%      0.0%     
 flops   107 x    56 x    18             72479232       0.0%    100.0%      0.0%     
 flops    82 x   115 x    26             72573280       0.0%    100.0%      0.0%     
 flops    82 x    58 x    26             72709728       0.0%    100.0%      0.0%     
 flops    18 x    95 x    58             72996480       0.0%    100.0%      0.0%     
 flops     9 x     9 x    26             73356192       0.0%    100.0%      0.0%     
 flops    18 x    52 x    32             73382400       0.0%    100.0%      0.0%     
 flops    18 x    82 x    18             73487088       0.0%    100.0%      0.0%     
 flops    32 x    52 x    18             73741824       0.0%    100.0%      0.0%     
 flops    82 x    59 x    26             73963344       0.0%    100.0%      0.0%     
 flops    18 x    95 x    59             74255040       0.0%    100.0%      0.0%     
 flops   107 x   115 x    18             74420640       0.0%    100.0%      0.0%     
 flops    59 x    82 x    26             74466496       0.0%    100.0%      0.0%     
 flops    82 x    95 x    32             74784000       0.0%    100.0%      0.0%     
 flops    95 x    82 x    32             74784000       0.0%    100.0%      0.0%     
 flops    18 x    53 x    32             74915712       0.0%    100.0%      0.0%     
 flops    32 x    53 x    18             74976768       0.0%    100.0%      0.0%     
 flops   107 x    58 x    18             75067776       0.0%    100.0%      0.0%     
 flops    56 x   111 x    18             75188736       0.0%    100.0%      0.0%     
 flops    26 x    52 x    26             75787712       0.0%    100.0%      0.0%     
 flops    56 x    56 x    18             75866112       0.0%    100.0%      0.0%     
 flops    52 x   121 x    18             76108032       0.0%    100.0%      0.0%     
 flops   121 x    52 x    18             76108032       0.0%    100.0%      0.0%     
 flops   107 x    59 x    18             76362048       0.0%    100.0%      0.0%     
 flops    59 x   107 x    18             76362048       0.0%    100.0%      0.0%     
 flops    26 x    82 x    56             76888448       0.0%    100.0%      0.0%     
 flops    26 x    53 x    26             77245168       0.0%    100.0%      0.0%     
 flops    53 x   121 x    18             77571648       0.0%    100.0%      0.0%     
 flops   121 x    53 x    18             77571648       0.0%    100.0%      0.0%     
 flops    56 x   115 x    18             77898240       0.0%    100.0%      0.0%     
 flops    95 x   107 x    26             78229840       0.0%    100.0%      0.0%     
 flops    56 x    58 x    18             78575616       0.0%    100.0%      0.0%     
 flops    59 x   111 x    18             79216704       0.0%    100.0%      0.0%     
 flops   107 x    95 x    26             79287000       0.0%    100.0%      0.0%     
 flops    18 x   107 x    56             79382016       0.0%    100.0%      0.0%     
 flops    26 x    82 x    58             79634464       0.0%    100.0%      0.0%     
 flops    56 x    59 x    18             79930368       0.0%    100.0%      0.0%     
 flops    59 x    56 x    18             79930368       0.0%    100.0%      0.0%     
 flops    95 x   111 x    26             80605980       0.0%    100.0%      0.0%     
 flops    26 x    82 x    59             81007472       0.0%    100.0%      0.0%     
 flops    95 x    56 x    26             81332160       0.0%    100.0%      0.0%     
 flops    59 x   115 x    18             82071360       0.0%    100.0%      0.0%     
 flops    18 x   107 x    58             82217088       0.0%    100.0%      0.0%     
 flops    18 x   111 x    56             82349568       0.0%    100.0%      0.0%     
 flops    59 x    58 x    18             82785024       0.0%    100.0%      0.0%     
 flops    56 x    95 x    26             82992000       0.0%    100.0%      0.0%     
 flops    18 x    56 x    56             83091456       0.0%    100.0%      0.0%     
 flops    18 x   107 x    59             83634624       0.0%    100.0%      0.0%     
 flops    95 x   115 x    26             84078800       0.0%    100.0%      0.0%     
 flops    59 x    59 x    18             84212352       0.0%    100.0%      0.0%     
 flops   107 x    82 x    32             84230400       0.0%    100.0%      0.0%     
 flops    82 x   107 x    32             84230400       0.0%    100.0%      0.0%     
 flops    95 x    58 x    26             84236880       0.0%    100.0%      0.0%     
 flops    58 x   121 x    18             84889728       0.0%    100.0%      0.0%     
 flops    18 x    95 x    18             85260600       0.0%    100.0%      0.0%     
 flops    18 x   111 x    58             85290624       0.0%    100.0%      0.0%     
 flops    18 x   115 x    56             85317120       0.0%    100.0%      0.0%     
 flops    95 x    59 x    26             85689240       0.0%    100.0%      0.0%     
 flops    18 x    56 x    58             86059008       0.0%    100.0%      0.0%     
 flops    18 x    58 x    56             86059008       0.0%    100.0%      0.0%     
 flops    82 x   111 x    32             86214144       0.0%    100.0%      0.0%     
 flops    82 x    56 x    32             86403072       0.0%    100.0%      0.0%     
 flops    95 x    95 x    32             86640000       0.0%    100.0%      0.0%     
 flops    18 x   111 x    59             86761152       0.0%    100.0%      0.0%     
 flops    59 x    95 x    26             87438000       0.0%    100.0%      0.0%     
 flops    18 x    56 x    59             87542784       0.0%    100.0%      0.0%     
 flops    18 x    59 x    56             87542784       0.0%    100.0%      0.0%     
 flops   107 x   107 x    26             88111504       0.0%    100.0%      0.0%     
 flops    56 x    82 x    32             88166400       0.0%    100.0%      0.0%     
 flops    18 x   115 x    58             88364160       0.0%    100.0%      0.0%     
 flops    26 x    95 x    56             89078080       0.0%    100.0%      0.0%     
 flops    18 x    58 x    58             89132544       0.0%    100.0%      0.0%     
 flops    82 x    58 x    32             89488896       0.0%    100.0%      0.0%     
 flops    18 x   115 x    59             89887680       0.0%    100.0%      0.0%     
 flops     9 x     9 x    32             90326016       0.0%    100.0%      0.0%     
 flops    82 x   115 x    32             90528000       0.0%    100.0%      0.0%     
 flops    18 x    58 x    59             90669312       0.0%    100.0%      0.0%     
 flops    18 x    59 x    58             90669312       0.0%    100.0%      0.0%     
 flops   107 x   111 x    26             90787788       0.0%    100.0%      0.0%     
 flops    82 x    59 x    32             91031808       0.0%    100.0%      0.0%     
 flops   107 x    56 x    26             91605696       0.0%    100.0%      0.0%     
 flops    56 x   107 x    26             92228864       0.0%    100.0%      0.0%     
 flops    18 x    59 x    59             92232576       0.0%    100.0%      0.0%     
 flops    26 x    95 x    58             92259440       0.0%    100.0%      0.0%     
 flops    59 x    82 x    32             92889600       0.0%    100.0%      0.0%     
 flops    26 x    52 x    32             93277184       0.0%    100.0%      0.0%     
 flops    32 x    52 x    26             93277184       0.0%    100.0%      0.0%     
 flops    26 x    95 x    59             93850120       0.0%    100.0%      0.0%     
 flops    26 x    82 x    18             94404960       0.0%    100.0%      0.0%     
 flops    18 x    82 x    26             94558464       0.0%    100.0%      0.0%     
 flops    32 x    82 x    56             94631936       0.0%    100.0%      0.0%     
 flops   107 x   115 x    26             94699280       0.0%    100.0%      0.0%     
 flops   107 x    58 x    26             94877328       0.0%    100.0%      0.0%     
 flops    56 x   111 x    26             95030208       0.0%    100.0%      0.0%     
 flops    26 x    53 x    32             95070976       0.0%    100.0%      0.0%     
 flops    32 x    53 x    26             95070976       0.0%    100.0%      0.0%     
 flops    18 x   107 x    18             95753016       0.0%    100.0%      0.0%     
 flops    56 x    56 x    26             95886336       0.0%    100.0%      0.0%     
 flops   121 x    52 x    26             96192096       0.0%    100.0%      0.0%     
 flops   107 x    59 x    26             96513144       0.0%    100.0%      0.0%     
 flops    59 x   107 x    26             97169696       0.0%    100.0%      0.0%     
 flops    52 x   121 x    26             97500832       0.0%    100.0%      0.0%     
 flops   107 x    95 x    32             97584000       0.0%    100.0%      0.0%     
 flops    95 x   107 x    32             97584000       0.0%    100.0%      0.0%     
 flops    32 x    82 x    58             98011648       0.0%    100.0%      0.0%     
 flops   121 x    53 x    26             98041944       0.0%    100.0%      0.0%     
 flops    18 x   111 x    18             99116784       0.0%    100.0%      0.0%     
 flops    56 x   115 x    26             99124480       0.0%    100.0%      0.0%     
 flops    56 x    58 x    26             99310848       0.0%    100.0%      0.0%     
 flops    53 x   121 x    26             99375848       0.0%    100.0%      0.0%     
 flops    18 x    56 x    18             99501696       0.0%    100.0%      0.0%     
 flops    32 x    82 x    59             99701504       0.0%    100.0%      0.0%     
 flops    95 x   111 x    32             99882240       0.0%    100.0%      0.0%     
 flops    95 x    56 x    32            100101120       0.0%    100.0%      0.0%     
 flops    59 x   111 x    26            100121112       0.0%    100.0%      0.0%     
 flops    26 x   107 x    56            100330048       0.0%    100.0%      0.0%     
 flops    56 x    59 x    26            101023104       0.0%    100.0%      0.0%     
 flops    59 x    56 x    26            101023104       0.0%    100.0%      0.0%     
 flops    56 x    95 x    32            102144000       0.0%    100.0%      0.0%     
 flops    18 x    58 x    18            102980160       0.0%    100.0%      0.0%     
 flops    18 x   115 x    18            103210200       0.0%    100.0%      0.0%     
 flops    95 x    58 x    32            103676160       0.0%    100.0%      0.0%     
 flops    26 x   107 x    58            103913264       0.0%    100.0%      0.0%     
 flops    26 x   111 x    56            104080704       0.0%    100.0%      0.0%     
 flops    59 x   115 x    26            104434720       0.0%    100.0%      0.0%     
 flops    59 x    58 x    26            104631072       0.0%    100.0%      0.0%     
 flops    18 x    59 x    18            104755680       0.0%    100.0%      0.0%     
 flops    95 x   115 x    32            104880000       0.0%    100.0%      0.0%     
 flops    26 x    56 x    56            105018368       0.0%    100.0%      0.0%     
 flops    95 x    59 x    32            105463680       0.0%    100.0%      0.0%     
 flops    26 x   107 x    59            105704872       0.0%    100.0%      0.0%     
 flops    59 x    59 x    26            106435056       0.0%    100.0%      0.0%     
 flops    18 x    18 x    56            106831872       0.0%    100.0%      0.0%     
 flops    59 x    95 x    32            107616000       0.0%    100.0%      0.0%     
 flops    26 x   111 x    58            107797872       0.0%    100.0%      0.0%     
 flops    26 x   115 x    56            107831360       0.0%    100.0%      0.0%     
 flops    58 x   121 x    26            108750928       0.0%    100.0%      0.0%     
 flops    26 x    56 x    58            108769024       0.0%    100.0%      0.0%     
 flops    26 x    58 x    56            108769024       0.0%    100.0%      0.0%     
 flops    26 x    95 x    18            109371600       0.0%    100.0%      0.0%     
 flops    18 x    95 x    26            109549440       0.0%    100.0%      0.0%     
 flops    32 x    95 x    56            109634560       0.0%    100.0%      0.0%     
 flops    26 x   111 x    59            109656456       0.0%    100.0%      0.0%     
 flops   107 x   107 x    32            109910400       0.0%    100.0%      0.0%     
 flops    26 x    56 x    59            110644352       0.0%    100.0%      0.0%     
 flops    26 x    59 x    56            110644352       0.0%    100.0%      0.0%     
 flops    18 x    18 x    58            110647296       0.0%    100.0%      0.0%     
 flops    26 x   115 x    58            111682480       0.0%    100.0%      0.0%     
 flops   107 x   111 x    32            112498944       0.0%    100.0%      0.0%     
 flops    18 x    18 x    59            112555008       0.0%    100.0%      0.0%     
 flops    26 x    58 x    58            112653632       0.0%    100.0%      0.0%     
 flops   107 x    56 x    32            112745472       0.0%    100.0%      0.0%     
 flops    32 x    95 x    58            113550080       0.0%    100.0%      0.0%     
 flops    26 x   115 x    59            113608040       0.0%    100.0%      0.0%     
 flops    26 x    58 x    59            114595936       0.0%    100.0%      0.0%     
 flops    26 x    59 x    58            114595936       0.0%    100.0%      0.0%     
 flops    32 x    52 x    32            114802688       0.0%    100.0%      0.0%     
 flops    18 x     9 x    18            114989544       0.0%    100.0%      0.0%     
 flops    56 x   107 x    32            115046400       0.0%    100.0%      0.0%     
 flops    32 x    95 x    59            115507840       0.0%    100.0%      0.0%     
 flops    18 x    82 x    32            116379648       0.0%    100.0%      0.0%     
 flops    32 x    82 x    18            116379648       0.0%    100.0%      0.0%     
 flops    26 x    59 x    59            116571728       0.0%    100.0%      0.0%     
 flops   107 x    58 x    32            116772096       0.0%    100.0%      0.0%     
 flops    32 x    53 x    32            117010432       0.0%    100.0%      0.0%     
 flops    56 x   111 x    32            117755904       0.0%    100.0%      0.0%     
 flops    56 x    56 x    32            118013952       0.0%    100.0%      0.0%     
 flops   107 x   115 x    32            118128000       0.0%    100.0%      0.0%     
 flops   121 x    52 x    32            118390272       0.0%    100.0%      0.0%     
 flops   107 x    59 x    32            118785408       0.0%    100.0%      0.0%     
 flops    26 x    82 x    26            119511392       0.0%    100.0%      0.0%     
 flops    82 x   121 x    18            120016512       0.0%    100.0%      0.0%     
 flops   121 x    82 x    18            120016512       0.0%    100.0%      0.0%     
 flops   121 x    53 x    32            120667008       0.0%    100.0%      0.0%     
 flops    52 x   121 x    32            120806400       0.0%    100.0%      0.0%     
 flops    59 x   107 x    32            121209600       0.0%    100.0%      0.0%     
 flops    56 x    58 x    32            122228736       0.0%    100.0%      0.0%     
 flops    53 x   121 x    32            123129600       0.0%    100.0%      0.0%     
 flops    26 x   107 x    18            123186960       0.0%    100.0%      0.0%     
 flops    18 x   107 x    26            123387264       0.0%    100.0%      0.0%     
 flops    32 x   107 x    56            123483136       0.0%    100.0%      0.0%     
 flops    56 x   115 x    32            123648000       0.0%    100.0%      0.0%     
 flops    59 x   111 x    32            124064256       0.0%    100.0%      0.0%     
 flops    56 x    59 x    32            124336128       0.0%    100.0%      0.0%     
 flops    59 x    56 x    32            124336128       0.0%    100.0%      0.0%     
 flops    32 x   107 x    58            127893248       0.0%    100.0%      0.0%     
 flops    26 x   111 x    18            127895976       0.0%    100.0%      0.0%     
 flops    18 x   111 x    26            127999872       0.0%    100.0%      0.0%     
 flops    32 x   111 x    56            128099328       0.0%    100.0%      0.0%     
 flops    26 x    56 x    18            128104704       0.0%    100.0%      0.0%     
 flops    59 x    58 x    32            128776704       0.0%    100.0%      0.0%     
 flops    18 x    56 x    26            128786112       0.0%    100.0%      0.0%     
 flops    32 x    56 x    56            129253376       0.0%    100.0%      0.0%     
 flops    32 x   107 x    59            130098304       0.0%    100.0%      0.0%     
 flops    59 x   115 x    32            130272000       0.0%    100.0%      0.0%     
 flops    59 x    59 x    32            130996992       0.0%    100.0%      0.0%     
 flops    26 x   115 x    18            132397200       0.0%    100.0%      0.0%     
 flops    18 x   115 x    26            132612480       0.0%    100.0%      0.0%     
 flops    32 x   111 x    58            132674304       0.0%    100.0%      0.0%     
 flops    32 x   115 x    56            132715520       0.0%    100.0%      0.0%     
 flops    26 x    58 x    18            133114176       0.0%    100.0%      0.0%     
 flops    18 x    58 x    26            133765632       0.0%    100.0%      0.0%     
 flops    32 x    56 x    58            133869568       0.0%    100.0%      0.0%     
 flops    32 x    58 x    56            133869568       0.0%    100.0%      0.0%     
 flops    58 x   121 x    32            134745600       0.0%    100.0%      0.0%     
 flops    18 x    95 x    32            134830080       0.0%    100.0%      0.0%     
 flops    32 x    95 x    18            134830080       0.0%    100.0%      0.0%     
 flops    32 x   111 x    59            134961792       0.0%    100.0%      0.0%     
 flops    18 x    26 x    56            135023616       0.0%    100.0%      0.0%     
 flops    26 x    18 x    56            135023616       0.0%    100.0%      0.0%     
 flops    26 x    59 x    18            135354024       0.0%    100.0%      0.0%     
 flops    18 x    59 x    26            136071936       0.0%    100.0%      0.0%     
 flops    32 x    56 x    59            136177664       0.0%    100.0%      0.0%     
 flops    32 x    59 x    56            136177664       0.0%    100.0%      0.0%     
 flops    32 x   115 x    58            137455360       0.0%    100.0%      0.0%     
 flops    26 x    95 x    26            138458320       0.0%    100.0%      0.0%     
 flops    32 x    58 x    58            138650624       0.0%    100.0%      0.0%     
 flops    95 x   121 x    18            139043520       0.0%    100.0%      0.0%     
 flops   121 x    95 x    18            139043520       0.0%    100.0%      0.0%     
 flops    18 x     9 x     9            139285656       0.0%    100.0%      0.0%     
 flops    32 x   115 x    59            139825280       0.0%    100.0%      0.0%     
 flops    18 x    26 x    58            139845888       0.0%    100.0%      0.0%     
 flops    26 x    18 x    58            139845888       0.0%    100.0%      0.0%     
 flops    32 x    58 x    59            141041152       0.0%    100.0%      0.0%     
 flops    32 x    59 x    58            141041152       0.0%    100.0%      0.0%     
 flops    18 x    26 x    59            142257024       0.0%    100.0%      0.0%     
 flops    26 x    18 x    59            142257024       0.0%    100.0%      0.0%     
 flops    32 x    59 x    59            143472896       0.0%    100.0%      0.0%     
 flops    26 x     9 x    18            146459664       0.0%    100.0%      0.0%     
 flops    26 x    82 x    32            147090944       0.0%    100.0%      0.0%     
 flops    32 x    82 x    26            147090944       0.0%    100.0%      0.0%     
 flops    18 x     9 x    26            147108312       0.0%    100.0%      0.0%     
 flops    18 x   107 x    32            151861248       0.0%    100.0%      0.0%     
 flops    32 x   107 x    18            151861248       0.0%    100.0%      0.0%     
 flops   121 x    82 x    26            152719424       0.0%    100.0%      0.0%     
 flops    82 x   121 x    26            153751312       0.0%    100.0%      0.0%     
 flops    26 x   107 x    26            155947792       0.0%    100.0%      0.0%     
 flops   107 x   121 x    18            156606912       0.0%    100.0%      0.0%     
 flops   121 x   107 x    18            156606912       0.0%    100.0%      0.0%     
 flops    18 x   111 x    32            157282560       0.0%    100.0%      0.0%     
 flops    32 x   111 x    18            157538304       0.0%    100.0%      0.0%     
 flops    18 x    56 x    32            158183424       0.0%    100.0%      0.0%     
 flops    32 x    56 x    18            158570496       0.0%    100.0%      0.0%     
 flops    29 x     9 x    18            160417908       0.0%    100.0%      0.0%     
 flops    26 x   111 x    26            161777616       0.0%    100.0%      0.0%     
 flops   121 x   111 x    18            162461376       0.0%    100.0%      0.0%     
 flops    18 x   115 x    32            163215360       0.0%    100.0%      0.0%     
 flops    32 x   115 x    18            163215360       0.0%    100.0%      0.0%     
 flops    26 x    56 x    26            163235072       0.0%    100.0%      0.0%     
 flops    56 x   121 x    18            163924992       0.0%    100.0%      0.0%     
 flops   121 x    56 x    18            163924992       0.0%    100.0%      0.0%     
 flops    18 x    58 x    32            164033280       0.0%    100.0%      0.0%     
 flops     9 x    29 x    18            164054160       0.0%    100.0%      0.0%     
 flops    32 x    58 x    18            164500992       0.0%    100.0%      0.0%     
 flops    18 x    32 x    56            166182912       0.0%    100.0%      0.0%     
 flops    32 x    18 x    56            166182912       0.0%    100.0%      0.0%     
 flops    18 x    59 x    32            166453632       0.0%    100.0%      0.0%     
 flops    32 x    59 x    18            167201280       0.0%    100.0%      0.0%     
 flops    26 x   115 x    26            167607440       0.0%    100.0%      0.0%     
 flops   121 x   115 x    18            168315840       0.0%    100.0%      0.0%     
 flops    26 x    58 x    26            169064896       0.0%    100.0%      0.0%     
 flops   121 x    58 x    18            169779456       0.0%    100.0%      0.0%     
 flops    26 x    95 x    32            170410240       0.0%    100.0%      0.0%     
 flops    32 x    95 x    26            170410240       0.0%    100.0%      0.0%     
 flops    26 x    26 x    56            170654848       0.0%    100.0%      0.0%     
 flops    26 x    59 x    26            171979808       0.0%    100.0%      0.0%     
 flops    18 x    32 x    58            172118016       0.0%    100.0%      0.0%     
 flops    32 x    18 x    58            172118016       0.0%    100.0%      0.0%     
 flops    59 x   121 x    18            172706688       0.0%    100.0%      0.0%     
 flops   121 x    59 x    18            172706688       0.0%    100.0%      0.0%     
 flops    18 x    32 x    59            175085568       0.0%    100.0%      0.0%     
 flops    32 x    18 x    59            175085568       0.0%    100.0%      0.0%     
 flops    26 x     9 x     9            176187960       0.0%    100.0%      0.0%     
 flops    26 x    26 x    58            176749664       0.0%    100.0%      0.0%     
 flops    95 x   121 x    26            178126520       0.0%    100.0%      0.0%     
 flops   121 x    95 x    26            179322000       0.0%    100.0%      0.0%     
 flops    18 x   121 x    56            179536896       0.0%    100.0%      0.0%     
 flops    26 x    26 x    59            179797072       0.0%    100.0%      0.0%     
 flops    32 x     9 x    18            180309888       0.0%    100.0%      0.0%     
 flops    32 x    82 x    32            181035008       0.0%    100.0%      0.0%     
 flops    18 x     9 x    32            181056384       0.0%    100.0%      0.0%     
 flops    18 x   121 x    58            185948928       0.0%    100.0%      0.0%     
 flops    26 x     9 x    26            186036552       0.0%    100.0%      0.0%     
 flops    18 x   121 x    59            189154944       0.0%    100.0%      0.0%     
 flops    82 x   121 x    32            190502400       0.0%    100.0%      0.0%     
 flops   121 x    82 x    32            190502400       0.0%    100.0%      0.0%     
 flops    26 x   107 x    32            191935744       0.0%    100.0%      0.0%     
 flops    32 x   107 x    26            191935744       0.0%    100.0%      0.0%     
 flops    26 x   111 x    32            199110912       0.0%    100.0%      0.0%     
 flops    32 x   111 x    26            199110912       0.0%    100.0%      0.0%     
 flops   121 x   107 x    26            199280224       0.0%    100.0%      0.0%     
 flops   107 x   121 x    26            200626712       0.0%    100.0%      0.0%     
 flops    26 x    56 x    32            200904704       0.0%    100.0%      0.0%     
 flops    32 x    56 x    26            200904704       0.0%    100.0%      0.0%     
 flops   121 x   111 x    26            205333128       0.0%    100.0%      0.0%     
 flops    26 x   115 x    32            206286080       0.0%    100.0%      0.0%     
 flops    32 x   115 x    26            206286080       0.0%    100.0%      0.0%     
 flops    29 x     9 x    26            206823708       0.0%    100.0%      0.0%     
 flops   121 x    56 x    26            207182976       0.0%    100.0%      0.0%     
 flops     9 x    29 x    26            207488736       0.0%    100.0%      0.0%     
 flops    26 x    58 x    32            208079872       0.0%    100.0%      0.0%     
 flops    32 x    58 x    26            208079872       0.0%    100.0%      0.0%     
 flops    32 x    95 x    32            209735680       0.0%    100.0%      0.0%     
 flops    56 x   121 x    26            210001792       0.0%    100.0%      0.0%     
 flops    26 x    32 x    56            210036736       0.0%    100.0%      0.0%     
 flops    32 x    26 x    56            210036736       0.0%    100.0%      0.0%     
 flops    26 x    59 x    32            211667456       0.0%    100.0%      0.0%     
 flops    32 x    59 x    26            211667456       0.0%    100.0%      0.0%     
 flops   121 x   115 x    26            214179680       0.0%    100.0%      0.0%     
 flops   121 x    58 x    26            214582368       0.0%    100.0%      0.0%     
 flops    32 x     9 x     9            216846720       0.0%    100.0%      0.0%     
 flops    18 x   121 x    18            217268568       0.0%    100.0%      0.0%     
 flops    26 x    32 x    58            217538048       0.0%    100.0%      0.0%     
 flops    32 x    26 x    58            217538048       0.0%    100.0%      0.0%     
 flops   121 x    59 x    26            218282064       0.0%    100.0%      0.0%     
 flops    95 x   121 x    32            220704000       0.0%    100.0%      0.0%     
 flops   121 x    95 x    32            220704000       0.0%    100.0%      0.0%     
 flops    59 x   121 x    26            221251888       0.0%    100.0%      0.0%     
 flops    26 x    32 x    59            221288704       0.0%    100.0%      0.0%     
 flops    32 x    26 x    59            221288704       0.0%    100.0%      0.0%     
 flops    26 x   121 x    56            226914688       0.0%    100.0%      0.0%     
 flops    26 x     9 x    32            228953088       0.0%    100.0%      0.0%     
 flops    32 x     9 x    26            228953088       0.0%    100.0%      0.0%     
 flops    26 x   121 x    58            235018784       0.0%    100.0%      0.0%     
 flops    32 x   107 x    32            236228608       0.0%    100.0%      0.0%     
 flops    26 x   121 x    59            239070832       0.0%    100.0%      0.0%     
 flops    32 x   111 x    32            245059584       0.0%    100.0%      0.0%     
 flops    32 x    56 x    32            247267328       0.0%    100.0%      0.0%     
 flops   107 x   121 x    32            248582400       0.0%    100.0%      0.0%     
 flops   121 x   107 x    32            248582400       0.0%    100.0%      0.0%     
 flops    32 x   115 x    32            253890560       0.0%    100.0%      0.0%     
 flops   121 x   111 x    32            254436864       0.0%    100.0%      0.0%     
 flops    29 x     9 x    32            254669184       0.0%    100.0%      0.0%     
 flops   121 x    56 x    32            254994432       0.0%    100.0%      0.0%     
 flops     9 x    29 x    32            255370752       0.0%    100.0%      0.0%     
 flops    32 x    58 x    32            256098304       0.0%    100.0%      0.0%     
 flops    32 x    32 x    56            258506752       0.0%    100.0%      0.0%     
 flops    56 x   121 x    32            260198400       0.0%    100.0%      0.0%     
 flops    32 x    59 x    32            260513792       0.0%    100.0%      0.0%     
 flops   121 x    58 x    32            264101376       0.0%    100.0%      0.0%     
 flops   121 x   115 x    32            267168000       0.0%    100.0%      0.0%     
 flops    32 x    32 x    58            267739136       0.0%    100.0%      0.0%     
 flops   121 x    59 x    32            268654848       0.0%    100.0%      0.0%     
 flops    32 x    32 x    59            272355328       0.0%    100.0%      0.0%     
 flops    59 x   121 x    32            274137600       0.0%    100.0%      0.0%     
 flops    26 x   121 x    18            278609760       0.0%    100.0%      0.0%     
 flops    18 x   121 x    26            279062784       0.0%    100.0%      0.0%     
 flops    32 x   121 x    56            279279616       0.0%    100.0%      0.0%     
 flops    18 x    18 x     9            280810800       0.0%    100.0%      0.0%     
 flops    32 x     9 x    32            281843712       0.0%    100.0%      0.0%     
 flops    32 x   121 x    58            289253888       0.0%    100.0%      0.0%     
 flops    32 x   121 x    59            294241024       0.0%    100.0%      0.0%     
 flops    18 x    29 x    18            327864024       0.0%    100.0%      0.0%     
 flops    18 x   121 x    32            343461888       0.0%    100.0%      0.0%     
 flops    32 x   121 x    18            343461888       0.0%    100.0%      0.0%     
 flops    26 x   121 x    26            352704352       0.0%    100.0%      0.0%     
 flops   121 x   121 x    18            354195072       0.0%    100.0%      0.0%     
 flops    18 x    26 x     9            355627584       0.0%    100.0%      0.0%     
 flops    26 x    18 x     9            360564048       0.0%    100.0%      0.0%     
 flops    18 x    29 x     9            404441424       0.0%    100.0%      0.0%     
 flops    18 x     9 x    29            406207872       0.0%    100.0%      0.0%     
 flops    26 x    29 x    18            414977472       0.0%    100.0%      0.0%     
 flops    18 x    29 x    26            415004616       0.0%    100.0%      0.0%     
 flops    26 x   121 x    32            434097664       0.0%    100.0%      0.0%     
 flops    32 x   121 x    26            434097664       0.0%    100.0%      0.0%     
 flops    18 x    32 x     9            437685120       0.0%    100.0%      0.0%     
 flops    32 x    18 x     9            445782528       0.0%    100.0%      0.0%     
 flops   121 x   121 x    26            453753872       0.0%    100.0%      0.0%     
 flops    26 x    26 x     9            457090920       0.0%    100.0%      0.0%     
 flops    29 x    29 x    18            464131080       0.0%    100.0%      0.0%     
 flops    32 x    29 x    18            510741504       0.0%    100.0%      0.0%     
 flops    18 x    29 x    32            510975360       0.0%    100.0%      0.0%     
 flops    26 x    29 x     9            513293040       0.0%    100.0%      0.0%     
 flops    26 x     9 x    29            513401616       0.0%    100.0%      0.0%     
 flops    26 x    29 x    26            525073536       0.0%    100.0%      0.0%     
 flops    32 x   121 x    32            534274048       0.0%    100.0%      0.0%     
 flops   121 x   121 x    32            562214400       0.0%    100.0%      0.0%     
 flops    26 x    32 x     9            562498560       0.0%    100.0%      0.0%     
 flops    32 x    26 x     9            565284096       0.0%    100.0%      0.0%     
 flops    29 x    29 x    26            585002964       0.0%    100.0%      0.0%     
 flops    32 x    29 x     9            631611648       0.0%    100.0%      0.0%     
 flops    32 x     9 x    29            631878912       0.0%    100.0%      0.0%     
 flops    32 x    29 x    26            646292608       0.0%    100.0%      0.0%     
 flops    26 x    29 x    32            647885056       0.0%    100.0%      0.0%     
 flops    32 x    32 x     9            695697408       0.0%    100.0%      0.0%     
 flops    29 x    29 x    32            720003648       0.0%    100.0%      0.0%     
 flops    32 x    29 x    32            799178752       0.0%    100.0%      0.0%     
 flops    18 x    18 x    29            816869448       0.0%    100.0%      0.0%     
 flops    18 x    26 x    29           1032123456       0.0%    100.0%      0.0%     
 flops    26 x    18 x    29           1032123456       0.0%    100.0%      0.0%     
 flops    18 x    29 x    29           1151214624       0.0%    100.0%      0.0%     
 flops    18 x    32 x    29           1270305792       0.0%    100.0%      0.0%     
 flops    32 x    18 x    29           1270305792       0.0%    100.0%      0.0%     
 flops    26 x    26 x    29           1304489368       0.0%    100.0%      0.0%     
 flops    26 x    29 x    29           1455007372       0.0%    100.0%      0.0%     
 flops    26 x    32 x    29           1605525376       0.0%    100.0%      0.0%     
 flops    32 x    26 x    29           1605525376       0.0%    100.0%      0.0%     
 flops    32 x    29 x    29           1790778304       0.0%    100.0%      0.0%     
 flops    32 x    32 x    29           1976031232       0.0%    100.0%      0.0%     
 flops inhomo. stacks                 98680816336     100.0%      0.0%      0.0%
 flops total                       189.572966E+09      52.1%     47.9%      0.0%
 flops max/rank                     15.553686E+09      51.5%     48.5%      0.0%
 matmuls inhomo. stacks                    189387     100.0%      0.0%      0.0%
 matmuls total                            2192045       8.6%     91.4%      0.0%
 number of processed stacks               1349390       2.8%     97.2%      0.0%
 average stack size                                     5.0       1.5       0.0
 marketing flops                   186.953990E+09
 -------------------------------------------------------------------------------
 # multiplications                            505
 max memory usage/rank              22.402109E+09
 # max total images/rank                        5
 # max 3D layers                                1
 # MPI messages exchanged                  166650
 MPI messages size (bytes):
  total size                         5.908739E+09
  min size                           0.000000E+00
  max size                         250.712000E+03
  average size                      35.455980E+03
 MPI breakdown and total messages size (bytes):
             size <=      128               22692                        0
       128 < size <=     8192               16822                 92430144
      8192 < size <=    32768               63668               1060170864
     32768 < size <=   131072               56542               3515069232
    131072 < size <=  4194304                6926               1241063808
   4194304 < size <= 16777216                   0                        0
  16777216 < size                               0                        0
 -------------------------------------------------------------------------------

 *** WARNING in dbcsr_mm.F:301 :: Using a non-square number of MPI ranks ***
 *** might lead to poor performance. Used ranks: 15 Suggested: 16 25     ***

 -------------------------------------------------------------------------------
 -                                                                             -
 -                      DBCSR MESSAGE PASSING PERFORMANCE                      -
 -                                                                             -
 -------------------------------------------------------------------------------
 ROUTINE             CALLS      AVE VOLUME [Bytes]
 MP_Bcast              593                     12.
 MP_Allreduce         3307                     19.
 MP_Alltoall          3385                  89714.
 MP_ISend            27972                  18992.
 MP_IRecv            27596                  17945.
 -------------------------------------------------------------------------------

 -------------------------------------------------------------------------------
 -                                                                             -
 -                                GRID STATISTICS                              -
 -                                                                             -
 -------------------------------------------------------------------------------
 LP    KERNEL             BACKEND                              COUNT     PERCENT
 4     collocate ortho    CPU                                   1214      23.86%
 4     integrate ortho    CPU                                   1214      23.86%
 6     collocate ortho    CPU                                    840      16.51%
 6     integrate ortho    CPU                                    840      16.51%
 2     collocate ortho    CPU                                    482       9.48%
 2     integrate ortho    CPU                                    482       9.48%
 0     collocate general  CPU                                     15       0.29%
 -------------------------------------------------------------------------------

 -------------------------------------------------------------------------------
 -                                                                             -
 -                          OFFLOAD MEMPOOL STATISTICS                         -
 -                                                                             -
 -------------------------------------------------------------------------------
 Memory consumption                Number of allocations  Used [MiB]  Size [MiB]
 Host                                                  6          97    21647849
 -------------------------------------------------------------------------------

 MEMORY| Estimated peak process memory [MiB]                                2155

 -------------------------------------------------------------------------------
 -                                                                             -
 -                         MESSAGE PASSING PERFORMANCE                         -
 -                                                                             -
 -------------------------------------------------------------------------------

 ROUTINE             CALLS      AVE VOLUME [Bytes]
 MP_Group                5
 MP_Bcast              274                 213503.
 MP_Allreduce         1952                   9576.
 MP_Sync                11
 MP_Alltoall            46               72666427.
 MP_SendRecv            56                 542720.
 MP_ISendRecv           56                 542720.
 MP_Wait               254
 MP_comm_split          11
 MP_ISend              171                2386401.
 MP_IRecv              171                2386401.
 -------------------------------------------------------------------------------


 -------------------------------------------------------------------------------
 -                                                                             -
 -                           R E F E R E N C E S                               -
 -                                                                             -
 -------------------------------------------------------------------------------
 
 CP2K version 2026.2 (Development Version), the CP2K developers group (2026).
 CP2K is freely available from https://www.cp2k.org/ .
 
 M. Iannuzzi, J. Wilhelm, F. Stein, A. Bussy, H. Elgabarty, D. Golze, A. Hehn, 
 M. Graml, S. Marek, B. Sertcan Gökmen, C. Schran, H. Forbert, R. Z. 
 Khaliullin, A. Kozhevnikov, M. Taillefumier, R. Meli, V. V. Rybkin, M. Brehm, 
 R. Schade, O. Schütt, J. V. Pototschnig, H. Mirhosseini, A. Knüpfer, D. Marx, 
 M. Krack, J. Hutter, T. D. Kühne.
 J. Phys. Chem. B 130, 1237-1310 (2026).
 The CP2K Program Package Made Simple.
 https://doi.org/10.1021/acs.jpcb.5c05851

 M. Graml, K. Zollner, D. Hernangómez-Pérez, P. E. Faria Junior, J. Wilhelm.
 J. Chem. Theory Comput. 20, 2202-2208 (2024).
 Low-scaling GW algorithm applied to twisted transition-metal dichalcogenide 
 heterobilayers.
 https://doi.org/10.1021/acs.jctc.3c01230

 T. D. Kühne, M. Iannuzzi, M. Del Ben, V. V. Rybkin, P. Seewald, F. Stein, T. 
 Laino, R. Z. Khaliullin, O. Schütt, F. Schiffmann, D. Golze, J. Wilhelm, S. 
 Chulkov, M. H. Bani-Hashemian, V. Weber, U. Borstnik, M. Taillefumier, A. S. 
 Jakobovits, A. Lazzaro, H. Pabst, T. Müller, R. Schade, M. Guidon, S. 
 Andermatt, N. Holmberg, G. K. Schenter, A. Hehn, A. Bussy, F. Belleflamme, G. 
 Tabacchi, A. Glöß, M. Lass, I. Bethune, C. J. Mundy, C. Plessl, M. Watkins, 
 J. VandeVondele, M. Krack, J. Hutter.
 J. Chem. Phys. 152, 194103 (2020).
 CP2K: An electronic structure and molecular dynamics software package - 
 Quickstep: Efficient and accurate electronic structure calculations.
 https://doi.org/10.1063/5.0007045

 O. Schuett, P. Messmer, J. Hutter, J. VandeVondele.
 Electronic Structure Calculations on Graphics Processing Units, 173-190 (2016).
 GPU-Accelerated Sparse Matrix-Matrix Multiplication for Linear Scaling Density 
 Functional Theory.
 https://doi.org/10.1002/9781118670712.ch8

 U. Borstnik, J. VandeVondele, V. Weber, J. Hutter.
 Parallel Comput. 40, 47-58 (2014).
 Sparse matrix multiplication: The distributed block-compressed sparse row 
 library.
 https://doi.org/10.1016/j.parco.2014.03.012

 J. VandeVondele, J. Hutter.
 J. Chem. Phys. 127, 114105 (2007).
 Gaussian basis sets for accurate calculations on molecular systems in gas and 
 condensed phases.
 https://doi.org/10.1063/1.2770708

 J. VandeVondele, M. Krack, F. Mohamed, M. Parrinello, T. Chassaing, J. Hutter.
 Comput. Phys. Commun. 167, 103-128 (2005).
 QUICKSTEP: Fast and accurate density functional calculations using a mixed 
 Gaussian and plane waves approach.
 https://doi.org/10.1016/j.cpc.2004.12.014

 M. Krack.
 Theor. Chem. Acc. 114, 145-152 (2005).
 Pseudopotentials for H to Kr optimized for gradient-corrected 
 exchange-correlation functionals.
 https://doi.org/10.1007/s00214-005-0655-y

 M. Frigo, S. G. Johnson.
 Proc. IEEE 93, 216-231 (2005).
 The design and implementation of FFTW3.
 https://doi.org/10.1109/JPROC.2004.840301

 J. VandeVondele, J. Hutter.
 J. Chem. Phys. 118, 4365-4369 (2003).
 An efficient orbital transformation method for electronic structure 
 calculations.
 https://doi.org/10.1063/1.1543154

 C. Hartwigsen, S. Goedecker, J. Hutter.
 Phys. Rev. B 58, 3641-3662 (1998).
 Relativistic separable dual-space Gaussian pseudopotentials from H to Rn.
 https://doi.org/10.1103/PhysRevB.58.3641

 G. Lippert, J. Hutter, M. Parrinello.
 Mol. Phys. 92, 477-487 (1997).
 A hybrid Gaussian and plane wave density functional scheme.
 https://doi.org/10.1080/002689797170220

 S. Goedecker, M. Teter, J. Hutter.
 Phys. Rev. B 54, 1703-1710 (1996).
 Separable dual-space Gaussian pseudopotentials.
 https://doi.org/10.1103/PhysRevB.54.1703

 J. P. Perdew, K. Burke, M. Ernzerhof.
 Phys. Rev. Lett. 77, 3865-3868 (1996).
 Generalized gradient approximation made simple.
 https://doi.org/10.1103/PhysRevLett.77.3865

 P. E. Blöchl.
 J. Chem. Phys. 103, 7422-7428 (1995).
 Electrostatic decoupling of periodic images of plane‐wave‐expanded 
 densities and derived atomic point charges.
 https://doi.org/10.1063/1.470314

 R. H. Byrd, P. H. Lu, J. Nocedal, C. Y. Zhu.
 SIAM J. Sci. Comput. 16, 1190-1208 (1995).
 A Limited Memory Algorithm for Bound Constrained Optimization.
 https://doi.org/10.1137/0916069


 -------------------------------------------------------------------------------
 -                                                                             -
 -                                T I M I N G                                  -
 -                                                                             -
 -------------------------------------------------------------------------------
 SUBROUTINE                       CALLS  ASD         SELF TIME        TOTAL TIME MAXRANK
                                MAXIMUM       AVERAGE  MAXIMUM  AVERAGE  MAXIMUM
 CP2K                                 1  1.0    0.016    0.022   11.557   11.557       0
 qs_energies                          1  2.0    0.001    0.001   10.795   10.795       6
 qs_energies_properties               1  3.0    0.000    0.000    8.140    8.141      12
 post_scf_bandstructure               1  4.0    0.000    0.000    8.140    8.141       2
 run_gw                               1  5.0    0.000    0.000    8.064    8.075       1
 create_and_init_bs_env_for_gw        1  6.0    0.003    0.004    4.414    4.455       0
 gw_calc_ri_rs_non_periodic           1  6.0    0.000    0.000    3.651    3.694      11
 generate_auto_ri_basis               1  7.0    0.000    0.000    3.691    3.691       2
 mp_sum_dm                          108 10.9    1.145    1.932    1.145    1.932      12
 compute_AB_optimized_RI_basis        1  8.0    0.000    0.000    1.919    1.919       4
 compute_AB_optimized_RI_basis_       1  9.0    0.000    0.000    1.799    1.916       3
 scf_env_do_scf                       1  3.0    0.000    0.000    1.915    1.915      14
 qs_ks_build_kohn_sham_matrix         2  7.5    0.001    0.001    1.836    1.837       4
 compute_B_PQ_AB                      4 10.0    0.240    0.481    0.922    1.828       1
 compute_W                            1  7.0    0.000    0.000    1.714    1.714       0
 fft_wrap_pw1pw2                     28 10.0    0.001    0.001    1.597    1.668       3
 fft_wrap_pw1pw2_300                 16 11.2    0.078    0.083    1.537    1.600       4
 cp_fm_get_submatrix                104 10.0    0.001    0.001    0.832    1.438       0
 init_scf_loop                        1  4.0    0.000    0.000    1.418    1.419       5
 qs_ks_update_qs_env                  2  5.0    0.000    0.000    1.407    1.407      10
 rebuild_ks_matrix                    1  6.0    0.000    0.000    1.407    1.407       3
 fft3d_ps                            28 12.0    0.658    0.688    1.164    1.387      11
 compute_M_pq_inv_and_V_pq            1  8.0    0.000    0.000    1.278    1.278       6
 compute_fm_W_freq                   30  8.0    0.000    0.000    1.132    1.136      13
 compute_contracted_RI_matrix         2  9.0    0.000    0.000    1.124    1.125       2
 compute_optimized_RI_matrix_bl      16 10.0    0.153    0.192    0.959    1.118       4
 contract_B_PQ                       18 11.9    0.486    0.973    0.524    1.048       1
 cp_fm_gemm                         434 10.5    1.030    1.046    1.030    1.046      13
 parallel_gemm_fm_gemm              431  9.6    0.000    0.001    1.030    1.045       5
 qs_rho_update_rho_low                2  5.0    0.000    0.000    0.970    0.970       5
 calculate_rho_elec                   2  6.0    0.023    0.023    0.970    0.970       6
 qs_vxc_create                        2  8.5    0.000    0.000    0.942    0.962      10
 xc_vxc_pw_create                     1  9.0    0.019    0.021    0.942    0.962      10
 compute_M_PQ_AB                    580 11.0    0.001    0.001    0.827    0.955       1
 compute_M_PQ                       580 12.0    0.001    0.001    0.826    0.954       4
 int_operators_r12_ab_os            580 13.0    0.000    0.000    0.825    0.953       7
 int_operator_ab_os_low             580 14.0    0.319    0.366    0.825    0.953       4
 mp_alltoall_z22v                    28 14.0    0.276    0.835    0.276    0.835      14
 xc_pw_derive                         6 11.0    0.000    0.000    0.686    0.769       5
 dbcsr_multiply_generic             505  9.6    0.012    0.012    0.719    0.732      10
 density_rs2pw                        2  7.0    0.000    0.000    0.557    0.694       7
 compute_Sigma_c_and_QP_energie       1  7.0    0.000    0.000    0.617    0.628       9
 compute_Sigma_c                      1  8.0    0.000    0.001    0.554    0.554       0
 init_scf_run                         1  3.0    0.000    0.000    0.542    0.542       1
 scf_env_initial_rho_setup            1  4.0    0.000    0.000    0.542    0.542       5
 yz_to_x                             14 12.2    0.104    0.110    0.246    0.537       6
 xc_pw_divergence                     1 10.0    0.000    0.000    0.462    0.528       9
 copy_dbcsr_to_fm                   104  9.5    0.001    0.001    0.260    0.527       2
 compute_B_PQ_transition              9 10.9    0.000    0.000    0.263    0.525       1
 compute_B_PQ_exchange                9 10.9    0.000    0.000    0.262    0.524       1
 qs_init_subsys                       1  2.0    0.001    0.001    0.522    0.523       0
 qs_env_setup                         1  3.0    0.000    0.000    0.520    0.521       2
 compute_Z_lP                         1  7.0    0.000    0.000    0.521    0.521      14
 compute_Z_lP_auto_ri                 1  8.0    0.000    0.001    0.521    0.521      10
 qs_env_rebuild_pw_env                2  3.5    0.000    0.000    0.519    0.520       5
 pw_env_rebuild                       1  5.0    0.000    0.000    0.519    0.520      14
 mp_sum_d                           758  4.5    0.200    0.517    0.200    0.517      14
 pw_grid_setup                        5  5.2    0.000    0.000    0.513    0.514       6
 pw_grid_setup_internal               5  6.2    0.009    0.010    0.512    0.514       0
 compute_d_lp_auto_ri_batch           1  9.0    0.000    0.000    0.304    0.497       0
 compute_d_lp_auto_ri_atom            1 10.0    0.103    0.318    0.304    0.497       3
 scf_env_do_scf_inner_loop            1  4.0    0.000    0.000    0.491    0.496      10
 compute_AA_optimized_RI_basis        1  8.0    0.001    0.001    0.494    0.494       9
 mp_alltoall_i22                    369 11.4    0.207    0.483    0.207    0.483      14
 xc_rho_set_and_dset_create           1 10.0    0.015    0.020    0.450    0.476       3
 abc_contract_xsmm                  891 11.0    0.241    0.471    0.241    0.471       1
 dbcsr_desymmetrize_deep            104 10.5    0.003    0.004    0.202    0.469       0
 optimize_ri_rs_grid                  1  7.0    0.000    0.000    0.423    0.456       3
 contract_grid_panels_sigma_c        30  9.0    0.001    0.001    0.443    0.444       0
 pw_grid_sort                         5  7.2    0.298    0.301    0.429    0.432       5
 compute_V_xc                         1  7.0    0.000    0.000    0.430    0.430       7
 x_to_yz                             14 13.8    0.122    0.128    0.256    0.427       1
 multiply_cannon                    505 10.6    0.023    0.024    0.413    0.427       1
 sum_up_and_integrate                 2  8.5    0.000    0.000    0.388    0.407       0
 mp_bcast_dm                         70  9.1    0.350    0.405    0.350    0.405       7
 integrate_v_rspace                   2  9.5    0.000    0.000    0.383    0.405       0
 grid_collocate_task_list             2  7.0    0.384    0.403    0.384    0.403       2
 rirs_grid_LBFGS                      1  8.0    0.043    0.064    0.367    0.381       1
 potential_pw2rs                      2 10.5    0.001    0.001    0.351    0.373       2
 operator2                       319996 15.0    0.309    0.361    0.309    0.361       3
 multiply_cannon_loop               505 11.6    0.029    0.030    0.332    0.349       8
 transfer_rs2pw                       9  7.8    0.000    0.000    0.171    0.348       2
 get_mat_chi_Gamma_tau                1  7.0    0.000    0.001    0.347    0.347       0
 initialize_auto_ri_integrals         2  9.0    0.022    0.326    0.330    0.330       0
 mp_waitany                         171 11.3    0.129    0.324    0.129    0.324      14
 contract_grid_panels                31  8.0    0.001    0.001    0.301    0.312       4
 transfer_rs2pw_300                   3  8.3    0.061    0.066    0.136    0.308      10
 cp_fm_cholesky_invert               31  9.0    0.271    0.276    0.271    0.276       7
 evaluate_rirs_grid_cluster         301  9.0    0.019    0.035    0.135    0.273       0
 qs_ks_ddapc                          2  8.5    0.000    0.000    0.255    0.273       2
 cp_fm_syevd                          6  9.2    0.000    0.000    0.269    0.269       3
 cp_fm_redistribute_end               6 10.2    0.143    0.265    0.144    0.266      14
 cp_fm_syevd_base                     6 10.2    0.121    0.261    0.121    0.261       3
 ab_contract                     320982 15.0    0.198    0.230    0.198    0.230       3
 pw_poisson_solve                     2  8.5    0.000    0.000    0.216    0.221      14
 make_m2s                          1010 10.6    0.007    0.008    0.208    0.213       0
 multiply_cannon_multrec           7575 12.6    0.179    0.199    0.181    0.201       6
 build_3c_integral_block_auto_r      90 11.0    0.000    0.000    0.101    0.200       2
 qs_energies_init_hamiltonians        1  3.0    0.000    0.001    0.196    0.196      11
 create_qs_kind_set                   1  2.0    0.000    0.000    0.189    0.190       7
 read_qs_kind                         2  3.0    0.039    0.044    0.189    0.190       0
 qs_env_update_s_mstruct              1  4.0    0.000    0.000    0.187    0.189       6
 make_images                       1010 11.6    0.027    0.031    0.182    0.187       1
 build_3c_integral_block_auto_r      90 11.0    0.099    0.183    0.099    0.183       2
 setup_time_and_frequency_minim       1  7.0    0.000    0.000    0.168    0.170       0
 build_minimax_time_frequency_g       1  8.0    0.000    0.000    0.168    0.170      12
 fit_l_sq_weights                     3  9.0    0.168    0.170    0.168    0.170       2
 calculate_rho_core                   1  5.0    0.012    0.014    0.166    0.169       7
 check_for_restart_files              1  7.0    0.118    0.161    0.118    0.161      13
 cp_fm_cholesky_decompose            35  9.0    0.154    0.158    0.154    0.158       1
 cp_fm_geeig                          2  9.5    0.000    0.000    0.157    0.157       4
 pw_copy                             28 10.5    0.149    0.157    0.149    0.157       1
 compute_M_pq_inv                     1  9.0    0.000    0.000    0.153    0.153       7
 parser_read_line                 22513  4.0    0.004    0.004    0.150    0.151      13
 pw_derive                           12 11.2    0.143    0.151    0.143    0.151      13
 cp_fm_uplo_to_full                  64  9.0    0.129    0.150    0.129    0.150      14
 parser_read_line_low                27  5.0    0.004    0.034    0.146    0.148       0
 broadcast_input_information         27  6.0    0.005    0.016    0.142    0.146       0
 pw_gather_p                         14 11.2    0.132    0.144    0.132    0.144       2
 compute_V_MinvVsqrt                  1  8.0    0.000    0.000    0.141    0.142       4
 compute_fm_chi_Gamma_freq           30  8.0    0.001    0.001    0.111    0.139       7
 mp_waitall_1                     24323 13.8    0.108    0.135    0.108    0.135      14
 sort_shells                          5  8.2    0.131    0.134    0.131    0.134       7
 compute_B_PQ_AA                     15  9.0    0.000    0.000    0.127    0.134       5
 mp_sum_root_rm                      15 10.0    0.121    0.132    0.121    0.132      14
 transfer_pw2rs                       8 11.5    0.000    0.000    0.130    0.130       5
 dbcsr_complete_redistribute        265 10.4    0.037    0.044    0.118    0.130       0
 pw_poisson_set                       3  8.3    0.000    0.000    0.123    0.128       3
 cp_fm_power                          1  9.0    0.004    0.004    0.127    0.127       7
 pw_scatter_p                        14 12.8    0.120    0.126    0.120    0.126      11
 build_G_ao                         121  8.5    0.000    0.001    0.108    0.122       1
 cp_ddapc_apply_CD                    2  9.5    0.000    0.000    0.063    0.119       0
 xc_functional_eval                   1 11.0    0.000    0.000    0.076    0.103       6
 pbe_lda_eval                         1 12.0    0.076    0.103    0.076    0.103       6
 pw_integral_ab_c1d_c1d_gs            4 10.0    0.077    0.079    0.081    0.102      10
 mp_bcast_am_src                     27  7.0    0.085    0.096    0.085    0.096      11
 rirs_cluster_gradient_coordina     301 10.0    0.045    0.095    0.045    0.095       1
 transfer_pw2rs_300                   2 12.5    0.039    0.043    0.090    0.092       4
 fft_wrap_pw1pw2_100                  4 10.8    0.003    0.004    0.044    0.089       3
 copy_fm_to_dbcsr                   161  9.3    0.000    0.000    0.076    0.088      14
 G_occ_vir                          121  9.5    0.006    0.008    0.076    0.087       0
 mp_bcast_i_src                     113  7.0    0.051    0.084    0.051    0.084       1
 make_images_data                  1010 12.6    0.008    0.008    0.076    0.082       1
 mp_sum_l                          1707 10.5    0.058    0.078    0.058    0.078      14
 solve_AB_eigenproblem                4 10.0    0.032    0.057    0.045    0.078       1
 get_ddapc                            2 10.5    0.000    0.000    0.021    0.078      13
 local_gemm                        7016 12.9    0.039    0.076    0.039    0.076       1
 initialize_ri_rs_grid                1  8.0    0.001    0.003    0.042    0.075      11
 pw_copy_to_array                    14 11.2    0.063    0.068    0.063    0.068      11
 compute_QP_energies                  1  8.0    0.000    0.000    0.062    0.065      14
 pw_axpy                             25  6.6    0.059    0.063    0.059    0.063       9
 hybrid_alltoall_any               1114 13.4    0.009    0.014    0.057    0.063       0
 mp_alltoall_d11v                  1111 11.7    0.051    0.060    0.051    0.060      11
 dbcsr_finalize                    2097 10.8    0.009    0.009    0.055    0.059      11
 pw_grid_assign                       5  7.2    0.044    0.052    0.052    0.053       0
 dbcsr_add_d                        935  9.0    0.001    0.001    0.042    0.053       6
 dbcsr_add_anytype                  935 10.0    0.009    0.021    0.041    0.052       6
 multiply_cannon_metrocomm3        7575 12.6    0.004    0.005    0.036    0.051       0
 rirs_cluster_gradient_products     301 10.0    0.025    0.051    0.025    0.051       1
 to_Gamma_and_mo_real                62  9.0    0.000    0.001    0.050    0.050       3
 Fourier_transform_w_to_t            30  8.0    0.000    0.000    0.033    0.049       7
 cp_fm_scale_and_add                901  9.0    0.033    0.049    0.033    0.049       2
 eval_bandstructure_properties        1  5.0    0.000    0.000    0.045    0.046       1
 calculate_norms                  12750 12.6    0.039    0.044    0.039    0.044       8
 cp_cfm_geeig                         1  6.0    0.000    0.000    0.042    0.042       8
 dbcsr_special_finalize            4040 12.6    0.007    0.007    0.039    0.041       5
 dbcsr_merge_all                   1831 11.9    0.016    0.017    0.034    0.037       8
 pw_copy_from_array                  14 12.8    0.035    0.036    0.035    0.036       6
 dbcsr_iterator_stop               5783 12.1    0.017    0.032    0.018    0.033       0
 diamat_all                          20 11.5    0.021    0.033    0.021    0.033       1
 rirs_cluster_AO_products           301 10.0    0.015    0.032    0.015    0.032      11
 create_and_init_bs_env               1  5.0    0.000    0.000    0.031    0.031      11
 grid_integrate_task_list             2 10.5    0.013    0.031    0.013    0.031       0
 rirs_grid_build_clusters             1  8.0    0.009    0.019    0.014    0.031       2
 rirs_cluster_residual              301 10.0    0.015    0.031    0.015    0.031       1
 calculate_first_density_matrix       1  5.0    0.001    0.006    0.030    0.031       0
 dbcsr_create_new                 11702 12.1    0.021    0.021    0.030    0.031       9
 dbcsr_merge_single_wm             3960 13.6    0.017    0.018    0.028    0.030       5
 mp_sum_iv                          569 11.2    0.020    0.029    0.020    0.029       0
 compute_int_3c                       2  9.0    0.021    0.021    0.028    0.029       5
 transfer_pw2rs_100                   2 12.5    0.005    0.006    0.023    0.029       9
 pw_grid_remap                        4  8.0    0.007    0.007    0.015    0.028       8
 compute_Sigma_x                      1  7.0    0.000    0.000    0.027    0.027       0
 cp_cfm_heevd                         1  7.0    0.000    0.000    0.026    0.027       2
 cp_cfm_heevd_base                    1  8.0    0.026    0.027    0.026    0.027      13
 make_images_sizes                 1010 12.6    0.001    0.001    0.020    0.026       3
 mp_alltoall_i44                   1010 13.6    0.019    0.026    0.019    0.026      10
 rs_gather_matrices                   2 10.5    0.001    0.001    0.019    0.026       6
 transfer_rs2pw_100                   2  9.0    0.007    0.008    0.019    0.025      12
 rs_grid_zero                         5 12.0    0.022    0.024    0.022    0.024       5
 mp_allgather_i34                   505 11.6    0.018    0.024    0.018    0.024      14
 compute_reference_M_PQ_inv_fac      14 10.8    0.000    0.001    0.015    0.023       1
 pw_zero                             25  4.7    0.020    0.023    0.020    0.023      12
 multiply_cannon_metrocomm4        6060 12.6    0.010    0.010    0.021    0.023       8
 extract_masked_blocks              244  9.6    0.010    0.012    0.018    0.022      11
 mp_sum_im3                           5  9.0    0.009    0.022    0.009    0.022      14
 eval_pw_TabLR                        1  2.0    0.009    0.010    0.021    0.022       6
 cp_cfm_cholesky_decompose            2  7.0    0.020    0.021    0.020    0.021      14
 diagonalize_ks_matrix                1  6.0    0.000    0.000    0.020    0.020       1
 cp_fm_geeig_canon                    1  7.0    0.000    0.000    0.020    0.020       1
 multiply_cannon_metrocomm2        5050 12.6    0.008    0.009    0.019    0.020       2
 make_basis_sm                        1  6.0    0.000    0.000    0.019    0.020       3
 write_mo_set_to_restart              1  5.0    0.001    0.012    0.015    0.019       0
 qs_create_task_list                  1  5.0    0.000    0.000    0.005    0.019      14
 fft_wrap_pw1pw2_40                   4 10.8    0.001    0.001    0.013    0.019      10
 generate_qs_task_list                1  6.0    0.001    0.001    0.005    0.018       0
 distribute_tasks                     1  7.0    0.000    0.000    0.004    0.018       7
 dbcsr_work_create                 5975 12.1    0.012    0.012    0.017    0.018       0
 rirs_cluster_d_lP                  301 10.0    0.009    0.018    0.009    0.018       1
 fill_fm_Sigma_c_Gamma_time           1  9.0    0.000    0.000    0.017    0.017       1
 load_balance_distributed             2  8.0    0.000    0.000    0.003    0.017      10
 transfer_pw2rs_40                    2 12.5    0.005    0.006    0.014    0.017       6
 get_current_loads                   12  9.0    0.000    0.000    0.003    0.017       8
 compute_load_list                    4  9.0    0.000    0.000    0.003    0.016       0
 mp_alltoall_l                       13  9.9    0.003    0.016    0.003    0.016      14
 cp_ddapc_init                        1  5.0    0.000    0.000    0.016    0.016       9
 cp_ddapc_create                      1  6.0    0.000    0.000    0.015    0.016       9
 extract_grid_panel                 122  9.5    0.008    0.010    0.013    0.015       5
 dbcsr_data_release               55653 12.7    0.015    0.015    0.015    0.015       2
 dbcsr_data_new                   38192 12.5    0.014    0.015    0.014    0.015       0
 dbcsr_work_destroy_all            5975 13.1    0.009    0.010    0.014    0.015       0
 dbcsr_sort_data                   4421 14.4    0.012    0.014    0.012    0.014       8
 cp_dbcsr_sm_fm_multiply              2  7.5    0.000    0.000    0.014    0.014      14
 cp_fm_triangular_multiply            7 10.0    0.014    0.014    0.014    0.014       7
 pw_multiply_with                     2  9.5    0.013    0.014    0.013    0.014       0
 write_mo_set_low                     1  6.0    0.000    0.001    0.013    0.014       0
 qs_scf_new_mos                       1  5.0    0.000    0.000    0.013    0.014       9
 qs_scf_loop_do_ot                    1  6.0    0.000    0.000    0.013    0.014       0
 rirs_cluster_D_ll                  301 10.0    0.006    0.013    0.006    0.013       5
 subspace_eigenvalues_ks_fm           1  7.0    0.000    0.000    0.013    0.013       5
 transfer_rs2pw_40                    2  9.0    0.005    0.005    0.012    0.013      13
 mp_sum_dv                          375  9.2    0.011    0.013    0.011    0.013      14
 mp_isend_iv                      15134 13.6    0.012    0.013    0.012    0.013       8
 setup_buffer_matrices             1010 11.6    0.004    0.004    0.012    0.013       3
 buffer_matrices_ensure_size       1010 11.6    0.010    0.013    0.010    0.013      11
 ot_scf_mini                          1  7.0    0.000    0.000    0.012    0.013       6
 dbcsr_make_images_dense            114 11.5    0.001    0.001    0.011    0.013      12
 ddapc_eval_gfunc                     1  7.0    0.012    0.013    0.012    0.013       4
 dbcsr_destroy                    11544 10.9    0.008    0.008    0.012    0.012       0
 mp_isend_dv                      14285 13.8    0.012    0.012    0.012    0.012       9
 dbcsr_iterator_start              5783 12.1    0.009    0.009    0.011    0.012       0
 mp_bcast_b_src                       4  6.5    0.011    0.012    0.011    0.012       9
 -------------------------------------------------------------------------------

 The number of warnings for this run is : 2
 
 -------------------------------------------------------------------------------
  **** **** ******  **  PROGRAM ENDED AT                 2026-10-03 18:53:08.838
 ***** ** ***  *** **   PROGRAM RAN ON                                  n2cn0489
 **    ****   ******    PROGRAM RAN BY                                  eprop2d1
 ***** **    ** ** **   PROGRAM PROCESS ID                               1312033
  **** **  *******  **  PROGRAM STOPPED IN /scratch/hpc-prf-metdyn/eprop2d1_Jan/
                                           53_benchmark_RI_opt/418_gw100_fig5_fu
                                           ll_epsfilter_1e12_20261002/calculatio
                                           ns/rc0p5/ri5_rs02/86_C7H8
