 DBCSR| CPU Multiplication driver                                           XSMM (U)
 DBCSR| Multrec recursion limit                                              512 (U)
 DBCSR| Multiplication stack size                                           1000 (D)
 DBCSR| Maximum elements for images                                    UNLIMITED (U)
 DBCSR| Multiplicative factor virtual images                                   1 (U)
 DBCSR| Use multiplication densification                                       T (D)
 DBCSR| Multiplication size stacks                                             3 (U)
 DBCSR| Use memory pool for CPU allocation                                     F (U)
 DBCSR| Number of 3D layers                                               SINGLE (U)
 DBCSR| Use MPI memory allocation                                              F (U)
 DBCSR| Use RMA algorithm                                                      F (U)
 DBCSR| Use Communication thread                                               T (U)
 DBCSR| Communication thread load                                              0 (D)
 DBCSR| MPI: My process id                                                     1
 DBCSR| MPI: Number of processes                                               2
 DBCSR| OMP: Current number of threads                                        64
 DBCSR| OMP: Max number of threads                                            64
 DBCSR| Split modifier for TAS multiplication algorithm                  1.0E+00 (U)


  **** **** ******  **  PROGRAM STARTED AT               2026-09-16 23:59:25.623
 ***** ** ***  *** **   PROGRAM STARTED ON                              n2cn0868
 **    ****   ******    PROGRAM STARTED BY                              eprop2d1
 ***** **    ** ** **   PROGRAM PROCESS ID                                203305
  **** **  *******  **  PROGRAM STARTED IN /scratch/hpc-prf-metdyn/eprop2d1_Jan/
                                           53_benchmark_RI_opt/106_GW100_GTH_RIR
                                           S_riao5_7_c7/calculations/86_C7H8/ria
                                           o5/leb_r03

 CP2K| version string:                 CP2K version 2026.2 (Development Version)
 CP2K| source code revision number:                                      unknown
 CP2K| cp2kflags: omp libint fftw3 libxc parallel scalapack openblas            
 CP2K| is freely available from                            https://www.cp2k.org/
 CP2K| Program compiled at                                   2026-09-15 17:57:52
 CP2K| Program compiled on                                              n2login6
 CP2K| Program compiled for                                               x86_64
 CP2K| Data directory path    /scratch/hpc-prf-metdyn/eprop2d1_Jan/53_benchmark_
 CP2K| Input file name                                                 input.inp
 
 eprop2d1@n2cn0868 has created rank and process                      0    203305
 
 eprop2d1@n2cn0868 is running                                        1 processes

 GLOBAL| Force Environment number                                              1
 GLOBAL| Basis set file name            /scratch/hpc-prf-metdyn/eprop2d1_Jan/53_
 GLOBAL| Potential file name            /scratch/hpc-prf-metdyn/eprop2d1_Jan/53_
 GLOBAL| MM Potential file name                                     MM_POTENTIAL
 GLOBAL| Coordinate file name                                      __STD_INPUT__
 GLOBAL| Method name                                                        CP2K
 GLOBAL| Project name                               gw100_106_86_C7H8_a5_leb_r03
 GLOBAL| Run type                                                         ENERGY
 GLOBAL| FFT library                                                       FFTW3
 GLOBAL| Diagonalization library                                       ScaLAPACK
 GLOBAL| Cholesky decomposition library                                ScaLAPACK
 GLOBAL| DGEMM library                                                      BLAS
 GLOBAL| Direct generalized diagonalization requested                          F
 GLOBAL| Orthonormality check for eigenvectors                          DISABLED
 GLOBAL| Matrix multiplication library                                 ScaLAPACK
 GLOBAL| All-to-all communication in single precision                          F
 GLOBAL| Grid backend                                                       AUTO
 GLOBAL| Global print level                                                  LOW
 GLOBAL| MPI I/O enabled                                                       T
 GLOBAL| Total number of message passing processes                             1
 GLOBAL| Number of distributed systems (nodes)                                 1
 GLOBAL| Number of threads for this process                                   64
 GLOBAL| This output is from process                                           0
 GLOBAL| OpenMP stack size per thread (OMP_STACKSIZE)                       128M
 GLOBAL| CPU model name                          AMD EPYC 7763 64-Core Processor

 MEMORY| system memory details [Kb]
 MEMORY|                        rank 0           min           max       average
 MEMORY| MemTotal            263897628     263897628     263897628     263897628
 MEMORY| MemFree             252242844     252242844     252242844     252242844
 MEMORY| Buffers                365332        365332        365332        365332
 MEMORY| Cached                6943400       6943400       6943400       6943400
 MEMORY| Slab                  1414968       1414968       1414968       1414968
 MEMORY| SReclaimable           368640        368640        368640        368640
 MEMORY| MemLikelyFree       259920216     259920216     259920216     259920216


 GENERATE|  Preliminary Number of Bonds generated:                             0
 GENERATE|  Achieved consistency in connectivity generation.

 *******************************************************************************
 *******************************************************************************
 **                                                                           **
 **     #####                         ##              ##                      **
 **    ##   ##            ##          ##              ##                      **
 **   ##     ##                       ##            ######                    **
 **   ##     ##  ##   ##  ##   #####  ##  ##   ####   ##    #####    #####    **
 **   ##     ##  ##   ##  ##  ##      ## ##   ##      ##   ##   ##  ##   ##   **
 **   ##  ## ##  ##   ##  ##  ##      ####     ###    ##   ######   ######    **
 **    ##  ###   ##   ##  ##  ##      ## ##      ##   ##   ##       ##        **
 **     #######   #####   ##   #####  ##  ##  ####    ##    #####   ##        **
 **           ##                                                    ##        **
 **                                                                           **
 **                                                ... make the atoms dance   **
 **                                                                           **
 **            Copyright (C) by CP2K developers group (2000-2026)             **
 **                      J. Chem. Phys. 152, 194103 (2020)                    **
 **                                                                           **
 *******************************************************************************


 TOTAL NUMBERS AND MAXIMUM NUMBERS

  Total number of            - Atomic kinds:                                   2
                             - Atoms:                                         15
                             - Shell sets:                                    15
                             - Shells:                                        67
                             - Primitive Cartesian functions:                 98
                             - Cartesian basis functions:                    146
                             - Spherical basis functions:                    139

  Maximum angular momentum of- Orbital basis functions:                        2
                             - Local part of the GTH pseudopotential:          2
                             - Non-local part of the GTH pseudopotential:      0


 SCF PARAMETERS         Density guess:                                    ATOMIC
                        --------------------------------------------------------
                        max_scf:                                             500
                        max_scf_history:                                       0
                        max_diis:                                              4
                        --------------------------------------------------------
                        eps_scf:                                        1.00E-08
                        eps_scf_history:                                0.00E+00
                        eps_diis:                                       0.00E+00
                        eps_eigval:                                     1.00E-05
                        --------------------------------------------------------
                        level_shift [a.u.]:                             0.000000
                        --------------------------------------------------------
                        Outer loop SCF in use 
                        No variables optimised in outer loop
                        eps_scf                                         1.00E-08
                        max_scf                                               20
                        No outer loop optimization
                        step_size                                       5.00E-01

 Extrapolation method: initial_guess

 Number of electrons:                                                         36
 Number of occupied orbitals:                                                 18
 Number of molecular orbitals:                                                18

 Number of orbital functions:                                                139
 Number of independent orbital functions:                                    139


 SCF WAVEFUNCTION OPTIMIZATION

  ----------------------------------- OT ---------------------------------------
  Minimizer      : DIIS                : direct inversion
                                         in the iterative subspace
                                         using   7 DIIS vectors
                                         safer DIIS on
  Preconditioner : FULL_KINETIC        : inversion of T + eS
  Lattice FFT   : OFF
  Precond_solver : DEFAULT
  stepsize       :    0.15000000                  energy_gap     :    0.20000000
  eps_taylor     :   0.10000E-15                  max_taylor     :             4
  ----------------------------------- OT ---------------------------------------

  Step     Update method      Time    Convergence         Total energy    Change
  ------------------------------------------------------------------------------
  Decoupling Energy:                                               0.0002486938
     1 OT DIIS     0.15E+00    7.2     0.07613499       -41.1457770160 -4.11E+01
  Decoupling Energy:                                               0.0000102779
     2 OT DIIS     0.15E+00    9.4     0.04070298       -42.5481537975 -1.40E+00
  Decoupling Energy:                                               0.0000036470
     3 OT DIIS     0.15E+00    9.4     0.03181707       -43.0828021475 -5.35E-01
  Decoupling Energy:                                               0.0000079933
     4 OT DIIS     0.15E+00    9.6     0.02518917       -43.5242042286 -4.41E-01
  Decoupling Energy:                                               0.0000176458
     5 OT DIIS     0.15E+00    9.5     0.01841728       -43.9499487151 -4.26E-01
  Decoupling Energy:                                               0.0000180661
     6 OT DIIS     0.15E+00    9.6     0.01370563       -44.2041286630 -2.54E-01
  Decoupling Energy:                                               0.0000144963
     7 OT DIIS     0.15E+00    9.6     0.00960986       -44.3661106439 -1.62E-01
  Decoupling Energy:                                               0.0000080827
     8 OT DIIS     0.15E+00    9.6     0.00641079       -44.4604529233 -9.43E-02
  Decoupling Energy:                                               0.0000054221
     9 OT DIIS     0.15E+00   10.1     0.00451860       -44.4968396390 -3.64E-02
  Decoupling Energy:                                               0.0000026392
    10 OT DIIS     0.15E+00    9.7     0.00307621       -44.5189760397 -2.21E-02
  Decoupling Energy:                                               0.0000010539
    11 OT DIIS     0.15E+00    9.6     0.00221686       -44.5287057281 -9.73E-03
  Decoupling Energy:                                               0.0000005140
    12 OT DIIS     0.15E+00    9.6     0.00155278       -44.5340958649 -5.39E-03
  Decoupling Energy:                                               0.0000001585
    13 OT DIIS     0.15E+00    9.6     0.00114290       -44.5364902799 -2.39E-03
  Decoupling Energy:                                               0.0000000902
    14 OT DIIS     0.15E+00    9.6     0.00081705       -44.5379148500 -1.42E-03
  Decoupling Energy:                                               0.0000001010
    15 OT DIIS     0.15E+00    9.6     0.00061902       -44.5385587950 -6.44E-04
  Decoupling Energy:                                               0.0000001379
    16 OT DIIS     0.15E+00    9.6     0.00047109       -44.5389398775 -3.81E-04
  Decoupling Energy:                                               0.0000001831
    17 OT DIIS     0.15E+00    9.6     0.00033900       -44.5392091692 -2.69E-04
  Decoupling Energy:                                               0.0000002131
    18 OT DIIS     0.15E+00    9.6     0.00026118       -44.5393304302 -1.21E-04
  Decoupling Energy:                                               0.0000002348
    19 OT DIIS     0.15E+00    9.6     0.00019898       -44.5394082310 -7.78E-05
  Decoupling Energy:                                               0.0000002475
    20 OT DIIS     0.15E+00    9.6     0.00015698       -44.5394513841 -4.32E-05
  Decoupling Energy:                                               0.0000002519
    21 OT DIIS     0.15E+00    9.6     0.00012489       -44.5394776585 -2.63E-05
  Decoupling Energy:                                               0.0000002523
    22 OT DIIS     0.15E+00    9.6     0.00009914       -44.5394946134 -1.70E-05
  Decoupling Energy:                                               0.0000002496
    23 OT DIIS     0.15E+00    9.6     0.00008015       -44.5395049291 -1.03E-05
  Decoupling Energy:                                               0.0000002458
    24 OT DIIS     0.15E+00    9.6     0.00006161       -44.5395127532 -7.82E-06
  Decoupling Energy:                                               0.0000002415
    25 OT DIIS     0.15E+00    9.6     0.00004819       -44.5395169087 -4.16E-06
  Decoupling Energy:                                               0.0000002376
    26 OT DIIS     0.15E+00    9.6     0.00003743       -44.5395194036 -2.49E-06
  Decoupling Energy:                                               0.0000002336
    27 OT DIIS     0.15E+00    9.6     0.00002805       -44.5395209394 -1.54E-06
  Decoupling Energy:                                               0.0000002307
    28 OT DIIS     0.15E+00    9.6     0.00002223       -44.5395216385 -6.99E-07
  Decoupling Energy:                                               0.0000002277
    29 OT DIIS     0.15E+00    9.6     0.00001732       -44.5395220944 -4.56E-07
  Decoupling Energy:                                               0.0000002253
    30 OT DIIS     0.15E+00    9.6     0.00001374       -44.5395223483 -2.54E-07
  Decoupling Energy:                                               0.0000002233
    31 OT DIIS     0.15E+00    9.6     0.00001101       -44.5395225000 -1.52E-07
  Decoupling Energy:                                               0.0000002218
    32 OT DIIS     0.15E+00    9.6     0.00000891       -44.5395225969 -9.69E-08
  Decoupling Energy:                                               0.0000002209
    33 OT DIIS     0.15E+00    9.6     0.00000753       -44.5395226559 -5.90E-08
  Decoupling Energy:                                               0.0000002203
    34 OT DIIS     0.15E+00    9.6     0.00000626       -44.5395227063 -5.04E-08
  Decoupling Energy:                                               0.0000002199
    35 OT DIIS     0.15E+00    9.6     0.00000523       -44.5395227436 -3.73E-08
  Decoupling Energy:                                               0.0000002197
    36 OT DIIS     0.15E+00    9.6     0.00000449       -44.5395227690 -2.54E-08
  Decoupling Energy:                                               0.0000002194
    37 OT DIIS     0.15E+00    9.6     0.00000371       -44.5395227933 -2.43E-08
  Decoupling Energy:                                               0.0000002191
    38 OT DIIS     0.15E+00    9.6     0.00000310       -44.5395228093 -1.61E-08
  Decoupling Energy:                                               0.0000002190
    39 OT DIIS     0.15E+00    9.6     0.00000259       -44.5395228206 -1.12E-08
  Decoupling Energy:                                               0.0000002190
    40 OT DIIS     0.15E+00    9.6     0.00000213       -44.5395228289 -8.30E-09
  Decoupling Energy:                                               0.0000002190
    41 OT DIIS     0.15E+00    9.6     0.00000176       -44.5395228342 -5.37E-09
  Decoupling Energy:                                               0.0000002191
    42 OT DIIS     0.15E+00    9.6     0.00000142       -44.5395228380 -3.76E-09
  Decoupling Energy:                                               0.0000002192
    43 OT DIIS     0.15E+00    9.6     0.00000117       -44.5395228402 -2.19E-09
  Decoupling Energy:                                               0.0000002192
    44 OT DIIS     0.15E+00    9.6     0.00000094       -44.5395228416 -1.43E-09
  Decoupling Energy:                                               0.0000002193
    45 OT DIIS     0.15E+00    9.6     0.00000075       -44.5395228425 -8.98E-10
  Decoupling Energy:                                               0.0000002193
    46 OT DIIS     0.15E+00    9.6     0.00000062       -44.5395228430 -4.66E-10
  Decoupling Energy:                                               0.0000002193
    47 OT DIIS     0.15E+00    9.6     0.00000051       -44.5395228433 -3.28E-10
  Decoupling Energy:                                               0.0000002194
    48 OT DIIS     0.15E+00    9.6     0.00000042       -44.5395228435 -2.18E-10
  Decoupling Energy:                                               0.0000002194
    49 OT DIIS     0.15E+00    9.6     0.00000035       -44.5395228436 -1.36E-10
  Decoupling Energy:                                               0.0000002194
    50 OT DIIS     0.15E+00    9.6     0.00000029       -44.5395228437 -9.96E-11
  Decoupling Energy:                                               0.0000002195
    51 OT DIIS     0.15E+00    9.6     0.00000025       -44.5395228438 -7.09E-11
  Decoupling Energy:                                               0.0000002195
    52 OT DIIS     0.15E+00    9.6     0.00000021       -44.5395228439 -5.14E-11
  Decoupling Energy:                                               0.0000002195
    53 OT DIIS     0.15E+00    9.6     0.00000018       -44.5395228439 -3.68E-11
  Decoupling Energy:                                               0.0000002195
    54 OT DIIS     0.15E+00    9.6     0.00000015       -44.5395228439 -2.91E-11
  Decoupling Energy:                                               0.0000002195
    55 OT DIIS     0.15E+00    9.6     0.00000013       -44.5395228440 -2.37E-11
  Decoupling Energy:                                               0.0000002195
    56 OT DIIS     0.15E+00    9.6     0.00000011       -44.5395228440 -1.71E-11
  Decoupling Energy:                                               0.0000002195
    57 OT DIIS     0.15E+00    9.6     0.00000010       -44.5395228440 -1.39E-11
  Decoupling Energy:                                               0.0000002195
    58 OT DIIS     0.15E+00    9.6     0.00000008       -44.5395228440 -1.05E-11
  Decoupling Energy:                                               0.0000002195
    59 OT DIIS     0.15E+00    9.6     0.00000007       -44.5395228440 -7.15E-12
  Decoupling Energy:                                               0.0000002195
    60 OT DIIS     0.15E+00    9.6     0.00000006       -44.5395228440 -5.12E-12
  Decoupling Energy:                                               0.0000002195
    61 OT DIIS     0.15E+00    9.6     0.00000005       -44.5395228440 -3.52E-12
  Decoupling Energy:                                               0.0000002195
    62 OT DIIS     0.15E+00    9.6     0.00000004       -44.5395228440 -2.66E-12
  Decoupling Energy:                                               0.0000002195
    63 OT DIIS     0.15E+00    9.6     0.00000003       -44.5395228440 -1.63E-12
  Decoupling Energy:                                               0.0000002195
    64 OT DIIS     0.15E+00    9.6     0.00000003       -44.5395228440 -1.07E-12
  Decoupling Energy:                                               0.0000002195
    65 OT DIIS     0.15E+00    9.6     0.00000003       -44.5395228440 -1.03E-12
  Decoupling Energy:                                               0.0000002195
    66 OT DIIS     0.15E+00    9.6     0.00000002       -44.5395228440 -5.12E-13
  Decoupling Energy:                                               0.0000002195
    67 OT DIIS     0.15E+00    9.6     0.00000002       -44.5395228440 -3.06E-13
  Decoupling Energy:                                               0.0000002195
    68 OT DIIS     0.15E+00    9.6     0.00000002       -44.5395228440 -4.41E-13
  Decoupling Energy:                                               0.0000002195
    69 OT DIIS     0.15E+00    9.6     0.00000001       -44.5395228440 -2.84E-13
  Decoupling Energy:                                               0.0000002195
    70 OT DIIS     0.15E+00    9.6     0.00000001       -44.5395228440 -2.13E-13
  Decoupling Energy:                                               0.0000002195
    71 OT DIIS     0.15E+00    9.6     0.00000001       -44.5395228440 -1.92E-13
  Decoupling Energy:                                               0.0000002195
    72 OT DIIS     0.15E+00    9.6     9.0709E-09       -44.5395228440 -9.95E-14

  *** SCF run converged in    72 steps ***


  Electronic density on regular grids:        -36.0000000000        0.0000000000
  Core density on regular grids:               36.0000000000       -0.0000000000
  Total charge density on r-space grids:       -0.0000000000
  Total charge density g-space grids:          -0.0000000000

  Overlap energy of the core charge distribution:               0.00000267634191
  Self energy of the core charge distribution:               -104.62884715831160
  Core Hamiltonian energy:                                     33.03338030866331
  Hartree energy:                                              42.01261448976916
  Exchange-correlation energy:                                -14.95667316048991

  Total energy:                                               -44.53952284402714

  outer SCF iter =    1 RMS gradient =   0.91E-08 energy =        -44.5395228440
  outer SCF loop converged in   1 iterations or   72 steps

  
 -------------------------------------------------------------------------------
 -                                                                             -
 -                          BANDSTRUCTURE CALCULATION                          -
 -                                                                             -
 -------------------------------------------------------------------------------
  
 Number of occupied molecular orbitals (MOs) = Number of occupied bands       18
 Number of unoccupied (= virtual) MOs = Number of unoccupied bands           121
 Number of Gaussian basis functions for MOs                                  139
  
 -------------------------------------------------------------------------------
 -                                                                             -
 -                                GW CALCULATION                               -
 -                                                                             -
 -------------------------------------------------------------------------------
  
 Input: Number of time/freq. points                                           30
 Input: ω_max for fitting Σ(iω) (eV)                                        10.0
 Input: Filter threshold for sparse tensor operations                    1.0E-07
 Input: Apply Hedin shift                                                      F
 Input: Available memory per MPI process                                  8.0 GB
 
 Input: RI-RS Tikhonov regularization                                   1.00E-04
 Input: AO grid hard cutoff radius                                        8.00 Å
 Input: MPI ranks per atom in Z_lP solve                                      -1
 Input: Keep sparsity in χ/G/W panels                                          T
 Input: GW flavour                                                          G0W0
 
 Input: RI-RS grid optimization activated                                      T
 Input: Initial RI-RS grid                                              CHOLESKY
 Input: RS points per AO function                                         3.0000
 Input: Initial RS candidates per AO function                            30.0000
 Input: Additional Lebedev degree                                              2
 Input: Cholesky selection matrix                                        D_PRIME
 Input: Cholesky candidate domain                                      FULL_ATOM
 Input: Initial radial quadrature                                       GAPW_LOG
 Input: Cutoff radius for atomic clusters                                  5.0 Å
 Input: Maximum grid optimization iterations                                 300
 Input: L-BFGS history size                                                    7
 Input: L-BFGS relative-function factor                              0.00000E+00
 Input: L-BFGS projected-gradient tolerance                          1.00000E-09
 
 Input: AUTO_RI basis optimization activated:                                  T
 Input: AUTO_RI requested RI/AO ratio:                                       5.0
 Input: AUTO_RI frontier orbital window:                                  5.0 eV
 Input: AUTO_RI neighbor radius:                                           3.0 Å
 
 Cutoff radius for the truncated Coulomb operator in RI metric:            7.0 Å
 Regularization parameter of RI                                          0.0E+00
 Regularization parameter of minimax grids                               1.0E-06
 
 AUTO_RI| Number of automatic RI functions for χ, ε, W:                      695
 AUTO_RI| Total RI basis optimization time:                               16.7 s
  Decoupling Energy:                                               0.0000002195
 
 SCF direct band gap (eV)                                                   4.81
 Max. SCF eigval diff. (eV)                                               231.52
 E-Range for minimax grid                                                  48.08
 Number of Padé parameters for analytic continuation:                         16
 
 RI-RS basis radii (Å):
     Kind  Elem     r_AO (Å)     r_RI (Å)
        1    C         8.0299        5.0785
        2    H         9.5011        6.0090
 
 RI-RS initialization: atomic kind                                             1
 RI-RS initialization: Lebedev degree                                         11
 RI-RS initialization: radial shells                                           8
 RI-RS initialization: candidates per atom                                   400
 RI-RS initialization: retained points per atom                               39
 RI-RS initialization: atomic kind                                             2
 RI-RS initialization: Lebedev degree                                          7
 RI-RS initialization: radial shells                                           7
 RI-RS initialization: candidates per atom                                   182
 RI-RS initialization: retained points per atom                               18
 RI-RS initialization: largest cluster candidate count                      4256
 RI-RS initialization: most pivots in one cluster                            879
 RI-RS initialization: most stored AO values in one cluster               587152
 RI-RS initialization: wall time [s]                                       1.225
 Started RI-RS grid optimization
 RI-RS grid initial normalized error                          3.383555516183E-03
 RI-RS grid optimization completed, execution time:                      906.5 s
 Normalized 3C error:                                                    9.3E-06
 Maximum absolute 3C error:                                              6.7E-02
 Optimized points outside molecular Voronoi cells:                           138 / 417
 Total grid points used for RI-RS:                                           417
 
 RI-RS grid row-blocks of Φ_μ(r_l)                                            22
 RI-RS grid points per block (max)                                            32
 
 Percentage of non-zero matrix elements in Φ_μ(r_l)                     100.00 %
 
 RI-RS memory estimate per MPI process:
   Available memory per process (system)                               265.07 GB
   Required for Z_lP (dense upper bound; actual is sparser)              0.00 GB
   Required for χ, W, Σ panels (peak per panel step)                     0.01 GB
   Required for Z_lP solve peak (D_local+φ, worst-case atom)             0.01 GB
   Worst-case local-grid number of grid points:                              417
   Worst-case memory D_local:                                            0.00 GB
 
 Started computing Z_lP
 Computed Z_lP (MPI rank 0) for atom          1 / 15,    Execution time    0.1 s
 Computed Z_lP (MPI rank 0) for atom          2 / 15,    Execution time    0.1 s
 Computed Z_lP (MPI rank 0) for atom          3 / 15,    Execution time    0.1 s
 Computed Z_lP (MPI rank 0) for atom          4 / 15,    Execution time    0.1 s
 Computed Z_lP (MPI rank 0) for atom          5 / 15,    Execution time    0.1 s
 Computed Z_lP (MPI rank 0) for atom          6 / 15,    Execution time    0.1 s
 Computed Z_lP (MPI rank 0) for atom          7 / 15,    Execution time    0.0 s
 Computed Z_lP (MPI rank 0) for atom          8 / 15,    Execution time    0.0 s
 Computed Z_lP (MPI rank 0) for atom          9 / 15,    Execution time    0.0 s
 Computed Z_lP (MPI rank 0) for atom         10 / 15,    Execution time    0.0 s
 Computed Z_lP (MPI rank 0) for atom         11 / 15,    Execution time    0.0 s
 Computed Z_lP (MPI rank 0) for atom         12 / 15,    Execution time    0.1 s
 Computed Z_lP (MPI rank 0) for atom         13 / 15,    Execution time    0.0 s
 Computed Z_lP (MPI rank 0) for atom         14 / 15,    Execution time    0.0 s
 Computed Z_lP (MPI rank 0) for atom         15 / 15,    Execution time    0.0 s
 Computed Z_lP (all MPI ranks) for all atoms,            Execution time    0.8 s

 Number of batches for χ, Σ matrices                                           1
 
 Percentage of non-zero matrix elements in Z_lP                         100.00 %
 Percentage of non-zero matrix elements in G_ll', χ_ll', W_ll'          100.00 %
 Percentage of non-zero matrix elements in χ_PQ for time point 1        100.00 %
 
 Computed χ(iτ,k=0) for time point            1 / 30,    Execution time    0.1 s
 Computed χ(iτ,k=0) for time point            2 / 30,    Execution time    0.0 s
 Computed χ(iτ,k=0) for time point            3 / 30,    Execution time    0.0 s
 Computed χ(iτ,k=0) for time point            4 / 30,    Execution time    0.0 s
 Computed χ(iτ,k=0) for time point            5 / 30,    Execution time    0.0 s
 Computed χ(iτ,k=0) for time point            6 / 30,    Execution time    0.0 s
 Computed χ(iτ,k=0) for time point            7 / 30,    Execution time    0.0 s
 Computed χ(iτ,k=0) for time point            8 / 30,    Execution time    0.0 s
 Computed χ(iτ,k=0) for time point            9 / 30,    Execution time    0.0 s
 Computed χ(iτ,k=0) for time point           10 / 30,    Execution time    0.0 s
 Computed χ(iτ,k=0) for time point           11 / 30,    Execution time    0.0 s
 Computed χ(iτ,k=0) for time point           12 / 30,    Execution time    0.0 s
 Computed χ(iτ,k=0) for time point           13 / 30,    Execution time    0.0 s
 Computed χ(iτ,k=0) for time point           14 / 30,    Execution time    0.0 s
 Computed χ(iτ,k=0) for time point           15 / 30,    Execution time    0.0 s
 Computed χ(iτ,k=0) for time point           16 / 30,    Execution time    0.0 s
 Computed χ(iτ,k=0) for time point           17 / 30,    Execution time    0.0 s
 Computed χ(iτ,k=0) for time point           18 / 30,    Execution time    0.0 s
 Computed χ(iτ,k=0) for time point           19 / 30,    Execution time    0.0 s
 Computed χ(iτ,k=0) for time point           20 / 30,    Execution time    0.0 s
 Computed χ(iτ,k=0) for time point           21 / 30,    Execution time    0.0 s
 Computed χ(iτ,k=0) for time point           22 / 30,    Execution time    0.0 s
 Computed χ(iτ,k=0) for time point           23 / 30,    Execution time    0.0 s
 Computed χ(iτ,k=0) for time point           24 / 30,    Execution time    0.0 s
 Computed χ(iτ,k=0) for time point           25 / 30,    Execution time    0.0 s
 Computed χ(iτ,k=0) for time point           26 / 30,    Execution time    0.0 s
 Computed χ(iτ,k=0) for time point           27 / 30,    Execution time    0.0 s
 Computed χ(iτ,k=0) for time point           28 / 30,    Execution time    0.0 s
 Computed χ(iτ,k=0) for time point           29 / 30,    Execution time    0.0 s
 Computed χ(iτ,k=0) for time point           30 / 30,    Execution time    0.0 s
 
 Computed W(iτ),                                         Execution time    1.8 s
 
 Computed Σ^x(k=0),                                      Execution time    0.0 s
 
 Computed Σ^c(iτ) for time point              1 / 30,    Execution time    0.0 s
 Computed Σ^c(iτ) for time point              2 / 30,    Execution time    0.0 s
 Computed Σ^c(iτ) for time point              3 / 30,    Execution time    0.0 s
 Computed Σ^c(iτ) for time point              4 / 30,    Execution time    0.0 s
 Computed Σ^c(iτ) for time point              5 / 30,    Execution time    0.0 s
 Computed Σ^c(iτ) for time point              6 / 30,    Execution time    0.0 s
 Computed Σ^c(iτ) for time point              7 / 30,    Execution time    0.0 s
 Computed Σ^c(iτ) for time point              8 / 30,    Execution time    0.0 s
 Computed Σ^c(iτ) for time point              9 / 30,    Execution time    0.0 s
 Computed Σ^c(iτ) for time point             10 / 30,    Execution time    0.0 s
 Computed Σ^c(iτ) for time point             11 / 30,    Execution time    0.0 s
 Computed Σ^c(iτ) for time point             12 / 30,    Execution time    0.0 s
 Computed Σ^c(iτ) for time point             13 / 30,    Execution time    0.0 s
 Computed Σ^c(iτ) for time point             14 / 30,    Execution time    0.0 s
 Computed Σ^c(iτ) for time point             15 / 30,    Execution time    0.0 s
 Computed Σ^c(iτ) for time point             16 / 30,    Execution time    0.0 s
 Computed Σ^c(iτ) for time point             17 / 30,    Execution time    0.0 s
 Computed Σ^c(iτ) for time point             18 / 30,    Execution time    0.0 s
 Computed Σ^c(iτ) for time point             19 / 30,    Execution time    0.0 s
 Computed Σ^c(iτ) for time point             20 / 30,    Execution time    0.0 s
 Computed Σ^c(iτ) for time point             21 / 30,    Execution time    0.0 s
 Computed Σ^c(iτ) for time point             22 / 30,    Execution time    0.0 s
 Computed Σ^c(iτ) for time point             23 / 30,    Execution time    0.0 s
 Computed Σ^c(iτ) for time point             24 / 30,    Execution time    0.0 s
 Computed Σ^c(iτ) for time point             25 / 30,    Execution time    0.0 s
 Computed Σ^c(iτ) for time point             26 / 30,    Execution time    0.0 s
 Computed Σ^c(iτ) for time point             27 / 30,    Execution time    0.0 s
 Computed Σ^c(iτ) for time point             28 / 30,    Execution time    0.0 s
 Computed Σ^c(iτ) for time point             29 / 30,    Execution time    0.0 s
 Computed Σ^c(iτ) for time point             30 / 30,    Execution time    0.0 s

 *** WARNING in post_scf_bandstructure_utils.F:3164 :: G0W0 reorders the   ***
 *** empty levels: the SCF conduction band minimum (SCF LUMO) is level 19, ***
 *** whereas the G0W0 conduction band minimum (G0W0 LUMO) is level 21. The ***
 *** SCF and G0W0 band edges printed below therefore belong to different   ***
 *** orbitals; see the eigenvalues in the file bandstructure_SCF_and_G0W0. ***

 
 SCF valence band maximum (eV):                                           -6.043
 SCF conduction band minimum (eV):                                        -1.228
 SCF indirect band gap (eV):                                               4.815
 SCF direct band gap (eV):                                                 4.815
 
 G0W0 valence band maximum (eV):                                          -7.935
 G0W0 conduction band minimum (eV):                                        1.433
 G0W0 indirect band gap (eV):                                              9.368
 G0W0 direct band gap (eV):                                                9.368
 
 Hartree-Fock with SCF orbitals valence band maximum (eV):                -8.493
 Hartree-Fock with SCF orbitals conduction band minimum (eV)               2.245
 Hartree-Fock with SCF orbitals indirect band gap (eV):                   10.738
 Hartree-Fock with SCF orbitals direct band gap (eV):                     10.738

 ENERGY| Total FORCE_EVAL ( QS ) energy [hartree]            -44.539522844027140

 -------------------------------------------------------------------------------
 -                                                                             -
 -                                DBCSR STATISTICS                             -
 -                                                                             -
 -------------------------------------------------------------------------------
 COUNTER                                    TOTAL       BLAS       SMM       ACC
 flops     7 x     7 x    47               322420     100.0%      0.0%      0.0%     
 flops     7 x     7 x    45               370440     100.0%      0.0%      0.0%     
 flops     7 x     7 x    44               543312     100.0%      0.0%      0.0%     
 flops     7 x    18 x    47               663264     100.0%      0.0%      0.0%     
 flops     7 x    18 x    45               782460     100.0%      0.0%      0.0%     
 flops    18 x    18 x    45               874800     100.0%      0.0%      0.0%     
 flops    18 x    18 x    47               913680     100.0%      0.0%      0.0%     
 flops    18 x     7 x    45               929880     100.0%      0.0%      0.0%     
 flops    18 x     7 x    47               971208     100.0%      0.0%      0.0%     
 flops     7 x    18 x    44              1130976     100.0%      0.0%      0.0%     
 flops    18 x    18 x    44              1283040     100.0%      0.0%      0.0%     
 flops    18 x     7 x    44              1363824     100.0%      0.0%      0.0%     
 flops     7 x    32 x    47              1473920     100.0%      0.0%      0.0%     
 flops     7 x    32 x    45              1693440     100.0%      0.0%      0.0%     
 flops    32 x     7 x    45              1975680     100.0%      0.0%      0.0%     
 flops    32 x     7 x    47              2063488     100.0%      0.0%      0.0%     
 flops     7 x    32 x    44              2483712     100.0%      0.0%      0.0%     
 flops    32 x     7 x    44              2897664     100.0%      0.0%      0.0%     
 flops    32 x    18 x    45              5495040     100.0%      0.0%      0.0%     
 flops    18 x    32 x    45              5495040     100.0%      0.0%      0.0%     
 flops    32 x    18 x    47              5739264     100.0%      0.0%      0.0%     
 flops    18 x    32 x    47              5739264     100.0%      0.0%      0.0%     
 flops     6 x     6 x     7              6915888     100.0%      0.0%      0.0%     
 flops     7 x     6 x     7              7227108     100.0%      0.0%      0.0%     
 flops    18 x    18 x    18              7488288     100.0%      0.0%      0.0%     
 flops    32 x    18 x    44              8059392     100.0%      0.0%      0.0%     
 flops    18 x    32 x    44              8059392     100.0%      0.0%      0.0%     
 flops     7 x    45 x     7              8207010     100.0%      0.0%      0.0%     
 flops     7 x    47 x     7              8567160     100.0%      0.0%      0.0%     
 flops    32 x    32 x    45              9031680     100.0%      0.0%      0.0%     
 flops    32 x    32 x    47              9433088     100.0%      0.0%      0.0%     
 flops     6 x    18 x    18             11166336     100.0%      0.0%      0.0%     
 flops     7 x    44 x     7             12030480     100.0%      0.0%      0.0%     
 flops     6 x    18 x     6             12690432     100.0%      0.0%      0.0%     
 flops    13 x     6 x     7             13126932     100.0%      0.0%      0.0%     
 flops    32 x    32 x    44             13246464     100.0%      0.0%      0.0%     
 flops     7 x     7 x   139             13349560     100.0%      0.0%      0.0%     
 flops     6 x    13 x     7             13623792     100.0%      0.0%      0.0%     
 flops     7 x    13 x     7             13961766     100.0%      0.0%      0.0%     
 flops    45 x    45 x     7             14458500     100.0%      0.0%      0.0%     
 flops     7 x     7 x     6             14509488     100.0%      0.0%      0.0%     
 flops    45 x    47 x     7             15041880     100.0%      0.0%      0.0%     
 flops    47 x    45 x     7             15101100     100.0%      0.0%      0.0%     
 flops    47 x    47 x     7             15710408     100.0%      0.0%      0.0%     
 flops     7 x    45 x    45             17463600     100.0%      0.0%      0.0%     
 flops     6 x    18 x   139             17534016     100.0%      0.0%      0.0%     
 flops     7 x    45 x    47             18239760     100.0%      0.0%      0.0%     
 flops     7 x    47 x    45             18239760     100.0%      0.0%      0.0%     
 flops     7 x     6 x     6             18661104     100.0%      0.0%      0.0%     
 flops     7 x    47 x    47             19050416     100.0%      0.0%      0.0%     
 flops     7 x     6 x    18             20768832     100.0%      0.0%      0.0%     
 flops    18 x     6 x     7             21110544     100.0%      0.0%      0.0%     
 flops    13 x    18 x    18             21169512     100.0%      0.0%      0.0%     
 flops    44 x    45 x     7             21205800     100.0%      0.0%      0.0%     
 flops    45 x    44 x     7             21344400     100.0%      0.0%      0.0%     
 flops    44 x    47 x     7             22061424     100.0%      0.0%      0.0%     
 flops    47 x    44 x     7             22293040     100.0%      0.0%      0.0%     
 flops     6 x     6 x    18             23492592     100.0%      0.0%      0.0%     
 flops    18 x    45 x     7             23519160     100.0%      0.0%      0.0%     
 flops    13 x    18 x     6             24058944     100.0%      0.0%      0.0%     
 flops     6 x    18 x    13             24058944     100.0%      0.0%      0.0%     
 flops    18 x    47 x     7             24481548     100.0%      0.0%      0.0%     
 flops     7 x    45 x    18             24505740     100.0%      0.0%      0.0%     
 flops     7 x    44 x    45             25613280     100.0%      0.0%      0.0%     
 flops     7 x    45 x    44             25613280     100.0%      0.0%      0.0%     
 flops     7 x    47 x    18             25677792     100.0%      0.0%      0.0%     
 flops    13 x    13 x     7             25850916     100.0%      0.0%      0.0%     
 flops     7 x    44 x    47             26751648     100.0%      0.0%      0.0%     
 flops     7 x    47 x    44             26751648     100.0%      0.0%      0.0%     
 flops     7 x     7 x    13             28313376     100.0%      0.0%      0.0%     
 flops    44 x    44 x     7             31305120     100.0%      0.0%      0.0%     
 flops     6 x     6 x    32             32325120     100.0%      0.0%      0.0%     
 flops    13 x    18 x   139             33241572     100.0%      0.0%      0.0%     
 flops    32 x     6 x     7             33763968     100.0%      0.0%      0.0%     
 flops     7 x     6 x    32             34253184     100.0%      0.0%      0.0%     
 flops    18 x    44 x     7             34439328     100.0%      0.0%      0.0%     
 flops     7 x    44 x    18             36024912     100.0%      0.0%      0.0%     
 flops     7 x     6 x    13             36140832     100.0%      0.0%      0.0%     
 flops     7 x    13 x     6             36167040     100.0%      0.0%      0.0%     
 flops     7 x    44 x    44             37566144     100.0%      0.0%      0.0%     
 flops    32 x    45 x     7             38082240     100.0%      0.0%      0.0%     
 flops     7 x    45 x    32             39070080     100.0%      0.0%      0.0%     
 flops     7 x    18 x   139             39231360     100.0%      0.0%      0.0%     
 flops    18 x     7 x   139             39231360     100.0%      0.0%      0.0%     
 flops     7 x    13 x    18             39439764     100.0%      0.0%      0.0%     
 flops    32 x    47 x     7             39774784     100.0%      0.0%      0.0%     
 flops     7 x    47 x    32             40848640     100.0%      0.0%      0.0%     
 flops    18 x    13 x     7             40858272     100.0%      0.0%      0.0%     
 flops    45 x    45 x    18             41115600     100.0%      0.0%      0.0%     
 flops    18 x     7 x     6             41702472     100.0%      0.0%      0.0%     
 flops     7 x    18 x     6             42100128     100.0%      0.0%      0.0%     
 flops    47 x    45 x    18             42942960     100.0%      0.0%      0.0%     
 flops    45 x    47 x    18             42942960     100.0%      0.0%      0.0%     
 flops    13 x     6 x    18             43894656     100.0%      0.0%      0.0%     
 flops     6 x    13 x    18             44470296     100.0%      0.0%      0.0%     
 flops    47 x    47 x    18             44851536     100.0%      0.0%      0.0%     
 flops    13 x    18 x    13             45611748     100.0%      0.0%      0.0%     
 flops    18 x    45 x    45             51321600     100.0%      0.0%      0.0%     
 flops    18 x    45 x    47             53602560     100.0%      0.0%      0.0%     
 flops    18 x    47 x    45             53602560     100.0%      0.0%      0.0%     
 flops    18 x     6 x     6             54237600     100.0%      0.0%      0.0%     
 flops    32 x    44 x     7             55824384     100.0%      0.0%      0.0%     
 flops    18 x    47 x    47             55984896     100.0%      0.0%      0.0%     
 flops     7 x    44 x    32             57322496     100.0%      0.0%      0.0%     
 flops    44 x    45 x    18             60302880     100.0%      0.0%      0.0%     
 flops    45 x    44 x    18             60445440     100.0%      0.0%      0.0%     
 flops    32 x     7 x   139             61026560     100.0%      0.0%      0.0%     
 flops     7 x    32 x   139             61026560     100.0%      0.0%      0.0%     
 flops    13 x     6 x    32             61281792     100.0%      0.0%      0.0%     
 flops    18 x     6 x    18             61422624     100.0%      0.0%      0.0%     
 flops    44 x    47 x    18             62983008     100.0%      0.0%      0.0%     
 flops    47 x    44 x    18             63131904     100.0%      0.0%      0.0%     
 flops     6 x    13 x    32             63732864     100.0%      0.0%      0.0%     
 flops    32 x    13 x     7             65013312     100.0%      0.0%      0.0%     
 flops     7 x    13 x    32             65857792     100.0%      0.0%      0.0%     
 flops     7 x    32 x     6             66643584     100.0%      0.0%      0.0%     
 flops    32 x     7 x     6             67917696     100.0%      0.0%      0.0%     
 flops    45 x    45 x    32             68428800     100.0%      0.0%      0.0%     
 flops     7 x    13 x    13             69576962     100.0%      0.0%      0.0%     
 flops     7 x     7 x   695             70085190     100.0%      0.0%      0.0%     
 flops    18 x    45 x    18             70421400     100.0%      0.0%      0.0%     
 flops    47 x    45 x    32             71470080     100.0%      0.0%      0.0%     
 flops    45 x    47 x    32             71470080     100.0%      0.0%      0.0%     
 flops    18 x    47 x    18             73703520     100.0%      0.0%      0.0%     
 flops    47 x    47 x    32             74646528     100.0%      0.0%      0.0%     
 flops    18 x    44 x    45             75271680     100.0%      0.0%      0.0%     
 flops    18 x    45 x    44             75271680     100.0%      0.0%      0.0%     
 flops    18 x    44 x    47             78617088     100.0%      0.0%      0.0%     
 flops    18 x    47 x    44             78617088     100.0%      0.0%      0.0%     
 flops    32 x    45 x    45             79833600     100.0%      0.0%      0.0%     
 flops    18 x     7 x    13             81883620     100.0%      0.0%      0.0%     
 flops     7 x    18 x    13             81958968     100.0%      0.0%      0.0%     
 flops    32 x    45 x    47             83381760     100.0%      0.0%      0.0%     
 flops    32 x    47 x    45             83381760     100.0%      0.0%      0.0%     
 flops    32 x     6 x     6             85676544     100.0%      0.0%      0.0%     
 flops    13 x    13 x    18             86027760     100.0%      0.0%      0.0%     
 flops    32 x    47 x    47             87087616     100.0%      0.0%      0.0%     
 flops    44 x    44 x    18             88653312     100.0%      0.0%      0.0%     
 flops    32 x     6 x    18             97314048     100.0%      0.0%      0.0%     
 flops    18 x     6 x    32            100244736     100.0%      0.0%      0.0%     
 flops    44 x    45 x    32            100362240     100.0%      0.0%      0.0%     
 flops    45 x    44 x    32            100362240     100.0%      0.0%      0.0%     
 flops    18 x    44 x    18            103413024     100.0%      0.0%      0.0%     
 flops    44 x    47 x    32            104822784     100.0%      0.0%      0.0%     
 flops    47 x    44 x    32            104822784     100.0%      0.0%      0.0%     
 flops    18 x    13 x     6            105148368     100.0%      0.0%      0.0%     
 flops    18 x     6 x    13            105294384     100.0%      0.0%      0.0%     
 flops    18 x    44 x    44            110398464     100.0%      0.0%      0.0%     
 flops    18 x    45 x    32            112596480     100.0%      0.0%      0.0%     
 flops    32 x    45 x    18            113736960     100.0%      0.0%      0.0%     
 flops    18 x    13 x    18            116647128     100.0%      0.0%      0.0%     
 flops    32 x    44 x    45            117089280     100.0%      0.0%      0.0%     
 flops    32 x    45 x    44            117089280     100.0%      0.0%      0.0%     
 flops    18 x    47 x    32            117925632     100.0%      0.0%      0.0%     
 flops    32 x    47 x    18            119116800     100.0%      0.0%      0.0%     
 flops    13 x    13 x    32            120847168     100.0%      0.0%      0.0%     
 flops    18 x    18 x     6            120967344     100.0%      0.0%      0.0%     
 flops    32 x    44 x    47            122293248     100.0%      0.0%      0.0%     
 flops    32 x    47 x    44            122293248     100.0%      0.0%      0.0%     
 flops     7 x    32 x    13            129659712     100.0%      0.0%      0.0%     
 flops    32 x     7 x    13            129915968     100.0%      0.0%      0.0%     
 flops    18 x    18 x   139            140692464     100.0%      0.0%      0.0%     
 flops    44 x    44 x    32            147197952     100.0%      0.0%      0.0%     
 flops    32 x     6 x    32            159571968     100.0%      0.0%      0.0%     
 flops    32 x     6 x    13            165345024     100.0%      0.0%      0.0%     
 flops    18 x    44 x    32            165394944     100.0%      0.0%      0.0%     
 flops    32 x    13 x     6            165474816     100.0%      0.0%      0.0%     
 flops    32 x    44 x    18            167219712     100.0%      0.0%      0.0%     
 flops    32 x    44 x    44            171730944     100.0%      0.0%      0.0%     
 flops    32 x    18 x   139            179343360     100.0%      0.0%      0.0%     
 flops    18 x    32 x   139            179343360     100.0%      0.0%      0.0%     
 flops    32 x    45 x    32            180172800     100.0%      0.0%      0.0%     
 flops    32 x    13 x    18            184998528     100.0%      0.0%      0.0%     
 flops    32 x    47 x    32            187891712     100.0%      0.0%      0.0%     
 flops    18 x    32 x     6            191759616     100.0%      0.0%      0.0%     
 flops    18 x    13 x    32            193729536     100.0%      0.0%      0.0%     
 flops    32 x    18 x     6            196819200     100.0%      0.0%      0.0%     
 flops    18 x    13 x    13            203035248     100.0%      0.0%      0.0%     
 flops     7 x    18 x   695            205964640     100.0%      0.0%      0.0%     
 flops    18 x     7 x   695            205964640     100.0%      0.0%      0.0%     
 flops    18 x    18 x    13            236352168     100.0%      0.0%      0.0%     
 flops    32 x    44 x    32            264028160     100.0%      0.0%      0.0%     
 flops    32 x    32 x   139            278978560     100.0%      0.0%      0.0%     
 flops    32 x    13 x    32            308865024     100.0%      0.0%      0.0%     
 flops    32 x    32 x     6            311070720     100.0%      0.0%      0.0%     
 flops    32 x    13 x    13            318087744     100.0%      0.0%      0.0%     
 flops    32 x     7 x   695            320389440     100.0%      0.0%      0.0%     
 flops     7 x    32 x   695            320389440     100.0%      0.0%      0.0%     
 flops    18 x    32 x    13            376286976     100.0%      0.0%      0.0%     
 flops    32 x    18 x    13            379207296     100.0%      0.0%      0.0%     
 flops    32 x    32 x    13            594567168     100.0%      0.0%      0.0%     
 flops    18 x    18 x   695            605283840     100.0%      0.0%      0.0%     
 flops    32 x    18 x   695            941552640     100.0%      0.0%      0.0%     
 flops    18 x    32 x   695            941552640     100.0%      0.0%      0.0%     
 flops    32 x    32 x   695           1464637440     100.0%      0.0%      0.0%     
 flops inhomo. stacks                 38954688960     100.0%      0.0%      0.0%
 flops total                        57.373536E+09     100.0%      0.0%      0.0%
 flops max/rank                     57.373536E+09     100.0%      0.0%      0.0%
 matmuls inhomo. stacks                    233761     100.0%      0.0%      0.0%
 matmuls total                            1677330     100.0%      0.0%      0.0%
 number of processed stacks                 51318     100.0%      0.0%      0.0%
 average stack size                                    32.7       0.0       0.0
 marketing flops                    51.321913E+09
 -------------------------------------------------------------------------------
 # multiplications                           2074
 max memory usage/rank              85.276426E+09
 # max total images/rank                        1
 # max 3D layers                                1
 # MPI messages exchanged                       0
 -------------------------------------------------------------------------------
 -                                                                             -
 -                      DBCSR MESSAGE PASSING PERFORMANCE                      -
 -                                                                             -
 -------------------------------------------------------------------------------
 ROUTINE             CALLS      AVE VOLUME [Bytes]
 MP_Bcast              196                     12.
 MP_Allreduce        10060                     12.
 MP_Alltoall          8519                 188273.
 MP_ISend             7996                   1693.
 MP_IRecv             7996                   1693.
 -------------------------------------------------------------------------------

 -------------------------------------------------------------------------------
 -                                                                             -
 -                                GRID STATISTICS                              -
 -                                                                             -
 -------------------------------------------------------------------------------
 LP    KERNEL             BACKEND                              COUNT     PERCENT
 3     collocate ortho    CPU                                 153446      22.91%
 3     integrate ortho    CPU                                 153446      22.91%
 2     collocate ortho    CPU                                 111690      16.68%
 2     integrate ortho    CPU                                 111690      16.68%
 4     collocate ortho    CPU                                  69715      10.41%
 4     integrate ortho    CPU                                  69715      10.41%
 0     collocate general  CPU                                     15       0.00%
 -------------------------------------------------------------------------------

 -------------------------------------------------------------------------------
 -                                                                             -
 -                          OFFLOAD MEMPOOL STATISTICS                         -
 -                                                                             -
 -------------------------------------------------------------------------------
 Memory consumption                Number of allocations  Used [MiB]  Size [MiB]
 Host                                                  6         425    21382918
 -------------------------------------------------------------------------------

 MEMORY| Estimated peak process memory [MiB]                               37663

 -------------------------------------------------------------------------------
 -                                                                             -
 -                         MESSAGE PASSING PERFORMANCE                         -
 -                                                                             -
 -------------------------------------------------------------------------------

 ROUTINE             CALLS      AVE VOLUME [Bytes]
 MP_Group                5
 MP_Bcast             2754                   1117.
 MP_Allreduce         9539                    962.
 MP_Sync                85
 MP_comm_split          82
 -------------------------------------------------------------------------------


 -------------------------------------------------------------------------------
 -                                                                             -
 -                           R E F E R E N C E S                               -
 -                                                                             -
 -------------------------------------------------------------------------------
 
 CP2K version 2026.2 (Development Version), the CP2K developers group (2026).
 CP2K is freely available from https://www.cp2k.org/ .
 
 M. Iannuzzi, J. Wilhelm, F. Stein, A. Bussy, H. Elgabarty, D. Golze, A. Hehn, 
 M. Graml, S. Marek, B. Sertcan Gökmen, C. Schran, H. Forbert, R. Z. 
 Khaliullin, A. Kozhevnikov, M. Taillefumier, R. Meli, V. V. Rybkin, M. Brehm, 
 R. Schade, O. Schütt, J. V. Pototschnig, H. Mirhosseini, A. Knüpfer, D. Marx, 
 M. Krack, J. Hutter, T. D. Kühne.
 J. Phys. Chem. B 130, 1237-1310 (2026).
 The CP2K Program Package Made Simple.
 https://doi.org/10.1021/acs.jpcb.5c05851

 M. Graml, K. Zollner, D. Hernangómez-Pérez, P. E. Faria Junior, J. Wilhelm.
 J. Chem. Theory Comput. 20, 2202-2208 (2024).
 Low-scaling GW algorithm applied to twisted transition-metal dichalcogenide 
 heterobilayers.
 https://doi.org/10.1021/acs.jctc.3c01230

 T. D. Kühne, M. Iannuzzi, M. Del Ben, V. V. Rybkin, P. Seewald, F. Stein, T. 
 Laino, R. Z. Khaliullin, O. Schütt, F. Schiffmann, D. Golze, J. Wilhelm, S. 
 Chulkov, M. H. Bani-Hashemian, V. Weber, U. Borstnik, M. Taillefumier, A. S. 
 Jakobovits, A. Lazzaro, H. Pabst, T. Müller, R. Schade, M. Guidon, S. 
 Andermatt, N. Holmberg, G. K. Schenter, A. Hehn, A. Bussy, F. Belleflamme, G. 
 Tabacchi, A. Glöß, M. Lass, I. Bethune, C. J. Mundy, C. Plessl, M. Watkins, 
 J. VandeVondele, M. Krack, J. Hutter.
 J. Chem. Phys. 152, 194103 (2020).
 CP2K: An electronic structure and molecular dynamics software package - 
 Quickstep: Efficient and accurate electronic structure calculations.
 https://doi.org/10.1063/5.0007045

 O. Schuett, P. Messmer, J. Hutter, J. VandeVondele.
 Electronic Structure Calculations on Graphics Processing Units, 173-190 (2016).
 GPU-Accelerated Sparse Matrix-Matrix Multiplication for Linear Scaling Density 
 Functional Theory.
 https://doi.org/10.1002/9781118670712.ch8

 U. Borstnik, J. VandeVondele, V. Weber, J. Hutter.
 Parallel Comput. 40, 47-58 (2014).
 Sparse matrix multiplication: The distributed block-compressed sparse row 
 library.
 https://doi.org/10.1016/j.parco.2014.03.012

 J. VandeVondele, J. Hutter.
 J. Chem. Phys. 127, 114105 (2007).
 Gaussian basis sets for accurate calculations on molecular systems in gas and 
 condensed phases.
 https://doi.org/10.1063/1.2770708

 J. VandeVondele, M. Krack, F. Mohamed, M. Parrinello, T. Chassaing, J. Hutter.
 Comput. Phys. Commun. 167, 103-128 (2005).
 QUICKSTEP: Fast and accurate density functional calculations using a mixed 
 Gaussian and plane waves approach.
 https://doi.org/10.1016/j.cpc.2004.12.014

 M. Krack.
 Theor. Chem. Acc. 114, 145-152 (2005).
 Pseudopotentials for H to Kr optimized for gradient-corrected 
 exchange-correlation functionals.
 https://doi.org/10.1007/s00214-005-0655-y

 M. Frigo, S. G. Johnson.
 Proc. IEEE 93, 216-231 (2005).
 The design and implementation of FFTW3.
 https://doi.org/10.1109/JPROC.2004.840301

 J. VandeVondele, J. Hutter.
 J. Chem. Phys. 118, 4365-4369 (2003).
 An efficient orbital transformation method for electronic structure 
 calculations.
 https://doi.org/10.1063/1.1543154

 C. Hartwigsen, S. Goedecker, J. Hutter.
 Phys. Rev. B 58, 3641-3662 (1998).
 Relativistic separable dual-space Gaussian pseudopotentials from H to Rn.
 https://doi.org/10.1103/PhysRevB.58.3641

 G. Lippert, J. Hutter, M. Parrinello.
 Mol. Phys. 92, 477-487 (1997).
 A hybrid Gaussian and plane wave density functional scheme.
 https://doi.org/10.1080/002689797170220

 S. Goedecker, M. Teter, J. Hutter.
 Phys. Rev. B 54, 1703-1710 (1996).
 Separable dual-space Gaussian pseudopotentials.
 https://doi.org/10.1103/PhysRevB.54.1703

 J. P. Perdew, K. Burke, M. Ernzerhof.
 Phys. Rev. Lett. 77, 3865-3868 (1996).
 Generalized gradient approximation made simple.
 https://doi.org/10.1103/PhysRevLett.77.3865

 P. E. Blöchl.
 J. Chem. Phys. 103, 7422-7428 (1995).
 Electrostatic decoupling of periodic images of plane‐wave‐expanded 
 densities and derived atomic point charges.
 https://doi.org/10.1063/1.470314

 R. H. Byrd, P. H. Lu, J. Nocedal, C. Y. Zhu.
 SIAM J. Sci. Comput. 16, 1190-1208 (1995).
 A Limited Memory Algorithm for Bound Constrained Optimization.
 https://doi.org/10.1137/0916069


 -------------------------------------------------------------------------------
 -                                                                             -
 -                                T I M I N G                                  -
 -                                                                             -
 -------------------------------------------------------------------------------
 SUBROUTINE                       CALLS  ASD         SELF TIME        TOTAL TIME MAXRANK
                                MAXIMUM       AVERAGE  MAXIMUM  AVERAGE  MAXIMUM
 CP2K                                 1  1.0    0.225    0.225 1636.948 1636.948       0
 qs_energies                          1  2.0    0.046    0.046 1626.232 1626.232       0
 qs_energies_properties               1  3.0    0.020    0.020  932.410  932.410       0
 post_scf_bandstructure               1  4.0    0.009    0.009  932.387  932.387       0
 gw                                   1  5.0    0.007    0.007  932.005  932.005       0
 gw_calc_non_periodic_ri_rs           1  6.0    0.021    0.021  912.499  912.499       0
 ri_rs_grid_assembler                 1  7.0    0.030    0.030  907.728  907.728       0
 optimize_ri_rs_grid                  1  8.0    0.005    0.005  906.459  906.459       0
 rirs_grid_LBFGS                      1  9.0    4.490    4.490  841.299  841.299       0
 evaluate_rirs_grid_cluster        4515 10.0   81.082   81.082  836.806  836.806       0
 scf_env_do_scf                       1  3.0    0.011    0.011  690.020  690.020       0
 scf_env_do_scf_inner_loop           72  4.0    0.168    0.168  682.839  682.839       0
 qs_ks_build_kohn_sham_matrix        73  7.0    0.298    0.298  527.671  527.671       0
 qs_ks_update_qs_env                 73  5.0    0.001    0.001  525.572  525.572       0
 rebuild_ks_matrix                   72  6.0    0.000    0.000  525.563  525.563       0
 fft_wrap_pw1pw2                   1235 10.3    0.028    0.028  461.173  461.173       0
 fft_wrap_pw1pw2_300                797 11.8   25.100   25.100  451.715  451.715       0
 qs_vxc_create                       73  8.0    0.005    0.005  372.641  372.641       0
 xc_vxc_pw_create                    72  9.0   18.634   18.634  372.636  372.636       0
 xc_pw_derive                       432 11.0    0.004    0.004  270.775  270.775       0
 fft3d_s                           1236 12.3  258.263  258.263  258.279  258.279       0
 rirs_cluster_AO_products          4515 11.0  225.570  225.570  225.570  225.570       0
 rirs_cluster_gradient_coordina    4515 11.0  222.094  222.094  222.094  222.094       0
 xc_pw_divergence                    72 10.0    0.002    0.002  180.924  180.924       0
 xc_rho_set_and_dset_create          72 10.0   10.320   10.320  167.093  167.093       0
 qs_rho_update_rho_low               73  5.0    0.001    0.001  162.958  162.958       0
 calculate_rho_elec                  73  6.0   12.635   12.635  162.957  162.957       0
 rirs_cluster_residual             4515 11.0  126.027  126.027  126.027  126.027       0
 rirs_cluster_gradient_products    4515 11.0  123.014  123.014  123.014  123.014       0
 pw_scatter_s                       653 12.8   96.814   96.814   96.814   96.814       0
 density_rs2pw                       73  7.0    0.003    0.003   92.881   92.881       0
 rirs_grid_build_clusters             1  9.0   45.458   45.458   65.155   65.155       0
 qs_ks_ddapc                         73  8.0    0.004    0.004   61.437   61.437       0
 grid_collocate_task_list            73  7.0   57.441   57.441   57.441   57.441       0
 sum_up_and_integrate                73  8.0    0.005    0.005   54.530   54.530       0
 integrate_v_rspace                  73  9.0    0.022    0.022   52.275   52.275       0
 potential_pw2rs                     73 10.0    0.477    0.477   51.646   51.646       0
 pw_gather_s                        582 11.9   44.406   44.406   44.406   44.406       0
 pw_integral_ab_c1d_c1d_gs          146  9.5   37.166   37.166   37.166   37.166       0
 pw_poisson_solve                    73  8.0    0.013    0.013   36.639   36.639       0
 rirs_cluster_d_lP                 4515 11.0   33.749   33.749   33.749   33.749       0
 pw_derive                          651 11.3   30.667   30.667   30.667   30.667       0
 rirs_cluster_D_ll                 4515 11.0   25.270   25.270   25.270   25.270       0
 cp_ddapc_apply_CD                   73  9.0    0.015    0.015   21.126   21.126       0
 abc_contract_xsmm               896095 10.0   20.092   20.092   20.092   20.092       0
 create_and_init_bs_env_for_gw        1  6.0    0.072    0.072   19.499   19.499       0
 pw_copy                           1164 10.6   19.069   19.069   19.069   19.069       0
 pw_copy_from_array                 653 12.8   18.070   18.070   18.070   18.070       0
 pw_copy_to_array                   582 11.9   17.363   17.363   17.363   17.363       0
 generate_auto_ri_basis               1  7.0    0.002    0.002   16.743   16.743       0
 xc_functional_eval                  72 11.0    0.002    0.002   14.625   14.625       0
 pbe_lda_eval                        72 12.0   14.623   14.623   14.623   14.623       0
 pw_poisson_set                      74  9.0    0.011    0.011   13.550   13.550       0
 compute_M_pq_inv_and_V_pq            1  8.0    0.000    0.000   12.125   12.125       0
 compute_contracted_RI_matrix         2  9.0    0.004    0.004   12.004   12.004       0
 compute_optimized_RI_matrix_bl     240 10.0    0.931    0.931   11.985   11.985       0
 compute_M_PQ_AB                   7014 11.0    0.011    0.011   11.384   11.384       0
 compute_M_PQ                      7014 12.0    0.014    0.014   11.373   11.373       0
 int_operators_r12_ab_os           7014 13.0    0.005    0.005   11.359   11.359       0
 int_operator_ab_os_low            7014 14.0    4.497    4.497   11.354   11.354       0
 qs_init_subsys                       1  2.0    0.033    0.033   10.275   10.275       0
 qs_env_setup                         1  3.0    0.001    0.001   10.228   10.228       0
 qs_env_rebuild_pw_env                2  3.5    0.001    0.001   10.225   10.225       0
 pw_env_rebuild                       1  5.0    0.009    0.009   10.224   10.224       0
 pw_grid_setup                        5  5.2    0.002    0.002   10.214   10.214       0
 pw_grid_setup_internal               5  6.2    0.130    0.130   10.213   10.213       0
 pw_axpy                            735  9.2   10.095   10.095   10.095   10.095       0
 pw_grid_sort                         5  7.2    7.344    7.344    9.603    9.603       0
 fft_wrap_pw1pw2_100                146 10.5    1.001    1.001    8.180    8.180       0
 init_scf_loop                        1  4.0    0.019    0.019    7.169    7.169       0
 pw_zero                            380 10.0    5.358    5.358    5.358    5.358       0
 pw_scale                           289  9.8    4.275    4.275    4.275    4.275       0
 compute_AB_optimized_RI_basis        1  8.0    0.001    0.001    4.177    4.177       0
 compute_AB_optimized_RI_basis_       1  9.0    0.002    0.002    4.170    4.170       0
 operator2                      4266675 15.0    3.674    3.674    3.674    3.674       0
 qs_scf_new_mos                      72  5.0    0.001    0.001    3.598    3.598       0
 qs_scf_loop_do_ot                   72  6.0    0.001    0.001    3.597    3.597       0
 ot_scf_mini                         72  7.0    0.095    0.095    3.459    3.459       0
 compute_B_PQ_AB                     52 10.0    0.871    0.871    3.441    3.441       0
 ab_contract                    4267728 15.0    3.183    3.183    3.183    3.183       0
 init_scf_run                         1  3.0    0.002    0.002    2.582    2.582       0
 scf_env_initial_rho_setup            1  4.0    0.002    0.002    2.580    2.580       0
 transfer_rs2pw                     293  8.0    0.011    0.011    2.297    2.297       0
 ot_mini                             72  8.0    0.004    0.004    2.297    2.297       0
 sort_shells                          5  8.2    2.259    2.259    2.259    2.259       0
 transfer_pw2rs                     292 11.0    0.002    0.002    2.150    2.150       0
 pw_multiply_with                    73  9.0    2.147    2.147    2.147    2.147       0
 compute_V_xc                         1  7.0    0.011    0.011    2.127    2.127       0
 xc_pw_smooth                        72 10.0    0.000    0.000    2.025    2.025       0
 transfer_rs2pw_300                  74  9.0    1.906    1.906    1.906    1.906       0
 transfer_pw2rs_300                  73 12.0    1.820    1.820    1.820    1.820       0
 qs_ot_get_derivative                72  9.0    0.408    0.408    1.802    1.802       0
 compute_W                            1  7.0    0.021    0.021    1.769    1.769       0
 contract_B_PQ                      238 11.9    1.647    1.647    1.762    1.762       0
 -------------------------------------------------------------------------------

 The number of warnings for this run is : 1
 
 -------------------------------------------------------------------------------
  **** **** ******  **  PROGRAM ENDED AT                 2026-09-17 00:26:44.786
 ***** ** ***  *** **   PROGRAM RAN ON                                  n2cn0868
 **    ****   ******    PROGRAM RAN BY                                  eprop2d1
 ***** **    ** ** **   PROGRAM PROCESS ID                                203305
  **** **  *******  **  PROGRAM STOPPED IN /scratch/hpc-prf-metdyn/eprop2d1_Jan/
                                           53_benchmark_RI_opt/106_GW100_GTH_RIR
                                           S_riao5_7_c7/calculations/86_C7H8/ria
                                           o5/leb_r03
