 DBCSR| CPU Multiplication driver                                           XSMM (U)
 DBCSR| Multrec recursion limit                                              512 (U)
 DBCSR| Multiplication stack size                                           1000 (D)
 DBCSR| Maximum elements for images                                    UNLIMITED (U)
 DBCSR| Multiplicative factor virtual images                                   1 (U)
 DBCSR| Use multiplication densification                                       T (D)
 DBCSR| Multiplication size stacks                                             3 (U)
 DBCSR| Use memory pool for CPU allocation                                     F (U)
 DBCSR| Number of 3D layers                                               SINGLE (U)
 DBCSR| Use MPI memory allocation                                              F (U)
 DBCSR| Use RMA algorithm                                                      F (U)
 DBCSR| Use Communication thread                                               T (U)
 DBCSR| Communication thread load                                             68 (D)
 DBCSR| MPI: My process id                                                     9
 DBCSR| MPI: Number of processes                                              19
 DBCSR| OMP: Current number of threads                                         6
 DBCSR| OMP: Max number of threads                                             6
 DBCSR| Split modifier for TAS multiplication algorithm                  1.0E+00 (U)


  **** **** ******  **  PROGRAM STARTED AT               2026-10-03 12:01:36.127
 ***** ** ***  *** **   PROGRAM STARTED ON                              n2cn1190
 **    ****   ******    PROGRAM STARTED BY                              eprop2d1
 ***** **    ** ** **   PROGRAM PROCESS ID                               1980172
  **** **  *******  **  PROGRAM STARTED IN /scratch/hpc-prf-metdyn/eprop2d1_Jan/
                                           53_benchmark_RI_opt/418_gw100_fig5_fu
                                           ll_epsfilter_1e12_20261002/calculatio
                                           ns/rc0p5/ri5_rs04/27_C3H6

 CP2K| version string:                 CP2K version 2026.2 (Development Version)
 CP2K| source code revision number:                                   0671c5aa6c
 CP2K| cp2kflags: omp libint fftw3 libxc parallel scalapack openblas            
 CP2K| is freely available from                            https://www.cp2k.org/
 CP2K| Program compiled at                                   2026-09-20 09:25:26
 CP2K| Program compiled on                                              n2login5
 CP2K| Program compiled for                                               x86_64
 CP2K| Data directory path    /scratch/hpc-prf-metdyn/eprop2d1_Jan/53_benchmark_
 CP2K| Input file name                                                 input.inp
 
 eprop2d1@n2cn1190 has created rank and process                      0   1980172
 eprop2d1@n2cn1190 has created rank and process                      1   1980173
 eprop2d1@n2cn1190 has created rank and process                      2   1980174
 eprop2d1@n2cn1190 has created rank and process                      3   1980175
 eprop2d1@n2cn1190 has created rank and process                      4   1980176
 eprop2d1@n2cn1190 has created rank and process                      5   1980177
 eprop2d1@n2cn1190 has created rank and process                      6   1980178
 eprop2d1@n2cn1190 has created rank and process                      7   1980179
 eprop2d1@n2cn1190 has created rank and process                      8   1980180
 eprop2d1@n2cn1190 has created rank and process                      9   1980181
 
 eprop2d1@n2cn1190 is running                                       10 processes

 GLOBAL| Force Environment number                                              1
 GLOBAL| Basis set file name            /scratch/hpc-prf-metdyn/eprop2d1_Jan/53_
 GLOBAL| Potential file name            /scratch/hpc-prf-metdyn/eprop2d1_Jan/53_
 GLOBAL| MM Potential file name                                     MM_POTENTIAL
 GLOBAL| Coordinate file name                                      __STD_INPUT__
 GLOBAL| Method name                                                        CP2K
 GLOBAL| Project name                                             g418_a504_m027
 GLOBAL| Run type                                                         ENERGY
 GLOBAL| FFT library                                                       FFTW3
 GLOBAL| Diagonalization library                                       ScaLAPACK
 GLOBAL| Cholesky decomposition library                                ScaLAPACK
 GLOBAL| DGEMM library                                                      BLAS
 GLOBAL| Direct generalized diagonalization requested                          F
 GLOBAL| Orthonormality check for eigenvectors                          DISABLED
 GLOBAL| Matrix multiplication library                                 ScaLAPACK
 GLOBAL| All-to-all communication in single precision                          F
 GLOBAL| Grid backend                                                       AUTO
 GLOBAL| Global print level                                                  LOW
 GLOBAL| MPI I/O enabled                                                       T
 GLOBAL| Total number of message passing processes                            10
 GLOBAL| Number of distributed systems (nodes)                                 1
 GLOBAL| Number of threads for this process                                    6
 GLOBAL| This output is from process                                           0
 GLOBAL| OpenMP stack size per thread (OMP_STACKSIZE)                       512M
 GLOBAL| CPU model name                          AMD EPYC 7763 64-Core Processor

 MEMORY| system memory details [Kb]
 MEMORY|                        rank 0           min           max       average
 MEMORY| MemTotal            263897568     263897568     263897568     263897568
 MEMORY| MemFree             230348268     230348268     230348268     230348268
 MEMORY| Buffers                327488        327488        327488        327488
 MEMORY| Cached                9907992       9907992       9907992       9907992
 MEMORY| Slab                  2694408       2694408       2694408       2694408
 MEMORY| SReclaimable           825292        825292        825292        825292
 MEMORY| MemLikelyFree       241409040     241409040     241409040     241409040


 GENERATE|  Preliminary Number of Bonds generated:                             0
 GENERATE|  Achieved consistency in connectivity generation.

 *******************************************************************************
 *******************************************************************************
 **                                                                           **
 **     #####                         ##              ##                      **
 **    ##   ##            ##          ##              ##                      **
 **   ##     ##                       ##            ######                    **
 **   ##     ##  ##   ##  ##   #####  ##  ##   ####   ##    #####    #####    **
 **   ##     ##  ##   ##  ##  ##      ## ##   ##      ##   ##   ##  ##   ##   **
 **   ##  ## ##  ##   ##  ##  ##      ####     ###    ##   ######   ######    **
 **    ##  ###   ##   ##  ##  ##      ## ##      ##   ##   ##       ##        **
 **     #######   #####   ##   #####  ##  ##  ####    ##    #####   ##        **
 **           ##                                                    ##        **
 **                                                                           **
 **                                                ... make the atoms dance   **
 **                                                                           **
 **            Copyright (C) by CP2K developers group (2000-2026)             **
 **                      J. Chem. Phys. 152, 194103 (2020)                    **
 **                                                                           **
 *******************************************************************************


 TOTAL NUMBERS AND MAXIMUM NUMBERS

  Total number of            - Atomic kinds:                                   2
                             - Atoms:                                          9
                             - Shell sets:                                     9
                             - Shells:                                        57
                             - Primitive Cartesian functions:                 57
                             - Cartesian basis functions:                    156
                             - Spherical basis functions:                    141

  Maximum angular momentum of- Orbital basis functions:                        3
                             - Local part of the GTH pseudopotential:          2
                             - Non-local part of the GTH pseudopotential:      0


 SCF PARAMETERS         Density guess:                                   RESTART
                        --------------------------------------------------------
                        max_scf:                                             500
                        max_scf_history:                                       0
                        max_diis:                                              4
                        --------------------------------------------------------
                        eps_scf:                                        1.00E-08
                        eps_scf_history:                                0.00E+00
                        eps_diis:                                       0.00E+00
                        eps_eigval:                                     1.00E-05
                        --------------------------------------------------------
                        level_shift [a.u.]:                             0.000000
                        --------------------------------------------------------
                        Outer loop SCF in use 
                        No variables optimised in outer loop
                        eps_scf                                         1.00E-08
                        max_scf                                               20
                        No outer loop optimization
                        step_size                                       5.00E-01

 Extrapolation method: initial_guess

 Number of electrons:                                                         18
 Number of occupied orbitals:                                                  9
 Number of molecular orbitals:                                                 9

 Number of orbital functions:                                                141
 Number of independent orbital functions:                                    141


 SCF WAVEFUNCTION OPTIMIZATION

  ----------------------------------- OT ---------------------------------------
  Minimizer      : DIIS                : direct inversion
                                         in the iterative subspace
                                         using   7 DIIS vectors
                                         safer DIIS on
  Preconditioner : FULL_KINETIC        : inversion of T + eS
  Lattice FFT   : OFF
  Precond_solver : DEFAULT
  stepsize       :    0.15000000                  energy_gap     :    0.20000000
  eps_taylor     :   0.10000E-15                  max_taylor     :             4
  ----------------------------------- OT ---------------------------------------

  Step     Update method      Time    Convergence         Total energy    Change
  ------------------------------------------------------------------------------
  Decoupling Energy:                                               0.0000000080
     1 OT DIIS     0.15E+00    1.7     0.00000001       -20.6045181809 -2.06E+01
  Decoupling Energy:                                               0.0000000080
     2 OT DIIS     0.15E+00    2.1     0.00000001       -20.6045181809 -7.11E-14
  Decoupling Energy:                                               0.0000000080
     3 OT DIIS     0.15E+00    2.1     6.8401E-09       -20.6045181809 -4.97E-14

  *** SCF run converged in     3 steps ***


  Electronic density on regular grids:        -18.0000000000        0.0000000000
  Core density on regular grids:               18.0000000000       -0.0000000000
  Total charge density on r-space grids:       -0.0000000000
  Total charge density g-space grids:          -0.0000000000

  Overlap energy of the core charge distribution:               0.00000230277750
  Self energy of the core charge distribution:                -48.46786753351198
  Core Hamiltonian energy:                                     15.58829711590333
  Hartree energy:                                              19.67579877789306
  Exchange-correlation energy:                                 -7.40074884394033

  Total energy:                                               -20.60451818087843

  outer SCF iter =    1 RMS gradient =   0.68E-08 energy =        -20.6045181809
  outer SCF loop converged in   1 iterations or    3 steps

  
 -------------------------------------------------------------------------------
 -                                                                             -
 -                          BANDSTRUCTURE CALCULATION                          -
 -                                                                             -
 -------------------------------------------------------------------------------
  
 Number of occupied molecular orbitals (MOs) = Number of occupied bands        9
 Number of unoccupied (= virtual) MOs = Number of unoccupied bands           132
 Number of Gaussian basis functions for MOs                                  141
  
 -------------------------------------------------------------------------------
 -                                                                             -
 -                                GW CALCULATION                               -
 -                                                                             -
 -------------------------------------------------------------------------------
  
 Input: Number of time/freq. points                                           30
 Input: ω_max for fitting Σ(iω) (eV)                                        10.0
 Input: Filter threshold for sparse tensor operations                    1.0E-12
 Input: Apply Hedin shift                                                      F
 Detected: Available memory per MPI process                              20.9 GB
 
 Input: RI-RS Tikhonov regularization                                   1.00E-04
 Input: AO grid hard cutoff radius                                        8.00 Å
 Input: MPI ranks per atom in Z_lP solve                                      -1
 Input: Keep sparsity in χ/G/W panels                                          T
 Input: GW flavour                                                          G0W0
 
 Input: RI-RS grid optimization activated                                      T
 Input: RS points per AO function                                            4.0
 Input: Cutoff radius for atomic clusters                                  0.5 Å
 Input: Maximum grid optimization iterations                                 300
 
 Input: AUTO_RI basis optimization activated:                                  T
 Input: AUTO_RI number of RI functions per AO function:                      5.0
 Input: AUTO_RI frontier orbital window:                                  5.0 eV
 Input: AUTO_RI neighbor radius:                                           3.0 Å
 
 Cutoff radius for the truncated Coulomb operator in RI metric:            7.0 Å
 Regularization parameter of RI                                          0.0E+00
 Regularization parameter of minimax grids                               1.0E-06
 
 AUTO_RI| Number of automatic RI functions for χ, ε, W:                      657
 AUTO_RI| Total RI basis optimization time:                                1.7 s
  Decoupling Energy:                                               0.0000000080
 
 SCF direct band gap (eV)                                                   6.90
 Max. SCF eigval diff. (eV)                                               261.83
 E-Range for minimax grid                                                  37.93
 Number of Padé parameters for analytic continuation:                         16
 
 RI-RS basis radii (Å):
     Kind  Elem     r_AO (Å)     r_RI (Å)
        1    C        15.9835       10.1279
        2    H        13.9082        8.7963
 
 Started RI-RS grid optimization
 RI-RS grid initial normalized error                          9.744865734371E-02
 RI-RS grid optimization completed, execution time:                        1.0 s
 Normalized 3C error:                                                    6.0E-04
 Maximum absolute 3C error:                                              4.4E-01
 Optimized points outside molecular Voronoi cells:                           246 / 564
 Total grid points used for RI-RS:                                           564
 
 RI-RS grid row-blocks of ϕ_μ(r_l)                                            24
 RI-RS grid points per block (max)                                            32
 
 Percentage of non-zero matrix elements in ϕ_μ(r_l)                     100.00 %
 
 RI-RS memory estimate per MPI process:
   Available memory per process (system)                                24.47 GB
   Required for Z_lP (dense upper bound; actual is sparser)              0.00 GB
   Required for χ, W, Σ panels (peak per panel step)                     0.00 GB
   Required for Z_lP solve peak (D_local+ϕ, worst-case atom)             0.01 GB
   Worst-case local-grid number of grid points:                              564
   Worst-case memory D_local:                                            0.00 GB
 
 Started computing Z_lP
 Computed Z_lP (MPI rank 0) for atom          1 /  1,    Execution time    0.3 s
 Computed Z_lP (all MPI ranks) for all atoms,            Execution time    0.3 s

 Memory per MPI process after computing Z_lP:
 Available memory per MPI process                               24.5 GB
 Used memory per MPI process                                     1.2 GB
 Number of batches for χ, Σ matrices                                           1
 
 Percentage of non-zero matrix elements in Z_lP                         100.00 %
 Percentage of non-zero matrix elements in G_ll', χ_ll', W_ll'          100.00 %
 Percentage of non-zero matrix elements in χ_PQ for time point 1        100.00 %
 
 Computed χ(iτ,k=0) for time point            1 / 30,    Execution time    0.0 s
 Computed χ(iτ,k=0) for time point            2 / 30,    Execution time    0.0 s
 Computed χ(iτ,k=0) for time point            3 / 30,    Execution time    0.0 s
 Computed χ(iτ,k=0) for time point            4 / 30,    Execution time    0.0 s
 Computed χ(iτ,k=0) for time point            5 / 30,    Execution time    0.0 s
 Computed χ(iτ,k=0) for time point            6 / 30,    Execution time    0.0 s
 Computed χ(iτ,k=0) for time point            7 / 30,    Execution time    0.0 s
 Computed χ(iτ,k=0) for time point            8 / 30,    Execution time    0.0 s
 Computed χ(iτ,k=0) for time point            9 / 30,    Execution time    0.0 s
 Computed χ(iτ,k=0) for time point           10 / 30,    Execution time    0.0 s
 Computed χ(iτ,k=0) for time point           11 / 30,    Execution time    0.0 s
 Computed χ(iτ,k=0) for time point           12 / 30,    Execution time    0.0 s
 Computed χ(iτ,k=0) for time point           13 / 30,    Execution time    0.0 s
 Computed χ(iτ,k=0) for time point           14 / 30,    Execution time    0.0 s
 Computed χ(iτ,k=0) for time point           15 / 30,    Execution time    0.0 s
 Computed χ(iτ,k=0) for time point           16 / 30,    Execution time    0.0 s
 Computed χ(iτ,k=0) for time point           17 / 30,    Execution time    0.0 s
 Computed χ(iτ,k=0) for time point           18 / 30,    Execution time    0.0 s
 Computed χ(iτ,k=0) for time point           19 / 30,    Execution time    0.0 s
 Computed χ(iτ,k=0) for time point           20 / 30,    Execution time    0.0 s
 Computed χ(iτ,k=0) for time point           21 / 30,    Execution time    0.0 s
 Computed χ(iτ,k=0) for time point           22 / 30,    Execution time    0.0 s
 Computed χ(iτ,k=0) for time point           23 / 30,    Execution time    0.0 s
 Computed χ(iτ,k=0) for time point           24 / 30,    Execution time    0.0 s
 Computed χ(iτ,k=0) for time point           25 / 30,    Execution time    0.0 s
 Computed χ(iτ,k=0) for time point           26 / 30,    Execution time    0.0 s
 Computed χ(iτ,k=0) for time point           27 / 30,    Execution time    0.0 s
 Computed χ(iτ,k=0) for time point           28 / 30,    Execution time    0.0 s
 Computed χ(iτ,k=0) for time point           29 / 30,    Execution time    0.0 s
 Computed χ(iτ,k=0) for time point           30 / 30,    Execution time    0.0 s
 
 Cholesky decomposition failed, using diagonalization.
 Discarded eigenmodes:                                                         1
 Computed W(iτ),                                         Execution time    0.8 s
 
 Computed Σ^x(k=0),                                      Execution time    0.0 s
 
 Computed Σ^c(iτ) for time point              1 / 30,    Execution time    0.0 s
 Computed Σ^c(iτ) for time point              2 / 30,    Execution time    0.0 s
 Computed Σ^c(iτ) for time point              3 / 30,    Execution time    0.0 s
 Computed Σ^c(iτ) for time point              4 / 30,    Execution time    0.0 s
 Computed Σ^c(iτ) for time point              5 / 30,    Execution time    0.0 s
 Computed Σ^c(iτ) for time point              6 / 30,    Execution time    0.0 s
 Computed Σ^c(iτ) for time point              7 / 30,    Execution time    0.0 s
 Computed Σ^c(iτ) for time point              8 / 30,    Execution time    0.0 s
 Computed Σ^c(iτ) for time point              9 / 30,    Execution time    0.0 s
 Computed Σ^c(iτ) for time point             10 / 30,    Execution time    0.0 s
 Computed Σ^c(iτ) for time point             11 / 30,    Execution time    0.0 s
 Computed Σ^c(iτ) for time point             12 / 30,    Execution time    0.0 s
 Computed Σ^c(iτ) for time point             13 / 30,    Execution time    0.0 s
 Computed Σ^c(iτ) for time point             14 / 30,    Execution time    0.0 s
 Computed Σ^c(iτ) for time point             15 / 30,    Execution time    0.0 s
 Computed Σ^c(iτ) for time point             16 / 30,    Execution time    0.0 s
 Computed Σ^c(iτ) for time point             17 / 30,    Execution time    0.0 s
 Computed Σ^c(iτ) for time point             18 / 30,    Execution time    0.0 s
 Computed Σ^c(iτ) for time point             19 / 30,    Execution time    0.0 s
 Computed Σ^c(iτ) for time point             20 / 30,    Execution time    0.0 s
 Computed Σ^c(iτ) for time point             21 / 30,    Execution time    0.0 s
 Computed Σ^c(iτ) for time point             22 / 30,    Execution time    0.0 s
 Computed Σ^c(iτ) for time point             23 / 30,    Execution time    0.0 s
 Computed Σ^c(iτ) for time point             24 / 30,    Execution time    0.0 s
 Computed Σ^c(iτ) for time point             25 / 30,    Execution time    0.0 s
 Computed Σ^c(iτ) for time point             26 / 30,    Execution time    0.0 s
 Computed Σ^c(iτ) for time point             27 / 30,    Execution time    0.0 s
 Computed Σ^c(iτ) for time point             28 / 30,    Execution time    0.0 s
 Computed Σ^c(iτ) for time point             29 / 30,    Execution time    0.0 s
 Computed Σ^c(iτ) for time point             30 / 30,    Execution time    0.0 s

 *** WARNING in post_scf_bandstructure_utils.F:3139 :: G0W0 reorders the   ***
 *** occupied levels: the SCF valence band maximum (SCF HOMO) is level 9,  ***
 *** whereas the G0W0 valence band maximum (G0W0 HOMO) is level 8. The SCF ***
 *** and G0W0 band edges printed below therefore belong to different       ***
 *** orbitals; see the eigenvalues in the file bandstructure_SCF_and_G0W0. ***

 
 SCF valence band maximum (eV):                                           -7.045
 SCF conduction band minimum (eV):                                        -0.143
 SCF indirect band gap (eV):                                               6.902
 SCF direct band gap (eV):                                                 6.902
 
 G0W0 valence band maximum (eV):                                         -10.083
 G0W0 conduction band minimum (eV):                                        1.404
 G0W0 indirect band gap (eV):                                             11.487
 G0W0 direct band gap (eV):                                               11.487
 
 Hartree-Fock with SCF orbitals valence band maximum (eV):               -10.953
 Hartree-Fock with SCF orbitals conduction band minimum (eV)               2.077
 Hartree-Fock with SCF orbitals indirect band gap (eV):                   13.030
 Hartree-Fock with SCF orbitals direct band gap (eV):                     13.030

 ENERGY| Total FORCE_EVAL ( QS ) energy [hartree]            -20.604518180878426

 -------------------------------------------------------------------------------
 -                                                                             -
 -                                DBCSR STATISTICS                             -
 -                                                                             -
 -------------------------------------------------------------------------------
 COUNTER                                    TOTAL       BLAS       SMM       ACC
 flops     4 x     4 x    61                46848     100.0%      0.0%      0.0%     
 flops     4 x    20 x    61               117120     100.0%      0.0%      0.0%     
 flops     9 x    29 x     9               169128     100.0%      0.0%      0.0%     
 flops    32 x     4 x    61               281088     100.0%      0.0%      0.0%     
 flops    29 x    29 x     9               363312     100.0%      0.0%      0.0%     
 flops    32 x    20 x    61               702720     100.0%      0.0%      0.0%     
 flops     4 x    32 x    61               936960     100.0%      0.0%      0.0%     
 flops     9 x     9 x     9              1080378     100.0%      0.0%      0.0%     
 flops     9 x     9 x    29              1338930     100.0%      0.0%      0.0%     
 flops     4 x    60 x     4              1386240     100.0%      0.0%      0.0%     
 flops     4 x    61 x     4              1409344     100.0%      0.0%      0.0%     
 flops     4 x     4 x    60              1497600     100.0%      0.0%      0.0%     
 flops     4 x    67 x     4              1545824     100.0%      0.0%      0.0%     
 flops    29 x     9 x     9              1550340     100.0%      0.0%      0.0%     
 flops     4 x    68 x     4              1571072     100.0%      0.0%      0.0%     
 flops     4 x    82 x     4              1902400     100.0%      0.0%      0.0%     
 flops    29 x     9 x    29              1907388     100.0%      0.0%      0.0%     
 flops     4 x    86 x     4              1995200     100.0%      0.0%      0.0%     
 flops     4 x    87 x     4              2018400     100.0%      0.0%      0.0%     
 flops     4 x     9 x     4              2251296     100.0%      0.0%      0.0%     
 flops    60 x    60 x     4              3283200     100.0%      0.0%      0.0%     
 flops    61 x    60 x     4              3337920     100.0%      0.0%      0.0%     
 flops    60 x    61 x     4              3337920     100.0%      0.0%      0.0%     
 flops     4 x    73 x     4              3377856     100.0%      0.0%      0.0%     
 flops    61 x    61 x     4              3393552     100.0%      0.0%      0.0%     
 flops     4 x    60 x    20              3456000     100.0%      0.0%      0.0%     
 flops     4 x    61 x    20              3513600     100.0%      0.0%      0.0%     
 flops    20 x    60 x     4              3571200     100.0%      0.0%      0.0%     
 flops    20 x     4 x    60              3628800     100.0%      0.0%      0.0%     
 flops     4 x    29 x     4              3630336     100.0%      0.0%      0.0%     
 flops    20 x    61 x     4              3630720     100.0%      0.0%      0.0%     
 flops     4 x     4 x    73              3644160     100.0%      0.0%      0.0%     
 flops    60 x    67 x     4              3666240     100.0%      0.0%      0.0%     
 flops    67 x    60 x     4              3666240     100.0%      0.0%      0.0%     
 flops    68 x    60 x     4              3720960     100.0%      0.0%      0.0%     
 flops    60 x    68 x     4              3720960     100.0%      0.0%      0.0%     
 flops    61 x    67 x     4              3727344     100.0%      0.0%      0.0%     
 flops    67 x    61 x     4              3727344     100.0%      0.0%      0.0%     
 flops     4 x    20 x    60              3744000     100.0%      0.0%      0.0%     
 flops    61 x    68 x     4              3782976     100.0%      0.0%      0.0%     
 flops    68 x    61 x     4              3782976     100.0%      0.0%      0.0%     
 flops     4 x    60 x    60              3801600     100.0%      0.0%      0.0%     
 flops     4 x    67 x    20              3859200     100.0%      0.0%      0.0%     
 flops     4 x    60 x    61              3864960     100.0%      0.0%      0.0%     
 flops     4 x    61 x    60              3864960     100.0%      0.0%      0.0%     
 flops     4 x    68 x    20              3916800     100.0%      0.0%      0.0%     
 flops     4 x    61 x    61              3929376     100.0%      0.0%      0.0%     
 flops    20 x    67 x     4              3987840     100.0%      0.0%      0.0%     
 flops    20 x    68 x     4              4047360     100.0%      0.0%      0.0%     
 flops    67 x    67 x     4              4093968     100.0%      0.0%      0.0%     
 flops    68 x    67 x     4              4155072     100.0%      0.0%      0.0%     
 flops    67 x    68 x     4              4155072     100.0%      0.0%      0.0%     
 flops    68 x    68 x     4              4217088     100.0%      0.0%      0.0%     
 flops     4 x    67 x    60              4245120     100.0%      0.0%      0.0%     
 flops     4 x    68 x    60              4308480     100.0%      0.0%      0.0%     
 flops     4 x    67 x    61              4315872     100.0%      0.0%      0.0%     
 flops     4 x    68 x    61              4380288     100.0%      0.0%      0.0%     
 flops    60 x    82 x     4              4487040     100.0%      0.0%      0.0%     
 flops    82 x    60 x     4              4487040     100.0%      0.0%      0.0%     
 flops    61 x    82 x     4              4561824     100.0%      0.0%      0.0%     
 flops    82 x    61 x     4              4561824     100.0%      0.0%      0.0%     
 flops    60 x    86 x     4              4705920     100.0%      0.0%      0.0%     
 flops     4 x    82 x    20              4723200     100.0%      0.0%      0.0%     
 flops    60 x    87 x     4              4760640     100.0%      0.0%      0.0%     
 flops    61 x    86 x     4              4784352     100.0%      0.0%      0.0%     
 flops    61 x    87 x     4              4839984     100.0%      0.0%      0.0%     
 flops    20 x    82 x     4              4880640     100.0%      0.0%      0.0%     
 flops     4 x    86 x    20              4953600     100.0%      0.0%      0.0%     
 flops    82 x    67 x     4              5010528     100.0%      0.0%      0.0%     
 flops    67 x    82 x     4              5010528     100.0%      0.0%      0.0%     
 flops     4 x    87 x    20              5011200     100.0%      0.0%      0.0%     
 flops     9 x     9 x     4              5038848     100.0%      0.0%      0.0%     
 flops    68 x    82 x     4              5085312     100.0%      0.0%      0.0%     
 flops    82 x    68 x     4              5085312     100.0%      0.0%      0.0%     
 flops    20 x    86 x     4              5118720     100.0%      0.0%      0.0%     
 flops    20 x    87 x     4              5178240     100.0%      0.0%      0.0%     
 flops     4 x    82 x    60              5195520     100.0%      0.0%      0.0%     
 flops    67 x    86 x     4              5254944     100.0%      0.0%      0.0%     
 flops     4 x    82 x    61              5282112     100.0%      0.0%      0.0%     
 flops    67 x    87 x     4              5316048     100.0%      0.0%      0.0%     
 flops    68 x    86 x     4              5333376     100.0%      0.0%      0.0%     
 flops    68 x    87 x     4              5395392     100.0%      0.0%      0.0%     
 flops     4 x    86 x    60              5448960     100.0%      0.0%      0.0%     
 flops     4 x    87 x    60              5512320     100.0%      0.0%      0.0%     
 flops     4 x     4 x     9              5536512     100.0%      0.0%      0.0%     
 flops     4 x    86 x    61              5539776     100.0%      0.0%      0.0%     
 flops    20 x     9 x     4              5597280     100.0%      0.0%      0.0%     
 flops     4 x    87 x    61              5604192     100.0%      0.0%      0.0%     
 flops    32 x    32 x    61              5621760     100.0%      0.0%      0.0%     
 flops     4 x     9 x    20              5718240     100.0%      0.0%      0.0%     
 flops    82 x    82 x     4              6132288     100.0%      0.0%      0.0%     
 flops    82 x    86 x     4              6431424     100.0%      0.0%      0.0%     
 flops    82 x    87 x     4              6506208     100.0%      0.0%      0.0%     
 flops    73 x    60 x     4              7989120     100.0%      0.0%      0.0%     
 flops    60 x    73 x     4              7989120     100.0%      0.0%      0.0%     
 flops     9 x    29 x     4              8118144     100.0%      0.0%      0.0%     
 flops    29 x     9 x     4              8118144     100.0%      0.0%      0.0%     
 flops    61 x    73 x     4              8122272     100.0%      0.0%      0.0%     
 flops    73 x    61 x     4              8122272     100.0%      0.0%      0.0%     
 flops     4 x    73 x    20              8409600     100.0%      0.0%      0.0%     
 flops    60 x    60 x    20              8640000     100.0%      0.0%      0.0%     
 flops    20 x    60 x    20              8688000     100.0%      0.0%      0.0%     
 flops    20 x    73 x     4              8689920     100.0%      0.0%      0.0%     
 flops    61 x    60 x    20              8784000     100.0%      0.0%      0.0%     
 flops    60 x    61 x    20              8784000     100.0%      0.0%      0.0%     
 flops    20 x     4 x    73              8830080     100.0%      0.0%      0.0%     
 flops    20 x    61 x    20              8832800     100.0%      0.0%      0.0%     
 flops    73 x    67 x     4              8921184     100.0%      0.0%      0.0%     
 flops    67 x    73 x     4              8921184     100.0%      0.0%      0.0%     
 flops    61 x    61 x    20              8930400     100.0%      0.0%      0.0%     
 flops     4 x     4 x    29              8949632     100.0%      0.0%      0.0%     
 flops    68 x    73 x     4              9054336     100.0%      0.0%      0.0%     
 flops    73 x    68 x     4              9054336     100.0%      0.0%      0.0%     
 flops    20 x    20 x    60              9072000     100.0%      0.0%      0.0%     
 flops     4 x    20 x    73              9110400     100.0%      0.0%      0.0%     
 flops    20 x    29 x     4              9126880     100.0%      0.0%      0.0%     
 flops     4 x    60 x    73              9250560     100.0%      0.0%      0.0%     
 flops     4 x    73 x    60              9250560     100.0%      0.0%      0.0%     
 flops     4 x    29 x    20              9270720     100.0%      0.0%      0.0%     
 flops     4 x    61 x    73              9404736     100.0%      0.0%      0.0%     
 flops     4 x    73 x    61              9404736     100.0%      0.0%      0.0%     
 flops    20 x    60 x    60              9504000     100.0%      0.0%      0.0%     
 flops    60 x    67 x    20              9648000     100.0%      0.0%      0.0%     
 flops    67 x    60 x    20              9648000     100.0%      0.0%      0.0%     
 flops    20 x    60 x    61              9662400     100.0%      0.0%      0.0%     
 flops    20 x    61 x    60              9662400     100.0%      0.0%      0.0%     
 flops    68 x    60 x    20              9792000     100.0%      0.0%      0.0%     
 flops    60 x    68 x    20              9792000     100.0%      0.0%      0.0%     
 flops    61 x    67 x    20              9808800     100.0%      0.0%      0.0%     
 flops    20 x    67 x    20              9808800     100.0%      0.0%      0.0%     
 flops    67 x    61 x    20              9808800     100.0%      0.0%      0.0%     
 flops    20 x    61 x    61              9823440     100.0%      0.0%      0.0%     
 flops    61 x    68 x    20              9955200     100.0%      0.0%      0.0%     
 flops    68 x    61 x    20              9955200     100.0%      0.0%      0.0%     
 flops    20 x    68 x    20              9955200     100.0%      0.0%      0.0%     
 flops     4 x    67 x    73             10329792     100.0%      0.0%      0.0%     
 flops     4 x    68 x    73             10483968     100.0%      0.0%      0.0%     
 flops    20 x    67 x    60             10612800     100.0%      0.0%      0.0%     
 flops    20 x    68 x    60             10771200     100.0%      0.0%      0.0%     
 flops    67 x    67 x    20             10773600     100.0%      0.0%      0.0%     
 flops    20 x    67 x    61             10789680     100.0%      0.0%      0.0%     
 flops    73 x    82 x     4             10918464     100.0%      0.0%      0.0%     
 flops    82 x    73 x     4             10918464     100.0%      0.0%      0.0%     
 flops    68 x    67 x    20             10934400     100.0%      0.0%      0.0%     
 flops    67 x    68 x    20             10934400     100.0%      0.0%      0.0%     
 flops    20 x    68 x    61             10950720     100.0%      0.0%      0.0%     
 flops    68 x    68 x    20             11097600     100.0%      0.0%      0.0%     
 flops    73 x    86 x     4             11451072     100.0%      0.0%      0.0%     
 flops    73 x    87 x     4             11584224     100.0%      0.0%      0.0%     
 flops    60 x    82 x    20             11808000     100.0%      0.0%      0.0%     
 flops    82 x    60 x    20             11808000     100.0%      0.0%      0.0%     
 flops    61 x    82 x    20             12004800     100.0%      0.0%      0.0%     
 flops    82 x    61 x    20             12004800     100.0%      0.0%      0.0%     
 flops    20 x    82 x    20             12267200     100.0%      0.0%      0.0%     
 flops    60 x    86 x    20             12384000     100.0%      0.0%      0.0%     
 flops    60 x    87 x    20             12528000     100.0%      0.0%      0.0%     
 flops     4 x     9 x     9             12558240     100.0%      0.0%      0.0%     
 flops    61 x    86 x    20             12590400     100.0%      0.0%      0.0%     
 flops     9 x     9 x    20             12616560     100.0%      0.0%      0.0%     
 flops     4 x    82 x    73             12642432     100.0%      0.0%      0.0%     
 flops    61 x    87 x    20             12736800     100.0%      0.0%      0.0%     
 flops    20 x    86 x    20             12796800     100.0%      0.0%      0.0%     
 flops    20 x    87 x    20             12876000     100.0%      0.0%      0.0%     
 flops    20 x    82 x    60             12988800     100.0%      0.0%      0.0%     
 flops    29 x    29 x     4             13079232     100.0%      0.0%      0.0%     
 flops    82 x    67 x    20             13185600     100.0%      0.0%      0.0%     
 flops    67 x    82 x    20             13185600     100.0%      0.0%      0.0%     
 flops    20 x    82 x    61             13205280     100.0%      0.0%      0.0%     
 flops     4 x    86 x    73             13259136     100.0%      0.0%      0.0%     
 flops    68 x    82 x    20             13382400     100.0%      0.0%      0.0%     
 flops    82 x    68 x    20             13382400     100.0%      0.0%      0.0%     
 flops     4 x    87 x    73             13413312     100.0%      0.0%      0.0%     
 flops    20 x    86 x    60             13622400     100.0%      0.0%      0.0%     
 flops    20 x    87 x    60             13780800     100.0%      0.0%      0.0%     
 flops    67 x    86 x    20             13828800     100.0%      0.0%      0.0%     
 flops     4 x    20 x     9             13841280     100.0%      0.0%      0.0%     
 flops    20 x    86 x    61             13849440     100.0%      0.0%      0.0%     
 flops    67 x    87 x    20             13989600     100.0%      0.0%      0.0%     
 flops    20 x     4 x     9             14002560     100.0%      0.0%      0.0%     
 flops    20 x    87 x    61             14010480     100.0%      0.0%      0.0%     
 flops    68 x    86 x    20             14035200     100.0%      0.0%      0.0%     
 flops    68 x    87 x    20             14198400     100.0%      0.0%      0.0%     
 flops    20 x     9 x    20             14256000     100.0%      0.0%      0.0%     
 flops    82 x    82 x    20             16137600     100.0%      0.0%      0.0%     
 flops    82 x    86 x    20             16924800     100.0%      0.0%      0.0%     
 flops    82 x    87 x    20             17121600     100.0%      0.0%      0.0%     
 flops    73 x    73 x     4             19440192     100.0%      0.0%      0.0%     
 flops    29 x     9 x    20             20326680     100.0%      0.0%      0.0%     
 flops     9 x    29 x    20             20420640     100.0%      0.0%      0.0%     
 flops     4 x    29 x     9             20495808     100.0%      0.0%      0.0%     
 flops     4 x     9 x    29             20971872     100.0%      0.0%      0.0%     
 flops    73 x    60 x    20             21024000     100.0%      0.0%      0.0%     
 flops    60 x    73 x    20             21024000     100.0%      0.0%      0.0%     
 flops    20 x    73 x    20             21082400     100.0%      0.0%      0.0%     
 flops    61 x    73 x    20             21374400     100.0%      0.0%      0.0%     
 flops    73 x    61 x    20             21374400     100.0%      0.0%      0.0%     
 flops    20 x    20 x    73             22075200     100.0%      0.0%      0.0%     
 flops     4 x    73 x    73             22509696     100.0%      0.0%      0.0%     
 flops     4 x    20 x    29             22568960     100.0%      0.0%      0.0%     
 flops    20 x     4 x    29             23037600     100.0%      0.0%      0.0%     
 flops    20 x    60 x    73             23126400     100.0%      0.0%      0.0%     
 flops    20 x    73 x    60             23126400     100.0%      0.0%      0.0%     
 flops    20 x    29 x    20             23176800     100.0%      0.0%      0.0%     
 flops    73 x    67 x    20             23476800     100.0%      0.0%      0.0%     
 flops    67 x    73 x    20             23476800     100.0%      0.0%      0.0%     
 flops    20 x    61 x    73             23511840     100.0%      0.0%      0.0%     
 flops    20 x    73 x    61             23511840     100.0%      0.0%      0.0%     
 flops    68 x    73 x    20             23827200     100.0%      0.0%      0.0%     
 flops    73 x    68 x    20             23827200     100.0%      0.0%      0.0%     
 flops    20 x    67 x    73             25824480     100.0%      0.0%      0.0%     
 flops    20 x    68 x    73             26209920     100.0%      0.0%      0.0%     
 flops     4 x    60 x    32             27648000     100.0%      0.0%      0.0%     
 flops     4 x    61 x    32             28108800     100.0%      0.0%      0.0%     
 flops    32 x    60 x     4             28508160     100.0%      0.0%      0.0%     
 flops    73 x    82 x    20             28732800     100.0%      0.0%      0.0%     
 flops    82 x    73 x    20             28732800     100.0%      0.0%      0.0%     
 flops    32 x    61 x     4             28983296     100.0%      0.0%      0.0%     
 flops    32 x     4 x    60             29306880     100.0%      0.0%      0.0%     
 flops     4 x    32 x    60             29952000     100.0%      0.0%      0.0%     
 flops    73 x    86 x    20             30134400     100.0%      0.0%      0.0%     
 flops    73 x    87 x    20             30484800     100.0%      0.0%      0.0%     
 flops     4 x    67 x    32             30873600     100.0%      0.0%      0.0%     
 flops     4 x    68 x    32             31334400     100.0%      0.0%      0.0%     
 flops    20 x    82 x    73             31606080     100.0%      0.0%      0.0%     
 flops    20 x     9 x     9             31842720     100.0%      0.0%      0.0%     
 flops    32 x    67 x     4             31868416     100.0%      0.0%      0.0%     
 flops    32 x    68 x     4             32361472     100.0%      0.0%      0.0%     
 flops    29 x    29 x    20             32899920     100.0%      0.0%      0.0%     
 flops    20 x    86 x    73             33147840     100.0%      0.0%      0.0%     
 flops    20 x    87 x    73             33533280     100.0%      0.0%      0.0%     
 flops     4 x    29 x    29             33788016     100.0%      0.0%      0.0%     
 flops    20 x    20 x     9             35380800     100.0%      0.0%      0.0%     
 flops     4 x    82 x    32             37827584     100.0%      0.0%      0.0%     
 flops    32 x    82 x     4             39024128     100.0%      0.0%      0.0%     
 flops     4 x    86 x    32             39672832     100.0%      0.0%      0.0%     
 flops     4 x    87 x    32             40156416     100.0%      0.0%      0.0%     
 flops    32 x    86 x     4             40905728     100.0%      0.0%      0.0%     
 flops    32 x    87 x     4             41381376     100.0%      0.0%      0.0%     
 flops    32 x     9 x     4             45268992     100.0%      0.0%      0.0%     
 flops     4 x     9 x    32             46068480     100.0%      0.0%      0.0%     
 flops    73 x    73 x    20             51158400     100.0%      0.0%      0.0%     
 flops    20 x     9 x    29             52429680     100.0%      0.0%      0.0%     
 flops    20 x    29 x     9             52429680     100.0%      0.0%      0.0%     
 flops    20 x    73 x    73             56274240     100.0%      0.0%      0.0%     
 flops    20 x    20 x    29             58255200     100.0%      0.0%      0.0%     
 flops     4 x    73 x    32             67276800     100.0%      0.0%      0.0%     
 flops    32 x    60 x    20             69120000     100.0%      0.0%      0.0%     
 flops    60 x    60 x    32             69120000     100.0%      0.0%      0.0%     
 flops    32 x    73 x     4             69388544     100.0%      0.0%      0.0%     
 flops    32 x    61 x    20             70272000     100.0%      0.0%      0.0%     
 flops    61 x    60 x    32             70272000     100.0%      0.0%      0.0%     
 flops    60 x    61 x    32             70272000     100.0%      0.0%      0.0%     
 flops    61 x    61 x    32             71443200     100.0%      0.0%      0.0%     
 flops    32 x     4 x    73             71537664     100.0%      0.0%      0.0%     
 flops    20 x    60 x    32             72499200     100.0%      0.0%      0.0%     
 flops    20 x    32 x    60             72576000     100.0%      0.0%      0.0%     
 flops     4 x    32 x    73             72883200     100.0%      0.0%      0.0%     
 flops    32 x    20 x    60             73267200     100.0%      0.0%      0.0%     
 flops    32 x    29 x     4             73601536     100.0%      0.0%      0.0%     
 flops    20 x    61 x    32             73785600     100.0%      0.0%      0.0%     
 flops     4 x    29 x    32             74804224     100.0%      0.0%      0.0%     
 flops    32 x    60 x    60             76032000     100.0%      0.0%      0.0%     
 flops    60 x    67 x    32             77184000     100.0%      0.0%      0.0%     
 flops    67 x    60 x    32             77184000     100.0%      0.0%      0.0%     
 flops    32 x    60 x    61             77299200     100.0%      0.0%      0.0%     
 flops    32 x    61 x    60             77299200     100.0%      0.0%      0.0%     
 flops    32 x    67 x    20             77355520     100.0%      0.0%      0.0%     
 flops    68 x    60 x    32             78336000     100.0%      0.0%      0.0%     
 flops    60 x    68 x    32             78336000     100.0%      0.0%      0.0%     
 flops    61 x    67 x    32             78470400     100.0%      0.0%      0.0%     
 flops    67 x    61 x    32             78470400     100.0%      0.0%      0.0%     
 flops    32 x    61 x    61             78587520     100.0%      0.0%      0.0%     
 flops    32 x    68 x    20             78771200     100.0%      0.0%      0.0%     
 flops    61 x    68 x    32             79641600     100.0%      0.0%      0.0%     
 flops    68 x    61 x    32             79641600     100.0%      0.0%      0.0%     
 flops    20 x    67 x    32             80957440     100.0%      0.0%      0.0%     
 flops    20 x    68 x    32             82252800     100.0%      0.0%      0.0%     
 flops    20 x    29 x    29             84470040     100.0%      0.0%      0.0%     
 flops    32 x    67 x    60             84902400     100.0%      0.0%      0.0%     
 flops    32 x    68 x    60             86169600     100.0%      0.0%      0.0%     
 flops    67 x    67 x    32             86188800     100.0%      0.0%      0.0%     
 flops    32 x    67 x    61             86317440     100.0%      0.0%      0.0%     
 flops    68 x    67 x    32             87475200     100.0%      0.0%      0.0%     
 flops    67 x    68 x    32             87475200     100.0%      0.0%      0.0%     
 flops    32 x    68 x    61             87605760     100.0%      0.0%      0.0%     
 flops    68 x    68 x    32             88780800     100.0%      0.0%      0.0%     
 flops    60 x    82 x    32             94464000     100.0%      0.0%      0.0%     
 flops    82 x    60 x    32             94464000     100.0%      0.0%      0.0%     
 flops    32 x    82 x    20             95723520     100.0%      0.0%      0.0%     
 flops    61 x    82 x    32             96038400     100.0%      0.0%      0.0%     
 flops    82 x    61 x    32             96038400     100.0%      0.0%      0.0%     
 flops    60 x    86 x    32             99072000     100.0%      0.0%      0.0%     
 flops    20 x    82 x    32             99187200     100.0%      0.0%      0.0%     
 flops    32 x    86 x    20            100172800     100.0%      0.0%      0.0%     
 flops    60 x    87 x    32            100224000     100.0%      0.0%      0.0%     
 flops    61 x    86 x    32            100723200     100.0%      0.0%      0.0%     
 flops    32 x    87 x    20            101003520     100.0%      0.0%      0.0%     
 flops    61 x    87 x    32            101894400     100.0%      0.0%      0.0%     
 flops     9 x     9 x    32            103545216     100.0%      0.0%      0.0%     
 flops    32 x    82 x    60            103910400     100.0%      0.0%      0.0%     
 flops    20 x    86 x    32            104025600     100.0%      0.0%      0.0%     
 flops    20 x    87 x    32            105235200     100.0%      0.0%      0.0%     
 flops    82 x    67 x    32            105484800     100.0%      0.0%      0.0%     
 flops    67 x    82 x    32            105484800     100.0%      0.0%      0.0%     
 flops    32 x    82 x    61            105642240     100.0%      0.0%      0.0%     
 flops    68 x    82 x    32            107059200     100.0%      0.0%      0.0%     
 flops    82 x    68 x    32            107059200     100.0%      0.0%      0.0%     
 flops    32 x    86 x    60            108979200     100.0%      0.0%      0.0%     
 flops    32 x    87 x    60            110246400     100.0%      0.0%      0.0%     
 flops    67 x    86 x    32            110630400     100.0%      0.0%      0.0%     
 flops     4 x    32 x     9            110730240     100.0%      0.0%      0.0%     
 flops    32 x    86 x    61            110795520     100.0%      0.0%      0.0%     
 flops    32 x     4 x     9            111432960     100.0%      0.0%      0.0%     
 flops    67 x    87 x    32            111916800     100.0%      0.0%      0.0%     
 flops    32 x    87 x    61            112083840     100.0%      0.0%      0.0%     
 flops    68 x    86 x    32            112281600     100.0%      0.0%      0.0%     
 flops    68 x    87 x    32            113587200     100.0%      0.0%      0.0%     
 flops    32 x     9 x    20            115084800     100.0%      0.0%      0.0%     
 flops    20 x     9 x    32            115084800     100.0%      0.0%      0.0%     
 flops    82 x    82 x    32            129100800     100.0%      0.0%      0.0%     
 flops    82 x    86 x    32            135398400     100.0%      0.0%      0.0%     
 flops    82 x    87 x    32            136972800     100.0%      0.0%      0.0%     
 flops    29 x     9 x    32            166822848     100.0%      0.0%      0.0%     
 flops     9 x    29 x    32            166872960     100.0%      0.0%      0.0%     
 flops    73 x    60 x    32            168192000     100.0%      0.0%      0.0%     
 flops    60 x    73 x    32            168192000     100.0%      0.0%      0.0%     
 flops    32 x    73 x    20            168285440     100.0%      0.0%      0.0%     
 flops    61 x    73 x    32            170995200     100.0%      0.0%      0.0%     
 flops    73 x    61 x    32            170995200     100.0%      0.0%      0.0%     
 flops    20 x    73 x    32            176508160     100.0%      0.0%      0.0%     
 flops    20 x    32 x    73            176601600     100.0%      0.0%      0.0%     
 flops    32 x    20 x    73            178844160     100.0%      0.0%      0.0%     
 flops     4 x    32 x    29            180566528     100.0%      0.0%      0.0%     
 flops    32 x     4 x    29            183558400     100.0%      0.0%      0.0%     
 flops    32 x    60 x    73            185011200     100.0%      0.0%      0.0%     
 flops    32 x    73 x    60            185011200     100.0%      0.0%      0.0%     
 flops    32 x    29 x    20            185414400     100.0%      0.0%      0.0%     
 flops    20 x    29 x    32            185414400     100.0%      0.0%      0.0%     
 flops    73 x    67 x    32            187814400     100.0%      0.0%      0.0%     
 flops    67 x    73 x    32            187814400     100.0%      0.0%      0.0%     
 flops    32 x    61 x    73            188094720     100.0%      0.0%      0.0%     
 flops    32 x    73 x    61            188094720     100.0%      0.0%      0.0%     
 flops    68 x    73 x    32            190617600     100.0%      0.0%      0.0%     
 flops    73 x    68 x    32            190617600     100.0%      0.0%      0.0%     
 flops    32 x    67 x    73            206595840     100.0%      0.0%      0.0%     
 flops    32 x    68 x    73            209679360     100.0%      0.0%      0.0%     
 flops    73 x    82 x    32            229862400     100.0%      0.0%      0.0%     
 flops    82 x    73 x    32            229862400     100.0%      0.0%      0.0%     
 flops    73 x    86 x    32            241075200     100.0%      0.0%      0.0%     
 flops    73 x    87 x    32            243878400     100.0%      0.0%      0.0%     
 flops    32 x    82 x    73            252848640     100.0%      0.0%      0.0%     
 flops    32 x     9 x     9            254741760     100.0%      0.0%      0.0%     
 flops    32 x    86 x    73            265182720     100.0%      0.0%      0.0%     
 flops    32 x    87 x    73            268266240     100.0%      0.0%      0.0%     
 flops    29 x    29 x    32            268850880     100.0%      0.0%      0.0%     
 flops    32 x    20 x     9            281180160     100.0%      0.0%      0.0%     
 flops    20 x    32 x     9            283046400     100.0%      0.0%      0.0%     
 flops    73 x    73 x    32            409267200     100.0%      0.0%      0.0%     
 flops    32 x     9 x    29            419437440     100.0%      0.0%      0.0%     
 flops    32 x    29 x     9            419437440     100.0%      0.0%      0.0%     
 flops    32 x    73 x    73            450193920     100.0%      0.0%      0.0%     
 flops    32 x    20 x    29            463814400     100.0%      0.0%      0.0%     
 flops    20 x    32 x    29            466041600     100.0%      0.0%      0.0%     
 flops    32 x    60 x    32            573726720     100.0%      0.0%      0.0%     
 flops    32 x    61 x    32            583038976     100.0%      0.0%      0.0%     
 flops    32 x    32 x    60            586137600     100.0%      0.0%      0.0%     
 flops    32 x    67 x    32            641759232     100.0%      0.0%      0.0%     
 flops    32 x    68 x    32            650502144     100.0%      0.0%      0.0%     
 flops    32 x    29 x    29            675760320     100.0%      0.0%      0.0%     
 flops    32 x    82 x    32            791314432     100.0%      0.0%      0.0%     
 flops    32 x    86 x    32            829739008     100.0%      0.0%      0.0%     
 flops    32 x    87 x    32            839030784     100.0%      0.0%      0.0%     
 flops    32 x     9 x    32            924715008     100.0%      0.0%      0.0%     
 flops    32 x    73 x    32           1398011904     100.0%      0.0%      0.0%     
 flops    32 x    32 x    73           1430753280     100.0%      0.0%      0.0%     
 flops    32 x    29 x    32           1498163200     100.0%      0.0%      0.0%     
 flops    32 x    32 x     9           2249367552     100.0%      0.0%      0.0%     
 flops    32 x    32 x    29           3709921280     100.0%      0.0%      0.0%     
 flops inhomo. stacks                 27304558848     100.0%      0.0%      0.0%
 flops total                        64.742892E+09     100.0%      0.0%      0.0%
 flops max/rank                      9.375457E+09     100.0%      0.0%      0.0%
 matmuls inhomo. stacks                    105996     100.0%      0.0%      0.0%
 matmuls total                            1210653     100.0%      0.0%      0.0%
 number of processed stacks                432157     100.0%      0.0%      0.0%
 average stack size                                     2.8       0.0       0.0
 marketing flops                    75.611939E+09
 -------------------------------------------------------------------------------
 # multiplications                           4264
 max memory usage/rank              17.616134E+09
 # max total images/rank                        5
 # max 3D layers                                1
 # MPI messages exchanged                   69290
 MPI messages size (bytes):
  total size                         2.853709E+09
  min size                           0.000000E+00
  max size                         294.912000E+03
  average size                      41.185004E+03
 MPI breakdown and total messages size (bytes):
             size <=      128               16113                        0
       128 < size <=     8192                9619                 39313608
      8192 < size <=    32768               21547                411705808
     32768 < size <=   131072               16467               1235221072
    131072 < size <=  4194304                5544               1167468288
   4194304 < size <= 16777216                   0                        0
  16777216 < size                               0                        0
 -------------------------------------------------------------------------------

 *** WARNING in dbcsr_mm.F:301 :: Using a non-square number of MPI ranks ***
 *** might lead to poor performance. Used ranks: 10 Suggested: 9 16      ***

 -------------------------------------------------------------------------------
 -                                                                             -
 -                      DBCSR MESSAGE PASSING PERFORMANCE                      -
 -                                                                             -
 -------------------------------------------------------------------------------
 ROUTINE             CALLS      AVE VOLUME [Bytes]
 MP_Bcast              379                     12.
 MP_Allreduce         3009                     18.
 MP_Alltoall          3469                  42330.
 MP_ISend            19164                  27514.
 MP_IRecv            18630                  22612.
 -------------------------------------------------------------------------------

 -------------------------------------------------------------------------------
 -                                                                             -
 -                                GRID STATISTICS                              -
 -                                                                             -
 -------------------------------------------------------------------------------
 LP    KERNEL             BACKEND                              COUNT     PERCENT
 4     collocate ortho    CPU                                  23040      20.78%
 4     integrate ortho    CPU                                  23040      20.78%
 2     collocate ortho    CPU                                  22624      20.41%
 2     integrate ortho    CPU                                  22624      20.41%
 6     collocate ortho    CPU                                   9408       8.49%
 6     integrate ortho    CPU                                   9408       8.49%
 0     collocate general  CPU                                    720       0.65%
 -------------------------------------------------------------------------------

 -------------------------------------------------------------------------------
 -                                                                             -
 -                          OFFLOAD MEMPOOL STATISTICS                         -
 -                                                                             -
 -------------------------------------------------------------------------------
 Memory consumption                Number of allocations  Used [MiB]  Size [MiB]
 Host                                                  6          83    22286016
 -------------------------------------------------------------------------------

 MEMORY| Estimated peak process memory [MiB]                                1949

 -------------------------------------------------------------------------------
 -                                                                             -
 -                         MESSAGE PASSING PERFORMANCE                         -
 -                                                                             -
 -------------------------------------------------------------------------------

 ROUTINE             CALLS      AVE VOLUME [Bytes]
 MP_Group                5
 MP_Bcast              244                 229026.
 MP_Allreduce         1945                   5726.
 MP_Sync                11
 MP_Alltoall            84               82487367.
 MP_SendRecv            72                 486400.
 MP_ISendRecv           72                 486400.
 MP_Wait               361
 MP_comm_split          11
 MP_ISend              238                2831645.
 MP_IRecv              238                2831645.
 -------------------------------------------------------------------------------


 -------------------------------------------------------------------------------
 -                                                                             -
 -                           R E F E R E N C E S                               -
 -                                                                             -
 -------------------------------------------------------------------------------
 
 CP2K version 2026.2 (Development Version), the CP2K developers group (2026).
 CP2K is freely available from https://www.cp2k.org/ .
 
 M. Iannuzzi, J. Wilhelm, F. Stein, A. Bussy, H. Elgabarty, D. Golze, A. Hehn, 
 M. Graml, S. Marek, B. Sertcan Gökmen, C. Schran, H. Forbert, R. Z. 
 Khaliullin, A. Kozhevnikov, M. Taillefumier, R. Meli, V. V. Rybkin, M. Brehm, 
 R. Schade, O. Schütt, J. V. Pototschnig, H. Mirhosseini, A. Knüpfer, D. Marx, 
 M. Krack, J. Hutter, T. D. Kühne.
 J. Phys. Chem. B 130, 1237-1310 (2026).
 The CP2K Program Package Made Simple.
 https://doi.org/10.1021/acs.jpcb.5c05851

 M. Graml, K. Zollner, D. Hernangómez-Pérez, P. E. Faria Junior, J. Wilhelm.
 J. Chem. Theory Comput. 20, 2202-2208 (2024).
 Low-scaling GW algorithm applied to twisted transition-metal dichalcogenide 
 heterobilayers.
 https://doi.org/10.1021/acs.jctc.3c01230

 T. D. Kühne, M. Iannuzzi, M. Del Ben, V. V. Rybkin, P. Seewald, F. Stein, T. 
 Laino, R. Z. Khaliullin, O. Schütt, F. Schiffmann, D. Golze, J. Wilhelm, S. 
 Chulkov, M. H. Bani-Hashemian, V. Weber, U. Borstnik, M. Taillefumier, A. S. 
 Jakobovits, A. Lazzaro, H. Pabst, T. Müller, R. Schade, M. Guidon, S. 
 Andermatt, N. Holmberg, G. K. Schenter, A. Hehn, A. Bussy, F. Belleflamme, G. 
 Tabacchi, A. Glöß, M. Lass, I. Bethune, C. J. Mundy, C. Plessl, M. Watkins, 
 J. VandeVondele, M. Krack, J. Hutter.
 J. Chem. Phys. 152, 194103 (2020).
 CP2K: An electronic structure and molecular dynamics software package - 
 Quickstep: Efficient and accurate electronic structure calculations.
 https://doi.org/10.1063/5.0007045

 O. Schuett, P. Messmer, J. Hutter, J. VandeVondele.
 Electronic Structure Calculations on Graphics Processing Units, 173-190 (2016).
 GPU-Accelerated Sparse Matrix-Matrix Multiplication for Linear Scaling Density 
 Functional Theory.
 https://doi.org/10.1002/9781118670712.ch8

 U. Borstnik, J. VandeVondele, V. Weber, J. Hutter.
 Parallel Comput. 40, 47-58 (2014).
 Sparse matrix multiplication: The distributed block-compressed sparse row 
 library.
 https://doi.org/10.1016/j.parco.2014.03.012

 J. VandeVondele, J. Hutter.
 J. Chem. Phys. 127, 114105 (2007).
 Gaussian basis sets for accurate calculations on molecular systems in gas and 
 condensed phases.
 https://doi.org/10.1063/1.2770708

 J. VandeVondele, M. Krack, F. Mohamed, M. Parrinello, T. Chassaing, J. Hutter.
 Comput. Phys. Commun. 167, 103-128 (2005).
 QUICKSTEP: Fast and accurate density functional calculations using a mixed 
 Gaussian and plane waves approach.
 https://doi.org/10.1016/j.cpc.2004.12.014

 M. Krack.
 Theor. Chem. Acc. 114, 145-152 (2005).
 Pseudopotentials for H to Kr optimized for gradient-corrected 
 exchange-correlation functionals.
 https://doi.org/10.1007/s00214-005-0655-y

 M. Frigo, S. G. Johnson.
 Proc. IEEE 93, 216-231 (2005).
 The design and implementation of FFTW3.
 https://doi.org/10.1109/JPROC.2004.840301

 J. VandeVondele, J. Hutter.
 J. Chem. Phys. 118, 4365-4369 (2003).
 An efficient orbital transformation method for electronic structure 
 calculations.
 https://doi.org/10.1063/1.1543154

 C. Hartwigsen, S. Goedecker, J. Hutter.
 Phys. Rev. B 58, 3641-3662 (1998).
 Relativistic separable dual-space Gaussian pseudopotentials from H to Rn.
 https://doi.org/10.1103/PhysRevB.58.3641

 G. Lippert, J. Hutter, M. Parrinello.
 Mol. Phys. 92, 477-487 (1997).
 A hybrid Gaussian and plane wave density functional scheme.
 https://doi.org/10.1080/002689797170220

 S. Goedecker, M. Teter, J. Hutter.
 Phys. Rev. B 54, 1703-1710 (1996).
 Separable dual-space Gaussian pseudopotentials.
 https://doi.org/10.1103/PhysRevB.54.1703

 J. P. Perdew, K. Burke, M. Ernzerhof.
 Phys. Rev. Lett. 77, 3865-3868 (1996).
 Generalized gradient approximation made simple.
 https://doi.org/10.1103/PhysRevLett.77.3865

 P. E. Blöchl.
 J. Chem. Phys. 103, 7422-7428 (1995).
 Electrostatic decoupling of periodic images of plane‐wave‐expanded 
 densities and derived atomic point charges.
 https://doi.org/10.1063/1.470314

 R. H. Byrd, P. H. Lu, J. Nocedal, C. Y. Zhu.
 SIAM J. Sci. Comput. 16, 1190-1208 (1995).
 A Limited Memory Algorithm for Bound Constrained Optimization.
 https://doi.org/10.1137/0916069


 -------------------------------------------------------------------------------
 -                                                                             -
 -                                T I M I N G                                  -
 -                                                                             -
 -------------------------------------------------------------------------------
 SUBROUTINE                       CALLS  ASD         SELF TIME        TOTAL TIME MAXRANK
                                MAXIMUM       AVERAGE  MAXIMUM  AVERAGE  MAXIMUM
 CP2K                                 1  1.0    0.014    0.023   13.946   13.946       0
 qs_energies                          1  2.0    0.000    0.001   13.152   13.152       0
 scf_env_do_scf                       1  3.0    0.000    0.000    6.367    6.367       8
 qs_energies_properties               1  3.0    0.000    0.000    6.072    6.072       4
 post_scf_bandstructure               1  4.0    0.000    0.000    6.072    6.072       9
 run_gw                               1  5.0    0.000    0.000    5.910    6.055       8
 qs_ks_build_kohn_sham_matrix         4  7.2    0.004    0.005    5.353    5.354       3
 fft_wrap_pw1pw2                     62 10.2    0.002    0.002    4.601    4.903       3
 qs_ks_update_qs_env                  4  5.0    0.000    0.000    4.866    4.866       6
 rebuild_ks_matrix                    3  6.0    0.000    0.000    4.866    4.866       0
 scf_env_do_scf_inner_loop            3  4.0    0.000    0.001    4.715    4.716       0
 fft_wrap_pw1pw2_300                 38 11.6    0.218    0.345    4.390    4.569       6
 fft3d_ps                            62 12.2    1.593    2.035    3.494    4.283       5
 qs_vxc_create                        4  8.2    0.000    0.000    3.386    3.471       2
 xc_vxc_pw_create                     3  9.0    0.051    0.064    3.386    3.471       3
 gw_calc_ri_rs_non_periodic           1  6.0    0.000    0.000    3.194    3.296       0
 mp_alltoall_z22v                    62 14.2    1.299    3.255    1.299    3.255       9
 create_and_init_bs_env_for_gw        1  6.0    0.003    0.003    2.715    2.880       7
 xc_pw_derive                        18 11.0    0.000    0.000    2.531    2.836       3
 qs_rho_update_rho_low                4  5.0    0.000    0.000    1.948    1.948       2
 calculate_rho_elec                   4  6.0    0.040    0.042    1.948    1.948       0
 xc_pw_divergence                     3 10.0    0.000    0.000    1.676    1.910       2
 yz_to_x                             30 12.6    0.237    0.343    0.934    1.889       3
 generate_auto_ri_basis               1  7.0    0.000    0.000    1.740    1.740       1
 xc_rho_set_and_dset_create           3 10.0    0.044    0.072    1.596    1.728       3
 init_scf_loop                        1  4.0    0.000    0.000    1.650    1.651       4
 x_to_yz                             32 13.8    0.361    0.526    0.964    1.613       6
 mp_sum_d                           761  5.0    0.906    1.610    0.906    1.610       9
 density_rs2pw                        4  7.0    0.000    0.000    1.292    1.509       3
 optimize_ri_rs_grid                  1  7.0    0.000    0.000    1.166    1.283       0
 compute_AB_optimized_RI_basis        1  8.0    0.000    0.000    1.063    1.063       8
 compute_AB_optimized_RI_basis_       1  9.0    0.000    0.000    0.918    1.061       0
 mp_sum_dm                           64 10.9    0.743    1.013    0.743    1.013       9
 compute_B_PQ_AB                      3 10.0    0.118    0.259    0.457    1.005       0
 rirs_grid_LBFGS                      1  8.0    0.062    0.204    0.990    1.000       0
 sum_up_and_integrate                 4  8.2    0.000    0.000    0.858    0.886       6
 integrate_v_rspace                   4  9.2    0.000    0.000    0.842    0.882       7
 potential_pw2rs                      4 10.2    0.002    0.003    0.811    0.850       6
 compute_W                            1  7.0    0.000    0.000    0.824    0.825       0
 evaluate_rirs_grid_cluster         301  9.0    0.032    0.111    0.194    0.745       0
 compute_Sigma_c_and_QP_energie       1  7.0    0.000    0.000    0.563    0.708       0
 grid_collocate_task_list             4  7.0    0.567    0.671    0.567    0.671       3
 mp_waitany                         238 11.4    0.279    0.666    0.279    0.666       0
 transfer_rs2pw                      17  7.9    0.000    0.000    0.332    0.648       3
 qs_ks_ddapc                          4  8.2    0.000    0.000    0.591    0.645       2
 cp_fm_gemm                         434 10.5    0.568    0.598    0.568    0.598       8
 parallel_gemm_fm_gemm              431  9.6    0.000    0.000    0.568    0.598       0
 transfer_rs2pw_300                   5  8.6    0.085    0.105    0.270    0.583       5
 compute_M_pq_inv_and_V_pq            1  8.0    0.000    0.000    0.580    0.581       1
 cp_fm_get_submatrix                 60 10.0    0.000    0.000    0.431    0.576       0
 compute_fm_W_freq                   30  8.0    0.000    0.001    0.535    0.542       0
 qs_init_subsys                       1  2.0    0.001    0.001    0.535    0.538       0
 qs_env_setup                         1  3.0    0.000    0.000    0.533    0.536       4
 qs_env_rebuild_pw_env                2  3.5    0.000    0.000    0.533    0.536       0
 pw_env_rebuild                       1  5.0    0.000    0.000    0.533    0.536       0
 contract_B_PQ                       14 11.9    0.232    0.485    0.252    0.534       0
 pw_grid_setup                        5  5.2    0.000    0.000    0.526    0.530       1
 pw_grid_setup_internal               5  6.2    0.009    0.009    0.526    0.529       0
 compute_Sigma_c                      1  8.0    0.002    0.004    0.521    0.521       0
 init_scf_run                         1  3.0    0.000    0.000    0.520    0.520       7
 scf_env_initial_rho_setup            1  4.0    0.000    0.000    0.520    0.520       0
 compute_contracted_RI_matrix         2  9.0    0.000    0.001    0.520    0.520       3
 compute_optimized_RI_matrix_bl      10 10.0    0.054    0.071    0.407    0.516       3
 pw_poisson_solve                     4  8.2    0.000    0.000    0.443    0.490       6
 compute_V_xc                         1  7.0    0.000    0.000    0.489    0.489       7
 pw_grid_sort                         5  7.2    0.297    0.309    0.432    0.462       6
 compute_M_PQ_AB                    366 11.0    0.000    0.001    0.368    0.458       3
 compute_M_PQ                       366 12.0    0.000    0.001    0.367    0.457       3
 int_operators_r12_ab_os            366 13.0    0.000    0.000    0.367    0.457       3
 int_operator_ab_os_low             366 14.0    0.151    0.190    0.367    0.457       3
 pw_derive                           30 11.3    0.371    0.456    0.371    0.456       5
 contract_grid_panels_sigma_c        30  9.0    0.424    0.429    0.450    0.453       4
 setup_time_and_frequency_minim       1  7.0    0.000    0.000    0.278    0.445       0
 build_minimax_time_frequency_g       1  8.0    0.000    0.000    0.278    0.445       9
 fit_l_sq_weights                     3  9.0    0.278    0.444    0.278    0.444       6
 pw_scatter_p                        32 12.8    0.329    0.414    0.329    0.414       6
 pw_gather_p                         30 11.6    0.321    0.385    0.321    0.385       3
 pw_copy                             60 10.5    0.328    0.382    0.328    0.382       5
 xc_functional_eval                   3 11.0    0.000    0.000    0.238    0.342       3
 pbe_lda_eval                         3 12.0    0.238    0.342    0.238    0.342       4
 get_mat_chi_Gamma_tau                1  7.0    0.000    0.001    0.334    0.334       0
 contract_grid_panels                31  8.0    0.277    0.293    0.301    0.320       0
 cp_ddapc_apply_CD                    4  9.2    0.000    0.000    0.160    0.313       0
 pw_poisson_set                       5  8.6    0.000    0.000    0.253    0.300       3
 compute_Z_lP                         1  7.0    0.000    0.000    0.285    0.285       0
 compute_Z_lP_auto_ri                 1  8.0    0.000    0.000    0.285    0.285       3
 initialize_ri_rs_grid                1  8.0    0.003    0.011    0.165    0.283       0
 mp_bcast_dm                         43  9.2    0.163    0.282    0.163    0.282       9
 compute_B_PQ_exchange                7 10.9    0.000    0.000    0.126    0.270       0
 fft_wrap_pw1pw2_100                  8 10.6    0.010    0.021    0.172    0.269       2
 compute_d_lp_auto_ri_batch           1  9.0    0.000    0.000    0.105    0.267       2
 compute_d_lp_auto_ri_atom            1 10.0    0.060    0.254    0.105    0.267       0
 compute_B_PQ_transition              7 10.9    0.000    0.000    0.126    0.265       0
 transfer_pw2rs                      16 11.2    0.000    0.000    0.260    0.261       3
 copy_dbcsr_to_fm                   104  9.5    0.169    0.257    0.172    0.259       5
 get_ddapc                            4 10.2    0.000    0.000    0.079    0.233       3
 pw_integral_ab_c1d_c1d_gs            8  9.8    0.139    0.154    0.170    0.229       6
 rirs_cluster_gradient_coordina     301 10.0    0.061    0.218    0.061    0.218       0
 abc_contract_xsmm                  619 11.0    0.095    0.215    0.095    0.215       0
 create_qs_kind_set                   1  2.0    0.000    0.000    0.212    0.213       4
 read_qs_kind                         2  3.0    0.045    0.077    0.212    0.213       0
 check_for_restart_files              1  7.0    0.203    0.205    0.203    0.205       0
 qs_energies_init_hamiltonians        1  3.0    0.000    0.000    0.192    0.192       8
 transfer_pw2rs_300                   4 12.2    0.076    0.096    0.172    0.190       2
 qs_env_update_s_mstruct              1  4.0    0.000    0.000    0.187    0.189       8
 pw_axpy                             45  7.8    0.144    0.178    0.144    0.178       5
 rirs_cluster_gradient_products     301 10.0    0.041    0.174    0.041    0.174       0
 pw_copy_to_array                    30 11.6    0.136    0.172    0.136    0.172       5
 parser_read_line                 22513  4.0    0.004    0.006    0.168    0.172       0
 calculate_rho_core                   1  5.0    0.010    0.011    0.164    0.170       2
 eval_bandstructure_properties        1  5.0    0.000    0.000    0.153    0.170       0
 cp_cfm_geeig                         1  6.0    0.000    0.000    0.152    0.168       0
 parser_read_line_low                27  5.0    0.005    0.043    0.163    0.168       0
 broadcast_input_information         27  6.0    0.005    0.019    0.158    0.167       0
 cp_cfm_cholesky_decompose            2  7.0    0.146    0.162    0.146    0.162       8
 sort_shells                          5  8.2    0.136    0.159    0.136    0.159       0
 operator2                       176022 15.0    0.128    0.157    0.128    0.157       3
 delete_unnecessary_files             1  8.0    0.000    0.000    0.014    0.141       0
 safe_delete                         60  9.0    0.014    0.141    0.014    0.141       0
 mp_waitall_1                       123 12.5    0.056    0.132    0.056    0.132       9
 pw_copy_from_array                  32 12.8    0.089    0.115    0.089    0.115       1
 ab_contract                     177008 15.0    0.089    0.110    0.089    0.110       3
 cp_fm_cholesky_invert               31  9.0    0.106    0.110    0.106    0.110       3
 mp_bcast_i_src                     113  7.0    0.082    0.100    0.082    0.100       9
 cp_fm_syevd                          6  9.2    0.000    0.000    0.097    0.097       0
 compute_AA_optimized_RI_basis        1  8.0    0.000    0.001    0.097    0.097       5
 cp_fm_redistribute_end               6 10.2    0.048    0.095    0.048    0.095       7
 cp_fm_syevd_base                     6 10.2    0.047    0.093    0.047    0.093       3
 build_G_ao                         121  8.5    0.003    0.004    0.076    0.092       6
 transfer_pw2rs_100                   4 12.2    0.019    0.024    0.064    0.088       3
 compute_fm_chi_Gamma_freq           30  8.0    0.024    0.031    0.066    0.086       6
 rirs_cluster_residual              301 10.0    0.019    0.076    0.019    0.076       0
 mp_bcast_am_src                     27  7.0    0.071    0.076    0.071    0.076       5
 G_occ_vir                          121  9.5    0.003    0.004    0.055    0.072       0
 cp_fm_uplo_to_full                  64  9.0    0.053    0.070    0.053    0.070       9
 compute_B_PQ_AA                      9  9.0    0.000    0.000    0.061    0.068       0
 mp_sum_root_rm                       9 10.0    0.057    0.067    0.057    0.067       8
 pw_zero                             35  6.3    0.050    0.063    0.050    0.063       3
 cp_fm_geeig                          2  9.5    0.000    0.000    0.061    0.061       0
 pw_grid_remap                        4  8.0    0.006    0.007    0.039    0.061       0
 compute_M_pq_inv                     1  9.0    0.000    0.000    0.061    0.061       0
 rirs_cluster_D_ll                  301 10.0    0.013    0.058    0.013    0.058       0
 build_3c_integral_block_auto_r      48 11.0    0.024    0.058    0.024    0.058       1
 build_3c_integral_block_auto_r      48 11.0    0.000    0.000    0.021    0.057       1
 cp_fm_cholesky_decompose            35  9.0    0.055    0.056    0.055    0.056       3
 mp_sum_im3                           5  9.0    0.033    0.055    0.033    0.055       9
 fft_wrap_pw1pw2_40                   8 10.6    0.002    0.003    0.031    0.055       4
 rirs_cluster_d_lP                  301 10.0    0.013    0.054    0.013    0.054       0
 solve_AB_eigenproblem                3 10.0    0.019    0.035    0.030    0.054       0
 rirs_cluster_AO_products           301 10.0    0.014    0.053    0.014    0.053       0
 copy_fm_to_dbcsr                   161  9.3    0.042    0.046    0.048    0.052       7
 transfer_rs2pw_100                   4  9.0    0.015    0.018    0.044    0.051       6
 compute_V_MinvVsqrt                  1  8.0    0.000    0.000    0.050    0.050       0
 local_gemm                        4832 12.9    0.021    0.050    0.021    0.050       0
 rs_grid_zero                         9 12.4    0.039    0.046    0.039    0.046       1
 compute_QP_energies                  1  8.0    0.000    0.000    0.027    0.045       0
 cp_fm_power                          1  9.0    0.001    0.002    0.045    0.045       0
 rirs_grid_build_clusters             1  8.0    0.006    0.020    0.010    0.038       1
 mp_sum_iv                          144 10.1    0.022    0.036    0.022    0.036       9
 pw_multiply_with                     4  9.2    0.028    0.034    0.028    0.034       2
 pw_grid_assign                       5  7.2    0.030    0.033    0.033    0.034       0
 transfer_pw2rs_40                    4 12.2    0.007    0.008    0.020    0.033       3
 compute_int_3c                       2  9.0    0.021    0.023    0.029    0.033       6
 grid_integrate_task_list             4 10.2    0.016    0.031    0.016    0.031       0
 diamat_all                          16 11.5    0.016    0.031    0.016    0.031       0
 pw_scale                            13  9.8    0.021    0.030    0.021    0.030       5
 eval_pw_TabLR                        1  2.0    0.009    0.015    0.022    0.030       0
 mp_bcast_b_src                       6  6.3    0.024    0.027    0.024    0.027       8
 qs_scf_new_mos                       3  5.0    0.000    0.000    0.027    0.027       4
 qs_scf_loop_do_ot                    3  6.0    0.000    0.000    0.027    0.027       1
 collect_used_col_blocks             92  9.7    0.000    0.000    0.015    0.027       0
 extract_grid_panel                 122  9.5    0.013    0.026    0.013    0.026       0
 ot_scf_mini                          3  7.0    0.002    0.002    0.025    0.025       0
 mp_alltoall_d11v                     8  9.6    0.015    0.022    0.015    0.022       5
 rs_gather_matrices                   4 10.2    0.000    0.000    0.015    0.022       0
 compute_reference_M_PQ_inv_fac      11 10.8    0.000    0.001    0.011    0.021       0
 compute_Sigma_x                      1  7.0    0.000    0.000    0.021    0.021       0
 qs_create_task_list                  1  5.0    0.000    0.000    0.008    0.021       6
 generate_qs_task_list                1  6.0    0.000    0.001    0.008    0.021       0
 analyt_conti_and_print               1  9.0    0.002    0.021    0.002    0.021       0
 distribute_tasks                     1  7.0    0.000    0.000    0.007    0.020       2
 to_Gamma_and_mo_real                62  9.0    0.000    0.000    0.020    0.020       0
 extract_masked_blocks              244  9.6    0.013    0.020    0.013    0.020       2
 load_balance_distributed             2  8.0    0.000    0.000    0.007    0.020       0
 get_current_loads                   12  9.0    0.000    0.000    0.007    0.020       0
 compute_load_list                    4  9.0    0.000    0.000    0.007    0.020       2
 external_control                     3  5.0    0.002    0.019    0.019    0.020       0
 mp_alltoall_l                       13  9.9    0.007    0.020    0.007    0.020       9
 ot_mini                              3  8.0    0.000    0.000    0.017    0.017       6
 transfer_rs2pw_40                    4  9.0    0.006    0.007    0.014    0.017       6
 mp_sum_l                            21  4.2    0.013    0.016    0.013    0.016       4
 calculate_first_density_matrix       1  5.0    0.001    0.004    0.015    0.015       0
 cp_ddapc_init                        1  5.0    0.000    0.000    0.015    0.015       5
 cp_ddapc_create                      1  6.0    0.000    0.000    0.015    0.015       7
 qs_ot_get_derivative                 3  9.0    0.006    0.006    0.014    0.014       6
 -------------------------------------------------------------------------------

 The number of warnings for this run is : 3
 
 -------------------------------------------------------------------------------
  **** **** ******  **  PROGRAM ENDED AT                 2026-10-03 12:01:50.114
 ***** ** ***  *** **   PROGRAM RAN ON                                  n2cn1190
 **    ****   ******    PROGRAM RAN BY                                  eprop2d1
 ***** **    ** ** **   PROGRAM PROCESS ID                               1980172
  **** **  *******  **  PROGRAM STOPPED IN /scratch/hpc-prf-metdyn/eprop2d1_Jan/
                                           53_benchmark_RI_opt/418_gw100_fig5_fu
                                           ll_epsfilter_1e12_20261002/calculatio
                                           ns/rc0p5/ri5_rs04/27_C3H6
