 DBCSR| CPU Multiplication driver                                           XSMM (U)
 DBCSR| Multrec recursion limit                                              512 (U)
 DBCSR| Multiplication stack size                                           1000 (D)
 DBCSR| Maximum elements for images                                    UNLIMITED (U)
 DBCSR| Multiplicative factor virtual images                                   1 (U)
 DBCSR| Use multiplication densification                                       T (D)
 DBCSR| Multiplication size stacks                                             3 (U)
 DBCSR| Use memory pool for CPU allocation                                     F (U)
 DBCSR| Number of 3D layers                                               SINGLE (U)
 DBCSR| Use MPI memory allocation                                              F (U)
 DBCSR| Use RMA algorithm                                                      F (U)
 DBCSR| Use Communication thread                                               T (U)
 DBCSR| Communication thread load                                             53 (D)
 DBCSR| MPI: My process id                                                     0
 DBCSR| MPI: Number of processes                                               5
 DBCSR| OMP: Current number of threads                                        10
 DBCSR| OMP: Max number of threads                                            10
 DBCSR| Split modifier for TAS multiplication algorithm                  1.0E+00 (U)


  **** **** ******  **  PROGRAM STARTED AT               2026-10-03 19:10:59.682
 ***** ** ***  *** **   PROGRAM STARTED ON                              n2cn0908
 **    ****   ******    PROGRAM STARTED BY                              eprop2d1
 ***** **    ** ** **   PROGRAM PROCESS ID                               1063024
  **** **  *******  **  PROGRAM STARTED IN /scratch/hpc-prf-metdyn/eprop2d1_Jan/
                                           53_benchmark_RI_opt/418_gw100_fig5_fu
                                           ll_epsfilter_1e12_20261002/calculatio
                                           ns/rc5p0/ri5_rs03/37_CBr4

 CP2K| version string:                 CP2K version 2026.2 (Development Version)
 CP2K| source code revision number:                                   0671c5aa6c
 CP2K| cp2kflags: omp libint fftw3 libxc parallel scalapack openblas            
 CP2K| is freely available from                            https://www.cp2k.org/
 CP2K| Program compiled at                                   2026-09-20 09:25:26
 CP2K| Program compiled on                                              n2login5
 CP2K| Program compiled for                                               x86_64
 CP2K| Data directory path    /scratch/hpc-prf-metdyn/eprop2d1_Jan/53_benchmark_
 CP2K| Input file name        /scratch/hpc-prf-metdyn/eprop2d1_Jan/53_benchmark_
 
 eprop2d1@n2cn0908 has created rank and process                      0   1063024
 eprop2d1@n2cn0908 has created rank and process                      1   1063025
 eprop2d1@n2cn0908 has created rank and process                      2   1063026
 eprop2d1@n2cn0908 has created rank and process                      3   1063027
 eprop2d1@n2cn0908 has created rank and process                      4   1063028
 
 eprop2d1@n2cn0908 is running                                        5 processes

 GLOBAL| Force Environment number                                              1
 GLOBAL| Basis set file name            /scratch/hpc-prf-metdyn/eprop2d1_Jan/53_
 GLOBAL| Potential file name            /scratch/hpc-prf-metdyn/eprop2d1_Jan/53_
 GLOBAL| MM Potential file name                                     MM_POTENTIAL
 GLOBAL| Coordinate file name                                      __STD_INPUT__
 GLOBAL| Method name                                                        CP2K
 GLOBAL| Project name                                             g418_e503_m037
 GLOBAL| Run type                                                         ENERGY
 GLOBAL| FFT library                                                       FFTW3
 GLOBAL| Diagonalization library                                       ScaLAPACK
 GLOBAL| Cholesky decomposition library                                ScaLAPACK
 GLOBAL| DGEMM library                                                      BLAS
 GLOBAL| Direct generalized diagonalization requested                          F
 GLOBAL| Orthonormality check for eigenvectors                          DISABLED
 GLOBAL| Matrix multiplication library                                 ScaLAPACK
 GLOBAL| All-to-all communication in single precision                          F
 GLOBAL| Grid backend                                                       AUTO
 GLOBAL| Global print level                                                  LOW
 GLOBAL| MPI I/O enabled                                                       T
 GLOBAL| Total number of message passing processes                             5
 GLOBAL| Number of distributed systems (nodes)                                 1
 GLOBAL| Number of threads for this process                                   10
 GLOBAL| This output is from process                                           0
 GLOBAL| OpenMP stack size per thread (OMP_STACKSIZE)                       512M
 GLOBAL| CPU model name                          AMD EPYC 7763 64-Core Processor

 MEMORY| system memory details [Kb]
 MEMORY|                        rank 0           min           max       average
 MEMORY| MemTotal            263897588     263897588     263897588     263897588
 MEMORY| MemFree             251107568     251107568     251107568     251107568
 MEMORY| Buffers                188768        188768        188768        188768
 MEMORY| Cached                7247128       7247128       7247128       7247128
 MEMORY| Slab                  1644272       1644272       1644272       1644272
 MEMORY| SReclaimable           289316        289316        289316        289316
 MEMORY| MemLikelyFree       258832780     258832780     258832780     258832780


 GENERATE|  Preliminary Number of Bonds generated:                             0
 GENERATE|  Achieved consistency in connectivity generation.

 *******************************************************************************
 *******************************************************************************
 **                                                                           **
 **     #####                         ##              ##                      **
 **    ##   ##            ##          ##              ##                      **
 **   ##     ##                       ##            ######                    **
 **   ##     ##  ##   ##  ##   #####  ##  ##   ####   ##    #####    #####    **
 **   ##     ##  ##   ##  ##  ##      ## ##   ##      ##   ##   ##  ##   ##   **
 **   ##  ## ##  ##   ##  ##  ##      ####     ###    ##   ######   ######    **
 **    ##  ###   ##   ##  ##  ##      ## ##      ##   ##   ##       ##        **
 **     #######   #####   ##   #####  ##  ##  ####    ##    #####   ##        **
 **           ##                                                    ##        **
 **                                                                           **
 **                                                ... make the atoms dance   **
 **                                                                           **
 **            Copyright (C) by CP2K developers group (2000-2026)             **
 **                      J. Chem. Phys. 152, 194103 (2020)                    **
 **                                                                           **
 *******************************************************************************


 TOTAL NUMBERS AND MAXIMUM NUMBERS

  Total number of            - Atomic kinds:                                   2
                             - Atoms:                                          5
                             - Shell sets:                                     5
                             - Shells:                                        45
                             - Primitive Cartesian functions:                 27
                             - Cartesian basis functions:                    170
                             - Spherical basis functions:                    145

  Maximum angular momentum of- Orbital basis functions:                        3
                             - Local part of the GTH pseudopotential:          2
                             - Non-local part of the GTH pseudopotential:      4


 SCF PARAMETERS         Density guess:                                   RESTART
                        --------------------------------------------------------
                        max_scf:                                             500
                        max_scf_history:                                       0
                        max_diis:                                              4
                        --------------------------------------------------------
                        eps_scf:                                        1.00E-08
                        eps_scf_history:                                0.00E+00
                        eps_diis:                                       0.00E+00
                        eps_eigval:                                     1.00E-05
                        --------------------------------------------------------
                        level_shift [a.u.]:                             0.000000
                        --------------------------------------------------------
                        Outer loop SCF in use 
                        No variables optimised in outer loop
                        eps_scf                                         1.00E-08
                        max_scf                                               20
                        No outer loop optimization
                        step_size                                       5.00E-01

 Extrapolation method: initial_guess

 Number of electrons:                                                         32
 Number of occupied orbitals:                                                 16
 Number of molecular orbitals:                                                16

 Number of orbital functions:                                                145
 Number of independent orbital functions:                                    145


 SCF WAVEFUNCTION OPTIMIZATION

  ----------------------------------- OT ---------------------------------------
  Minimizer      : DIIS                : direct inversion
                                         in the iterative subspace
                                         using   7 DIIS vectors
                                         safer DIIS on
  Preconditioner : FULL_KINETIC        : inversion of T + eS
  Lattice FFT   : OFF
  Precond_solver : DEFAULT
  stepsize       :    0.15000000                  energy_gap     :    0.20000000
  eps_taylor     :   0.10000E-15                  max_taylor     :             4
  ----------------------------------- OT ---------------------------------------

  Step     Update method      Time    Convergence         Total energy    Change
  ------------------------------------------------------------------------------
  Decoupling Energy:                                              -0.0000000127
     1 OT DIIS     0.15E+00    2.2     0.00000001       -59.3115905085 -5.93E+01
  Decoupling Energy:                                              -0.0000000127
     2 OT DIIS     0.15E+00    2.7     9.2682E-09       -59.3115905085 -4.26E-14

  *** SCF run converged in     2 steps ***


  Electronic density on regular grids:        -32.0000000000        0.0000000000
  Core density on regular grids:               31.9999999999       -0.0000000001
  Total charge density on r-space grids:       -0.0000000001
  Total charge density g-space grids:          -0.0000000001

  Overlap energy of the core charge distribution:               0.00000004267359
  Self energy of the core charge distribution:               -123.91616630212548
  Core Hamiltonian energy:                                     28.74005516306568
  Hartree energy:                                              47.94576283898297
  Exchange-correlation energy:                                -12.08124225108302

  Total energy:                                               -59.31159050848625

  outer SCF iter =    1 RMS gradient =   0.93E-08 energy =        -59.3115905085
  outer SCF loop converged in   1 iterations or    2 steps

  
 -------------------------------------------------------------------------------
 -                                                                             -
 -                          BANDSTRUCTURE CALCULATION                          -
 -                                                                             -
 -------------------------------------------------------------------------------
  
 Number of occupied molecular orbitals (MOs) = Number of occupied bands       16
 Number of unoccupied (= virtual) MOs = Number of unoccupied bands           129
 Number of Gaussian basis functions for MOs                                  145
  
 -------------------------------------------------------------------------------
 -                                                                             -
 -                                GW CALCULATION                               -
 -                                                                             -
 -------------------------------------------------------------------------------
  
 Input: Number of time/freq. points                                           30
 Input: ω_max for fitting Σ(iω) (eV)                                        10.0
 Input: Filter threshold for sparse tensor operations                    1.0E-12
 Input: Apply Hedin shift                                                      F
 Detected: Available memory per MPI process                              43.3 GB
 
 Input: RI-RS Tikhonov regularization                                   1.00E-04
 Input: AO grid hard cutoff radius                                        8.00 Å
 Input: MPI ranks per atom in Z_lP solve                                      -1
 Input: Keep sparsity in χ/G/W panels                                          T
 Input: GW flavour                                                          G0W0
 
 Input: RI-RS grid optimization activated                                      T
 Input: RS points per AO function                                            3.0
 Input: Cutoff radius for atomic clusters                                  5.0 Å
 Input: Maximum grid optimization iterations                                 300
 
 Input: AUTO_RI basis optimization activated:                                  T
 Input: AUTO_RI number of RI functions per AO function:                      5.0
 Input: AUTO_RI frontier orbital window:                                  5.0 eV
 Input: AUTO_RI neighbor radius:                                           3.0 Å
 
 Cutoff radius for the truncated Coulomb operator in RI metric:            7.0 Å
 Regularization parameter of RI                                          0.0E+00
 Regularization parameter of minimax grids                               1.0E-06
 
 AUTO_RI| Number of automatic RI functions for χ, ε, W:                      541
 AUTO_RI| Total RI basis optimization time:                                1.2 s
  Decoupling Energy:                                              -0.0000000127
 
 SCF direct band gap (eV)                                                   3.36
 Max. SCF eigval diff. (eV)                                               242.45
 E-Range for minimax grid                                                  72.09
 Number of Padé parameters for analytic continuation:                         16
 
 RI-RS basis radii (Å):
     Kind  Elem     r_AO (Å)     r_RI (Å)
        1    C        15.9835       10.1279
        2    Br        8.1711        5.5637
 
 Started RI-RS grid optimization
 RI-RS grid initial normalized error                          1.255020803512E-02
 RI-RS grid optimization completed, execution time:                      119.1 s
 Normalized 3C error:                                                    3.0E-05
 Maximum absolute 3C error:                                              3.1E-02
 Optimized points outside molecular Voronoi cells:                            38 / 435
 Total grid points used for RI-RS:                                           435
 
 RI-RS grid row-blocks of ϕ_μ(r_l)                                            15
 RI-RS grid points per block (max)                                            32
 
 Percentage of non-zero matrix elements in ϕ_μ(r_l)                     100.00 %
 
 RI-RS memory estimate per MPI process:
   Available memory per process (system)                                52.33 GB
   Required for Z_lP (dense upper bound; actual is sparser)              0.00 GB
   Required for χ, W, Σ panels (peak per panel step)                     0.00 GB
   Required for Z_lP solve peak (D_local+ϕ, worst-case atom)             0.01 GB
   Worst-case local-grid number of grid points:                              435
   Worst-case memory D_local:                                            0.00 GB
 
 Started computing Z_lP
 Computed Z_lP (MPI rank 0) for atom          1 /  1,    Execution time    0.2 s
 Computed Z_lP (all MPI ranks) for all atoms,            Execution time    0.2 s

 Memory per MPI process after computing Z_lP:
 Available memory per MPI process                               52.3 GB
 Used memory per MPI process                                     1.1 GB
 Number of batches for χ, Σ matrices                                           1
 
 Percentage of non-zero matrix elements in Z_lP                         100.00 %
 Percentage of non-zero matrix elements in G_ll', χ_ll', W_ll'          100.00 %
 Percentage of non-zero matrix elements in χ_PQ for time point 1        100.00 %
 
 Computed χ(iτ,k=0) for time point            1 / 30,    Execution time    0.0 s
 Computed χ(iτ,k=0) for time point            2 / 30,    Execution time    0.0 s
 Computed χ(iτ,k=0) for time point            3 / 30,    Execution time    0.0 s
 Computed χ(iτ,k=0) for time point            4 / 30,    Execution time    0.0 s
 Computed χ(iτ,k=0) for time point            5 / 30,    Execution time    0.0 s
 Computed χ(iτ,k=0) for time point            6 / 30,    Execution time    0.0 s
 Computed χ(iτ,k=0) for time point            7 / 30,    Execution time    0.0 s
 Computed χ(iτ,k=0) for time point            8 / 30,    Execution time    0.0 s
 Computed χ(iτ,k=0) for time point            9 / 30,    Execution time    0.0 s
 Computed χ(iτ,k=0) for time point           10 / 30,    Execution time    0.0 s
 Computed χ(iτ,k=0) for time point           11 / 30,    Execution time    0.0 s
 Computed χ(iτ,k=0) for time point           12 / 30,    Execution time    0.0 s
 Computed χ(iτ,k=0) for time point           13 / 30,    Execution time    0.0 s
 Computed χ(iτ,k=0) for time point           14 / 30,    Execution time    0.0 s
 Computed χ(iτ,k=0) for time point           15 / 30,    Execution time    0.0 s
 Computed χ(iτ,k=0) for time point           16 / 30,    Execution time    0.0 s
 Computed χ(iτ,k=0) for time point           17 / 30,    Execution time    0.0 s
 Computed χ(iτ,k=0) for time point           18 / 30,    Execution time    0.0 s
 Computed χ(iτ,k=0) for time point           19 / 30,    Execution time    0.0 s
 Computed χ(iτ,k=0) for time point           20 / 30,    Execution time    0.0 s
 Computed χ(iτ,k=0) for time point           21 / 30,    Execution time    0.0 s
 Computed χ(iτ,k=0) for time point           22 / 30,    Execution time    0.0 s
 Computed χ(iτ,k=0) for time point           23 / 30,    Execution time    0.0 s
 Computed χ(iτ,k=0) for time point           24 / 30,    Execution time    0.0 s
 Computed χ(iτ,k=0) for time point           25 / 30,    Execution time    0.0 s
 Computed χ(iτ,k=0) for time point           26 / 30,    Execution time    0.0 s
 Computed χ(iτ,k=0) for time point           27 / 30,    Execution time    0.0 s
 Computed χ(iτ,k=0) for time point           28 / 30,    Execution time    0.0 s
 Computed χ(iτ,k=0) for time point           29 / 30,    Execution time    0.0 s
 Computed χ(iτ,k=0) for time point           30 / 30,    Execution time    0.0 s
 
 Cholesky decomposition failed, using diagonalization.
 Discarded eigenmodes:                                                         1
 Computed W(iτ),                                         Execution time    0.7 s
 
 Computed Σ^x(k=0),                                      Execution time    0.0 s
 
 Computed Σ^c(iτ) for time point              1 / 30,    Execution time    0.0 s
 Computed Σ^c(iτ) for time point              2 / 30,    Execution time    0.0 s
 Computed Σ^c(iτ) for time point              3 / 30,    Execution time    0.0 s
 Computed Σ^c(iτ) for time point              4 / 30,    Execution time    0.0 s
 Computed Σ^c(iτ) for time point              5 / 30,    Execution time    0.0 s
 Computed Σ^c(iτ) for time point              6 / 30,    Execution time    0.0 s
 Computed Σ^c(iτ) for time point              7 / 30,    Execution time    0.0 s
 Computed Σ^c(iτ) for time point              8 / 30,    Execution time    0.0 s
 Computed Σ^c(iτ) for time point              9 / 30,    Execution time    0.0 s
 Computed Σ^c(iτ) for time point             10 / 30,    Execution time    0.0 s
 Computed Σ^c(iτ) for time point             11 / 30,    Execution time    0.0 s
 Computed Σ^c(iτ) for time point             12 / 30,    Execution time    0.0 s
 Computed Σ^c(iτ) for time point             13 / 30,    Execution time    0.0 s
 Computed Σ^c(iτ) for time point             14 / 30,    Execution time    0.0 s
 Computed Σ^c(iτ) for time point             15 / 30,    Execution time    0.0 s
 Computed Σ^c(iτ) for time point             16 / 30,    Execution time    0.0 s
 Computed Σ^c(iτ) for time point             17 / 30,    Execution time    0.0 s
 Computed Σ^c(iτ) for time point             18 / 30,    Execution time    0.0 s
 Computed Σ^c(iτ) for time point             19 / 30,    Execution time    0.0 s
 Computed Σ^c(iτ) for time point             20 / 30,    Execution time    0.0 s
 Computed Σ^c(iτ) for time point             21 / 30,    Execution time    0.0 s
 Computed Σ^c(iτ) for time point             22 / 30,    Execution time    0.0 s
 Computed Σ^c(iτ) for time point             23 / 30,    Execution time    0.0 s
 Computed Σ^c(iτ) for time point             24 / 30,    Execution time    0.0 s
 Computed Σ^c(iτ) for time point             25 / 30,    Execution time    0.0 s
 Computed Σ^c(iτ) for time point             26 / 30,    Execution time    0.0 s
 Computed Σ^c(iτ) for time point             27 / 30,    Execution time    0.0 s
 Computed Σ^c(iτ) for time point             28 / 30,    Execution time    0.0 s
 Computed Σ^c(iτ) for time point             29 / 30,    Execution time    0.0 s
 Computed Σ^c(iτ) for time point             30 / 30,    Execution time    0.0 s
 
 SCF valence band maximum (eV):                                           -6.878
 SCF conduction band minimum (eV):                                        -3.515
 SCF indirect band gap (eV):                                               3.363
 SCF direct band gap (eV):                                                 3.363
 
 G0W0 valence band maximum (eV):                                          -9.401
 G0W0 conduction band minimum (eV):                                       -0.713
 G0W0 indirect band gap (eV):                                              8.687
 G0W0 direct band gap (eV):                                                8.687
 
 Hartree-Fock with SCF orbitals valence band maximum (eV):               -10.885
 Hartree-Fock with SCF orbitals conduction band minimum (eV)               1.318
 Hartree-Fock with SCF orbitals indirect band gap (eV):                   12.202
 Hartree-Fock with SCF orbitals direct band gap (eV):                     12.202

 ENERGY| Total FORCE_EVAL ( QS ) energy [hartree]            -59.311590508486248

 -------------------------------------------------------------------------------
 -                                                                             -
 -                                DBCSR STATISTICS                             -
 -                                                                             -
 -------------------------------------------------------------------------------
 COUNTER                                    TOTAL       BLAS       SMM       ACC
 flops    16 x    16 x    16                16384       0.0%    100.0%      0.0%     
 flops    16 x    16 x    29               519680       0.0%    100.0%      0.0%     
 flops    29 x    16 x    16               668160       0.0%    100.0%      0.0%     
 flops    29 x    29 x    16              1211040       0.0%    100.0%      0.0%     
 flops    29 x    16 x    29              7400800       0.0%    100.0%      0.0%     
 flops    91 x    91 x    23             41901860       0.0%    100.0%      0.0%     
 flops    23 x    91 x    91             45711120       0.0%    100.0%      0.0%     
 flops   105 x    91 x    23             48348300       0.0%    100.0%      0.0%     
 flops    91 x   105 x    23             48348300       0.0%    100.0%      0.0%     
 flops    91 x   113 x    23             52031980       0.0%    100.0%      0.0%     
 flops    23 x   105 x    91             52743600       0.0%    100.0%      0.0%     
 flops    23 x    91 x   105             52743600       0.0%    100.0%      0.0%     
 flops    23 x    91 x    23             53434290       0.0%    100.0%      0.0%     
 flops   105 x   105 x    23             55786500       0.0%    100.0%      0.0%     
 flops    23 x   113 x    91             56762160       0.0%    100.0%      0.0%     
 flops    23 x    23 x    91             57285410       0.0%    100.0%      0.0%     
 flops   105 x   113 x    23             60036900       0.0%    100.0%      0.0%     
 flops    23 x   105 x   105             60858000       0.0%    100.0%      0.0%     
 flops    23 x   105 x    23             61654950       0.0%    100.0%      0.0%     
 flops    23 x   113 x   105             65494800       0.0%    100.0%      0.0%     
 flops    23 x    23 x   105             66098550       0.0%    100.0%      0.0%     
 flops    23 x   113 x    23             66352470       0.0%    100.0%      0.0%     
 flops    91 x   116 x    23            106826720       0.0%    100.0%      0.0%     
 flops   116 x    91 x    23            106826720       0.0%    100.0%      0.0%     
 flops    23 x   116 x    91            116538240       0.0%    100.0%      0.0%     
 flops    23 x    91 x   116            116538240       0.0%    100.0%      0.0%     
 flops    91 x    91 x    32            116596480       0.0%    100.0%      0.0%     
 flops   105 x   116 x    23            123261600       0.0%    100.0%      0.0%     
 flops   116 x   105 x    23            123261600       0.0%    100.0%      0.0%     
 flops    32 x    91 x    91            127196160       0.0%    100.0%      0.0%     
 flops   116 x   113 x    23            132652960       0.0%    100.0%      0.0%     
 flops    23 x   116 x   105            134467200       0.0%    100.0%      0.0%     
 flops    23 x   105 x   116            134467200       0.0%    100.0%      0.0%     
 flops   105 x    91 x    32            134534400       0.0%    100.0%      0.0%     
 flops    91 x   105 x    32            134534400       0.0%    100.0%      0.0%     
 flops    23 x   116 x    23            137946272       0.0%    100.0%      0.0%     
 flops    23 x   113 x   116            144712320       0.0%    100.0%      0.0%     
 flops    91 x   113 x    32            144784640       0.0%    100.0%      0.0%     
 flops    23 x    23 x   116            146659960       0.0%    100.0%      0.0%     
 flops    32 x   105 x    91            146764800       0.0%    100.0%      0.0%     
 flops    32 x    91 x   105            146764800       0.0%    100.0%      0.0%     
 flops    23 x    91 x    32            147615104       0.0%    100.0%      0.0%     
 flops    32 x    91 x    23            149490432       0.0%    100.0%      0.0%     
 flops   105 x   105 x    32            155232000       0.0%    100.0%      0.0%     
 flops    32 x    23 x    91            156723840       0.0%    100.0%      0.0%     
 flops    23 x    29 x    23            157245250       0.0%    100.0%      0.0%     
 flops    32 x   113 x    91            157946880       0.0%    100.0%      0.0%     
 flops    23 x    32 x    91            159402880       0.0%    100.0%      0.0%     
 flops   105 x   113 x    32            167059200       0.0%    100.0%      0.0%     
 flops    32 x   105 x   105            169344000       0.0%    100.0%      0.0%     
 flops    23 x   105 x    32            170634240       0.0%    100.0%      0.0%     
 flops    32 x   105 x    23            172643520       0.0%    100.0%      0.0%     
 flops    32 x   113 x   105            182246400       0.0%    100.0%      0.0%     
 flops    32 x    23 x   105            182380800       0.0%    100.0%      0.0%     
 flops    23 x   113 x    32            183801280       0.0%    100.0%      0.0%     
 flops    23 x    32 x   105            183926400       0.0%    100.0%      0.0%     
 flops    32 x   113 x    23            186296320       0.0%    100.0%      0.0%     
 flops    29 x    29 x    23            194977440       0.0%    100.0%      0.0%     
 flops   116 x   116 x    23            272349440       0.0%    100.0%      0.0%     
 flops    23 x   116 x   116            297108480       0.0%    100.0%      0.0%     
 flops    91 x   116 x    32            297256960       0.0%    100.0%      0.0%     
 flops   116 x    91 x    32            297256960       0.0%    100.0%      0.0%     
 flops    32 x   116 x    91            324280320       0.0%    100.0%      0.0%     
 flops    32 x    91 x   116            324280320       0.0%    100.0%      0.0%     
 flops   105 x   116 x    32            342988800       0.0%    100.0%      0.0%     
 flops   116 x   105 x    32            342988800       0.0%    100.0%      0.0%     
 flops   116 x   113 x    32            369121280       0.0%    100.0%      0.0%     
 flops    32 x   116 x   105            374169600       0.0%    100.0%      0.0%     
 flops    32 x   105 x   116            374169600       0.0%    100.0%      0.0%     
 flops    23 x   116 x    32            380776960       0.0%    100.0%      0.0%     
 flops    32 x   116 x    23            385045760       0.0%    100.0%      0.0%     
 flops    23 x    23 x    29            385826150       0.0%    100.0%      0.0%     
 flops    32 x   113 x   116            402677760       0.0%    100.0%      0.0%     
 flops    32 x    23 x   116            402974720       0.0%    100.0%      0.0%     
 flops    23 x    32 x   116            408097280       0.0%    100.0%      0.0%     
 flops    32 x    91 x    32            413923328       0.0%    100.0%      0.0%     
 flops    32 x    32 x    91            436101120       0.0%    100.0%      0.0%     
 flops    32 x    29 x    23            436740928       0.0%    100.0%      0.0%     
 flops    23 x    29 x    32            437552000       0.0%    100.0%      0.0%     
 flops    32 x   105 x    32            476958720       0.0%    100.0%      0.0%     
 flops    23 x    29 x    29            484929010       0.0%    100.0%      0.0%     
 flops    32 x    32 x   105            507494400       0.0%    100.0%      0.0%     
 flops    32 x   113 x    32            512372736       0.0%    100.0%      0.0%     
 flops    29 x    29 x    32            545506240       0.0%    100.0%      0.0%     
 flops   116 x   116 x    32            757841920       0.0%    100.0%      0.0%     
 flops    32 x   116 x   116            826736640       0.0%    100.0%      0.0%     
 flops    32 x   116 x    32           1064779776       0.0%    100.0%      0.0%     
 flops    32 x    23 x    29           1073603200       0.0%    100.0%      0.0%     
 flops    23 x    32 x    29           1073603200       0.0%    100.0%      0.0%     
 flops    32 x    32 x   116           1121320960       0.0%    100.0%      0.0%     
 flops    32 x    29 x    32           1216288768       0.0%    100.0%      0.0%     
 flops    32 x    29 x    29           1349367680       0.0%    100.0%      0.0%     
 flops    32 x    32 x    29           2986229760       0.0%    100.0%      0.0%     
 flops inhomo. stacks                  4036354560     100.0%      0.0%      0.0%
 flops total                        32.046784E+09      12.6%     87.4%      0.0%
 flops max/rank                      6.667287E+09      12.7%     87.3%      0.0%
 matmuls inhomo. stacks                      8775     100.0%      0.0%      0.0%
 matmuls total                             281355       3.1%     96.9%      0.0%
 number of processed stacks                187526       1.4%     98.6%      0.0%
 average stack size                                     3.2       1.5       0.0
 marketing flops                    41.348919E+09
 -------------------------------------------------------------------------------
 # multiplications                            519
 max memory usage/rank              18.656272E+09
 # max total images/rank                        5
 # max 3D layers                                1
 # MPI messages exchanged                   10380
 MPI messages size (bytes):
  total size                         1.676577E+09
  min size                           0.000000E+00
  max size                         403.680000E+03
  average size                     161.519938E+03
 MPI breakdown and total messages size (bytes):
             size <=      128                1092                        0
       128 < size <=     8192                 148                   536064
      8192 < size <=    32768                  48                   890880
     32768 < size <=   131072                5872                577800640
    131072 < size <=  4194304                3220               1097329152
   4194304 < size <= 16777216                   0                        0
  16777216 < size                               0                        0
 -------------------------------------------------------------------------------

 *** WARNING in dbcsr_mm.F:301 :: Using a non-square number of MPI ranks ***
 *** might lead to poor performance. Used ranks: 5 Suggested: 4 9        ***

 -------------------------------------------------------------------------------
 -                                                                             -
 -                      DBCSR MESSAGE PASSING PERFORMANCE                      -
 -                                                                             -
 -------------------------------------------------------------------------------
 ROUTINE             CALLS      AVE VOLUME [Bytes]
 MP_Bcast               94                     12.
 MP_Allreduce         2378                     18.
 MP_Alltoall          3427                  50903.
 MP_ISend             8078                  47406.
 MP_IRecv             7998                  47643.
 -------------------------------------------------------------------------------

 -------------------------------------------------------------------------------
 -                                                                             -
 -                                GRID STATISTICS                              -
 -                                                                             -
 -------------------------------------------------------------------------------
 LP    KERNEL             BACKEND                              COUNT     PERCENT
 6     collocate ortho    CPU                                    261      49.53%
 6     integrate ortho    CPU                                    261      49.53%
 0     collocate general  CPU                                      5       0.95%
 -------------------------------------------------------------------------------

 -------------------------------------------------------------------------------
 -                                                                             -
 -                          OFFLOAD MEMPOOL STATISTICS                         -
 -                                                                             -
 -------------------------------------------------------------------------------
 Memory consumption                Number of allocations  Used [MiB]  Size [MiB]
 Host                                                  6         140    22168087
 -------------------------------------------------------------------------------

 MEMORY| Estimated peak process memory [MiB]                                3393

 -------------------------------------------------------------------------------
 -                                                                             -
 -                         MESSAGE PASSING PERFORMANCE                         -
 -                                                                             -
 -------------------------------------------------------------------------------

 ROUTINE             CALLS      AVE VOLUME [Bytes]
 MP_Group                5
 MP_Bcast              589                 314578.
 MP_Allreduce         1865                   4191.
 MP_Sync                11
 MP_Alltoall            63              156714603.
 MP_SendRecv            36                3758933.
 MP_ISendRecv           36                3758933.
 MP_Wait                99
 MP_comm_split          11
 MP_ISend               49               12960000.
 MP_IRecv               49               12960000.
 -------------------------------------------------------------------------------


 -------------------------------------------------------------------------------
 -                                                                             -
 -                           R E F E R E N C E S                               -
 -                                                                             -
 -------------------------------------------------------------------------------
 
 CP2K version 2026.2 (Development Version), the CP2K developers group (2026).
 CP2K is freely available from https://www.cp2k.org/ .
 
 M. Iannuzzi, J. Wilhelm, F. Stein, A. Bussy, H. Elgabarty, D. Golze, A. Hehn, 
 M. Graml, S. Marek, B. Sertcan Gökmen, C. Schran, H. Forbert, R. Z. 
 Khaliullin, A. Kozhevnikov, M. Taillefumier, R. Meli, V. V. Rybkin, M. Brehm, 
 R. Schade, O. Schütt, J. V. Pototschnig, H. Mirhosseini, A. Knüpfer, D. Marx, 
 M. Krack, J. Hutter, T. D. Kühne.
 J. Phys. Chem. B 130, 1237-1310 (2026).
 The CP2K Program Package Made Simple.
 https://doi.org/10.1021/acs.jpcb.5c05851

 M. Graml, K. Zollner, D. Hernangómez-Pérez, P. E. Faria Junior, J. Wilhelm.
 J. Chem. Theory Comput. 20, 2202-2208 (2024).
 Low-scaling GW algorithm applied to twisted transition-metal dichalcogenide 
 heterobilayers.
 https://doi.org/10.1021/acs.jctc.3c01230

 T. D. Kühne, M. Iannuzzi, M. Del Ben, V. V. Rybkin, P. Seewald, F. Stein, T. 
 Laino, R. Z. Khaliullin, O. Schütt, F. Schiffmann, D. Golze, J. Wilhelm, S. 
 Chulkov, M. H. Bani-Hashemian, V. Weber, U. Borstnik, M. Taillefumier, A. S. 
 Jakobovits, A. Lazzaro, H. Pabst, T. Müller, R. Schade, M. Guidon, S. 
 Andermatt, N. Holmberg, G. K. Schenter, A. Hehn, A. Bussy, F. Belleflamme, G. 
 Tabacchi, A. Glöß, M. Lass, I. Bethune, C. J. Mundy, C. Plessl, M. Watkins, 
 J. VandeVondele, M. Krack, J. Hutter.
 J. Chem. Phys. 152, 194103 (2020).
 CP2K: An electronic structure and molecular dynamics software package - 
 Quickstep: Efficient and accurate electronic structure calculations.
 https://doi.org/10.1063/5.0007045

 O. Schuett, P. Messmer, J. Hutter, J. VandeVondele.
 Electronic Structure Calculations on Graphics Processing Units, 173-190 (2016).
 GPU-Accelerated Sparse Matrix-Matrix Multiplication for Linear Scaling Density 
 Functional Theory.
 https://doi.org/10.1002/9781118670712.ch8

 U. Borstnik, J. VandeVondele, V. Weber, J. Hutter.
 Parallel Comput. 40, 47-58 (2014).
 Sparse matrix multiplication: The distributed block-compressed sparse row 
 library.
 https://doi.org/10.1016/j.parco.2014.03.012

 J. VandeVondele, J. Hutter.
 J. Chem. Phys. 127, 114105 (2007).
 Gaussian basis sets for accurate calculations on molecular systems in gas and 
 condensed phases.
 https://doi.org/10.1063/1.2770708

 J. VandeVondele, M. Krack, F. Mohamed, M. Parrinello, T. Chassaing, J. Hutter.
 Comput. Phys. Commun. 167, 103-128 (2005).
 QUICKSTEP: Fast and accurate density functional calculations using a mixed 
 Gaussian and plane waves approach.
 https://doi.org/10.1016/j.cpc.2004.12.014

 M. Krack.
 Theor. Chem. Acc. 114, 145-152 (2005).
 Pseudopotentials for H to Kr optimized for gradient-corrected 
 exchange-correlation functionals.
 https://doi.org/10.1007/s00214-005-0655-y

 M. Frigo, S. G. Johnson.
 Proc. IEEE 93, 216-231 (2005).
 The design and implementation of FFTW3.
 https://doi.org/10.1109/JPROC.2004.840301

 J. VandeVondele, J. Hutter.
 J. Chem. Phys. 118, 4365-4369 (2003).
 An efficient orbital transformation method for electronic structure 
 calculations.
 https://doi.org/10.1063/1.1543154

 C. Hartwigsen, S. Goedecker, J. Hutter.
 Phys. Rev. B 58, 3641-3662 (1998).
 Relativistic separable dual-space Gaussian pseudopotentials from H to Rn.
 https://doi.org/10.1103/PhysRevB.58.3641

 G. Lippert, J. Hutter, M. Parrinello.
 Mol. Phys. 92, 477-487 (1997).
 A hybrid Gaussian and plane wave density functional scheme.
 https://doi.org/10.1080/002689797170220

 S. Goedecker, M. Teter, J. Hutter.
 Phys. Rev. B 54, 1703-1710 (1996).
 Separable dual-space Gaussian pseudopotentials.
 https://doi.org/10.1103/PhysRevB.54.1703

 J. P. Perdew, K. Burke, M. Ernzerhof.
 Phys. Rev. Lett. 77, 3865-3868 (1996).
 Generalized gradient approximation made simple.
 https://doi.org/10.1103/PhysRevLett.77.3865

 P. E. Blöchl.
 J. Chem. Phys. 103, 7422-7428 (1995).
 Electrostatic decoupling of periodic images of plane‐wave‐expanded 
 densities and derived atomic point charges.
 https://doi.org/10.1063/1.470314

 R. H. Byrd, P. H. Lu, J. Nocedal, C. Y. Zhu.
 SIAM J. Sci. Comput. 16, 1190-1208 (1995).
 A Limited Memory Algorithm for Bound Constrained Optimization.
 https://doi.org/10.1137/0916069


 -------------------------------------------------------------------------------
 -                                                                             -
 -                                T I M I N G                                  -
 -                                                                             -
 -------------------------------------------------------------------------------
 SUBROUTINE                       CALLS  ASD         SELF TIME        TOTAL TIME MAXRANK
                                MAXIMUM       AVERAGE  MAXIMUM  AVERAGE  MAXIMUM
 CP2K                                 1  1.0    0.031    0.032  133.603  133.603       0
 qs_energies                          1  2.0    0.015    0.015  132.111  132.111       1
 qs_energies_properties               1  3.0    0.000    0.000  125.362  125.362       2
 post_scf_bandstructure               1  4.0    0.000    0.000  125.362  125.362       1
 run_gw                               1  5.0    0.000    0.000  125.328  125.339       0
 gw_calc_ri_rs_non_periodic           1  6.0    0.000    0.000  123.069  123.216       2
 optimize_ri_rs_grid                  1  7.0    0.000    0.000  121.521  121.665       0
 rirs_grid_LBFGS                      1  8.0    1.226    2.214  119.116  119.121       4
 evaluate_rirs_grid_cluster         301  9.0    5.232    5.851   82.452  116.741       3
 mp_sum_d                           776  4.6   35.486   45.031   35.486   45.031       0
 rirs_cluster_gradient_products     301 10.0   23.778   41.730   23.778   41.730       4
 rirs_cluster_gradient_coordina     301 10.0   18.536   18.876   18.536   18.876       1
 rirs_cluster_residual              301 10.0   11.021   16.837   11.021   16.837       4
 rirs_cluster_d_lP                  301 10.0    6.736   13.140    6.736   13.140       4
 rirs_cluster_D_ll                  301 10.0    6.882   12.475    6.882   12.475       4
 rirs_cluster_AO_products           301 10.0   10.266   10.619   10.266   10.619       2
 scf_env_do_scf                       1  3.0    0.006    0.006    5.641    5.641       0
 qs_ks_build_kohn_sham_matrix         3  7.3    0.023    0.033    4.789    4.789       4
 fft_wrap_pw1pw2                     45 10.1    0.001    0.002    4.089    4.183       3
 qs_ks_update_qs_env                  3  5.0    0.000    0.000    4.158    4.158       0
 rebuild_ks_matrix                    2  6.0    0.000    0.000    4.158    4.158       1
 fft_wrap_pw1pw2_300                 27 11.4    0.224    0.275    3.877    4.001       3
 scf_env_do_scf_inner_loop            2  4.0    0.001    0.001    3.478    3.478       0
 fft3d_ps                            45 12.1    1.706    1.901    2.925    3.238       3
 qs_vxc_create                        3  8.3    0.000    0.001    2.828    2.876       4
 xc_vxc_pw_create                     2  9.0    0.059    0.064    2.827    2.875       2
 create_and_init_bs_env_for_gw        1  6.0    0.006    0.011    2.260    2.493       4
 xc_pw_derive                        12 11.0    0.000    0.000    2.084    2.209       3
 init_scf_loop                        1  4.0    0.014    0.014    2.156    2.156       4
 qs_rho_update_rho_low                3  5.0    0.000    0.000    2.131    2.132       0
 calculate_rho_elec                   3  6.0    0.060    0.060    2.130    2.131       3
 rirs_grid_build_clusters             1  8.0    1.139    1.140    2.057    2.061       3
 mp_alltoall_z22v                    45 14.1    0.798    1.891    0.798    1.891       4
 xc_pw_divergence                     2 10.0    0.000    0.000    1.392    1.494       3
 xc_rho_set_and_dset_create           2 10.0    0.051    0.072    1.339    1.449       2
 density_rs2pw                        3  7.0    0.001    0.001    1.205    1.223       3
 generate_auto_ri_basis               1  7.0    0.000    0.000    1.212    1.212       3
 yz_to_x                             22 12.5    0.193    0.217    0.623    1.136       1
 abc_contract_xsmm                 3459  9.1    1.041    1.075    1.041    1.075       0
 x_to_yz                             23 13.8    0.225    0.265    0.593    1.043       3
 qs_init_subsys                       1  2.0    0.006    0.006    1.039    1.039       1
 qs_env_setup                         1  3.0    0.001    0.001    1.028    1.028       4
 qs_env_rebuild_pw_env                2  3.5    0.000    0.000    1.026    1.026       4
 pw_env_rebuild                       1  5.0    0.005    0.005    1.026    1.026       2
 pw_grid_setup                        5  5.2    0.000    0.000    1.014    1.014       1
 pw_grid_setup_internal               5  6.2    0.018    0.018    1.014    1.014       3
 pw_grid_sort                         5  7.2    0.605    0.616    0.885    0.899       0
 grid_collocate_task_list             3  7.0    0.835    0.868    0.835    0.868       0
 sum_up_and_integrate                 3  8.3    0.001    0.003    0.825    0.852       4
 integrate_v_rspace                   3  9.3    0.004    0.004    0.808    0.839       3
 potential_pw2rs                      3 10.3    0.003    0.005    0.781    0.813       3
 init_scf_run                         1  3.0    0.001    0.001    0.777    0.777       4
 scf_env_initial_rho_setup            1  4.0    0.007    0.007    0.776    0.776       1
 mp_bcast_dm                         13  9.6    0.529    0.742    0.529    0.742       4
 compute_W                            1  7.0    0.000    0.000    0.666    0.666       0
 compute_V_xc                         1  7.0    0.000    0.000    0.632    0.632       3
 setup_time_and_frequency_minim       1  7.0    0.000    0.000    0.376    0.611       0
 build_minimax_time_frequency_g       1  8.0    0.001    0.001    0.376    0.611       0
 fit_l_sq_weights                     3  9.0    0.375    0.609    0.375    0.609       3
 qs_ks_ddapc                          3  8.3    0.000    0.000    0.565    0.579       3
 mp_sum_dm                           12 10.2    0.150    0.569    0.150    0.569       4
 compute_AB_optimized_RI_basis        1  8.0    0.000    0.000    0.512    0.512       1
 compute_AB_optimized_RI_basis_       1  9.0    0.000    0.000    0.408    0.511       2
 dbcsr_multiply_generic             519  9.6    0.012    0.013    0.504    0.509       3
 compute_AA_optimized_RI_basis        1  8.0    0.001    0.001    0.501    0.501       3
 pw_poisson_solve                     3  8.3    0.001    0.006    0.479    0.496       4
 initialize_ri_rs_grid                1  8.0    0.097    0.115    0.348    0.492       3
 compute_B_PQ_AB                      1 10.0    0.082    0.103    0.389    0.487       3
 compute_fm_W_freq                   30  8.0    0.000    0.000    0.434    0.436       2
 compute_Sigma_c_and_QP_energie       1  7.0    0.000    0.000    0.419    0.429       2
 cp_fm_gemm                         434 10.5    0.405    0.408    0.405    0.408       1
 pw_derive                           21 11.3    0.374    0.408    0.374    0.408       3
 parallel_gemm_fm_gemm              431  9.6    0.000    0.000    0.405    0.408       4
 pw_scatter_p                        23 12.8    0.364    0.397    0.364    0.397       3
 compute_Sigma_c                      1  8.0    0.000    0.001    0.391    0.391       0
 pw_gather_p                         22 11.5    0.335    0.352    0.335    0.352       3
 pw_copy                             44 10.5    0.331    0.351    0.331    0.351       0
 initialize_auto_ri_integrals         2  9.0    0.070    0.348    0.348    0.348       0
 transfer_rs2pw                      13  7.8    0.000    0.000    0.274    0.328       3
 contract_grid_panels_sigma_c        30  9.0    0.001    0.001    0.321    0.322       3
 create_qs_kind_set                   1  2.0    0.000    0.000    0.319    0.319       1
 read_qs_kind                         2  3.0    0.146    0.151    0.318    0.319       0
 contract_B_PQ                        6 11.6    0.233    0.289    0.251    0.311       0
 qs_energies_init_hamiltonians        1  3.0    0.008    0.008    0.301    0.301       2
 xc_functional_eval                   2 11.0    0.001    0.006    0.203    0.285       4
 pbe_lda_eval                         2 12.0    0.202    0.285    0.202    0.285       2
 sort_shells                          5  8.2    0.280    0.283    0.280    0.283       0
 pw_poisson_set                       4  8.5    0.000    0.000    0.266    0.282       3
 qs_env_update_s_mstruct              1  4.0    0.001    0.001    0.275    0.275       4
 transfer_rs2pw_300                   4  8.5    0.100    0.108    0.210    0.263       0
 multiply_cannon                    519 10.6    0.023    0.025    0.232    0.249       3
 fft_wrap_pw1pw2_100                  6 10.7    0.011    0.015    0.173    0.245       3
 transfer_pw2rs                      12 11.3    0.000    0.000    0.242    0.242       3
 calculate_rho_core                   1  5.0    0.028    0.030    0.237    0.242       2
 get_mat_chi_Gamma_tau                1  7.0    0.000    0.000    0.241    0.241       0
 pw_integral_ab_c1d_c1d_gs            6  9.8    0.201    0.208    0.210    0.221       1
 contract_grid_panels                31  8.0    0.001    0.001    0.217    0.220       3
 mp_waitany                          49 11.1    0.158    0.206    0.158    0.206       4
 compute_Z_lP                         1  7.0    0.000    0.000    0.205    0.205       0
 compute_Z_lP_auto_ri                 1  8.0    0.000    0.000    0.205    0.205       3
 compute_M_pq_inv_and_V_pq            1  8.0    0.000    0.000    0.199    0.199       1
 compute_d_lp_auto_ri_batch           1  9.0    0.000    0.000    0.153    0.198       0
 compute_d_lp_auto_ri_atom            1 10.0    0.027    0.047    0.153    0.197       0
 make_m2s                          1038 10.6    0.007    0.007    0.180    0.186       3
 multiply_cannon_loop               519 11.6    0.014    0.017    0.171    0.185       3
 cp_ddapc_apply_CD                    3  9.3    0.000    0.000    0.152    0.184       4
 transfer_pw2rs_300                   3 12.3    0.083    0.091    0.173    0.177       0
 parser_read_line                 85960  4.0    0.014    0.014    0.173    0.174       2
 pw_axpy                             35  7.3    0.157    0.174    0.157    0.174       0
 parser_read_line_low                89  5.0    0.024    0.104    0.159    0.161       0
 compute_B_PQ_transition              3 10.6    0.000    0.000    0.129    0.160       0
 make_images                       1038 11.6    0.032    0.037    0.154    0.158       3
 broadcast_input_information         89  6.0    0.028    0.036    0.134    0.156       3
 compute_B_PQ_exchange                3 10.6    0.000    0.000    0.122    0.152       2
 compute_contracted_RI_matrix         2  9.0    0.000    0.001    0.149    0.149       0
 pw_copy_to_array                    22 11.5    0.139    0.147    0.139    0.147       0
 compute_optimized_RI_matrix_bl       6 10.0    0.022    0.037    0.098    0.146       0
 copy_dbcsr_to_fm                   104  9.5    0.001    0.001    0.096    0.143       0
 mp_waitall_1                     20810 13.9    0.092    0.138    0.092    0.138       4
 -------------------------------------------------------------------------------

 The number of warnings for this run is : 1
 
 -------------------------------------------------------------------------------
  **** **** ******  **  PROGRAM ENDED AT                 2026-10-03 19:13:14.906
 ***** ** ***  *** **   PROGRAM RAN ON                                  n2cn0908
 **    ****   ******    PROGRAM RAN BY                                  eprop2d1
 ***** **    ** ** **   PROGRAM PROCESS ID                               1063024
  **** **  *******  **  PROGRAM STOPPED IN /scratch/hpc-prf-metdyn/eprop2d1_Jan/
                                           53_benchmark_RI_opt/418_gw100_fig5_fu
                                           ll_epsfilter_1e12_20261002/calculatio
                                           ns/rc5p0/ri5_rs03/37_CBr4
