 DBCSR| CPU Multiplication driver                                           XSMM (U)
 DBCSR| Multrec recursion limit                                              512 (U)
 DBCSR| Multiplication stack size                                           1000 (D)
 DBCSR| Maximum elements for images                                    UNLIMITED (U)
 DBCSR| Multiplicative factor virtual images                                   1 (U)
 DBCSR| Use multiplication densification                                       T (D)
 DBCSR| Multiplication size stacks                                             3 (U)
 DBCSR| Use memory pool for CPU allocation                                     F (U)
 DBCSR| Number of 3D layers                                               SINGLE (U)
 DBCSR| Use MPI memory allocation                                              F (U)
 DBCSR| Use RMA algorithm                                                      F (U)
 DBCSR| Use Communication thread                                               T (U)
 DBCSR| Communication thread load                                             68 (D)
 DBCSR| MPI: My process id                                                     9
 DBCSR| MPI: Number of processes                                              19
 DBCSR| OMP: Current number of threads                                         6
 DBCSR| OMP: Max number of threads                                             6
 DBCSR| Split modifier for TAS multiplication algorithm                  1.0E+00 (U)


  **** **** ******  **  PROGRAM STARTED AT               2026-10-03 11:53:12.450
 ***** ** ***  *** **   PROGRAM STARTED ON                              n2cn0384
 **    ****   ******    PROGRAM STARTED BY                              eprop2d1
 ***** **    ** ** **   PROGRAM PROCESS ID                               1062376
  **** **  *******  **  PROGRAM STARTED IN /scratch/hpc-prf-metdyn/eprop2d1_Jan/
                                           53_benchmark_RI_opt/418_gw100_fig5_fu
                                           ll_epsfilter_1e12_20261002/calculatio
                                           ns/rc3p0/ri3_rs07/71_C2H5OH

 CP2K| version string:                 CP2K version 2026.2 (Development Version)
 CP2K| source code revision number:                                   0671c5aa6c
 CP2K| cp2kflags: omp libint fftw3 libxc parallel scalapack openblas            
 CP2K| is freely available from                            https://www.cp2k.org/
 CP2K| Program compiled at                                   2026-09-20 09:25:26
 CP2K| Program compiled on                                              n2login5
 CP2K| Program compiled for                                               x86_64
 CP2K| Data directory path    /scratch/hpc-prf-metdyn/eprop2d1_Jan/53_benchmark_
 CP2K| Input file name                                                 input.inp
 
 eprop2d1@n2cn0384 has created rank and process                      0   1062376
 eprop2d1@n2cn0384 has created rank and process                      1   1062377
 eprop2d1@n2cn0384 has created rank and process                      2   1062378
 eprop2d1@n2cn0384 has created rank and process                      3   1062379
 eprop2d1@n2cn0384 has created rank and process                      4   1062380
 eprop2d1@n2cn0384 has created rank and process                      5   1062381
 eprop2d1@n2cn0384 has created rank and process                      6   1062382
 eprop2d1@n2cn0384 has created rank and process                      7   1062383
 eprop2d1@n2cn0384 has created rank and process                      8   1062384
 eprop2d1@n2cn0384 has created rank and process                      9   1062385
 
 eprop2d1@n2cn0384 is running                                       10 processes

 GLOBAL| Force Environment number                                              1
 GLOBAL| Basis set file name            /scratch/hpc-prf-metdyn/eprop2d1_Jan/53_
 GLOBAL| Potential file name            /scratch/hpc-prf-metdyn/eprop2d1_Jan/53_
 GLOBAL| MM Potential file name                                     MM_POTENTIAL
 GLOBAL| Coordinate file name                                      __STD_INPUT__
 GLOBAL| Method name                                                        CP2K
 GLOBAL| Project name                                             g418_c307_m071
 GLOBAL| Run type                                                         ENERGY
 GLOBAL| FFT library                                                       FFTW3
 GLOBAL| Diagonalization library                                       ScaLAPACK
 GLOBAL| Cholesky decomposition library                                ScaLAPACK
 GLOBAL| DGEMM library                                                      BLAS
 GLOBAL| Direct generalized diagonalization requested                          F
 GLOBAL| Orthonormality check for eigenvectors                          DISABLED
 GLOBAL| Matrix multiplication library                                 ScaLAPACK
 GLOBAL| All-to-all communication in single precision                          F
 GLOBAL| Grid backend                                                       AUTO
 GLOBAL| Global print level                                                  LOW
 GLOBAL| MPI I/O enabled                                                       T
 GLOBAL| Total number of message passing processes                            10
 GLOBAL| Number of distributed systems (nodes)                                 1
 GLOBAL| Number of threads for this process                                    6
 GLOBAL| This output is from process                                           0
 GLOBAL| OpenMP stack size per thread (OMP_STACKSIZE)                       512M
 GLOBAL| CPU model name                          AMD EPYC 7763 64-Core Processor

 MEMORY| system memory details [Kb]
 MEMORY|                        rank 0           min           max       average
 MEMORY| MemTotal            263902116     263902116     263902116     263902116
 MEMORY| MemFree             234169200     234169200     234211672     234207424
 MEMORY| Buffers                283832        283832        283832        283832
 MEMORY| Cached                8057984       8057984       8057984       8057984
 MEMORY| Slab                  1658864       1658864       1658864       1658864
 MEMORY| SReclaimable           304916        304916        304916        304916
 MEMORY| MemLikelyFree       242815932     242815932     242858404     242854156


 GENERATE|  Preliminary Number of Bonds generated:                             0
 GENERATE|  Achieved consistency in connectivity generation.

 *******************************************************************************
 *******************************************************************************
 **                                                                           **
 **     #####                         ##              ##                      **
 **    ##   ##            ##          ##              ##                      **
 **   ##     ##                       ##            ######                    **
 **   ##     ##  ##   ##  ##   #####  ##  ##   ####   ##    #####    #####    **
 **   ##     ##  ##   ##  ##  ##      ## ##   ##      ##   ##   ##  ##   ##   **
 **   ##  ## ##  ##   ##  ##  ##      ####     ###    ##   ######   ######    **
 **    ##  ###   ##   ##  ##  ##      ## ##      ##   ##   ##       ##        **
 **     #######   #####   ##   #####  ##  ##  ####    ##    #####   ##        **
 **           ##                                                    ##        **
 **                                                                           **
 **                                                ... make the atoms dance   **
 **                                                                           **
 **            Copyright (C) by CP2K developers group (2000-2026)             **
 **                      J. Chem. Phys. 152, 194103 (2020)                    **
 **                                                                           **
 *******************************************************************************


 TOTAL NUMBERS AND MAXIMUM NUMBERS

  Total number of            - Atomic kinds:                                   3
                             - Atoms:                                          9
                             - Shell sets:                                     9
                             - Shells:                                        57
                             - Primitive Cartesian functions:                 57
                             - Cartesian basis functions:                    156
                             - Spherical basis functions:                    141

  Maximum angular momentum of- Orbital basis functions:                        3
                             - Local part of the GTH pseudopotential:          2
                             - Non-local part of the GTH pseudopotential:      0


 SCF PARAMETERS         Density guess:                                   RESTART
                        --------------------------------------------------------
                        max_scf:                                             500
                        max_scf_history:                                       0
                        max_diis:                                              4
                        --------------------------------------------------------
                        eps_scf:                                        1.00E-08
                        eps_scf_history:                                0.00E+00
                        eps_diis:                                       0.00E+00
                        eps_eigval:                                     1.00E-05
                        --------------------------------------------------------
                        level_shift [a.u.]:                             0.000000
                        --------------------------------------------------------
                        Outer loop SCF in use 
                        No variables optimised in outer loop
                        eps_scf                                         1.00E-08
                        max_scf                                               20
                        No outer loop optimization
                        step_size                                       5.00E-01

 Extrapolation method: initial_guess

 Number of electrons:                                                         20
 Number of occupied orbitals:                                                 10
 Number of molecular orbitals:                                                10

 Number of orbital functions:                                                141
 Number of independent orbital functions:                                    141


 SCF WAVEFUNCTION OPTIMIZATION

  ----------------------------------- OT ---------------------------------------
  Minimizer      : DIIS                : direct inversion
                                         in the iterative subspace
                                         using   7 DIIS vectors
                                         safer DIIS on
  Preconditioner : FULL_KINETIC        : inversion of T + eS
  Lattice FFT   : OFF
  Precond_solver : DEFAULT
  stepsize       :    0.15000000                  energy_gap     :    0.20000000
  eps_taylor     :   0.10000E-15                  max_taylor     :             4
  ----------------------------------- OT ---------------------------------------

  Step     Update method      Time    Convergence         Total energy    Change
  ------------------------------------------------------------------------------
  Decoupling Energy:                                               0.0000086385
     1 OT DIIS     0.15E+00    2.0     4.1194E-09       -30.9710518145 -3.10E+01

  *** SCF run converged in     1 steps ***


  Electronic density on regular grids:        -20.0000000000        0.0000000000
  Core density on regular grids:               20.0000000000       -0.0000000000
  Total charge density on r-space grids:       -0.0000000000
  Total charge density g-space grids:          -0.0000000000

  Overlap energy of the core charge distribution:               0.00000164591499
  Self energy of the core charge distribution:                -76.65906668574564
  Core Hamiltonian energy:                                     23.35270468874125
  Hartree energy:                                              31.52298762800810
  Exchange-correlation energy:                                 -9.18767909141801

  Total energy:                                               -30.97105181449931

  outer SCF iter =    1 RMS gradient =   0.41E-08 energy =        -30.9710518145
  outer SCF loop converged in   1 iterations or    1 steps

  
 -------------------------------------------------------------------------------
 -                                                                             -
 -                          BANDSTRUCTURE CALCULATION                          -
 -                                                                             -
 -------------------------------------------------------------------------------
  
 Number of occupied molecular orbitals (MOs) = Number of occupied bands       10
 Number of unoccupied (= virtual) MOs = Number of unoccupied bands           131
 Number of Gaussian basis functions for MOs                                  141
  
 -------------------------------------------------------------------------------
 -                                                                             -
 -                                GW CALCULATION                               -
 -                                                                             -
 -------------------------------------------------------------------------------
  
 Input: Number of time/freq. points                                           30
 Input: ω_max for fitting Σ(iω) (eV)                                        10.0
 Input: Filter threshold for sparse tensor operations                    1.0E-12
 Input: Apply Hedin shift                                                      F
 Detected: Available memory per MPI process                              21.0 GB
 
 Input: RI-RS Tikhonov regularization                                   1.00E-04
 Input: AO grid hard cutoff radius                                        8.00 Å
 Input: MPI ranks per atom in Z_lP solve                                      -1
 Input: Keep sparsity in χ/G/W panels                                          T
 Input: GW flavour                                                          G0W0
 
 Input: RI-RS grid optimization activated                                      T
 Input: RS points per AO function                                            7.0
 Input: Cutoff radius for atomic clusters                                  3.0 Å
 Input: Maximum grid optimization iterations                                 300
 
 Input: AUTO_RI basis optimization activated:                                  T
 Input: AUTO_RI number of RI functions per AO function:                      3.0
 Input: AUTO_RI frontier orbital window:                                  5.0 eV
 Input: AUTO_RI neighbor radius:                                           3.0 Å
 
 Cutoff radius for the truncated Coulomb operator in RI metric:            7.0 Å
 Regularization parameter of RI                                          0.0E+00
 Regularization parameter of minimax grids                               1.0E-06
 
 AUTO_RI| Number of automatic RI functions for χ, ε, W:                      423
 AUTO_RI| Total RI basis optimization time:                                1.5 s
  Decoupling Energy:                                               0.0000086385
 
 SCF direct band gap (eV)                                                   5.62
 Max. SCF eigval diff. (eV)                                               290.30
 E-Range for minimax grid                                                  51.69
 Number of Padé parameters for analytic continuation:                         16
 
 RI-RS basis radii (Å):
     Kind  Elem     r_AO (Å)     r_RI (Å)
        1    C        15.9835       10.1279
        2    O        12.8635        8.6829
        3    H        13.9082        8.7963
 
 Started RI-RS grid optimization
 RI-RS grid initial normalized error                          1.286543531329E-02
 RI-RS grid optimization completed, execution time:                      192.8 s
 Normalized 3C error:                                                    4.1E-07
 Maximum absolute 3C error:                                              6.9E-03
 Optimized points outside molecular Voronoi cells:                           384 / 987
 Total grid points used for RI-RS:                                           987
 
 RI-RS grid row-blocks of ϕ_μ(r_l)                                            33
 RI-RS grid points per block (max)                                            32
 
 Percentage of non-zero matrix elements in ϕ_μ(r_l)                     100.00 %
 
 RI-RS memory estimate per MPI process:
   Available memory per process (system)                                24.37 GB
   Required for Z_lP (dense upper bound; actual is sparser)              0.00 GB
   Required for χ, W, Σ panels (peak per panel step)                     0.00 GB
   Required for Z_lP solve peak (D_local+ϕ, worst-case atom)             0.01 GB
   Worst-case local-grid number of grid points:                              987
   Worst-case memory D_local:                                            0.01 GB
 
 Started computing Z_lP
 Computed Z_lP (MPI rank 0) for atom          1 /  1,    Execution time    0.2 s
 Computed Z_lP (all MPI ranks) for all atoms,            Execution time    0.2 s

 Memory per MPI process after computing Z_lP:
 Available memory per MPI process                               24.5 GB
 Used memory per MPI process                                     1.2 GB
 Number of batches for χ, Σ matrices                                           1
 
 Percentage of non-zero matrix elements in Z_lP                         100.00 %
 Percentage of non-zero matrix elements in G_ll', χ_ll', W_ll'          100.00 %
 Percentage of non-zero matrix elements in χ_PQ for time point 1        100.00 %
 
 Computed χ(iτ,k=0) for time point            1 / 30,    Execution time    0.0 s
 Computed χ(iτ,k=0) for time point            2 / 30,    Execution time    0.0 s
 Computed χ(iτ,k=0) for time point            3 / 30,    Execution time    0.0 s
 Computed χ(iτ,k=0) for time point            4 / 30,    Execution time    0.0 s
 Computed χ(iτ,k=0) for time point            5 / 30,    Execution time    0.0 s
 Computed χ(iτ,k=0) for time point            6 / 30,    Execution time    0.0 s
 Computed χ(iτ,k=0) for time point            7 / 30,    Execution time    0.0 s
 Computed χ(iτ,k=0) for time point            8 / 30,    Execution time    0.0 s
 Computed χ(iτ,k=0) for time point            9 / 30,    Execution time    0.0 s
 Computed χ(iτ,k=0) for time point           10 / 30,    Execution time    0.0 s
 Computed χ(iτ,k=0) for time point           11 / 30,    Execution time    0.0 s
 Computed χ(iτ,k=0) for time point           12 / 30,    Execution time    0.0 s
 Computed χ(iτ,k=0) for time point           13 / 30,    Execution time    0.0 s
 Computed χ(iτ,k=0) for time point           14 / 30,    Execution time    0.0 s
 Computed χ(iτ,k=0) for time point           15 / 30,    Execution time    0.0 s
 Computed χ(iτ,k=0) for time point           16 / 30,    Execution time    0.0 s
 Computed χ(iτ,k=0) for time point           17 / 30,    Execution time    0.0 s
 Computed χ(iτ,k=0) for time point           18 / 30,    Execution time    0.0 s
 Computed χ(iτ,k=0) for time point           19 / 30,    Execution time    0.0 s
 Computed χ(iτ,k=0) for time point           20 / 30,    Execution time    0.0 s
 Computed χ(iτ,k=0) for time point           21 / 30,    Execution time    0.0 s
 Computed χ(iτ,k=0) for time point           22 / 30,    Execution time    0.0 s
 Computed χ(iτ,k=0) for time point           23 / 30,    Execution time    0.0 s
 Computed χ(iτ,k=0) for time point           24 / 30,    Execution time    0.0 s
 Computed χ(iτ,k=0) for time point           25 / 30,    Execution time    0.0 s
 Computed χ(iτ,k=0) for time point           26 / 30,    Execution time    0.0 s
 Computed χ(iτ,k=0) for time point           27 / 30,    Execution time    0.0 s
 Computed χ(iτ,k=0) for time point           28 / 30,    Execution time    0.0 s
 Computed χ(iτ,k=0) for time point           29 / 30,    Execution time    0.0 s
 Computed χ(iτ,k=0) for time point           30 / 30,    Execution time    0.0 s
 
 Computed W(iτ),                                         Execution time    0.4 s
 
 Computed Σ^x(k=0),                                      Execution time    0.0 s
 
 Computed Σ^c(iτ) for time point              1 / 30,    Execution time    0.0 s
 Computed Σ^c(iτ) for time point              2 / 30,    Execution time    0.0 s
 Computed Σ^c(iτ) for time point              3 / 30,    Execution time    0.0 s
 Computed Σ^c(iτ) for time point              4 / 30,    Execution time    0.0 s
 Computed Σ^c(iτ) for time point              5 / 30,    Execution time    0.0 s
 Computed Σ^c(iτ) for time point              6 / 30,    Execution time    0.0 s
 Computed Σ^c(iτ) for time point              7 / 30,    Execution time    0.0 s
 Computed Σ^c(iτ) for time point              8 / 30,    Execution time    0.0 s
 Computed Σ^c(iτ) for time point              9 / 30,    Execution time    0.0 s
 Computed Σ^c(iτ) for time point             10 / 30,    Execution time    0.0 s
 Computed Σ^c(iτ) for time point             11 / 30,    Execution time    0.0 s
 Computed Σ^c(iτ) for time point             12 / 30,    Execution time    0.0 s
 Computed Σ^c(iτ) for time point             13 / 30,    Execution time    0.0 s
 Computed Σ^c(iτ) for time point             14 / 30,    Execution time    0.0 s
 Computed Σ^c(iτ) for time point             15 / 30,    Execution time    0.0 s
 Computed Σ^c(iτ) for time point             16 / 30,    Execution time    0.0 s
 Computed Σ^c(iτ) for time point             17 / 30,    Execution time    0.0 s
 Computed Σ^c(iτ) for time point             18 / 30,    Execution time    0.0 s
 Computed Σ^c(iτ) for time point             19 / 30,    Execution time    0.0 s
 Computed Σ^c(iτ) for time point             20 / 30,    Execution time    0.0 s
 Computed Σ^c(iτ) for time point             21 / 30,    Execution time    0.0 s
 Computed Σ^c(iτ) for time point             22 / 30,    Execution time    0.0 s
 Computed Σ^c(iτ) for time point             23 / 30,    Execution time    0.0 s
 Computed Σ^c(iτ) for time point             24 / 30,    Execution time    0.0 s
 Computed Σ^c(iτ) for time point             25 / 30,    Execution time    0.0 s
 Computed Σ^c(iτ) for time point             26 / 30,    Execution time    0.0 s
 Computed Σ^c(iτ) for time point             27 / 30,    Execution time    0.0 s
 Computed Σ^c(iτ) for time point             28 / 30,    Execution time    0.0 s
 Computed Σ^c(iτ) for time point             29 / 30,    Execution time    0.0 s
 Computed Σ^c(iτ) for time point             30 / 30,    Execution time    0.0 s
 
 SCF valence band maximum (eV):                                           -6.134
 SCF conduction band minimum (eV):                                        -0.517
 SCF indirect band gap (eV):                                               5.616
 SCF direct band gap (eV):                                                 5.616
 
 G0W0 valence band maximum (eV):                                          -9.838
 G0W0 conduction band minimum (eV):                                        1.361
 G0W0 indirect band gap (eV):                                             11.199
 G0W0 direct band gap (eV):                                               11.199
 
 Hartree-Fock with SCF orbitals valence band maximum (eV):               -12.201
 Hartree-Fock with SCF orbitals conduction band minimum (eV)               2.122
 Hartree-Fock with SCF orbitals indirect band gap (eV):                   14.322
 Hartree-Fock with SCF orbitals direct band gap (eV):                     14.322

 ENERGY| Total FORCE_EVAL ( QS ) energy [hartree]            -30.971051814499312

 -------------------------------------------------------------------------------
 -                                                                             -
 -                                DBCSR STATISTICS                             -
 -                                                                             -
 -------------------------------------------------------------------------------
 COUNTER                                    TOTAL       BLAS       SMM       ACC
 flops    10 x    10 x    10                 2000     100.0%      0.0%      0.0%     
 flops    10 x    10 x     9                32400     100.0%      0.0%      0.0%     
 flops     9 x    10 x    10                43200     100.0%      0.0%      0.0%     
 flops    10 x    10 x    29                52200     100.0%      0.0%      0.0%     
 flops     9 x     9 x    10                68040     100.0%      0.0%      0.0%     
 flops    29 x    10 x    10                69600     100.0%      0.0%      0.0%     
 flops     9 x    29 x    10                93960     100.0%      0.0%      0.0%     
 flops    29 x     9 x    10                93960     100.0%      0.0%      0.0%     
 flops    29 x    29 x    10               201840     100.0%      0.0%      0.0%     
 flops     9 x    10 x     9               466560     100.0%      0.0%      0.0%     
 flops    29 x    10 x     9               751680     100.0%      0.0%      0.0%     
 flops     9 x    10 x    29               751680     100.0%      0.0%      0.0%     
 flops    29 x    10 x    29              1211040     100.0%      0.0%      0.0%     
 flops    11 x    36 x    11              1672704     100.0%      0.0%      0.0%     
 flops    36 x    36 x    11              1767744     100.0%      0.0%      0.0%     
 flops    11 x    36 x    36              1881792     100.0%      0.0%      0.0%     
 flops    11 x    43 x    11              1997952     100.0%      0.0%      0.0%     
 flops    36 x    43 x    11              2111472     100.0%      0.0%      0.0%     
 flops    43 x    36 x    11              2111472     100.0%      0.0%      0.0%     
 flops    11 x    43 x    36              2247696     100.0%      0.0%      0.0%     
 flops    11 x    53 x    11              2475418     100.0%      0.0%      0.0%     
 flops    43 x    43 x    11              2522036     100.0%      0.0%      0.0%     
 flops    36 x    53 x    11              2602512     100.0%      0.0%      0.0%     
 flops    53 x    36 x    11              2602512     100.0%      0.0%      0.0%     
 flops    11 x    57 x    11              2648448     100.0%      0.0%      0.0%     
 flops    11 x    58 x    11              2708948     100.0%      0.0%      0.0%     
 flops    11 x    53 x    36              2770416     100.0%      0.0%      0.0%     
 flops    36 x    57 x    11              2798928     100.0%      0.0%      0.0%     
 flops    36 x    58 x    11              2848032     100.0%      0.0%      0.0%     
 flops    11 x    57 x    36              2979504     100.0%      0.0%      0.0%     
 flops    11 x    58 x    36              3031776     100.0%      0.0%      0.0%     
 flops    53 x    43 x    11              3108556     100.0%      0.0%      0.0%     
 flops    43 x    53 x    11              3108556     100.0%      0.0%      0.0%     
 flops    43 x    57 x    11              3343164     100.0%      0.0%      0.0%     
 flops    43 x    58 x    11              3401816     100.0%      0.0%      0.0%     
 flops    11 x    41 x    11              3810048     100.0%      0.0%      0.0%     
 flops    53 x    53 x    11              3831476     100.0%      0.0%      0.0%     
 flops    11 x    11 x    41              3929112     100.0%      0.0%      0.0%     
 flops    36 x    41 x    11              3994056     100.0%      0.0%      0.0%     
 flops    41 x    36 x    11              4026528     100.0%      0.0%      0.0%     
 flops    53 x    57 x    11              4120644     100.0%      0.0%      0.0%     
 flops    53 x    58 x    11              4192936     100.0%      0.0%      0.0%     
 flops    11 x    41 x    36              4286304     100.0%      0.0%      0.0%     
 flops    11 x    36 x    41              4286304     100.0%      0.0%      0.0%     
 flops    11 x    47 x    11              4378990     100.0%      0.0%      0.0%     
 flops    11 x     9 x    11              4449654     100.0%      0.0%      0.0%     
 flops    11 x    11 x    47              4504104     100.0%      0.0%      0.0%     
 flops    36 x    47 x    11              4615776     100.0%      0.0%      0.0%     
 flops    47 x    36 x    11              4615776     100.0%      0.0%      0.0%     
 flops    43 x    41 x    11              4770678     100.0%      0.0%      0.0%     
 flops    41 x    43 x    11              4809464     100.0%      0.0%      0.0%     
 flops    11 x    36 x    47              4913568     100.0%      0.0%      0.0%     
 flops    11 x    47 x    36              4913568     100.0%      0.0%      0.0%     
 flops    11 x    43 x    41              5119752     100.0%      0.0%      0.0%     
 flops    47 x    43 x    11              5513288     100.0%      0.0%      0.0%     
 flops    43 x    47 x    11              5513288     100.0%      0.0%      0.0%     
 flops    11 x    43 x    47              5868984     100.0%      0.0%      0.0%     
 flops    53 x    41 x    11              5880138     100.0%      0.0%      0.0%     
 flops    41 x    53 x    11              5927944     100.0%      0.0%      0.0%     
 flops    11 x    53 x    41              6310392     100.0%      0.0%      0.0%     
 flops    41 x    57 x    11              6375336     100.0%      0.0%      0.0%     
 flops    41 x    58 x    11              6487184     100.0%      0.0%      0.0%     
 flops    11 x    57 x    41              6786648     100.0%      0.0%      0.0%     
 flops    47 x    53 x    11              6795448     100.0%      0.0%      0.0%     
 flops    53 x    47 x    11              6795448     100.0%      0.0%      0.0%     
 flops    11 x    58 x    41              6905712     100.0%      0.0%      0.0%     
 flops     9 x     9 x    11              7099488     100.0%      0.0%      0.0%     
 flops    11 x    53 x    47              7233864     100.0%      0.0%      0.0%     
 flops    11 x    29 x    11              7249594     100.0%      0.0%      0.0%     
 flops    47 x    57 x    11              7308312     100.0%      0.0%      0.0%     
 flops    47 x    58 x    11              7436528     100.0%      0.0%      0.0%     
 flops    11 x    57 x    47              7779816     100.0%      0.0%      0.0%     
 flops    11 x    58 x    47              7916304     100.0%      0.0%      0.0%     
 flops    41 x    41 x    11              9097572     100.0%      0.0%      0.0%     
 flops    31 x    36 x    11              9329760     100.0%      0.0%      0.0%     
 flops    11 x    36 x    31              9452520     100.0%      0.0%      0.0%     
 flops    11 x    41 x    41              9763248     100.0%      0.0%      0.0%     
 flops    36 x    36 x    31              9883296     100.0%      0.0%      0.0%     
 flops    47 x    41 x    11             10428924     100.0%      0.0%      0.0%     
 flops    41 x    47 x    11             10513712     100.0%      0.0%      0.0%     
 flops    31 x    36 x    36             10606464     100.0%      0.0%      0.0%     
 flops    11 x    11 x     9             11051172     100.0%      0.0%      0.0%     
 flops    31 x    43 x    11             11143880     100.0%      0.0%      0.0%     
 flops    11 x    41 x    47             11192016     100.0%      0.0%      0.0%     
 flops    11 x    47 x    41             11192016     100.0%      0.0%      0.0%     
 flops    11 x    43 x    31             11290510     100.0%      0.0%      0.0%     
 flops    29 x     9 x    11             11438064     100.0%      0.0%      0.0%     
 flops     9 x    29 x    11             11541420     100.0%      0.0%      0.0%     
 flops    36 x    43 x    31             11613096     100.0%      0.0%      0.0%     
 flops    43 x    36 x    31             11805048     100.0%      0.0%      0.0%     
 flops    47 x    47 x    11             12052304     100.0%      0.0%      0.0%     
 flops    31 x    43 x    36             12668832     100.0%      0.0%      0.0%     
 flops    11 x    47 x    47             12829872     100.0%      0.0%      0.0%     
 flops    31 x    53 x    11             13771626     100.0%      0.0%      0.0%     
 flops    43 x    43 x    31             13871198     100.0%      0.0%      0.0%     
 flops    11 x    53 x    31             13952356     100.0%      0.0%      0.0%     
 flops    36 x    53 x    31             14432112     100.0%      0.0%      0.0%     
 flops    53 x    36 x    31             14550408     100.0%      0.0%      0.0%     
 flops    31 x    57 x    11             14772120     100.0%      0.0%      0.0%     
 flops    11 x    57 x    31             14966490     100.0%      0.0%      0.0%     
 flops    31 x    58 x    11             15070836     100.0%      0.0%      0.0%     
 flops    11 x    58 x    31             15268616     100.0%      0.0%      0.0%     
 flops    31 x    53 x    36             15615072     100.0%      0.0%      0.0%     
 flops    36 x    57 x    31             15648552     100.0%      0.0%      0.0%     
 flops    36 x    58 x    31             15923088     100.0%      0.0%      0.0%     
 flops    31 x    57 x    36             16793568     100.0%      0.0%      0.0%     
 flops    31 x    58 x    36             17088192     100.0%      0.0%      0.0%     
 flops    53 x    43 x    31             17097058     100.0%      0.0%      0.0%     
 flops    43 x    53 x    31             17238356     100.0%      0.0%      0.0%     
 flops    11 x    11 x    29             18043278     100.0%      0.0%      0.0%     
 flops    11 x     9 x     9             18087300     100.0%      0.0%      0.0%     
 flops    29 x    29 x    11             18594510     100.0%      0.0%      0.0%     
 flops    43 x    57 x    31             18691326     100.0%      0.0%      0.0%     
 flops    43 x    58 x    31             19019244     100.0%      0.0%      0.0%     
 flops    53 x    53 x    31             21247276     100.0%      0.0%      0.0%     
 flops    31 x    41 x    11             21279082     100.0%      0.0%      0.0%     
 flops    11 x    41 x    31             21586664     100.0%      0.0%      0.0%     
 flops    36 x    41 x    31             22054392     100.0%      0.0%      0.0%     
 flops    31 x    11 x    41             22145904     100.0%      0.0%      0.0%     
 flops    11 x    31 x    41             22145904     100.0%      0.0%      0.0%     
 flops    41 x    36 x    31             22511952     100.0%      0.0%      0.0%     
 flops    53 x    57 x    31             23038146     100.0%      0.0%      0.0%     
 flops    53 x    58 x    31             23442324     100.0%      0.0%      0.0%     
 flops    31 x    41 x    36             24159168     100.0%      0.0%      0.0%     
 flops    31 x    36 x    41             24159168     100.0%      0.0%      0.0%     
 flops    31 x    47 x    11             24425148     100.0%      0.0%      0.0%     
 flops    11 x    47 x    31             24681580     100.0%      0.0%      0.0%     
 flops    11 x     9 x    31             25018488     100.0%      0.0%      0.0%     
 flops    31 x     9 x    11             25061454     100.0%      0.0%      0.0%     
 flops    31 x    11 x    47             25386768     100.0%      0.0%      0.0%     
 flops    11 x    31 x    47             25386768     100.0%      0.0%      0.0%     
 flops    36 x    47 x    31             25806384     100.0%      0.0%      0.0%     
 flops    47 x    36 x    31             25806384     100.0%      0.0%      0.0%     
 flops    43 x    41 x    31             26342746     100.0%      0.0%      0.0%     
 flops    41 x    43 x    31             26452052     100.0%      0.0%      0.0%     
 flops    31 x    36 x    47             27694656     100.0%      0.0%      0.0%     
 flops    31 x    47 x    36             27694656     100.0%      0.0%      0.0%     
 flops    31 x    43 x    41             28856784     100.0%      0.0%      0.0%     
 flops    11 x     9 x    29             29697624     100.0%      0.0%      0.0%     
 flops    11 x    29 x     9             29697624     100.0%      0.0%      0.0%     
 flops    47 x    43 x    31             30323084     100.0%      0.0%      0.0%     
 flops    43 x    47 x    31             30824292     100.0%      0.0%      0.0%     
 flops    53 x    41 x    31             32468966     100.0%      0.0%      0.0%     
 flops    41 x    53 x    31             32873144     100.0%      0.0%      0.0%     
 flops    31 x    43 x    47             33079728     100.0%      0.0%      0.0%     
 flops    31 x    53 x    41             35567664     100.0%      0.0%      0.0%     
 flops    41 x    57 x    31             35643924     100.0%      0.0%      0.0%     
 flops    41 x    58 x    31             36269256     100.0%      0.0%      0.0%     
 flops    47 x    53 x    31             37683848     100.0%      0.0%      0.0%     
 flops    53 x    47 x    31             37992732     100.0%      0.0%      0.0%     
 flops    31 x    57 x    41             38252016     100.0%      0.0%      0.0%     
 flops    32 x    36 x    11             38852352     100.0%      0.0%      0.0%     
 flops    11 x    36 x    32             38903040     100.0%      0.0%      0.0%     
 flops    31 x    58 x    41             38923104     100.0%      0.0%      0.0%     
 flops     9 x     9 x    31             40015296     100.0%      0.0%      0.0%     
 flops    11 x    29 x    31             40564678     100.0%      0.0%      0.0%     
 flops    31 x    29 x    11             40762458     100.0%      0.0%      0.0%     
 flops    31 x    53 x    47             40772688     100.0%      0.0%      0.0%     
 flops    47 x    57 x    31             40860108     100.0%      0.0%      0.0%     
 flops    36 x    36 x    32             41057280     100.0%      0.0%      0.0%     
 flops    47 x    58 x    31             41576952     100.0%      0.0%      0.0%     
 flops    32 x    36 x    36             43794432     100.0%      0.0%      0.0%     
 flops    31 x    57 x    47             43849872     100.0%      0.0%      0.0%     
 flops    31 x    58 x    47             44619168     100.0%      0.0%      0.0%     
 flops    11 x    43 x    32             46376704     100.0%      0.0%      0.0%     
 flops    32 x    43 x    11             46437248     100.0%      0.0%      0.0%     
 flops    11 x    29 x    29             48123702     100.0%      0.0%      0.0%     
 flops    36 x    43 x    32             48545280     100.0%      0.0%      0.0%     
 flops    43 x    36 x    32             49040640     100.0%      0.0%      0.0%     
 flops    41 x    41 x    31             50235004     100.0%      0.0%      0.0%     
 flops    32 x    43 x    36             52310016     100.0%      0.0%      0.0%     
 flops    31 x    36 x    31             52793496     100.0%      0.0%      0.0%     
 flops    31 x    41 x    41             55029216     100.0%      0.0%      0.0%     
 flops    11 x    53 x    32             57423168     100.0%      0.0%      0.0%     
 flops    32 x    53 x    11             57572416     100.0%      0.0%      0.0%     
 flops    47 x    41 x    31             57586468     100.0%      0.0%      0.0%     
 flops    43 x    43 x    32             57984640     100.0%      0.0%      0.0%     
 flops    41 x    47 x    31             58781208     100.0%      0.0%      0.0%     
 flops    36 x    53 x    32             60201216     100.0%      0.0%      0.0%     
 flops    53 x    36 x    32             60445440     100.0%      0.0%      0.0%     
 flops    32 x    57 x    11             61596480     100.0%      0.0%      0.0%     
 flops    11 x    57 x    32             61596480     100.0%      0.0%      0.0%     
 flops    31 x    11 x     9             62006076     100.0%      0.0%      0.0%     
 flops    11 x    31 x     9             62251596     100.0%      0.0%      0.0%     
 flops    11 x    58 x    32             62840448     100.0%      0.0%      0.0%     
 flops    32 x    58 x    11             62922112     100.0%      0.0%      0.0%     
 flops    31 x    43 x    31             63058898     100.0%      0.0%      0.0%     
 flops    31 x    41 x    47             63082272     100.0%      0.0%      0.0%     
 flops    31 x    47 x    41             63082272     100.0%      0.0%      0.0%     
 flops    29 x     9 x    31             64469088     100.0%      0.0%      0.0%     
 flops    32 x    53 x    36             64475136     100.0%      0.0%      0.0%     
 flops    36 x    57 x    32             65007360     100.0%      0.0%      0.0%     
 flops     9 x    29 x    31             65440008     100.0%      0.0%      0.0%     
 flops    36 x    58 x    32             66147840     100.0%      0.0%      0.0%     
 flops    47 x    47 x    31             67383336     100.0%      0.0%      0.0%     
 flops    32 x    57 x    36             69341184     100.0%      0.0%      0.0%     
 flops    32 x    58 x    36             70557696     100.0%      0.0%      0.0%     
 flops    53 x    43 x    32             71469440     100.0%      0.0%      0.0%     
 flops    43 x    53 x    32             71907008     100.0%      0.0%      0.0%     
 flops    31 x    47 x    47             72313824     100.0%      0.0%      0.0%     
 flops    43 x    57 x    32             77647680     100.0%      0.0%      0.0%     
 flops    31 x    53 x    31             77927490     100.0%      0.0%      0.0%     
 flops    43 x    58 x    32             79009920     100.0%      0.0%      0.0%     
 flops    31 x    57 x    31             83589702     100.0%      0.0%      0.0%     
 flops    31 x    58 x    31             85279140     100.0%      0.0%      0.0%     
 flops    11 x    41 x    32             88468160     100.0%      0.0%      0.0%     
 flops    53 x    53 x    32             88629568     100.0%      0.0%      0.0%     
 flops    32 x    41 x    11             88670208     100.0%      0.0%      0.0%     
 flops    32 x    11 x    41             91441152     100.0%      0.0%      0.0%     
 flops    11 x    32 x    41             91441152     100.0%      0.0%      0.0%     
 flops    36 x    41 x    32             92291328     100.0%      0.0%      0.0%     
 flops    41 x    36 x    32             93519360     100.0%      0.0%      0.0%     
 flops    53 x    57 x    32             95705280     100.0%      0.0%      0.0%     
 flops    53 x    58 x    32             97384320     100.0%      0.0%      0.0%     
 flops    32 x    41 x    36             99753984     100.0%      0.0%      0.0%     
 flops    32 x    36 x    41             99753984     100.0%      0.0%      0.0%     
 flops    31 x    11 x    29            101362250     100.0%      0.0%      0.0%     
 flops    32 x    47 x    11            101580160     100.0%      0.0%      0.0%     
 flops    11 x    47 x    32            101580160     100.0%      0.0%      0.0%     
 flops    11 x    31 x    29            101619364     100.0%      0.0%      0.0%     
 flops    31 x     9 x     9            101966688     100.0%      0.0%      0.0%     
 flops    32 x     9 x    11            103283136     100.0%      0.0%      0.0%     
 flops    11 x     9 x    32            103967424     100.0%      0.0%      0.0%     
 flops    32 x    11 x    47            104822784     100.0%      0.0%      0.0%     
 flops    11 x    32 x    47            104822784     100.0%      0.0%      0.0%     
 flops    29 x    29 x    31            105431124     100.0%      0.0%      0.0%     
 flops    36 x    47 x    32            107205120     100.0%      0.0%      0.0%     
 flops    47 x    36 x    32            107205120     100.0%      0.0%      0.0%     
 flops    43 x    41 x    32            110236864     100.0%      0.0%      0.0%     
 flops    41 x    43 x    32            110575360     100.0%      0.0%      0.0%     
 flops    32 x    36 x    47            114352128     100.0%      0.0%      0.0%     
 flops    32 x    47 x    36            114352128     100.0%      0.0%      0.0%     
 flops    32 x    43 x    41            119150592     100.0%      0.0%      0.0%     
 flops    31 x    41 x    31            120173050     100.0%      0.0%      0.0%     
 flops    31 x    31 x    41            124822368     100.0%      0.0%      0.0%     
 flops    47 x    43 x    32            126757120     100.0%      0.0%      0.0%     
 flops    43 x    47 x    32            128050560     100.0%      0.0%      0.0%     
 flops    53 x    41 x    32            135873344     100.0%      0.0%      0.0%     
 flops    32 x    43 x    47            136587264     100.0%      0.0%      0.0%     
 flops    41 x    53 x    32            137124992     100.0%      0.0%      0.0%     
 flops    31 x    47 x    31            137940018     100.0%      0.0%      0.0%     
 flops    31 x     9 x    31            141722514     100.0%      0.0%      0.0%     
 flops    31 x    31 x    47            143089056     100.0%      0.0%      0.0%     
 flops    32 x    53 x    41            146860032     100.0%      0.0%      0.0%     
 flops    41 x    57 x    32            148072320     100.0%      0.0%      0.0%     
 flops    41 x    58 x    32            150670080     100.0%      0.0%      0.0%     
 flops    47 x    53 x    32            157192064     100.0%      0.0%      0.0%     
 flops    53 x    47 x    32            157829760     100.0%      0.0%      0.0%     
 flops    32 x    57 x    41            157943808     100.0%      0.0%      0.0%     
 flops    32 x    58 x    41            160714752     100.0%      0.0%      0.0%     
 flops     9 x     9 x    32            165348864     100.0%      0.0%      0.0%     
 flops    31 x     9 x    29            167386608     100.0%      0.0%      0.0%     
 flops    31 x    29 x     9            167386608     100.0%      0.0%      0.0%     
 flops    32 x    29 x    11            168350336     100.0%      0.0%      0.0%     
 flops    32 x    53 x    47            168351744     100.0%      0.0%      0.0%     
 flops    11 x    29 x    32            168758656     100.0%      0.0%      0.0%     
 flops    47 x    57 x    32            169741440     100.0%      0.0%      0.0%     
 flops    47 x    58 x    32            172719360     100.0%      0.0%      0.0%     
 flops    32 x    57 x    47            181057536     100.0%      0.0%      0.0%     
 flops    32 x    58 x    47            184233984     100.0%      0.0%      0.0%     
 flops    41 x    41 x    32            210219136     100.0%      0.0%      0.0%     
 flops    31 x    36 x    32            217343232     100.0%      0.0%      0.0%     
 flops    32 x    36 x    31            220128768     100.0%      0.0%      0.0%     
 flops    32 x    41 x    41            227217408     100.0%      0.0%      0.0%     
 flops    31 x    29 x    31            229250394     100.0%      0.0%      0.0%     
 flops    47 x    41 x    32            240982912     100.0%      0.0%      0.0%     
 flops    41 x    47 x    32            244189440     100.0%      0.0%      0.0%     
 flops    11 x    32 x     9            257507712     100.0%      0.0%      0.0%     
 flops    32 x    11 x     9            258413760     100.0%      0.0%      0.0%     
 flops    31 x    43 x    32            259263168     100.0%      0.0%      0.0%     
 flops    32 x    41 x    47            260468736     100.0%      0.0%      0.0%     
 flops    32 x    47 x    41            260468736     100.0%      0.0%      0.0%     
 flops    32 x    43 x    31            262846272     100.0%      0.0%      0.0%     
 flops    29 x     9 x    32            266395392     100.0%      0.0%      0.0%     
 flops     9 x    29 x    32            270003456     100.0%      0.0%      0.0%     
 flops    31 x    29 x    29            271242684     100.0%      0.0%      0.0%     
 flops    47 x    47 x    32            279924480     100.0%      0.0%      0.0%     
 flops    32 x    47 x    47            298586112     100.0%      0.0%      0.0%     
 flops    31 x    53 x    32            320713600     100.0%      0.0%      0.0%     
 flops    32 x    53 x    31            324499072     100.0%      0.0%      0.0%     
 flops    31 x    57 x    32            344239872     100.0%      0.0%      0.0%     
 flops    32 x    57 x    31            348424128     100.0%      0.0%      0.0%     
 flops    31 x    31 x     9            349212024     100.0%      0.0%      0.0%     
 flops    31 x    58 x    32            351544960     100.0%      0.0%      0.0%     
 flops    32 x    58 x    31            355227264     100.0%      0.0%      0.0%     
 flops    11 x    32 x    29            420590016     100.0%      0.0%      0.0%     
 flops    32 x     9 x     9            421241472     100.0%      0.0%      0.0%     
 flops    32 x    11 x    29            421753728     100.0%      0.0%      0.0%     
 flops    29 x    29 x    32            435005568     100.0%      0.0%      0.0%     
 flops    31 x    41 x    32            494734208     100.0%      0.0%      0.0%     
 flops    32 x    41 x    31            501079040     100.0%      0.0%      0.0%     
 flops    31 x    32 x    41            515395584     100.0%      0.0%      0.0%     
 flops    32 x    31 x    41            515395584     100.0%      0.0%      0.0%     
 flops    31 x    47 x    32            567693824     100.0%      0.0%      0.0%     
 flops    31 x    31 x    29            569307932     100.0%      0.0%      0.0%     
 flops    32 x    47 x    31            574500928     100.0%      0.0%      0.0%     
 flops    32 x     9 x    31            583266240     100.0%      0.0%      0.0%     
 flops    31 x     9 x    32            587748096     100.0%      0.0%      0.0%     
 flops    31 x    32 x    47            590819328     100.0%      0.0%      0.0%     
 flops    32 x    31 x    47            590819328     100.0%      0.0%      0.0%     
 flops    32 x     9 x    29            691144704     100.0%      0.0%      0.0%     
 flops    32 x    29 x     9            691144704     100.0%      0.0%      0.0%     
 flops    32 x    36 x    32            905232384     100.0%      0.0%      0.0%     
 flops    32 x    29 x    31            945661696     100.0%      0.0%      0.0%     
 flops    31 x    29 x    32            953429056     100.0%      0.0%      0.0%     
 flops    32 x    43 x    32           1081249792     100.0%      0.0%      0.0%     
 flops    32 x    29 x    29           1119969792     100.0%      0.0%      0.0%     
 flops    32 x    53 x    32           1337696256     100.0%      0.0%      0.0%     
 flops    32 x    57 x    32           1434568704     100.0%      0.0%      0.0%     
 flops    31 x    32 x     9           1443389760     100.0%      0.0%      0.0%     
 flops    32 x    31 x     9           1455621120     100.0%      0.0%      0.0%     
 flops    32 x    58 x    32           1462943744     100.0%      0.0%      0.0%     
 flops    32 x    41 x    32           2061582336     100.0%      0.0%      0.0%     
 flops    32 x    32 x    41           2128084992     100.0%      0.0%      0.0%     
 flops    31 x    32 x    29           2359493824     100.0%      0.0%      0.0%     
 flops    32 x    47 x    32           2365394944     100.0%      0.0%      0.0%     
 flops    32 x    31 x    29           2369850304     100.0%      0.0%      0.0%     
 flops    32 x     9 x    32           2422738944     100.0%      0.0%      0.0%     
 flops    32 x    32 x    47           2439512064     100.0%      0.0%      0.0%     
 flops    32 x    29 x    32           3930324992     100.0%      0.0%      0.0%     
 flops    32 x    32 x     9           6017826816     100.0%      0.0%      0.0%     
 flops    32 x    32 x    29           9821298688     100.0%      0.0%      0.0%     
 flops inhomo. stacks                 21562466048     100.0%      0.0%      0.0%
 flops total                        97.646938E+09     100.0%      0.0%      0.0%
 flops max/rank                     11.650880E+09     100.0%      0.0%      0.0%
 matmuls inhomo. stacks                    158108     100.0%      0.0%      0.0%
 matmuls total                            2192870     100.0%      0.0%      0.0%
 number of processed stacks                603850     100.0%      0.0%      0.0%
 average stack size                                     3.6       0.0       0.0
 marketing flops                   128.964035E+09
 -------------------------------------------------------------------------------
 # multiplications                           2020
 max memory usage/rank              23.346450E+09
 # max total images/rank                        5
 # max 3D layers                                1
 # MPI messages exchanged                   65650
 MPI messages size (bytes):
  total size                         5.137163E+09
  min size                           0.000000E+00
  max size                         509.952000E+03
  average size                      78.250766E+03
 MPI breakdown and total messages size (bytes):
             size <=      128               12570                        0
       128 < size <=     8192                4945                 15551832
      8192 < size <=    32768               10404                187947232
     32768 < size <=   131072               26447               1685487824
    131072 < size <=  4194304               11284               3248220448
   4194304 < size <= 16777216                   0                        0
  16777216 < size                               0                        0
 -------------------------------------------------------------------------------

 *** WARNING in dbcsr_mm.F:301 :: Using a non-square number of MPI ranks ***
 *** might lead to poor performance. Used ranks: 10 Suggested: 9 16      ***

 -------------------------------------------------------------------------------
 -                                                                             -
 -                      DBCSR MESSAGE PASSING PERFORMANCE                      -
 -                                                                             -
 -------------------------------------------------------------------------------
 ROUTINE             CALLS      AVE VOLUME [Bytes]
 MP_Bcast              323                     12.
 MP_Allreduce         2767                     21.
 MP_Alltoall          3385                  24857.
 MP_ISend            18314                  38677.
 MP_IRecv            17820                  35324.
 -------------------------------------------------------------------------------

 -------------------------------------------------------------------------------
 -                                                                             -
 -                                GRID STATISTICS                              -
 -                                                                             -
 -------------------------------------------------------------------------------
 LP    KERNEL             BACKEND                              COUNT     PERCENT
 4     collocate ortho    CPU                                   5704      20.62%
 4     integrate ortho    CPU                                   5704      20.62%
 2     collocate ortho    CPU                                   5632      20.36%
 2     integrate ortho    CPU                                   5632      20.36%
 6     collocate ortho    CPU                                   2312       8.36%
 6     integrate ortho    CPU                                   2312       8.36%
 0     collocate general  CPU                                    360       1.30%
 -------------------------------------------------------------------------------

 -------------------------------------------------------------------------------
 -                                                                             -
 -                          OFFLOAD MEMPOOL STATISTICS                         -
 -                                                                             -
 -------------------------------------------------------------------------------
 Memory consumption                Number of allocations  Used [MiB]  Size [MiB]
 Host                                                  6          94    22148596
 -------------------------------------------------------------------------------

 MEMORY| Estimated peak process memory [MiB]                                2213

 -------------------------------------------------------------------------------
 -                                                                             -
 -                         MESSAGE PASSING PERFORMANCE                         -
 -                                                                             -
 -------------------------------------------------------------------------------

 ROUTINE             CALLS      AVE VOLUME [Bytes]
 MP_Group                5
 MP_Bcast              367                 274866.
 MP_Allreduce         1899                   7854.
 MP_Sync                10
 MP_Alltoall            46               77037008.
 MP_SendRecv            36                 599616.
 MP_ISendRecv           36                 599616.
 MP_Wait               189
 MP_comm_split          10
 MP_ISend              126                3269120.
 MP_IRecv              126                3269120.
 -------------------------------------------------------------------------------


 -------------------------------------------------------------------------------
 -                                                                             -
 -                           R E F E R E N C E S                               -
 -                                                                             -
 -------------------------------------------------------------------------------
 
 CP2K version 2026.2 (Development Version), the CP2K developers group (2026).
 CP2K is freely available from https://www.cp2k.org/ .
 
 M. Iannuzzi, J. Wilhelm, F. Stein, A. Bussy, H. Elgabarty, D. Golze, A. Hehn, 
 M. Graml, S. Marek, B. Sertcan Gökmen, C. Schran, H. Forbert, R. Z. 
 Khaliullin, A. Kozhevnikov, M. Taillefumier, R. Meli, V. V. Rybkin, M. Brehm, 
 R. Schade, O. Schütt, J. V. Pototschnig, H. Mirhosseini, A. Knüpfer, D. Marx, 
 M. Krack, J. Hutter, T. D. Kühne.
 J. Phys. Chem. B 130, 1237-1310 (2026).
 The CP2K Program Package Made Simple.
 https://doi.org/10.1021/acs.jpcb.5c05851

 M. Graml, K. Zollner, D. Hernangómez-Pérez, P. E. Faria Junior, J. Wilhelm.
 J. Chem. Theory Comput. 20, 2202-2208 (2024).
 Low-scaling GW algorithm applied to twisted transition-metal dichalcogenide 
 heterobilayers.
 https://doi.org/10.1021/acs.jctc.3c01230

 T. D. Kühne, M. Iannuzzi, M. Del Ben, V. V. Rybkin, P. Seewald, F. Stein, T. 
 Laino, R. Z. Khaliullin, O. Schütt, F. Schiffmann, D. Golze, J. Wilhelm, S. 
 Chulkov, M. H. Bani-Hashemian, V. Weber, U. Borstnik, M. Taillefumier, A. S. 
 Jakobovits, A. Lazzaro, H. Pabst, T. Müller, R. Schade, M. Guidon, S. 
 Andermatt, N. Holmberg, G. K. Schenter, A. Hehn, A. Bussy, F. Belleflamme, G. 
 Tabacchi, A. Glöß, M. Lass, I. Bethune, C. J. Mundy, C. Plessl, M. Watkins, 
 J. VandeVondele, M. Krack, J. Hutter.
 J. Chem. Phys. 152, 194103 (2020).
 CP2K: An electronic structure and molecular dynamics software package - 
 Quickstep: Efficient and accurate electronic structure calculations.
 https://doi.org/10.1063/5.0007045

 O. Schuett, P. Messmer, J. Hutter, J. VandeVondele.
 Electronic Structure Calculations on Graphics Processing Units, 173-190 (2016).
 GPU-Accelerated Sparse Matrix-Matrix Multiplication for Linear Scaling Density 
 Functional Theory.
 https://doi.org/10.1002/9781118670712.ch8

 U. Borstnik, J. VandeVondele, V. Weber, J. Hutter.
 Parallel Comput. 40, 47-58 (2014).
 Sparse matrix multiplication: The distributed block-compressed sparse row 
 library.
 https://doi.org/10.1016/j.parco.2014.03.012

 J. VandeVondele, J. Hutter.
 J. Chem. Phys. 127, 114105 (2007).
 Gaussian basis sets for accurate calculations on molecular systems in gas and 
 condensed phases.
 https://doi.org/10.1063/1.2770708

 J. VandeVondele, M. Krack, F. Mohamed, M. Parrinello, T. Chassaing, J. Hutter.
 Comput. Phys. Commun. 167, 103-128 (2005).
 QUICKSTEP: Fast and accurate density functional calculations using a mixed 
 Gaussian and plane waves approach.
 https://doi.org/10.1016/j.cpc.2004.12.014

 M. Krack.
 Theor. Chem. Acc. 114, 145-152 (2005).
 Pseudopotentials for H to Kr optimized for gradient-corrected 
 exchange-correlation functionals.
 https://doi.org/10.1007/s00214-005-0655-y

 M. Frigo, S. G. Johnson.
 Proc. IEEE 93, 216-231 (2005).
 The design and implementation of FFTW3.
 https://doi.org/10.1109/JPROC.2004.840301

 J. VandeVondele, J. Hutter.
 J. Chem. Phys. 118, 4365-4369 (2003).
 An efficient orbital transformation method for electronic structure 
 calculations.
 https://doi.org/10.1063/1.1543154

 C. Hartwigsen, S. Goedecker, J. Hutter.
 Phys. Rev. B 58, 3641-3662 (1998).
 Relativistic separable dual-space Gaussian pseudopotentials from H to Rn.
 https://doi.org/10.1103/PhysRevB.58.3641

 G. Lippert, J. Hutter, M. Parrinello.
 Mol. Phys. 92, 477-487 (1997).
 A hybrid Gaussian and plane wave density functional scheme.
 https://doi.org/10.1080/002689797170220

 S. Goedecker, M. Teter, J. Hutter.
 Phys. Rev. B 54, 1703-1710 (1996).
 Separable dual-space Gaussian pseudopotentials.
 https://doi.org/10.1103/PhysRevB.54.1703

 J. P. Perdew, K. Burke, M. Ernzerhof.
 Phys. Rev. Lett. 77, 3865-3868 (1996).
 Generalized gradient approximation made simple.
 https://doi.org/10.1103/PhysRevLett.77.3865

 P. E. Blöchl.
 J. Chem. Phys. 103, 7422-7428 (1995).
 Electrostatic decoupling of periodic images of plane‐wave‐expanded 
 densities and derived atomic point charges.
 https://doi.org/10.1063/1.470314

 R. H. Byrd, P. H. Lu, J. Nocedal, C. Y. Zhu.
 SIAM J. Sci. Comput. 16, 1190-1208 (1995).
 A Limited Memory Algorithm for Bound Constrained Optimization.
 https://doi.org/10.1137/0916069


 -------------------------------------------------------------------------------
 -                                                                             -
 -                                T I M I N G                                  -
 -                                                                             -
 -------------------------------------------------------------------------------
 SUBROUTINE                       CALLS  ASD         SELF TIME        TOTAL TIME MAXRANK
                                MAXIMUM       AVERAGE  MAXIMUM  AVERAGE  MAXIMUM
 CP2K                                 1  1.0    0.012    0.024  205.225  205.226       0
 qs_energies                          1  2.0    0.000    0.000  204.077  204.077       8
 qs_energies_properties               1  3.0    0.000    0.000  200.548  200.548       4
 post_scf_bandstructure               1  4.0    0.000    0.000  200.548  200.548       3
 run_gw                               1  5.0    0.000    0.000  200.517  200.529       4
 gw_calc_ri_rs_non_periodic           1  6.0    0.000    0.000  197.821  197.940       0
 optimize_ri_rs_grid                  1  7.0    0.000    0.000  196.095  196.216       0
 mp_sum_d                           724  4.7   72.508  195.555   72.508  195.555       9
 rirs_grid_LBFGS                      1  8.0    2.547    4.107  193.545  195.256       0
 evaluate_rirs_grid_cluster         301  9.0    7.927   12.164  118.566  188.959       0
 rirs_cluster_gradient_products     301 10.0   35.828   57.603   35.828   57.603       1
 rirs_cluster_gradient_coordina     301 10.0   25.631   38.015   25.631   38.015       0
 rirs_cluster_D_ll                  301 10.0   16.699   27.010   16.699   27.010       1
 rirs_cluster_residual              301 10.0   12.872   21.728   12.872   21.728       1
 rirs_cluster_d_lP                  301 10.0   10.895   17.090   10.895   17.090       1
 rirs_cluster_AO_products           301 10.0    8.713   16.922    8.713   16.922       1
 create_and_init_bs_env_for_gw        1  6.0    0.004    0.007    2.696    2.913       0
 scf_env_do_scf                       1  3.0    0.000    0.000    2.668    2.668       0
 rirs_grid_build_clusters             1  8.0    1.088    1.696    1.712    2.646       1
 qs_ks_build_kohn_sham_matrix         2  7.5    0.002    0.003    2.610    2.610       3
 fft_wrap_pw1pw2                     28 10.0    0.001    0.001    2.399    2.510       3
 fft_wrap_pw1pw2_300                 16 11.2    0.108    0.156    2.290    2.351       6
 fft3d_ps                            28 12.0    0.952    1.122    1.843    2.199       6
 init_scf_loop                        1  4.0    0.000    0.000    2.033    2.033       7
 qs_ks_update_qs_env                  2  5.0    0.000    0.000    2.022    2.022       9
 rebuild_ks_matrix                    1  6.0    0.000    0.000    2.022    2.022       0
 generate_auto_ri_basis               1  7.0    0.000    0.000    1.500    1.500       2
 mp_alltoall_z22v                    28 14.0    0.570    1.485    0.570    1.485       9
 qs_vxc_create                        2  8.5    0.000    0.000    1.400    1.429       2
 xc_vxc_pw_create                     1  9.0    0.021    0.026    1.400    1.429       5
 qs_rho_update_rho_low                2  5.0    0.000    0.000    1.184    1.184       0
 calculate_rho_elec                   2  6.0    0.025    0.027    1.184    1.184       0
 xc_pw_derive                         6 11.0    0.000    0.000    1.048    1.159       6
 abc_contract_xsmm                16061  9.1    0.710    1.125    0.710    1.125       1
 initialize_ri_rs_grid                1  8.0    0.273    0.819    0.838    0.959       1
 mp_bcast_dm                         40  9.1    0.566    0.954    0.566    0.954       9
 density_rs2pw                        2  7.0    0.000    0.000    0.804    0.940       5
 yz_to_x                             14 12.2    0.136    0.176    0.467    0.937       3
 mp_sum_dm                           62 10.9    0.498    0.899    0.498    0.899       9
 compute_AB_optimized_RI_basis        1  8.0    0.000    0.000    0.861    0.861       5
 compute_AB_optimized_RI_basis_       1  9.0    0.000    0.000    0.852    0.859       0
 compute_B_PQ_AB                      3 10.0    0.112    0.202    0.444    0.807       7
 xc_pw_divergence                     1 10.0    0.000    0.000    0.691    0.776       3
 xc_rho_set_and_dset_create           1 10.0    0.021    0.037    0.665    0.721       5
 x_to_yz                             14 13.8    0.182    0.241    0.420    0.685       3
 compute_Sigma_c_and_QP_energie       1  7.0    0.000    0.000    0.668    0.681       0
 cp_fm_get_submatrix                 58 10.0    0.000    0.000    0.381    0.662       0
 qs_init_subsys                       1  2.0    0.001    0.001    0.648    0.651       0
 qs_env_setup                         1  3.0    0.000    0.000    0.647    0.649       2
 qs_env_rebuild_pw_env                2  3.5    0.000    0.000    0.646    0.649       8
 pw_env_rebuild                       1  5.0    0.000    0.000    0.646    0.649       0
 compute_Sigma_c                      1  8.0    0.002    0.004    0.643    0.643       0
 scf_env_do_scf_inner_loop            1  4.0    0.000    0.000    0.632    0.635       3
 pw_grid_setup                        5  5.2    0.000    0.000    0.631    0.634       3
 pw_grid_setup_internal               5  6.2    0.011    0.013    0.631    0.634       0
 init_scf_run                         1  3.0    0.000    0.000    0.618    0.618       4
 scf_env_initial_rho_setup            1  4.0    0.000    0.000    0.618    0.618       7
 compute_V_xc                         1  7.0    0.000    0.000    0.589    0.589       3
 contract_grid_panels_sigma_c        30  9.0    0.536    0.545    0.574    0.581       4
 pw_grid_sort                         5  7.2    0.338    0.373    0.495    0.541       0
 sum_up_and_integrate                 2  8.5    0.000    0.000    0.499    0.527       7
 integrate_v_rspace                   2  9.5    0.000    0.000    0.492    0.525       0
 potential_pw2rs                      2 10.5    0.001    0.001    0.479    0.512       3
 setup_time_and_frequency_minim       1  7.0    0.000    0.000    0.285    0.503       0
 build_minimax_time_frequency_g       1  8.0    0.000    0.000    0.285    0.503       9
 fit_l_sq_weights                     3  9.0    0.285    0.503    0.285    0.503       6
 compute_M_pq_inv_and_V_pq            1  8.0    0.000    0.000    0.484    0.485       9
 contract_B_PQ                       14 11.9    0.233    0.427    0.253    0.473       0
 compute_contracted_RI_matrix         2  9.0    0.000    0.001    0.459    0.459       1
 compute_optimized_RI_matrix_bl      10 10.0    0.027    0.035    0.350    0.456       2
 create_qs_kind_set                   1  2.0    0.000    0.000    0.445    0.447       9
 read_qs_kind                         3  3.0    0.080    0.114    0.445    0.446       0
 compute_M_PQ_AB                    332 11.0    0.000    0.001    0.338    0.435       3
 compute_M_PQ                       332 12.0    0.000    0.001    0.338    0.435       3
 qs_ks_ddapc                          2  8.5    0.000    0.000    0.376    0.434       6
 int_operators_r12_ab_os            332 13.0    0.000    0.000    0.337    0.434       2
 int_operator_ab_os_low             332 14.0    0.139    0.181    0.337    0.434       3
 get_mat_chi_Gamma_tau                1  7.0    0.000    0.002    0.426    0.426       0
 transfer_rs2pw                       9  7.8    0.000    0.000    0.226    0.414       7
 contract_grid_panels                31  8.0    0.363    0.374    0.394    0.410       1
 grid_collocate_task_list             2  7.0    0.332    0.393    0.332    0.393       3
 mp_waitany                         126 11.3    0.175    0.392    0.175    0.392       0
 transfer_rs2pw_300                   3  8.3    0.065    0.081    0.193    0.380       5
 parser_read_line                 42904  4.0    0.008    0.008    0.365    0.370       0
 compute_W                            1  7.0    0.000    0.000    0.369    0.369       0
 parser_read_line_low                49  5.0    0.020    0.176    0.357    0.363       0
 broadcast_input_information         49  6.0    0.013    0.034    0.337    0.361       0
 check_for_restart_files              1  7.0    0.316    0.317    0.316    0.317       0
 pw_poisson_solve                     2  8.5    0.000    0.000    0.284    0.311       7
 cp_fm_gemm                         434 10.5    0.290    0.309    0.290    0.309       8
 parallel_gemm_fm_gemm              431  9.6    0.000    0.000    0.290    0.308       0
 mp_bcast_i_src                     201  7.0    0.218    0.268    0.218    0.268       9
 compute_B_PQ_transition              7 10.9    0.000    0.000    0.128    0.250       7
 compute_fm_W_freq                   30  8.0    0.000    0.000    0.241    0.243       0
 qs_energies_init_hamiltonians        1  3.0    0.000    0.000    0.242    0.242       2
 copy_dbcsr_to_fm                   104  9.5    0.154    0.239    0.156    0.240       8
 qs_env_update_s_mstruct              1  4.0    0.000    0.000    0.239    0.239       0
 compute_Z_lP                         1  7.0    0.000    0.000    0.235    0.235       4
 compute_Z_lP_auto_ri                 1  8.0    0.000    0.000    0.235    0.235       6
 compute_B_PQ_exchange                7 10.9    0.000    0.000    0.125    0.227       0
 pw_copy                             28 10.5    0.190    0.225    0.190    0.225       5
 pw_derive                           12 11.2    0.185    0.223    0.185    0.223       6
 calculate_rho_core                   1  5.0    0.013    0.014    0.210    0.217       0
 -------------------------------------------------------------------------------

 The number of warnings for this run is : 0
 
 -------------------------------------------------------------------------------
  **** **** ******  **  PROGRAM ENDED AT                 2026-10-03 11:56:37.752
 ***** ** ***  *** **   PROGRAM RAN ON                                  n2cn0384
 **    ****   ******    PROGRAM RAN BY                                  eprop2d1
 ***** **    ** ** **   PROGRAM PROCESS ID                               1062376
  **** **  *******  **  PROGRAM STOPPED IN /scratch/hpc-prf-metdyn/eprop2d1_Jan/
                                           53_benchmark_RI_opt/418_gw100_fig5_fu
                                           ll_epsfilter_1e12_20261002/calculatio
                                           ns/rc3p0/ri3_rs07/71_C2H5OH
