 DBCSR| CPU Multiplication driver                                           XSMM (U)
 DBCSR| Multrec recursion limit                                              512 (U)
 DBCSR| Multiplication stack size                                           1000 (D)
 DBCSR| Maximum elements for images                                    UNLIMITED (U)
 DBCSR| Multiplicative factor virtual images                                   1 (U)
 DBCSR| Use multiplication densification                                       T (D)
 DBCSR| Multiplication size stacks                                             3 (U)
 DBCSR| Use memory pool for CPU allocation                                     F (U)
 DBCSR| Number of 3D layers                                               SINGLE (U)
 DBCSR| Use MPI memory allocation                                              F (U)
 DBCSR| Use RMA algorithm                                                      F (U)
 DBCSR| Use Communication thread                                               T (U)
 DBCSR| Communication thread load                                              0 (D)
 DBCSR| MPI: My process id                                                     1
 DBCSR| MPI: Number of processes                                               2
 DBCSR| OMP: Current number of threads                                        32
 DBCSR| OMP: Max number of threads                                            32
 DBCSR| Split modifier for TAS multiplication algorithm                  1.0E+00 (U)


  **** **** ******  **  PROGRAM STARTED AT               2026-09-18 01:32:44.425
 ***** ** ***  *** **   PROGRAM STARTED ON                              n2cn1025
 **    ****   ******    PROGRAM STARTED BY                              eprop2d1
 ***** **    ** ** **   PROGRAM PROCESS ID                                383047
  **** **  *******  **  PROGRAM STARTED IN /scratch/hpc-prf-metdyn/eprop2d1_Jan/
                                           53_benchmark_RI_opt/122_GW100_GTH_Leb
                                           edev_RIAO2345_rc05_metdyn/calculation
                                           s/33_C2H3Br_riao5_r09

 CP2K| version string:                 CP2K version 2026.2 (Development Version)
 CP2K| source code revision number:                                      unknown
 CP2K| cp2kflags: omp libint fftw3 libxc parallel scalapack openblas            
 CP2K| is freely available from                            https://www.cp2k.org/
 CP2K| Program compiled at                                   2026-09-15 17:57:52
 CP2K| Program compiled on                                              n2login6
 CP2K| Program compiled for                                               x86_64
 CP2K| Data directory path    /scratch/hpc-prf-metdyn/eprop2d1_Jan/53_benchmark_
 CP2K| Input file name                                                 input.inp
 
 eprop2d1@n2cn1025 has created rank and process                      0    383047
 
 eprop2d1@n2cn1025 is running                                        1 processes

 GLOBAL| Force Environment number                                              1
 GLOBAL| Basis set file name            /scratch/hpc-prf-metdyn/eprop2d1_Jan/53_
 GLOBAL| Potential file name            /scratch/hpc-prf-metdyn/eprop2d1_Jan/53_
 GLOBAL| MM Potential file name                                     MM_POTENTIAL
 GLOBAL| Coordinate file name                                      __STD_INPUT__
 GLOBAL| Method name                                                        CP2K
 GLOBAL| Project name                              gw100_122_33_C2H3Br_riao5_r09
 GLOBAL| Run type                                                         ENERGY
 GLOBAL| FFT library                                                       FFTW3
 GLOBAL| Diagonalization library                                       ScaLAPACK
 GLOBAL| Cholesky decomposition library                                ScaLAPACK
 GLOBAL| DGEMM library                                                      BLAS
 GLOBAL| Direct generalized diagonalization requested                          F
 GLOBAL| Orthonormality check for eigenvectors                          DISABLED
 GLOBAL| Matrix multiplication library                                 ScaLAPACK
 GLOBAL| All-to-all communication in single precision                          F
 GLOBAL| Grid backend                                                       AUTO
 GLOBAL| Global print level                                                  LOW
 GLOBAL| MPI I/O enabled                                                       T
 GLOBAL| Total number of message passing processes                             1
 GLOBAL| Number of distributed systems (nodes)                                 1
 GLOBAL| Number of threads for this process                                   32
 GLOBAL| This output is from process                                           0
 GLOBAL| OpenMP stack size per thread (OMP_STACKSIZE)                       512M
 GLOBAL| CPU model name                          AMD EPYC 7763 64-Core Processor

 MEMORY| system memory details [Kb]
 MEMORY|                        rank 0           min           max       average
 MEMORY| MemTotal            263897580     263897580     263897580     263897580
 MEMORY| MemFree             251807760     251807760     251807760     251807760
 MEMORY| Buffers                319340        319340        319340        319340
 MEMORY| Cached                6897776       6897776       6897776       6897776
 MEMORY| Slab                  1776508       1776508       1776508       1776508
 MEMORY| SReclaimable           592932        592932        592932        592932
 MEMORY| MemLikelyFree       259617808     259617808     259617808     259617808


 GENERATE|  Preliminary Number of Bonds generated:                             0
 GENERATE|  Achieved consistency in connectivity generation.

 *******************************************************************************
 *******************************************************************************
 **                                                                           **
 **     #####                         ##              ##                      **
 **    ##   ##            ##          ##              ##                      **
 **   ##     ##                       ##            ######                    **
 **   ##     ##  ##   ##  ##   #####  ##  ##   ####   ##    #####    #####    **
 **   ##     ##  ##   ##  ##  ##      ## ##   ##      ##   ##   ##  ##   ##   **
 **   ##  ## ##  ##   ##  ##  ##      ####     ###    ##   ######   ######    **
 **    ##  ###   ##   ##  ##  ##      ## ##      ##   ##   ##       ##        **
 **     #######   #####   ##   #####  ##  ##  ####    ##    #####   ##        **
 **           ##                                                    ##        **
 **                                                                           **
 **                                                ... make the atoms dance   **
 **                                                                           **
 **            Copyright (C) by CP2K developers group (2000-2026)             **
 **                      J. Chem. Phys. 152, 194103 (2020)                    **
 **                                                                           **
 *******************************************************************************


 TOTAL NUMBERS AND MAXIMUM NUMBERS

  Total number of            - Atomic kinds:                                   3
                             - Atoms:                                          6
                             - Shell sets:                                     6
                             - Shells:                                        27
                             - Primitive Cartesian functions:                 37
                             - Cartesian basis functions:                     60
                             - Spherical basis functions:                     57

  Maximum angular momentum of- Orbital basis functions:                        2
                             - Local part of the GTH pseudopotential:          2
                             - Non-local part of the GTH pseudopotential:      4


 SCF PARAMETERS         Density guess:                                    ATOMIC
                        --------------------------------------------------------
                        max_scf:                                             500
                        max_scf_history:                                       0
                        max_diis:                                              4
                        --------------------------------------------------------
                        eps_scf:                                        1.00E-08
                        eps_scf_history:                                0.00E+00
                        eps_diis:                                       0.00E+00
                        eps_eigval:                                     1.00E-05
                        --------------------------------------------------------
                        level_shift [a.u.]:                             0.000000
                        --------------------------------------------------------
                        Outer loop SCF in use 
                        No variables optimised in outer loop
                        eps_scf                                         1.00E-08
                        max_scf                                               20
                        No outer loop optimization
                        step_size                                       5.00E-01

 Extrapolation method: initial_guess

 Number of electrons:                                                         18
 Number of occupied orbitals:                                                  9
 Number of molecular orbitals:                                                 9

 Number of orbital functions:                                                 57
 Number of independent orbital functions:                                     57


 SCF WAVEFUNCTION OPTIMIZATION

  ----------------------------------- OT ---------------------------------------
  Minimizer      : DIIS                : direct inversion
                                         in the iterative subspace
                                         using   7 DIIS vectors
                                         safer DIIS on
  Preconditioner : FULL_KINETIC        : inversion of T + eS
  Lattice FFT   : OFF
  Precond_solver : DEFAULT
  stepsize       :    0.15000000                  energy_gap     :    0.20000000
  eps_taylor     :   0.10000E-15                  max_taylor     :             4
  ----------------------------------- OT ---------------------------------------

  Step     Update method      Time    Convergence         Total energy    Change
  ------------------------------------------------------------------------------
  Decoupling Energy:                                               0.0003746715
     1 OT DIIS     0.15E+00    4.4     0.10811525       -24.9067843485 -2.49E+01
  Decoupling Energy:                                               0.0001906647
     2 OT DIIS     0.15E+00    5.7     0.06446712       -25.5367503395 -6.30E-01
  Decoupling Energy:                                               0.0001182381
     3 OT DIIS     0.15E+00    5.7     0.05008881       -25.8319299338 -2.95E-01
  Decoupling Energy:                                               0.0000816525
     4 OT DIIS     0.15E+00    5.8     0.03717987       -26.0714818393 -2.40E-01
  Decoupling Energy:                                               0.0000610653
     5 OT DIIS     0.15E+00    5.7     0.02599070       -26.2544561104 -1.83E-01
  Decoupling Energy:                                               0.0000491073
     6 OT DIIS     0.15E+00    5.8     0.02023062       -26.3350088251 -8.06E-02
  Decoupling Energy:                                               0.0000327714
     7 OT DIIS     0.15E+00    5.8     0.01394141       -26.4043487806 -6.93E-02
  Decoupling Energy:                                               0.0000211439
     8 OT DIIS     0.15E+00    5.8     0.00944983       -26.4435586170 -3.92E-02
  Decoupling Energy:                                               0.0000153221
     9 OT DIIS     0.15E+00    5.8     0.00687521       -26.4579042688 -1.43E-02
  Decoupling Energy:                                               0.0000114567
    10 OT DIIS     0.15E+00    5.7     0.00473902       -26.4673437168 -9.44E-03
  Decoupling Energy:                                               0.0000092069
    11 OT DIIS     0.15E+00    5.8     0.00331042       -26.4724314501 -5.09E-03
  Decoupling Energy:                                               0.0000080363
    12 OT DIIS     0.15E+00    5.8     0.00244061       -26.4743871575 -1.96E-03
  Decoupling Energy:                                               0.0000073031
    13 OT DIIS     0.15E+00    5.8     0.00172321       -26.4757265528 -1.34E-03
  Decoupling Energy:                                               0.0000065883
    14 OT DIIS     0.15E+00    5.8     0.00108194       -26.4764714223 -7.45E-04
  Decoupling Energy:                                               0.0000063304
    15 OT DIIS     0.15E+00    5.8     0.00084163       -26.4766762338 -2.05E-04
  Decoupling Energy:                                               0.0000060929
    16 OT DIIS     0.15E+00    5.8     0.00063055       -26.4768167326 -1.40E-04
  Decoupling Energy:                                               0.0000059167
    17 OT DIIS     0.15E+00    5.8     0.00044896       -26.4769074312 -9.07E-05
  Decoupling Energy:                                               0.0000058044
    18 OT DIIS     0.15E+00    5.7     0.00033595       -26.4769482052 -4.08E-05
  Decoupling Energy:                                               0.0000057058
    19 OT DIIS     0.15E+00    5.8     0.00022639       -26.4769743828 -2.62E-05
  Decoupling Energy:                                               0.0000056523
    20 OT DIIS     0.15E+00    5.8     0.00017391       -26.4769830908 -8.71E-06
  Decoupling Energy:                                               0.0000056135
    21 OT DIIS     0.15E+00    5.8     0.00012896       -26.4769883129 -5.22E-06
  Decoupling Energy:                                               0.0000055887
    22 OT DIIS     0.15E+00    5.8     0.00009776       -26.4769912881 -2.98E-06
  Decoupling Energy:                                               0.0000055776
    23 OT DIIS     0.15E+00    5.8     0.00007690       -26.4769928394 -1.55E-06
  Decoupling Energy:                                               0.0000055734
    24 OT DIIS     0.15E+00    5.8     0.00005831       -26.4769938414 -1.00E-06
  Decoupling Energy:                                               0.0000055747
    25 OT DIIS     0.15E+00    5.8     0.00004579       -26.4769943631 -5.22E-07
  Decoupling Energy:                                               0.0000055799
    26 OT DIIS     0.15E+00    5.8     0.00003626       -26.4769946744 -3.11E-07
  Decoupling Energy:                                               0.0000055866
    27 OT DIIS     0.15E+00    5.8     0.00002771       -26.4769948872 -2.13E-07
  Decoupling Energy:                                               0.0000055922
    28 OT DIIS     0.15E+00    5.8     0.00002269       -26.4769949985 -1.11E-07
  Decoupling Energy:                                               0.0000055972
    29 OT DIIS     0.15E+00    5.8     0.00001859       -26.4769950723 -7.38E-08
  Decoupling Energy:                                               0.0000056030
    30 OT DIIS     0.15E+00    5.8     0.00001441       -26.4769951381 -6.57E-08
  Decoupling Energy:                                               0.0000056081
    31 OT DIIS     0.15E+00    5.8     0.00001131       -26.4769951782 -4.02E-08
  Decoupling Energy:                                               0.0000056125
    32 OT DIIS     0.15E+00    5.8     0.00000909       -26.4769952008 -2.26E-08
  Decoupling Energy:                                               0.0000056162
    33 OT DIIS     0.15E+00    5.8     0.00000745       -26.4769952149 -1.41E-08
  Decoupling Energy:                                               0.0000056192
    34 OT DIIS     0.15E+00    5.8     0.00000619       -26.4769952241 -9.21E-09
  Decoupling Energy:                                               0.0000056214
    35 OT DIIS     0.15E+00    5.8     0.00000515       -26.4769952308 -6.67E-09
  Decoupling Energy:                                               0.0000056229
    36 OT DIIS     0.15E+00    5.8     0.00000414       -26.4769952366 -5.84E-09
  Decoupling Energy:                                               0.0000056238
    37 OT DIIS     0.15E+00    5.8     0.00000333       -26.4769952399 -3.23E-09
  Decoupling Energy:                                               0.0000056244
    38 OT DIIS     0.15E+00    5.8     0.00000258       -26.4769952421 -2.26E-09
  Decoupling Energy:                                               0.0000056245
    39 OT DIIS     0.15E+00    5.8     0.00000205       -26.4769952433 -1.17E-09
  Decoupling Energy:                                               0.0000056246
    40 OT DIIS     0.15E+00    5.8     0.00000166       -26.4769952439 -6.63E-10
  Decoupling Energy:                                               0.0000056245
    41 OT DIIS     0.15E+00    5.8     0.00000133       -26.4769952444 -4.24E-10
  Decoupling Energy:                                               0.0000056243
    42 OT DIIS     0.15E+00    5.8     0.00000108       -26.4769952446 -2.55E-10
  Decoupling Energy:                                               0.0000056241
    43 OT DIIS     0.15E+00    5.8     0.00000087       -26.4769952448 -1.80E-10
  Decoupling Energy:                                               0.0000056237
    44 OT DIIS     0.15E+00    5.8     0.00000067       -26.4769952449 -1.38E-10
  Decoupling Energy:                                               0.0000056234
    45 OT DIIS     0.15E+00    5.8     0.00000056       -26.4769952450 -5.80E-11
  Decoupling Energy:                                               0.0000056232
    46 OT DIIS     0.15E+00    5.8     0.00000046       -26.4769952450 -4.28E-11
  Decoupling Energy:                                               0.0000056230
    47 OT DIIS     0.15E+00    5.8     0.00000038       -26.4769952451 -3.16E-11
  Decoupling Energy:                                               0.0000056229
    48 OT DIIS     0.15E+00    5.8     0.00000033       -26.4769952451 -2.18E-11
  Decoupling Energy:                                               0.0000056227
    49 OT DIIS     0.15E+00    5.8     0.00000028       -26.4769952451 -1.97E-11
  Decoupling Energy:                                               0.0000056226
    50 OT DIIS     0.15E+00    5.8     0.00000023       -26.4769952451 -1.47E-11
  Decoupling Energy:                                               0.0000056225
    51 OT DIIS     0.15E+00    6.1     0.00000019       -26.4769952451 -9.79E-12
  Decoupling Energy:                                               0.0000056224
    52 OT DIIS     0.15E+00    5.8     0.00000015       -26.4769952451 -6.57E-12
  Decoupling Energy:                                               0.0000056224
    53 OT DIIS     0.15E+00    5.8     0.00000013       -26.4769952452 -3.55E-12
  Decoupling Energy:                                               0.0000056224
    54 OT DIIS     0.15E+00    5.8     0.00000010       -26.4769952452 -2.88E-12
  Decoupling Energy:                                               0.0000056224
    55 OT DIIS     0.15E+00    5.8     0.00000008       -26.4769952452 -1.88E-12
  Decoupling Energy:                                               0.0000056224
    56 OT DIIS     0.15E+00    5.8     0.00000007       -26.4769952452 -1.06E-12
  Decoupling Energy:                                               0.0000056224
    57 OT DIIS     0.15E+00    5.8     0.00000005       -26.4769952452 -6.82E-13
  Decoupling Energy:                                               0.0000056224
    58 OT DIIS     0.15E+00    5.8     0.00000004       -26.4769952452 -3.41E-13
  Decoupling Energy:                                               0.0000056224
    59 OT DIIS     0.15E+00    5.8     0.00000004       -26.4769952452 -1.42E-13
  Decoupling Energy:                                               0.0000056224
    60 OT DIIS     0.15E+00    5.8     0.00000003       -26.4769952452 -7.82E-14
  Decoupling Energy:                                               0.0000056224
    61 OT DIIS     0.15E+00    5.8     0.00000002       -26.4769952452 -5.68E-14
  Decoupling Energy:                                               0.0000056224
    62 OT DIIS     0.15E+00    5.8     0.00000002       -26.4769952452 -2.13E-14
  Decoupling Energy:                                               0.0000056225
    63 OT DIIS     0.15E+00    5.8     0.00000002       -26.4769952452 -2.13E-14
  Decoupling Energy:                                               0.0000056225
    64 OT DIIS     0.15E+00    5.8     0.00000001       -26.4769952452  1.14E-13
  Decoupling Energy:                                               0.0000056225
    65 OT DIIS     0.15E+00    5.8     0.00000001       -26.4769952452  0.00E+00
  Decoupling Energy:                                               0.0000056225
    66 OT DIIS     0.15E+00    5.8     0.00000001       -26.4769952452  6.75E-14
  Decoupling Energy:                                               0.0000056225
    67 OT DIIS     0.15E+00    5.8     8.4974E-09       -26.4769952452  6.04E-14

  *** SCF run converged in    67 steps ***


  Electronic density on regular grids:        -18.0000000000        0.0000000000
  Core density on regular grids:               18.0000000000       -0.0000000000
  Total charge density on r-space grids:       -0.0000000000
  Total charge density g-space grids:          -0.0000000000

  Overlap energy of the core charge distribution:               0.00000650404844
  Self energy of the core charge distribution:                -58.54672732397866
  Core Hamiltonian energy:                                     16.41259038285803
  Hartree energy:                                              22.87156678264714
  Exchange-correlation energy:                                 -7.21443159073475

  Total energy:                                               -26.47699524515980

  outer SCF iter =    1 RMS gradient =   0.85E-08 energy =        -26.4769952452
  outer SCF loop converged in   1 iterations or   67 steps

  
 -------------------------------------------------------------------------------
 -                                                                             -
 -                          BANDSTRUCTURE CALCULATION                          -
 -                                                                             -
 -------------------------------------------------------------------------------
  
 Number of occupied molecular orbitals (MOs) = Number of occupied bands        9
 Number of unoccupied (= virtual) MOs = Number of unoccupied bands            48
 Number of Gaussian basis functions for MOs                                   57
  
 -------------------------------------------------------------------------------
 -                                                                             -
 -                                GW CALCULATION                               -
 -                                                                             -
 -------------------------------------------------------------------------------
  
 Input: Number of time/freq. points                                           30
 Input: ω_max for fitting Σ(iω) (eV)                                        10.0
 Input: Filter threshold for sparse tensor operations                    1.0E-07
 Input: Apply Hedin shift                                                      F
 Input: Available memory per MPI process                                  2.0 GB
 
 Input: RI-RS Tikhonov regularization                                   1.00E-04
 Input: AO grid hard cutoff radius                                        8.00 Å
 Input: MPI ranks per atom in Z_lP solve                                      -1
 Input: Keep sparsity in χ/G/W panels                                          T
 Input: GW flavour                                                          G0W0
 
 Input: RI-RS grid optimization activated                                      T
 Input: Initial RI-RS grid                                              CHOLESKY
 Input: RS points per AO function                                         9.0000
 Input: Initial RS candidates per AO function                            30.0000
 Input: Additional Lebedev degree                                              2
 Input: Cholesky selection matrix                                        D_PRIME
 Input: Cholesky candidate domain                                      FULL_ATOM
 Input: Initial radial quadrature                                       GAPW_LOG
 Input: Cutoff radius for atomic clusters                                  0.5 Å
 Input: Maximum grid optimization iterations                                 300
 Input: L-BFGS history size                                                    7
 Input: L-BFGS relative-function factor                              0.00000E+00
 Input: L-BFGS projected-gradient tolerance                          1.00000E-09
 
 Input: AUTO_RI basis optimization activated:                                  T
 Input: AUTO_RI requested RI/AO ratio:                                       5.0
 Input: AUTO_RI frontier orbital window:                                  5.0 eV
 Input: AUTO_RI neighbor radius:                                           3.0 Å
 
 Cutoff radius for the truncated Coulomb operator in RI metric:            7.0 Å
 Regularization parameter of RI                                          0.0E+00
 Regularization parameter of minimax grids                               1.0E-06
 
 AUTO_RI| Number of automatic RI functions for χ, ε, W:                      285
 AUTO_RI| Total RI basis optimization time:                                2.4 s
  Decoupling Energy:                                               0.0000056225
 
 SCF direct band gap (eV)                                                   4.51
 Max. SCF eigval diff. (eV)                                               209.73
 E-Range for minimax grid                                                  46.46
 Number of Padé parameters for analytic continuation:                         16
 
 RI-RS basis radii (Å):
     Kind  Elem     r_AO (Å)     r_RI (Å)
        1    C         8.0299        5.0785
        2    H         9.5011        6.0090
        3    Br        6.2408        3.9470
 
 RI-RS initialization: atomic kind                                             1
 RI-RS initialization: Lebedev degree                                         11
 RI-RS initialization: radial shells                                           8
 RI-RS initialization: candidates per atom                                   400
 RI-RS initialization: retained points per atom                              117
 RI-RS initialization: atomic kind                                             2
 RI-RS initialization: Lebedev degree                                          7
 RI-RS initialization: radial shells                                           7
 RI-RS initialization: candidates per atom                                   182
 RI-RS initialization: retained points per atom                               54
 RI-RS initialization: atomic kind                                             3
 RI-RS initialization: Lebedev degree                                         11
 RI-RS initialization: radial shells                                           8
 RI-RS initialization: candidates per atom                                   400
 RI-RS initialization: retained points per atom                              117
 RI-RS initialization: largest cluster candidate count                       400
 RI-RS initialization: most pivots in one cluster                            276
 RI-RS initialization: most stored AO values in one cluster                 5200
 RI-RS initialization: wall time [s]                                       0.025
 Started RI-RS grid optimization
 RI-RS grid initial normalized error                          3.951535276111E-03
 RI-RS grid optimization completed, execution time:                        0.7 s
 Normalized 3C error:                                                    1.6E-07
 Maximum absolute 3C error:                                              3.5E-03
 Optimized points outside molecular Voronoi cells:                            79 / 513
 Total grid points used for RI-RS:                                           513
 
 RI-RS grid row-blocks of Φ_μ(r_l)                                            18
 RI-RS grid points per block (max)                                            32
 
 Percentage of non-zero matrix elements in Φ_μ(r_l)                     100.00 %
 
 RI-RS memory estimate per MPI process:
   Available memory per process (system)                               265.27 GB
   Required for Z_lP (dense upper bound; actual is sparser)              0.00 GB
   Required for χ, W, Σ panels (peak per panel step)                     0.01 GB
   Required for Z_lP solve peak (D_local+φ, worst-case atom)             0.01 GB
   Worst-case local-grid number of grid points:                              513
   Worst-case memory D_local:                                            0.00 GB
 
 Started computing Z_lP
 Computed Z_lP (MPI rank 0) for atom          1 /  6,    Execution time    0.0 s
 Computed Z_lP (MPI rank 0) for atom          2 /  6,    Execution time    0.0 s
 Computed Z_lP (MPI rank 0) for atom          3 /  6,    Execution time    0.0 s
 Computed Z_lP (MPI rank 0) for atom          4 /  6,    Execution time    0.0 s
 Computed Z_lP (MPI rank 0) for atom          5 /  6,    Execution time    0.0 s
 Computed Z_lP (MPI rank 0) for atom          6 /  6,    Execution time    0.0 s
 Computed Z_lP (all MPI ranks) for all atoms,            Execution time    0.1 s

 Number of batches for χ, Σ matrices                                           1
 
 Percentage of non-zero matrix elements in Z_lP                         100.00 %
 Percentage of non-zero matrix elements in G_ll', χ_ll', W_ll'          100.00 %
 Percentage of non-zero matrix elements in χ_PQ for time point 1        100.00 %
 
 Computed χ(iτ,k=0) for time point            1 / 30,    Execution time    0.0 s
 Computed χ(iτ,k=0) for time point            2 / 30,    Execution time    0.0 s
 Computed χ(iτ,k=0) for time point            3 / 30,    Execution time    0.0 s
 Computed χ(iτ,k=0) for time point            4 / 30,    Execution time    0.0 s
 Computed χ(iτ,k=0) for time point            5 / 30,    Execution time    0.0 s
 Computed χ(iτ,k=0) for time point            6 / 30,    Execution time    0.0 s
 Computed χ(iτ,k=0) for time point            7 / 30,    Execution time    0.0 s
 Computed χ(iτ,k=0) for time point            8 / 30,    Execution time    0.0 s
 Computed χ(iτ,k=0) for time point            9 / 30,    Execution time    0.0 s
 Computed χ(iτ,k=0) for time point           10 / 30,    Execution time    0.0 s
 Computed χ(iτ,k=0) for time point           11 / 30,    Execution time    0.0 s
 Computed χ(iτ,k=0) for time point           12 / 30,    Execution time    0.0 s
 Computed χ(iτ,k=0) for time point           13 / 30,    Execution time    0.0 s
 Computed χ(iτ,k=0) for time point           14 / 30,    Execution time    0.0 s
 Computed χ(iτ,k=0) for time point           15 / 30,    Execution time    0.0 s
 Computed χ(iτ,k=0) for time point           16 / 30,    Execution time    0.0 s
 Computed χ(iτ,k=0) for time point           17 / 30,    Execution time    0.0 s
 Computed χ(iτ,k=0) for time point           18 / 30,    Execution time    0.0 s
 Computed χ(iτ,k=0) for time point           19 / 30,    Execution time    0.0 s
 Computed χ(iτ,k=0) for time point           20 / 30,    Execution time    0.0 s
 Computed χ(iτ,k=0) for time point           21 / 30,    Execution time    0.0 s
 Computed χ(iτ,k=0) for time point           22 / 30,    Execution time    0.0 s
 Computed χ(iτ,k=0) for time point           23 / 30,    Execution time    0.0 s
 Computed χ(iτ,k=0) for time point           24 / 30,    Execution time    0.0 s
 Computed χ(iτ,k=0) for time point           25 / 30,    Execution time    0.0 s
 Computed χ(iτ,k=0) for time point           26 / 30,    Execution time    0.0 s
 Computed χ(iτ,k=0) for time point           27 / 30,    Execution time    0.0 s
 Computed χ(iτ,k=0) for time point           28 / 30,    Execution time    0.0 s
 Computed χ(iτ,k=0) for time point           29 / 30,    Execution time    0.0 s
 Computed χ(iτ,k=0) for time point           30 / 30,    Execution time    0.0 s
 
 Computed W(iτ),                                         Execution time    0.3 s
 
 Computed Σ^x(k=0),                                      Execution time    0.0 s
 
 Computed Σ^c(iτ) for time point              1 / 30,    Execution time    0.0 s
 Computed Σ^c(iτ) for time point              2 / 30,    Execution time    0.0 s
 Computed Σ^c(iτ) for time point              3 / 30,    Execution time    0.0 s
 Computed Σ^c(iτ) for time point              4 / 30,    Execution time    0.0 s
 Computed Σ^c(iτ) for time point              5 / 30,    Execution time    0.0 s
 Computed Σ^c(iτ) for time point              6 / 30,    Execution time    0.0 s
 Computed Σ^c(iτ) for time point              7 / 30,    Execution time    0.0 s
 Computed Σ^c(iτ) for time point              8 / 30,    Execution time    0.0 s
 Computed Σ^c(iτ) for time point              9 / 30,    Execution time    0.0 s
 Computed Σ^c(iτ) for time point             10 / 30,    Execution time    0.0 s
 Computed Σ^c(iτ) for time point             11 / 30,    Execution time    0.0 s
 Computed Σ^c(iτ) for time point             12 / 30,    Execution time    0.0 s
 Computed Σ^c(iτ) for time point             13 / 30,    Execution time    0.0 s
 Computed Σ^c(iτ) for time point             14 / 30,    Execution time    0.0 s
 Computed Σ^c(iτ) for time point             15 / 30,    Execution time    0.0 s
 Computed Σ^c(iτ) for time point             16 / 30,    Execution time    0.0 s
 Computed Σ^c(iτ) for time point             17 / 30,    Execution time    0.0 s
 Computed Σ^c(iτ) for time point             18 / 30,    Execution time    0.0 s
 Computed Σ^c(iτ) for time point             19 / 30,    Execution time    0.0 s
 Computed Σ^c(iτ) for time point             20 / 30,    Execution time    0.0 s
 Computed Σ^c(iτ) for time point             21 / 30,    Execution time    0.0 s
 Computed Σ^c(iτ) for time point             22 / 30,    Execution time    0.0 s
 Computed Σ^c(iτ) for time point             23 / 30,    Execution time    0.0 s
 Computed Σ^c(iτ) for time point             24 / 30,    Execution time    0.0 s
 Computed Σ^c(iτ) for time point             25 / 30,    Execution time    0.0 s
 Computed Σ^c(iτ) for time point             26 / 30,    Execution time    0.0 s
 Computed Σ^c(iτ) for time point             27 / 30,    Execution time    0.0 s
 Computed Σ^c(iτ) for time point             28 / 30,    Execution time    0.0 s
 Computed Σ^c(iτ) for time point             29 / 30,    Execution time    0.0 s
 Computed Σ^c(iτ) for time point             30 / 30,    Execution time    0.0 s

 *** WARNING in post_scf_bandstructure_utils.F:3164 :: G0W0 reorders the   ***
 *** empty levels: the SCF conduction band minimum (SCF LUMO) is level 10, ***
 *** whereas the G0W0 conduction band minimum (G0W0 LUMO) is level 11. The ***
 *** SCF and G0W0 band edges printed below therefore belong to different   ***
 *** orbitals; see the eigenvalues in the file bandstructure_SCF_and_G0W0. ***

 
 SCF valence band maximum (eV):                                           -5.760
 SCF conduction band minimum (eV):                                        -1.246
 SCF indirect band gap (eV):                                               4.515
 SCF direct band gap (eV):                                                 4.515
 
 G0W0 valence band maximum (eV):                                          -8.255
 G0W0 conduction band minimum (eV):                                        1.849
 G0W0 indirect band gap (eV):                                             10.104
 G0W0 direct band gap (eV):                                               10.104
 
 Hartree-Fock with SCF orbitals valence band maximum (eV):                -8.745
 Hartree-Fock with SCF orbitals conduction band minimum (eV)               2.510
 Hartree-Fock with SCF orbitals indirect band gap (eV):                   11.256
 Hartree-Fock with SCF orbitals direct band gap (eV):                     11.256

 ENERGY| Total FORCE_EVAL ( QS ) energy [hartree]            -26.476995245159799

 -------------------------------------------------------------------------------
 -                                                                             -
 -                                DBCSR STATISTICS                             -
 -                                                                             -
 -------------------------------------------------------------------------------
 COUNTER                                    TOTAL       BLAS       SMM       ACC
 flops    21 x    21 x    40               105840     100.0%      0.0%      0.0%     
 flops    21 x    22 x    40               110880     100.0%      0.0%      0.0%     
 flops    21 x    21 x    46               121716     100.0%      0.0%      0.0%     
 flops    21 x    21 x    47               124362     100.0%      0.0%      0.0%     
 flops    21 x    22 x    46               127512     100.0%      0.0%      0.0%     
 flops    21 x    22 x    47               130284     100.0%      0.0%      0.0%     
 flops     6 x     6 x     9               264384     100.0%      0.0%      0.0%     
 flops    22 x    21 x    40               332640     100.0%      0.0%      0.0%     
 flops    22 x    22 x    40               348480     100.0%      0.0%      0.0%     
 flops     6 x    13 x     9               381888     100.0%      0.0%      0.0%     
 flops    22 x    21 x    46               382536     100.0%      0.0%      0.0%     
 flops    22 x    21 x    47               390852     100.0%      0.0%      0.0%     
 flops    22 x    22 x    46               400752     100.0%      0.0%      0.0%     
 flops    22 x    22 x    47               409464     100.0%      0.0%      0.0%     
 flops    13 x     6 x     9               477360     100.0%      0.0%      0.0%     
 flops    21 x    32 x    40               645120     100.0%      0.0%      0.0%     
 flops    21 x    32 x    46               741888     100.0%      0.0%      0.0%     
 flops    21 x    32 x    47               758016     100.0%      0.0%      0.0%     
 flops     6 x     9 x     6               833976     100.0%      0.0%      0.0%     
 flops     9 x     9 x     9               870426     100.0%      0.0%      0.0%     
 flops     6 x     9 x     9               973944     100.0%      0.0%      0.0%     
 flops    13 x    13 x     9              1241136     100.0%      0.0%      0.0%     
 flops     6 x     9 x    57              1255824     100.0%      0.0%      0.0%     
 flops     6 x     6 x    21              1283688     100.0%      0.0%      0.0%     
 flops     6 x     6 x    22              1335312     100.0%      0.0%      0.0%     
 flops    13 x     9 x     6              1806948     100.0%      0.0%      0.0%     
 flops     6 x     9 x    13              1806948     100.0%      0.0%      0.0%     
 flops    32 x    21 x    40              1935360     100.0%      0.0%      0.0%     
 flops    32 x    22 x    40              2027520     100.0%      0.0%      0.0%     
 flops    22 x    32 x    40              2027520     100.0%      0.0%      0.0%     
 flops    13 x     9 x     9              2110212     100.0%      0.0%      0.0%     
 flops    32 x    21 x    46              2225664     100.0%      0.0%      0.0%     
 flops    32 x    21 x    47              2274048     100.0%      0.0%      0.0%     
 flops    32 x    22 x    46              2331648     100.0%      0.0%      0.0%     
 flops    22 x    32 x    46              2331648     100.0%      0.0%      0.0%     
 flops    32 x    22 x    47              2382336     100.0%      0.0%      0.0%     
 flops    22 x    32 x    47              2382336     100.0%      0.0%      0.0%     
 flops     9 x     9 x    57              2465478     100.0%      0.0%      0.0%     
 flops    13 x     9 x    57              2720952     100.0%      0.0%      0.0%     
 flops    13 x     6 x    21              2781324     100.0%      0.0%      0.0%     
 flops     6 x    13 x    21              2810808     100.0%      0.0%      0.0%     
 flops    13 x     6 x    22              2889744     100.0%      0.0%      0.0%     
 flops     6 x    13 x    22              2975544     100.0%      0.0%      0.0%     
 flops    21 x     6 x     6              3361176     100.0%      0.0%      0.0%     
 flops    22 x     6 x     6              3527568     100.0%      0.0%      0.0%     
 flops    40 x    40 x    22              3801600     100.0%      0.0%      0.0%     
 flops    40 x    40 x    21              3830400     100.0%      0.0%      0.0%     
 flops    13 x     9 x    13              3915054     100.0%      0.0%      0.0%     
 flops    46 x    40 x    22              4371840     100.0%      0.0%      0.0%     
 flops    40 x    46 x    22              4371840     100.0%      0.0%      0.0%     
 flops    46 x    40 x    21              4404960     100.0%      0.0%      0.0%     
 flops    40 x    46 x    21              4404960     100.0%      0.0%      0.0%     
 flops    21 x    40 x    40              4435200     100.0%      0.0%      0.0%     
 flops    47 x    40 x    22              4466880     100.0%      0.0%      0.0%     
 flops    40 x    47 x    22              4466880     100.0%      0.0%      0.0%     
 flops    47 x    40 x    21              4500720     100.0%      0.0%      0.0%     
 flops    40 x    47 x    21              4500720     100.0%      0.0%      0.0%     
 flops    22 x    40 x    40              4646400     100.0%      0.0%      0.0%     
 flops    21 x     6 x    21              4746924     100.0%      0.0%      0.0%     
 flops    22 x     6 x    21              4984056     100.0%      0.0%      0.0%     
 flops    21 x     6 x    22              4995144     100.0%      0.0%      0.0%     
 flops    46 x    46 x    22              5027616     100.0%      0.0%      0.0%     
 flops    46 x    46 x    21              5065704     100.0%      0.0%      0.0%     
 flops    21 x    40 x    46              5100480     100.0%      0.0%      0.0%     
 flops    21 x    46 x    40              5100480     100.0%      0.0%      0.0%     
 flops    47 x    46 x    22              5136912     100.0%      0.0%      0.0%     
 flops    46 x    47 x    22              5136912     100.0%      0.0%      0.0%     
 flops    47 x    46 x    21              5175828     100.0%      0.0%      0.0%     
 flops    46 x    47 x    21              5175828     100.0%      0.0%      0.0%     
 flops    21 x    40 x    47              5211360     100.0%      0.0%      0.0%     
 flops    21 x    47 x    40              5211360     100.0%      0.0%      0.0%     
 flops    47 x    47 x    22              5248584     100.0%      0.0%      0.0%     
 flops    47 x    47 x    21              5288346     100.0%      0.0%      0.0%     
 flops    22 x     6 x    22              5302704     100.0%      0.0%      0.0%     
 flops    22 x    40 x    46              5343360     100.0%      0.0%      0.0%     
 flops    22 x    46 x    40              5343360     100.0%      0.0%      0.0%     
 flops    22 x    40 x    47              5459520     100.0%      0.0%      0.0%     
 flops    22 x    47 x    40              5459520     100.0%      0.0%      0.0%     
 flops    21 x    46 x    46              5865552     100.0%      0.0%      0.0%     
 flops    21 x    46 x    47              5993064     100.0%      0.0%      0.0%     
 flops    21 x    47 x    46              5993064     100.0%      0.0%      0.0%     
 flops    13 x    13 x    21              6090084     100.0%      0.0%      0.0%     
 flops    21 x    47 x    47              6123348     100.0%      0.0%      0.0%     
 flops    22 x    46 x    46              6144864     100.0%      0.0%      0.0%     
 flops    22 x    46 x    47              6278448     100.0%      0.0%      0.0%     
 flops    22 x    47 x    46              6278448     100.0%      0.0%      0.0%     
 flops    21 x    40 x    21              6385680     100.0%      0.0%      0.0%     
 flops    22 x    47 x    47              6414936     100.0%      0.0%      0.0%     
 flops    13 x    13 x    22              6439576     100.0%      0.0%      0.0%     
 flops    22 x    40 x    21              6541920     100.0%      0.0%      0.0%     
 flops    21 x    40 x    22              6726720     100.0%      0.0%      0.0%     
 flops    22 x    40 x    22              6969600     100.0%      0.0%      0.0%     
 flops    21 x    46 x    21              7343532     100.0%      0.0%      0.0%     
 flops    21 x    13 x     6              7492212     100.0%      0.0%      0.0%     
 flops    21 x     6 x    13              7498764     100.0%      0.0%      0.0%     
 flops    21 x    47 x    21              7503174     100.0%      0.0%      0.0%     
 flops    22 x    46 x    21              7523208     100.0%      0.0%      0.0%     
 flops    22 x    47 x    21              7686756     100.0%      0.0%      0.0%     
 flops    21 x    46 x    22              7735728     100.0%      0.0%      0.0%     
 flops    22 x     6 x    13              7828392     100.0%      0.0%      0.0%     
 flops    22 x    13 x     6              7855848     100.0%      0.0%      0.0%     
 flops    21 x    47 x    22              7903896     100.0%      0.0%      0.0%     
 flops     6 x     6 x    32              7928064     100.0%      0.0%      0.0%     
 flops    22 x    46 x    22              8015040     100.0%      0.0%      0.0%     
 flops    22 x    47 x    22              8189280     100.0%      0.0%      0.0%     
 flops    21 x    21 x     6              9054612     100.0%      0.0%      0.0%     
 flops    22 x    21 x     6              9275112     100.0%      0.0%      0.0%     
 flops    21 x    21 x    57              9501786     100.0%      0.0%      0.0%     
 flops    21 x    22 x     6              9502416     100.0%      0.0%      0.0%     
 flops    22 x    22 x     6              9716784     100.0%      0.0%      0.0%     
 flops    21 x    22 x    57              9954252     100.0%      0.0%      0.0%     
 flops    22 x    21 x    57              9954252     100.0%      0.0%      0.0%     
 flops    22 x    22 x    57             10428264     100.0%      0.0%      0.0%     
 flops    21 x    13 x    21             10560186     100.0%      0.0%      0.0%     
 flops    21 x    13 x    22             10786776     100.0%      0.0%      0.0%     
 flops    22 x    13 x    21             10942932     100.0%      0.0%      0.0%     
 flops    22 x    13 x    22             11438856     100.0%      0.0%      0.0%     
 flops    32 x    32 x    40             11796480     100.0%      0.0%      0.0%     
 flops    32 x    32 x    46             13565952     100.0%      0.0%      0.0%     
 flops    32 x    32 x    47             13860864     100.0%      0.0%      0.0%     
 flops    21 x    13 x    13             16630614     100.0%      0.0%      0.0%     
 flops    13 x     6 x    32             17177472     100.0%      0.0%      0.0%     
 flops    22 x    13 x    13             17392804     100.0%      0.0%      0.0%     
 flops     6 x    13 x    32             17476992     100.0%      0.0%      0.0%     
 flops    21 x    21 x    13             19996704     100.0%      0.0%      0.0%     
 flops    32 x     6 x     6             20514816     100.0%      0.0%      0.0%     
 flops    22 x    21 x    13             20756736     100.0%      0.0%      0.0%     
 flops    21 x    22 x    13             20888868     100.0%      0.0%      0.0%     
 flops    22 x    22 x    13             21745152     100.0%      0.0%      0.0%     
 flops    40 x    40 x    32             23040000     100.0%      0.0%      0.0%     
 flops    46 x    40 x    32             26496000     100.0%      0.0%      0.0%     
 flops    40 x    46 x    32             26496000     100.0%      0.0%      0.0%     
 flops    40 x    47 x    32             26951680     100.0%      0.0%      0.0%     
 flops    32 x    40 x    40             27033600     100.0%      0.0%      0.0%     
 flops    47 x    40 x    32             27072000     100.0%      0.0%      0.0%     
 flops    32 x     6 x    21             29449728     100.0%      0.0%      0.0%     
 flops    21 x     6 x    32             29562624     100.0%      0.0%      0.0%     
 flops    46 x    46 x    32             30470400     100.0%      0.0%      0.0%     
 flops    46 x    47 x    32             30994432     100.0%      0.0%      0.0%     
 flops    32 x    40 x    46             31088640     100.0%      0.0%      0.0%     
 flops    32 x    46 x    40             31088640     100.0%      0.0%      0.0%     
 flops    32 x     6 x    22             31088640     100.0%      0.0%      0.0%     
 flops    22 x     6 x    32             31097088     100.0%      0.0%      0.0%     
 flops    47 x    46 x    32             31132800     100.0%      0.0%      0.0%     
 flops    47 x    47 x    32             31668224     100.0%      0.0%      0.0%     
 flops    32 x    40 x    47             31764480     100.0%      0.0%      0.0%     
 flops    32 x    47 x    40             31764480     100.0%      0.0%      0.0%     
 flops    32 x    46 x    46             35751936     100.0%      0.0%      0.0%     
 flops    32 x    46 x    47             36529152     100.0%      0.0%      0.0%     
 flops    32 x    47 x    46             36529152     100.0%      0.0%      0.0%     
 flops    32 x    47 x    47             37323264     100.0%      0.0%      0.0%     
 flops    13 x    13 x    32             37834368     100.0%      0.0%      0.0%     
 flops    32 x    40 x    21             38653440     100.0%      0.0%      0.0%     
 flops    21 x    40 x    32             39352320     100.0%      0.0%      0.0%     
 flops    22 x    40 x    32             40437760     100.0%      0.0%      0.0%     
 flops    32 x    40 x    22             40888320     100.0%      0.0%      0.0%     
 flops    32 x    46 x    21             44575104     100.0%      0.0%      0.0%     
 flops    21 x    46 x    32             45255168     100.0%      0.0%      0.0%     
 flops    32 x    47 x    21             45480960     100.0%      0.0%      0.0%     
 flops    32 x     6 x    13             45656832     100.0%      0.0%      0.0%     
 flops    32 x    13 x     6             45706752     100.0%      0.0%      0.0%     
 flops    21 x    47 x    32             46365312     100.0%      0.0%      0.0%     
 flops    22 x    46 x    32             46568192     100.0%      0.0%      0.0%     
 flops    32 x    46 x    22             47021568     100.0%      0.0%      0.0%     
 flops    22 x    47 x    32             47448192     100.0%      0.0%      0.0%     
 flops    21 x    21 x   285             47508930     100.0%      0.0%      0.0%     
 flops    32 x    47 x    22             48043776     100.0%      0.0%      0.0%     
 flops    21 x    22 x   285             49771260     100.0%      0.0%      0.0%     
 flops    22 x    21 x   285             49771260     100.0%      0.0%      0.0%     
 flops    22 x    22 x   285             52141320     100.0%      0.0%      0.0%     
 flops    32 x    21 x     6             54843264     100.0%      0.0%      0.0%     
 flops    21 x    32 x     6             55270656     100.0%      0.0%      0.0%     
 flops    22 x    32 x     6             56559360     100.0%      0.0%      0.0%     
 flops    32 x    22 x     6             57539328     100.0%      0.0%      0.0%     
 flops    32 x    21 x    57             57915648     100.0%      0.0%      0.0%     
 flops    21 x    32 x    57             57915648     100.0%      0.0%      0.0%     
 flops    32 x    22 x    57             60432768     100.0%      0.0%      0.0%     
 flops    22 x    32 x    57             60432768     100.0%      0.0%      0.0%     
 flops    21 x    13 x    32             65153088     100.0%      0.0%      0.0%     
 flops    32 x    13 x    21             65222976     100.0%      0.0%      0.0%     
 flops    32 x    13 x    22             67193984     100.0%      0.0%      0.0%     
 flops    22 x    13 x    32             68219008     100.0%      0.0%      0.0%     
 flops    32 x    13 x    13            101281024     100.0%      0.0%      0.0%     
 flops    32 x    21 x    13            121605120     100.0%      0.0%      0.0%     
 flops    21 x    32 x    13            121832256     100.0%      0.0%      0.0%     
 flops    22 x    32 x    13            126352512     100.0%      0.0%      0.0%     
 flops    32 x    22 x    13            127121280     100.0%      0.0%      0.0%     
 flops    32 x     6 x    32            184209408     100.0%      0.0%      0.0%     
 flops    32 x    40 x    32            238141440     100.0%      0.0%      0.0%     
 flops    32 x    46 x    32            274145280     100.0%      0.0%      0.0%     
 flops    32 x    47 x    32            279912448     100.0%      0.0%      0.0%     
 flops    32 x    21 x   285            289578240     100.0%      0.0%      0.0%     
 flops    21 x    32 x   285            289578240     100.0%      0.0%      0.0%     
 flops    32 x    22 x   285            303367680     100.0%      0.0%      0.0%     
 flops    22 x    32 x   285            303367680     100.0%      0.0%      0.0%     
 flops    32 x    32 x     6            334811136     100.0%      0.0%      0.0%     
 flops    32 x    32 x    57            352075776     100.0%      0.0%      0.0%     
 flops    32 x    13 x    32            403673088     100.0%      0.0%      0.0%     
 flops    32 x    32 x    13            740866048     100.0%      0.0%      0.0%     
 flops    32 x    32 x   285           1765048320     100.0%      0.0%      0.0%     
 flops inhomo. stacks                  5586420736     100.0%      0.0%      0.0%
 flops total                        14.947483E+09     100.0%      0.0%      0.0%
 flops max/rank                     14.947483E+09     100.0%      0.0%      0.0%
 matmuls inhomo. stacks                     40136     100.0%      0.0%      0.0%
 matmuls total                             356834     100.0%      0.0%      0.0%
 number of processed stacks                 34743     100.0%      0.0%      0.0%
 average stack size                                    10.3       0.0       0.0
 marketing flops                    20.323594E+09
 -------------------------------------------------------------------------------
 # multiplications                           1964
 max memory usage/rank              47.253275E+09
 # max total images/rank                        1
 # max 3D layers                                1
 # MPI messages exchanged                       0
 -------------------------------------------------------------------------------
 -                                                                             -
 -                      DBCSR MESSAGE PASSING PERFORMANCE                      -
 -                                                                             -
 -------------------------------------------------------------------------------
 ROUTINE             CALLS      AVE VOLUME [Bytes]
 MP_Bcast              201                     12.
 MP_Allreduce         9541                     11.
 MP_Alltoall          8169                  33035.
 MP_ISend             7566                    584.
 MP_IRecv             7566                    584.
 -------------------------------------------------------------------------------

 -------------------------------------------------------------------------------
 -                                                                             -
 -                                GRID STATISTICS                              -
 -                                                                             -
 -------------------------------------------------------------------------------
 LP    KERNEL             BACKEND                              COUNT     PERCENT
 3     collocate ortho    CPU                                  22168      20.84%
 3     integrate ortho    CPU                                  22168      20.84%
 2     collocate ortho    CPU                                  19380      18.22%
 2     integrate ortho    CPU                                  19380      18.22%
 4     collocate ortho    CPU                                  11628      10.93%
 4     integrate ortho    CPU                                  11628      10.93%
 0     collocate general  CPU                                      6       0.01%
 -------------------------------------------------------------------------------

 -------------------------------------------------------------------------------
 -                                                                             -
 -                          OFFLOAD MEMPOOL STATISTICS                         -
 -                                                                             -
 -------------------------------------------------------------------------------
 Memory consumption                Number of allocations  Used [MiB]  Size [MiB]
 Host                                                  6         260    22055686
 -------------------------------------------------------------------------------

 MEMORY| Estimated peak process memory [MiB]                               15394

 -------------------------------------------------------------------------------
 -                                                                             -
 -                         MESSAGE PASSING PERFORMANCE                         -
 -                                                                             -
 -------------------------------------------------------------------------------

 ROUTINE             CALLS      AVE VOLUME [Bytes]
 MP_Group                5
 MP_Bcast             1319                   1961.
 MP_Allreduce         5919                   1023.
 MP_Sync                80
 MP_comm_split          77
 -------------------------------------------------------------------------------


 -------------------------------------------------------------------------------
 -                                                                             -
 -                           R E F E R E N C E S                               -
 -                                                                             -
 -------------------------------------------------------------------------------
 
 CP2K version 2026.2 (Development Version), the CP2K developers group (2026).
 CP2K is freely available from https://www.cp2k.org/ .
 
 M. Iannuzzi, J. Wilhelm, F. Stein, A. Bussy, H. Elgabarty, D. Golze, A. Hehn, 
 M. Graml, S. Marek, B. Sertcan Gökmen, C. Schran, H. Forbert, R. Z. 
 Khaliullin, A. Kozhevnikov, M. Taillefumier, R. Meli, V. V. Rybkin, M. Brehm, 
 R. Schade, O. Schütt, J. V. Pototschnig, H. Mirhosseini, A. Knüpfer, D. Marx, 
 M. Krack, J. Hutter, T. D. Kühne.
 J. Phys. Chem. B 130, 1237-1310 (2026).
 The CP2K Program Package Made Simple.
 https://doi.org/10.1021/acs.jpcb.5c05851

 M. Graml, K. Zollner, D. Hernangómez-Pérez, P. E. Faria Junior, J. Wilhelm.
 J. Chem. Theory Comput. 20, 2202-2208 (2024).
 Low-scaling GW algorithm applied to twisted transition-metal dichalcogenide 
 heterobilayers.
 https://doi.org/10.1021/acs.jctc.3c01230

 T. D. Kühne, M. Iannuzzi, M. Del Ben, V. V. Rybkin, P. Seewald, F. Stein, T. 
 Laino, R. Z. Khaliullin, O. Schütt, F. Schiffmann, D. Golze, J. Wilhelm, S. 
 Chulkov, M. H. Bani-Hashemian, V. Weber, U. Borstnik, M. Taillefumier, A. S. 
 Jakobovits, A. Lazzaro, H. Pabst, T. Müller, R. Schade, M. Guidon, S. 
 Andermatt, N. Holmberg, G. K. Schenter, A. Hehn, A. Bussy, F. Belleflamme, G. 
 Tabacchi, A. Glöß, M. Lass, I. Bethune, C. J. Mundy, C. Plessl, M. Watkins, 
 J. VandeVondele, M. Krack, J. Hutter.
 J. Chem. Phys. 152, 194103 (2020).
 CP2K: An electronic structure and molecular dynamics software package - 
 Quickstep: Efficient and accurate electronic structure calculations.
 https://doi.org/10.1063/5.0007045

 O. Schuett, P. Messmer, J. Hutter, J. VandeVondele.
 Electronic Structure Calculations on Graphics Processing Units, 173-190 (2016).
 GPU-Accelerated Sparse Matrix-Matrix Multiplication for Linear Scaling Density 
 Functional Theory.
 https://doi.org/10.1002/9781118670712.ch8

 U. Borstnik, J. VandeVondele, V. Weber, J. Hutter.
 Parallel Comput. 40, 47-58 (2014).
 Sparse matrix multiplication: The distributed block-compressed sparse row 
 library.
 https://doi.org/10.1016/j.parco.2014.03.012

 J. VandeVondele, J. Hutter.
 J. Chem. Phys. 127, 114105 (2007).
 Gaussian basis sets for accurate calculations on molecular systems in gas and 
 condensed phases.
 https://doi.org/10.1063/1.2770708

 J. VandeVondele, M. Krack, F. Mohamed, M. Parrinello, T. Chassaing, J. Hutter.
 Comput. Phys. Commun. 167, 103-128 (2005).
 QUICKSTEP: Fast and accurate density functional calculations using a mixed 
 Gaussian and plane waves approach.
 https://doi.org/10.1016/j.cpc.2004.12.014

 M. Krack.
 Theor. Chem. Acc. 114, 145-152 (2005).
 Pseudopotentials for H to Kr optimized for gradient-corrected 
 exchange-correlation functionals.
 https://doi.org/10.1007/s00214-005-0655-y

 M. Frigo, S. G. Johnson.
 Proc. IEEE 93, 216-231 (2005).
 The design and implementation of FFTW3.
 https://doi.org/10.1109/JPROC.2004.840301

 J. VandeVondele, J. Hutter.
 J. Chem. Phys. 118, 4365-4369 (2003).
 An efficient orbital transformation method for electronic structure 
 calculations.
 https://doi.org/10.1063/1.1543154

 C. Hartwigsen, S. Goedecker, J. Hutter.
 Phys. Rev. B 58, 3641-3662 (1998).
 Relativistic separable dual-space Gaussian pseudopotentials from H to Rn.
 https://doi.org/10.1103/PhysRevB.58.3641

 G. Lippert, J. Hutter, M. Parrinello.
 Mol. Phys. 92, 477-487 (1997).
 A hybrid Gaussian and plane wave density functional scheme.
 https://doi.org/10.1080/002689797170220

 S. Goedecker, M. Teter, J. Hutter.
 Phys. Rev. B 54, 1703-1710 (1996).
 Separable dual-space Gaussian pseudopotentials.
 https://doi.org/10.1103/PhysRevB.54.1703

 J. P. Perdew, K. Burke, M. Ernzerhof.
 Phys. Rev. Lett. 77, 3865-3868 (1996).
 Generalized gradient approximation made simple.
 https://doi.org/10.1103/PhysRevLett.77.3865

 P. E. Blöchl.
 J. Chem. Phys. 103, 7422-7428 (1995).
 Electrostatic decoupling of periodic images of plane‐wave‐expanded 
 densities and derived atomic point charges.
 https://doi.org/10.1063/1.470314

 R. H. Byrd, P. H. Lu, J. Nocedal, C. Y. Zhu.
 SIAM J. Sci. Comput. 16, 1190-1208 (1995).
 A Limited Memory Algorithm for Bound Constrained Optimization.
 https://doi.org/10.1137/0916069


 -------------------------------------------------------------------------------
 -                                                                             -
 -                                T I M I N G                                  -
 -                                                                             -
 -------------------------------------------------------------------------------
 SUBROUTINE                       CALLS  ASD         SELF TIME        TOTAL TIME MAXRANK
                                MAXIMUM       AVERAGE  MAXIMUM  AVERAGE  MAXIMUM
 CP2K                                 1  1.0    0.064    0.064  402.044  402.044       0
 qs_energies                          1  2.0    0.022    0.022  395.166  395.166       0
 scf_env_do_scf                       1  3.0    0.008    0.008  386.657  386.657       0
 scf_env_do_scf_inner_loop           67  4.0    0.034    0.034  382.232  382.232       0
 qs_ks_build_kohn_sham_matrix        68  7.0    0.152    0.152  297.278  297.278       0
 qs_ks_update_qs_env                 68  5.0    0.002    0.002  295.963  295.963       0
 rebuild_ks_matrix                   67  6.0    0.000    0.000  295.957  295.957       0
 fft_wrap_pw1pw2                   1150 10.3    0.019    0.019  245.274  245.274       0
 fft_wrap_pw1pw2_300                742 11.8   13.500   13.500  237.946  237.946       0
 qs_vxc_create                       68  8.0    0.003    0.003  206.248  206.248       0
 xc_vxc_pw_create                    67  9.0    9.990    9.990  206.245  206.245       0
 xc_pw_derive                       402 11.0    0.002    0.002  147.926  147.926       0
 fft3d_s                           1151 12.3  137.662  137.662  137.677  137.677       0
 xc_pw_divergence                    67 10.0    0.003    0.003   99.366   99.366       0
 xc_rho_set_and_dset_create          67 10.0    5.623    5.623   93.642   93.642       0
 qs_rho_update_rho_low               68  5.0    0.001    0.001   90.465   90.465       0
 calculate_rho_elec                  68  6.0    6.810    6.810   90.464   90.464       0
 density_rs2pw                       68  7.0    0.003    0.003   51.366   51.366       0
 pw_scatter_s                       608 12.8   51.188   51.188   51.188   51.188       0
 qs_ks_ddapc                         68  8.0    0.007    0.007   33.186   33.186       0
 grid_collocate_task_list            68  7.0   32.288   32.288   32.288   32.288       0
 sum_up_and_integrate                68  8.0    0.007    0.007   30.559   30.559       0
 integrate_v_rspace                  68  9.0    0.020    0.020   29.119   29.119       0
 potential_pw2rs                     68 10.0    0.257    0.257   28.807   28.807       0
 pw_poisson_solve                    68  8.0    0.003    0.003   24.886   24.886       0
 pw_gather_s                        542 11.9   23.014   23.014   23.014   23.014       0
 pw_derive                          606 11.3   22.317   22.317   22.317   22.317       0
 pw_integral_ab_c1d_c1d_gs          136  9.5   20.222   20.222   20.222   20.222       0
 pw_copy                           1084 10.6   15.657   15.657   15.657   15.657       0
 cp_ddapc_apply_CD                   68  9.0    0.005    0.005   11.661   11.661       0
 pw_poisson_set                      69  9.0    0.001    0.001   10.946   10.946       0
 pw_copy_from_array                 608 12.8    9.682    9.682    9.682    9.682       0
 xc_functional_eval                  67 11.0    0.002    0.002    9.583    9.583       0
 pbe_lda_eval                        67 12.0    9.581    9.581    9.581    9.581       0
 pw_copy_to_array                   542 11.9    9.491    9.491    9.491    9.491       0
 pw_axpy                            685  9.2    8.750    8.750    8.750    8.750       0
 qs_init_subsys                       1  2.0    0.013    0.013    6.494    6.494       0
 fft_wrap_pw1pw2_100                136 10.5    0.638    0.638    6.483    6.483       0
 qs_env_setup                         1  3.0    0.000    0.000    6.473    6.473       0
 qs_env_rebuild_pw_env                2  3.5    0.000    0.000    6.472    6.472       0
 pw_env_rebuild                       1  5.0    0.004    0.004    6.472    6.472       0
 pw_grid_setup                        5  5.2    0.001    0.001    6.465    6.465       0
 pw_grid_setup_internal               5  6.2    0.082    0.082    6.464    6.464       0
 qs_energies_properties               1  3.0    0.002    0.002    6.284    6.284       0
 post_scf_bandstructure               1  4.0    0.002    0.002    6.282    6.282       0
 gw                                   1  5.0    0.001    0.001    6.189    6.189       0
 pw_grid_sort                         5  7.2    4.706    4.706    6.084    6.084       0
 init_scf_loop                        1  4.0    0.003    0.003    4.418    4.418       0
 create_and_init_bs_env_for_gw        1  6.0    0.043    0.043    4.230    4.230       0
 pw_zero                            355 10.0    3.739    3.739    3.739    3.739       0
 generate_auto_ri_basis               1  7.0    0.006    0.006    2.454    2.454       0
 pw_scale                           269  9.8    2.448    2.448    2.448    2.448       0
 gw_calc_non_periodic_ri_rs           1  6.0    0.007    0.007    1.958    1.958       0
 qs_scf_new_mos                      67  5.0    0.001    0.001    1.556    1.556       0
 qs_scf_loop_do_ot                   67  6.0    0.002    0.002    1.555    1.555       0
 init_scf_run                         1  3.0    0.000    0.000    1.527    1.527       0
 scf_env_initial_rho_setup            1  4.0    0.001    0.001    1.527    1.527       0
 ot_scf_mini                         67  7.0    0.043    0.043    1.494    1.494       0
 pw_multiply_with                    68  9.0    1.453    1.453    1.453    1.453       0
 sort_shells                          5  8.2    1.378    1.378    1.378    1.378       0
 transfer_rs2pw                     273  8.0    0.004    0.004    1.370    1.370       0
 compute_V_xc                         1  7.0    0.001    0.001    1.323    1.323       0
 get_ddapc                           68 10.0    0.002    0.002    1.313    1.313       0
 transfer_pw2rs                     272 11.0    0.002    0.002    1.299    1.299       0
 compute_M_pq_inv_and_V_pq            1  8.0    0.000    0.000    1.177    1.177       0
 xc_pw_smooth                        67 10.0    0.001    0.001    1.099    1.099       0
 transfer_rs2pw_300                  69  9.0    1.093    1.093    1.093    1.093       0
 compute_contracted_RI_matrix         2  9.0    0.009    0.009    1.079    1.079       0
 compute_optimized_RI_matrix_bl      42 10.0    0.089    0.089    1.069    1.069       0
 compute_M_PQ_AB                    754 11.0    0.001    0.001    1.058    1.058       0
 compute_M_PQ                       754 12.0    0.002    0.002    1.057    1.057       0
 transfer_pw2rs_300                  68 12.0    1.056    1.056    1.056    1.056       0
 int_operators_r12_ab_os            754 13.0    0.001    0.001    1.055    1.055       0
 int_operator_ab_os_low             754 14.0    0.435    0.435    1.054    1.054       0
 ot_mini                             67  8.0    0.003    0.003    0.981    0.981       0
 compute_AB_optimized_RI_basis        1  8.0    0.001    0.001    0.893    0.893       0
 compute_AB_optimized_RI_basis_       1  9.0    0.001    0.001    0.890    0.890       0
 qs_ot_get_derivative                67  9.0    0.172    0.172    0.781    0.781       0
 ri_rs_grid_assembler                 1  7.0    0.046    0.046    0.771    0.771       0
 compute_B_PQ_AB                     13 10.0    0.175    0.175    0.738    0.738       0
 optimize_ri_rs_grid                  1  8.0    0.000    0.000    0.700    0.700       0
 rirs_grid_LBFGS                      1  9.0    0.097    0.097    0.686    0.686       0
 qs_energies_init_hamiltonians        1  3.0    0.007    0.007    0.650    0.650       0
 fft_wrap_pw1pw2_40                 136 10.5    0.054    0.054    0.628    0.628       0
 qs_ot_get_derivative_diag           66 10.0    0.594    0.594    0.606    0.606       0
 qs_env_update_s_mstruct              1  4.0    0.001    0.001    0.597    0.597       0
 evaluate_rirs_grid_cluster        1806 10.0    0.186    0.186    0.589    0.589       0
 compute_Sigma_c_and_QP_energie       1  7.0    0.000    0.000    0.477    0.477       0
 calculate_rho_core                   1  5.0    0.107    0.107    0.472    0.472       0
 compute_Sigma_c                      1  8.0    0.006    0.006    0.454    0.454       0
 -------------------------------------------------------------------------------

 The number of warnings for this run is : 1
 
 -------------------------------------------------------------------------------
  **** **** ******  **  PROGRAM ENDED AT                 2026-09-18 01:39:30.292
 ***** ** ***  *** **   PROGRAM RAN ON                                  n2cn1025
 **    ****   ******    PROGRAM RAN BY                                  eprop2d1
 ***** **    ** ** **   PROGRAM PROCESS ID                                383047
  **** **  *******  **  PROGRAM STOPPED IN /scratch/hpc-prf-metdyn/eprop2d1_Jan/
                                           53_benchmark_RI_opt/122_GW100_GTH_Leb
                                           edev_RIAO2345_rc05_metdyn/calculation
                                           s/33_C2H3Br_riao5_r09
