 DBCSR| CPU Multiplication driver                                           XSMM (U)
 DBCSR| Multrec recursion limit                                              512 (U)
 DBCSR| Multiplication stack size                                           1000 (D)
 DBCSR| Maximum elements for images                                    UNLIMITED (U)
 DBCSR| Multiplicative factor virtual images                                   1 (U)
 DBCSR| Use multiplication densification                                       T (D)
 DBCSR| Multiplication size stacks                                             3 (U)
 DBCSR| Use memory pool for CPU allocation                                     F (U)
 DBCSR| Number of 3D layers                                               SINGLE (U)
 DBCSR| Use MPI memory allocation                                              F (U)
 DBCSR| Use RMA algorithm                                                      F (U)
 DBCSR| Use Communication thread                                               T (U)
 DBCSR| Communication thread load                                             30 (D)
 DBCSR| MPI: My process id                                                     3
 DBCSR| MPI: Number of processes                                               8
 DBCSR| OMP: Current number of threads                                        16
 DBCSR| OMP: Max number of threads                                            16
 DBCSR| Split modifier for TAS multiplication algorithm                  1.0E+00 (U)


  **** **** ******  **  PROGRAM STARTED AT               2026-09-18 20:07:12.525
 ***** ** ***  *** **   PROGRAM STARTED ON                              n2cn0602
 **    ****   ******    PROGRAM STARTED BY                              eprop2d1
 ***** **    ** ** **   PROGRAM PROCESS ID                                513162
  **** **  *******  **  PROGRAM STARTED IN /scratch/hpc-prf-metdyn/eprop2d1_Jan/
                                           53_benchmark_RI_opt/142_Figure123_com
                                           pletion_coopfst/figure3_retries/calcu
                                           lations/0033_38_CI4_riao5_r04

 CP2K| version string:                 CP2K version 2026.2 (Development Version)
 CP2K| source code revision number:                                      unknown
 CP2K| cp2kflags: omp libint fftw3 libxc parallel scalapack openblas            
 CP2K| is freely available from                            https://www.cp2k.org/
 CP2K| Program compiled at                                   2026-09-15 17:57:52
 CP2K| Program compiled on                                              n2login6
 CP2K| Program compiled for                                               x86_64
 CP2K| Data directory path    /scratch/hpc-prf-metdyn/eprop2d1_Jan/53_benchmark_
 CP2K| Input file name                                                 input.inp
 
 eprop2d1@n2cn0602 has created rank and process                      0    513162
 
 eprop2d1@n2cn0602 is running                                        1 processes

 GLOBAL| Force Environment number                                              1
 GLOBAL| Basis set file name            /scratch/hpc-prf-metdyn/eprop2d1_Jan/53_
 GLOBAL| Potential file name            /scratch/hpc-prf-metdyn/eprop2d1_Jan/53_
 GLOBAL| MM Potential file name                                     MM_POTENTIAL
 GLOBAL| Coordinate file name                                      __STD_INPUT__
 GLOBAL| Method name                                                        CP2K
 GLOBAL| Project name                                                142_f3_0033
 GLOBAL| Run type                                                         ENERGY
 GLOBAL| FFT library                                                       FFTW3
 GLOBAL| Diagonalization library                                       ScaLAPACK
 GLOBAL| Cholesky decomposition library                                ScaLAPACK
 GLOBAL| DGEMM library                                                      BLAS
 GLOBAL| Direct generalized diagonalization requested                          F
 GLOBAL| Orthonormality check for eigenvectors                          DISABLED
 GLOBAL| Matrix multiplication library                                 ScaLAPACK
 GLOBAL| All-to-all communication in single precision                          F
 GLOBAL| Grid backend                                                       AUTO
 GLOBAL| Global print level                                                  LOW
 GLOBAL| MPI I/O enabled                                                       T
 GLOBAL| Total number of message passing processes                             1
 GLOBAL| Number of distributed systems (nodes)                                 1
 GLOBAL| Number of threads for this process                                   16
 GLOBAL| This output is from process                                           0
 GLOBAL| OpenMP stack size per thread (OMP_STACKSIZE)                       128M
 GLOBAL| CPU model name                          AMD EPYC 7763 64-Core Processor

 MEMORY| system memory details [Kb]
 MEMORY|                        rank 0           min           max       average
 MEMORY| MemTotal            263897580     263897580     263897580     263897580
 MEMORY| MemFree             250963116     250963116     250963116     250963116
 MEMORY| Buffers                117364        117364        117364        117364
 MEMORY| Cached                7101708       7101708       7101708       7101708
 MEMORY| Slab                  1490868       1490868       1490868       1490868
 MEMORY| SReclaimable           268964        268964        268964        268964
 MEMORY| MemLikelyFree       258451152     258451152     258451152     258451152


 GENERATE|  Preliminary Number of Bonds generated:                             0
 GENERATE|  Achieved consistency in connectivity generation.

 *******************************************************************************
 *******************************************************************************
 **                                                                           **
 **     #####                         ##              ##                      **
 **    ##   ##            ##          ##              ##                      **
 **   ##     ##                       ##            ######                    **
 **   ##     ##  ##   ##  ##   #####  ##  ##   ####   ##    #####    #####    **
 **   ##     ##  ##   ##  ##  ##      ## ##   ##      ##   ##   ##  ##   ##   **
 **   ##  ## ##  ##   ##  ##  ##      ####     ###    ##   ######   ######    **
 **    ##  ###   ##   ##  ##  ##      ## ##      ##   ##   ##       ##        **
 **     #######   #####   ##   #####  ##  ##  ####    ##    #####   ##        **
 **           ##                                                    ##        **
 **                                                                           **
 **                                                ... make the atoms dance   **
 **                                                                           **
 **            Copyright (C) by CP2K developers group (2000-2026)             **
 **                      J. Chem. Phys. 152, 194103 (2020)                    **
 **                                                                           **
 *******************************************************************************


 TOTAL NUMBERS AND MAXIMUM NUMBERS

  Total number of            - Atomic kinds:                                   2
                             - Atoms:                                          5
                             - Shell sets:                                     5
                             - Shells:                                        25
                             - Primitive Cartesian functions:                 30
                             - Cartesian basis functions:                     70
                             - Spherical basis functions:                     65

  Maximum angular momentum of- Orbital basis functions:                        2
                             - Local part of the GTH pseudopotential:          2
                             - Non-local part of the GTH pseudopotential:      4


 SCF PARAMETERS         Density guess:                                   RESTART
                        --------------------------------------------------------
                        max_scf:                                             500
                        max_scf_history:                                       0
                        max_diis:                                              4
                        --------------------------------------------------------
                        eps_scf:                                        1.00E-08
                        eps_scf_history:                                0.00E+00
                        eps_diis:                                       0.00E+00
                        eps_eigval:                                     1.00E-05
                        --------------------------------------------------------
                        level_shift [a.u.]:                             0.000000
                        --------------------------------------------------------
                        Outer loop SCF in use 
                        No variables optimised in outer loop
                        eps_scf                                         1.00E-08
                        max_scf                                               20
                        No outer loop optimization
                        step_size                                       5.00E-01

 Extrapolation method: initial_guess

 Number of electrons:                                                         32
 Number of occupied orbitals:                                                 16
 Number of molecular orbitals:                                                16

 Number of orbital functions:                                                 65
 Number of independent orbital functions:                                     65


 SCF WAVEFUNCTION OPTIMIZATION

  ----------------------------------- OT ---------------------------------------
  Minimizer      : DIIS                : direct inversion
                                         in the iterative subspace
                                         using   7 DIIS vectors
                                         safer DIIS on
  Preconditioner : FULL_KINETIC        : inversion of T + eS
  Lattice FFT   : OFF
  Precond_solver : DEFAULT
  stepsize       :    0.15000000                  energy_gap     :    0.20000000
  eps_taylor     :   0.10000E-15                  max_taylor     :             4
  ----------------------------------- OT ---------------------------------------

  Step     Update method      Time    Convergence         Total energy    Change
  ------------------------------------------------------------------------------
  Decoupling Energy:                                               0.0000000516
     1 OT DIIS     0.15E+00    5.6     0.00000002       -51.4201126993 -5.14E+01
  Decoupling Energy:                                               0.0000000516
     2 OT DIIS     0.15E+00    6.9     0.00000001       -51.4201126993 -1.49E-13
  Decoupling Energy:                                               0.0000000516
     3 OT DIIS     0.15E+00    7.0     0.00000001       -51.4201126993  2.84E-14
  Decoupling Energy:                                               0.0000000516
     4 OT DIIS     0.15E+00    6.9     7.3698E-09       -51.4201126993 -7.11E-15

  *** SCF run converged in     4 steps ***


  Electronic density on regular grids:        -32.0000000000        0.0000000000
  Core density on regular grids:               31.9999999999       -0.0000000001
  Total charge density on r-space grids:       -0.0000000001
  Total charge density g-space grids:          -0.0000000001

  Overlap energy of the core charge distribution:               0.00000001478185
  Self energy of the core charge distribution:               -112.06818504762256
  Core Hamiltonian energy:                                     23.78640715649787
  Hartree energy:                                              47.51580532737447
  Exchange-correlation energy:                                -10.65414015028373

  Total energy:                                               -51.42011269925212

  outer SCF iter =    1 RMS gradient =   0.74E-08 energy =        -51.4201126993
  outer SCF loop converged in   1 iterations or    4 steps

  
 -------------------------------------------------------------------------------
 -                                                                             -
 -                          BANDSTRUCTURE CALCULATION                          -
 -                                                                             -
 -------------------------------------------------------------------------------
  
 Number of occupied molecular orbitals (MOs) = Number of occupied bands       16
 Number of unoccupied (= virtual) MOs = Number of unoccupied bands            49
 Number of Gaussian basis functions for MOs                                   65
  
 -------------------------------------------------------------------------------
 -                                                                             -
 -                                GW CALCULATION                               -
 -                                                                             -
 -------------------------------------------------------------------------------
  
 Input: Number of time/freq. points                                           30
 Input: ω_max for fitting Σ(iω) (eV)                                        10.0
 Input: Filter threshold for sparse tensor operations                    1.0E-07
 Input: Apply Hedin shift                                                      F
 Input: Available memory per MPI process                                  2.0 GB
 
 Input: RI-RS Tikhonov regularization                                   1.00E-04
 Input: AO grid hard cutoff radius                                        8.00 Å
 Input: MPI ranks per atom in Z_lP solve                                      -1
 Input: Keep sparsity in χ/G/W panels                                          T
 Input: GW flavour                                                          G0W0
 
 Input: RI-RS grid optimization activated                                      T
 Input: Initial RI-RS grid                                              CHOLESKY
 Input: RS points per AO function                                         4.0000
 Input: Initial RS candidates per AO function                            30.0000
 Input: Additional Lebedev degree                                              2
 Input: Cholesky selection matrix                                        D_PRIME
 Input: Cholesky candidate domain                                      FULL_ATOM
 Input: Initial radial quadrature                                       GAPW_LOG
 Input: Cutoff radius for atomic clusters                                  0.5 Å
 Input: Maximum grid optimization iterations                                 300
 Input: L-BFGS history size                                                    7
 Input: L-BFGS relative-function factor                              0.00000E+00
 Input: L-BFGS projected-gradient tolerance                          1.00000E-09
 
 Input: AUTO_RI basis optimization activated:                                  T
 Input: AUTO_RI requested RI/AO ratio:                                       5.0
 Input: AUTO_RI frontier orbital window:                                  5.0 eV
 Input: AUTO_RI neighbor radius:                                           3.0 Å
 
 Cutoff radius for the truncated Coulomb operator in RI metric:            7.0 Å
 Regularization parameter of RI                                          0.0E+00
 Regularization parameter of minimax grids                               1.0E-06
 
 AUTO_RI| Number of automatic RI functions for χ, ε, W:                      325
 AUTO_RI| Total RI basis optimization time:                                1.2 s
  Decoupling Energy:                                               0.0000000516
 
 SCF direct band gap (eV)                                                   3.18
 Max. SCF eigval diff. (eV)                                                63.59
 E-Range for minimax grid                                                  19.98
 Number of Padé parameters for analytic continuation:                         16
 
 RI-RS basis radii (Å):
     Kind  Elem     r_AO (Å)     r_RI (Å)
        1    C         8.0299        5.0785
        2    I         9.5011        6.0090
 
 RI-RS initialization: atomic kind                                             1
 RI-RS initialization: Lebedev degree                                         11
 RI-RS initialization: radial shells                                           8
 RI-RS initialization: candidates per atom                                   400
 RI-RS initialization: retained points per atom                               52
 RI-RS initialization: atomic kind                                             2
 RI-RS initialization: Lebedev degree                                         11
 RI-RS initialization: radial shells                                           8
 RI-RS initialization: candidates per atom                                   400
 RI-RS initialization: retained points per atom                               52
 RI-RS initialization: largest cluster candidate count                       400
 RI-RS initialization: most pivots in one cluster                            102
 RI-RS initialization: most stored AO values in one cluster                 5200
 RI-RS initialization: wall time [s]                                       0.003
 Started RI-RS grid optimization
 RI-RS grid initial normalized error                          1.389215872260E-02
 RI-RS grid optimization completed, execution time:                        0.5 s
 Normalized 3C error:                                                    2.1E-05
 Maximum absolute 3C error:                                              1.9E-02
 Optimized points outside molecular Voronoi cells:                            34 / 260
 Total grid points used for RI-RS:                                           260
 
 RI-RS grid row-blocks of Φ_μ(r_l)                                            10
 RI-RS grid points per block (max)                                            32
 
 Percentage of non-zero matrix elements in Φ_μ(r_l)                     100.00 %
 
 RI-RS memory estimate per MPI process:
   Available memory per process (system)                               261.43 GB
   Required for Z_lP (dense upper bound; actual is sparser)              0.00 GB
   Required for χ, W, Σ panels (peak per panel step)                     0.00 GB
   Required for Z_lP solve peak (D_local+φ, worst-case atom)             0.00 GB
   Worst-case local-grid number of grid points:                              260
   Worst-case memory D_local:                                            0.00 GB
 
 Started computing Z_lP
 Computed Z_lP (MPI rank 0) for atom          1 /  5,    Execution time    0.0 s
 Computed Z_lP (MPI rank 0) for atom          2 /  5,    Execution time    0.0 s
 Computed Z_lP (MPI rank 0) for atom          3 /  5,    Execution time    0.0 s
 Computed Z_lP (MPI rank 0) for atom          4 /  5,    Execution time    0.0 s
 Computed Z_lP (MPI rank 0) for atom          5 /  5,    Execution time    0.0 s
 Computed Z_lP (all MPI ranks) for all atoms,            Execution time    0.1 s

 Number of batches for χ, Σ matrices                                           1
 
 Percentage of non-zero matrix elements in Z_lP                         100.00 %
 Percentage of non-zero matrix elements in G_ll', χ_ll', W_ll'          100.00 %
 Percentage of non-zero matrix elements in χ_PQ for time point 1        100.00 %
 
 Computed χ(iτ,k=0) for time point            1 / 30,    Execution time    0.0 s
 Computed χ(iτ,k=0) for time point            2 / 30,    Execution time    0.0 s
 Computed χ(iτ,k=0) for time point            3 / 30,    Execution time    0.0 s
 Computed χ(iτ,k=0) for time point            4 / 30,    Execution time    0.0 s
 Computed χ(iτ,k=0) for time point            5 / 30,    Execution time    0.0 s
 Computed χ(iτ,k=0) for time point            6 / 30,    Execution time    0.0 s
 Computed χ(iτ,k=0) for time point            7 / 30,    Execution time    0.0 s
 Computed χ(iτ,k=0) for time point            8 / 30,    Execution time    0.0 s
 Computed χ(iτ,k=0) for time point            9 / 30,    Execution time    0.0 s
 Computed χ(iτ,k=0) for time point           10 / 30,    Execution time    0.0 s
 Computed χ(iτ,k=0) for time point           11 / 30,    Execution time    0.0 s
 Computed χ(iτ,k=0) for time point           12 / 30,    Execution time    0.0 s
 Computed χ(iτ,k=0) for time point           13 / 30,    Execution time    0.0 s
 Computed χ(iτ,k=0) for time point           14 / 30,    Execution time    0.0 s
 Computed χ(iτ,k=0) for time point           15 / 30,    Execution time    0.0 s
 Computed χ(iτ,k=0) for time point           16 / 30,    Execution time    0.0 s
 Computed χ(iτ,k=0) for time point           17 / 30,    Execution time    0.0 s
 Computed χ(iτ,k=0) for time point           18 / 30,    Execution time    0.0 s
 Computed χ(iτ,k=0) for time point           19 / 30,    Execution time    0.0 s
 Computed χ(iτ,k=0) for time point           20 / 30,    Execution time    0.0 s
 Computed χ(iτ,k=0) for time point           21 / 30,    Execution time    0.0 s
 Computed χ(iτ,k=0) for time point           22 / 30,    Execution time    0.0 s
 Computed χ(iτ,k=0) for time point           23 / 30,    Execution time    0.0 s
 Computed χ(iτ,k=0) for time point           24 / 30,    Execution time    0.0 s
 Computed χ(iτ,k=0) for time point           25 / 30,    Execution time    0.0 s
 Computed χ(iτ,k=0) for time point           26 / 30,    Execution time    0.0 s
 Computed χ(iτ,k=0) for time point           27 / 30,    Execution time    0.0 s
 Computed χ(iτ,k=0) for time point           28 / 30,    Execution time    0.0 s
 Computed χ(iτ,k=0) for time point           29 / 30,    Execution time    0.0 s
 Computed χ(iτ,k=0) for time point           30 / 30,    Execution time    0.0 s
 
 Computed W(iτ),                                         Execution time    0.2 s
 
 Computed Σ^x(k=0),                                      Execution time    0.0 s
 
 Computed Σ^c(iτ) for time point              1 / 30,    Execution time    0.0 s
 Computed Σ^c(iτ) for time point              2 / 30,    Execution time    0.0 s
 Computed Σ^c(iτ) for time point              3 / 30,    Execution time    0.0 s
 Computed Σ^c(iτ) for time point              4 / 30,    Execution time    0.0 s
 Computed Σ^c(iτ) for time point              5 / 30,    Execution time    0.0 s
 Computed Σ^c(iτ) for time point              6 / 30,    Execution time    0.0 s
 Computed Σ^c(iτ) for time point              7 / 30,    Execution time    0.0 s
 Computed Σ^c(iτ) for time point              8 / 30,    Execution time    0.0 s
 Computed Σ^c(iτ) for time point              9 / 30,    Execution time    0.0 s
 Computed Σ^c(iτ) for time point             10 / 30,    Execution time    0.0 s
 Computed Σ^c(iτ) for time point             11 / 30,    Execution time    0.0 s
 Computed Σ^c(iτ) for time point             12 / 30,    Execution time    0.0 s
 Computed Σ^c(iτ) for time point             13 / 30,    Execution time    0.0 s
 Computed Σ^c(iτ) for time point             14 / 30,    Execution time    0.0 s
 Computed Σ^c(iτ) for time point             15 / 30,    Execution time    0.0 s
 Computed Σ^c(iτ) for time point             16 / 30,    Execution time    0.0 s
 Computed Σ^c(iτ) for time point             17 / 30,    Execution time    0.0 s
 Computed Σ^c(iτ) for time point             18 / 30,    Execution time    0.0 s
 Computed Σ^c(iτ) for time point             19 / 30,    Execution time    0.0 s
 Computed Σ^c(iτ) for time point             20 / 30,    Execution time    0.0 s
 Computed Σ^c(iτ) for time point             21 / 30,    Execution time    0.0 s
 Computed Σ^c(iτ) for time point             22 / 30,    Execution time    0.0 s
 Computed Σ^c(iτ) for time point             23 / 30,    Execution time    0.0 s
 Computed Σ^c(iτ) for time point             24 / 30,    Execution time    0.0 s
 Computed Σ^c(iτ) for time point             25 / 30,    Execution time    0.0 s
 Computed Σ^c(iτ) for time point             26 / 30,    Execution time    0.0 s
 Computed Σ^c(iτ) for time point             27 / 30,    Execution time    0.0 s
 Computed Σ^c(iτ) for time point             28 / 30,    Execution time    0.0 s
 Computed Σ^c(iτ) for time point             29 / 30,    Execution time    0.0 s
 Computed Σ^c(iτ) for time point             30 / 30,    Execution time    0.0 s
 
 SCF valence band maximum (eV):                                           -6.159
 SCF conduction band minimum (eV):                                        -2.976
 SCF indirect band gap (eV):                                               3.183
 SCF direct band gap (eV):                                                 3.183
 
 G0W0 valence band maximum (eV):                                          -7.755
 G0W0 conduction band minimum (eV):                                       -0.297
 G0W0 indirect band gap (eV):                                              7.458
 G0W0 direct band gap (eV):                                                7.458
 
 Hartree-Fock with SCF orbitals valence band maximum (eV):                -9.177
 Hartree-Fock with SCF orbitals conduction band minimum (eV)               1.531
 Hartree-Fock with SCF orbitals indirect band gap (eV):                   10.708
 Hartree-Fock with SCF orbitals direct band gap (eV):                     10.708

 ENERGY| Total FORCE_EVAL ( QS ) energy [hartree]            -51.420112699252115

 -------------------------------------------------------------------------------
 -                                                                             -
 -                                DBCSR STATISTICS                             -
 -                                                                             -
 -------------------------------------------------------------------------------
 COUNTER                                    TOTAL       BLAS       SMM       ACC
 flops    16 x    16 x    16                32768     100.0%      0.0%      0.0%     
 flops    13 x    13 x    16               405600     100.0%      0.0%      0.0%     
 flops    16 x    16 x    65               499200     100.0%      0.0%      0.0%     
 flops    13 x    16 x    16               632320     100.0%      0.0%      0.0%     
 flops    13 x    16 x    65               676000     100.0%      0.0%      0.0%     
 flops    13 x    16 x    13              1622400     100.0%      0.0%      0.0%     
 flops    56 x    56 x    20              9408000     100.0%      0.0%      0.0%     
 flops    63 x    56 x    20             10584000     100.0%      0.0%      0.0%     
 flops    56 x    63 x    20             10584000     100.0%      0.0%      0.0%     
 flops    20 x    56 x    56             10662400     100.0%      0.0%      0.0%     
 flops    67 x    56 x    20             11256000     100.0%      0.0%      0.0%     
 flops    56 x    67 x    20             11256000     100.0%      0.0%      0.0%     
 flops    63 x    63 x    20             11907000     100.0%      0.0%      0.0%     
 flops    20 x    56 x    63             11995200     100.0%      0.0%      0.0%     
 flops    20 x    63 x    56             11995200     100.0%      0.0%      0.0%     
 flops    67 x    63 x    20             12663000     100.0%      0.0%      0.0%     
 flops    63 x    67 x    20             12663000     100.0%      0.0%      0.0%     
 flops    20 x    56 x    67             12756800     100.0%      0.0%      0.0%     
 flops    20 x    67 x    56             12756800     100.0%      0.0%      0.0%     
 flops    67 x    67 x    20             13467000     100.0%      0.0%      0.0%     
 flops    20 x    63 x    63             13494600     100.0%      0.0%      0.0%     
 flops    20 x    63 x    67             14351400     100.0%      0.0%      0.0%     
 flops    20 x    67 x    63             14351400     100.0%      0.0%      0.0%     
 flops    56 x    56 x    32             15052800     100.0%      0.0%      0.0%     
 flops    20 x    67 x    67             15262600     100.0%      0.0%      0.0%     
 flops    63 x    56 x    32             16934400     100.0%      0.0%      0.0%     
 flops    56 x    63 x    32             16934400     100.0%      0.0%      0.0%     
 flops    32 x    56 x    56             17059840     100.0%      0.0%      0.0%     
 flops    67 x    56 x    32             18009600     100.0%      0.0%      0.0%     
 flops    56 x    67 x    32             18009600     100.0%      0.0%      0.0%     
 flops    20 x    56 x    20             18816000     100.0%      0.0%      0.0%     
 flops    63 x    63 x    32             19051200     100.0%      0.0%      0.0%     
 flops    32 x    56 x    63             19192320     100.0%      0.0%      0.0%     
 flops    32 x    63 x    56             19192320     100.0%      0.0%      0.0%     
 flops    67 x    63 x    32             20260800     100.0%      0.0%      0.0%     
 flops    63 x    67 x    32             20260800     100.0%      0.0%      0.0%     
 flops    32 x    56 x    67             20410880     100.0%      0.0%      0.0%     
 flops    32 x    67 x    56             20410880     100.0%      0.0%      0.0%     
 flops    20 x    63 x    20             21168000     100.0%      0.0%      0.0%     
 flops    67 x    67 x    32             21547200     100.0%      0.0%      0.0%     
 flops    32 x    63 x    63             21591360     100.0%      0.0%      0.0%     
 flops    13 x    13 x    20             21970000     100.0%      0.0%      0.0%     
 flops    20 x    67 x    20             22512000     100.0%      0.0%      0.0%     
 flops    32 x    63 x    67             22962240     100.0%      0.0%      0.0%     
 flops    32 x    67 x    63             22962240     100.0%      0.0%      0.0%     
 flops    20 x    20 x    65             23400000     100.0%      0.0%      0.0%     
 flops    32 x    67 x    67             24420160     100.0%      0.0%      0.0%     
 flops    32 x    56 x    20             30105600     100.0%      0.0%      0.0%     
 flops    20 x    56 x    32             30105600     100.0%      0.0%      0.0%     
 flops    32 x    63 x    20             33868800     100.0%      0.0%      0.0%     
 flops    20 x    63 x    32             33868800     100.0%      0.0%      0.0%     
 flops    20 x    13 x    20             35484800     100.0%      0.0%      0.0%     
 flops    13 x    13 x    32             35638720     100.0%      0.0%      0.0%     
 flops    32 x    67 x    20             36019200     100.0%      0.0%      0.0%     
 flops    20 x    67 x    32             36019200     100.0%      0.0%      0.0%     
 flops    32 x    20 x    65             37440000     100.0%      0.0%      0.0%     
 flops    20 x    32 x    65             37440000     100.0%      0.0%      0.0%     
 flops    32 x    56 x    32             48168960     100.0%      0.0%      0.0%     
 flops    32 x    63 x    32             54190080     100.0%      0.0%      0.0%     
 flops    32 x    13 x    20             57175040     100.0%      0.0%      0.0%     
 flops    20 x    13 x    32             57341440     100.0%      0.0%      0.0%     
 flops    32 x    67 x    32             57630720     100.0%      0.0%      0.0%     
 flops    32 x    32 x    65             59904000     100.0%      0.0%      0.0%     
 flops    20 x    13 x    13             63848200     100.0%      0.0%      0.0%     
 flops    20 x    20 x    13             72571200     100.0%      0.0%      0.0%     
 flops    32 x    13 x    32             93237248     100.0%      0.0%      0.0%     
 flops    32 x    13 x    13            102157120     100.0%      0.0%      0.0%     
 flops    20 x    20 x   325            110500000     100.0%      0.0%      0.0%     
 flops    20 x    32 x    13            116380160     100.0%      0.0%      0.0%     
 flops    32 x    20 x    13            116679680     100.0%      0.0%      0.0%     
 flops    32 x    20 x   325            176800000     100.0%      0.0%      0.0%     
 flops    20 x    32 x   325            176800000     100.0%      0.0%      0.0%     
 flops    32 x    32 x    13            186687488     100.0%      0.0%      0.0%     
 flops    32 x    32 x   325            282880000     100.0%      0.0%      0.0%     
 flops inhomo. stacks                  2087321600     100.0%      0.0%      0.0%
 flops total                         4.953675E+09     100.0%      0.0%      0.0%
 flops max/rank                      4.953675E+09     100.0%      0.0%      0.0%
 matmuls inhomo. stacks                      8480     100.0%      0.0%      0.0%
 matmuls total                              87641     100.0%      0.0%      0.0%
 number of processed stacks                  6929     100.0%      0.0%      0.0%
 average stack size                                    12.6       0.0       0.0
 marketing flops                     8.034193E+09
 -------------------------------------------------------------------------------
 # multiplications                            547
 max memory usage/rank              21.410796E+09
 # max total images/rank                        1
 # max 3D layers                                1
 # MPI messages exchanged                       0
 -------------------------------------------------------------------------------
 -                                                                             -
 -                      DBCSR MESSAGE PASSING PERFORMANCE                      -
 -                                                                             -
 -------------------------------------------------------------------------------
 ROUTINE             CALLS      AVE VOLUME [Bytes]
 MP_Bcast               75                     12.
 MP_Allreduce         2459                     14.
 MP_Alltoall          3511                  99001.
 MP_ISend             1784                    888.
 MP_IRecv             1784                    888.
 -------------------------------------------------------------------------------

 -------------------------------------------------------------------------------
 -                                                                             -
 -                                GRID STATISTICS                              -
 -                                                                             -
 -------------------------------------------------------------------------------
 LP    KERNEL             BACKEND                              COUNT     PERCENT
 4     collocate ortho    CPU                                   2700      49.95%
 4     integrate ortho    CPU                                   2700      49.95%
 0     collocate general  CPU                                      5       0.09%
 -------------------------------------------------------------------------------

 -------------------------------------------------------------------------------
 -                                                                             -
 -                          OFFLOAD MEMPOOL STATISTICS                         -
 -                                                                             -
 -------------------------------------------------------------------------------
 Memory consumption                Number of allocations  Used [MiB]  Size [MiB]
 Host                                                  6         260    22180215
 -------------------------------------------------------------------------------

 MEMORY| Estimated peak process memory [MiB]                               11919

 -------------------------------------------------------------------------------
 -                                                                             -
 -                         MESSAGE PASSING PERFORMANCE                         -
 -                                                                             -
 -------------------------------------------------------------------------------

 ROUTINE             CALLS      AVE VOLUME [Bytes]
 MP_Group                5
 MP_Bcast               61                  34248.
 MP_Allreduce         1847                   1826.
 MP_Sync                10
 MP_comm_split           7
 -------------------------------------------------------------------------------


 -------------------------------------------------------------------------------
 -                                                                             -
 -                           R E F E R E N C E S                               -
 -                                                                             -
 -------------------------------------------------------------------------------
 
 CP2K version 2026.2 (Development Version), the CP2K developers group (2026).
 CP2K is freely available from https://www.cp2k.org/ .
 
 M. Iannuzzi, J. Wilhelm, F. Stein, A. Bussy, H. Elgabarty, D. Golze, A. Hehn, 
 M. Graml, S. Marek, B. Sertcan Gökmen, C. Schran, H. Forbert, R. Z. 
 Khaliullin, A. Kozhevnikov, M. Taillefumier, R. Meli, V. V. Rybkin, M. Brehm, 
 R. Schade, O. Schütt, J. V. Pototschnig, H. Mirhosseini, A. Knüpfer, D. Marx, 
 M. Krack, J. Hutter, T. D. Kühne.
 J. Phys. Chem. B 130, 1237-1310 (2026).
 The CP2K Program Package Made Simple.
 https://doi.org/10.1021/acs.jpcb.5c05851

 M. Graml, K. Zollner, D. Hernangómez-Pérez, P. E. Faria Junior, J. Wilhelm.
 J. Chem. Theory Comput. 20, 2202-2208 (2024).
 Low-scaling GW algorithm applied to twisted transition-metal dichalcogenide 
 heterobilayers.
 https://doi.org/10.1021/acs.jctc.3c01230

 T. D. Kühne, M. Iannuzzi, M. Del Ben, V. V. Rybkin, P. Seewald, F. Stein, T. 
 Laino, R. Z. Khaliullin, O. Schütt, F. Schiffmann, D. Golze, J. Wilhelm, S. 
 Chulkov, M. H. Bani-Hashemian, V. Weber, U. Borstnik, M. Taillefumier, A. S. 
 Jakobovits, A. Lazzaro, H. Pabst, T. Müller, R. Schade, M. Guidon, S. 
 Andermatt, N. Holmberg, G. K. Schenter, A. Hehn, A. Bussy, F. Belleflamme, G. 
 Tabacchi, A. Glöß, M. Lass, I. Bethune, C. J. Mundy, C. Plessl, M. Watkins, 
 J. VandeVondele, M. Krack, J. Hutter.
 J. Chem. Phys. 152, 194103 (2020).
 CP2K: An electronic structure and molecular dynamics software package - 
 Quickstep: Efficient and accurate electronic structure calculations.
 https://doi.org/10.1063/5.0007045

 O. Schuett, P. Messmer, J. Hutter, J. VandeVondele.
 Electronic Structure Calculations on Graphics Processing Units, 173-190 (2016).
 GPU-Accelerated Sparse Matrix-Matrix Multiplication for Linear Scaling Density 
 Functional Theory.
 https://doi.org/10.1002/9781118670712.ch8

 U. Borstnik, J. VandeVondele, V. Weber, J. Hutter.
 Parallel Comput. 40, 47-58 (2014).
 Sparse matrix multiplication: The distributed block-compressed sparse row 
 library.
 https://doi.org/10.1016/j.parco.2014.03.012

 J. VandeVondele, J. Hutter.
 J. Chem. Phys. 127, 114105 (2007).
 Gaussian basis sets for accurate calculations on molecular systems in gas and 
 condensed phases.
 https://doi.org/10.1063/1.2770708

 J. VandeVondele, M. Krack, F. Mohamed, M. Parrinello, T. Chassaing, J. Hutter.
 Comput. Phys. Commun. 167, 103-128 (2005).
 QUICKSTEP: Fast and accurate density functional calculations using a mixed 
 Gaussian and plane waves approach.
 https://doi.org/10.1016/j.cpc.2004.12.014

 M. Krack.
 Theor. Chem. Acc. 114, 145-152 (2005).
 Pseudopotentials for H to Kr optimized for gradient-corrected 
 exchange-correlation functionals.
 https://doi.org/10.1007/s00214-005-0655-y

 M. Frigo, S. G. Johnson.
 Proc. IEEE 93, 216-231 (2005).
 The design and implementation of FFTW3.
 https://doi.org/10.1109/JPROC.2004.840301

 J. VandeVondele, J. Hutter.
 J. Chem. Phys. 118, 4365-4369 (2003).
 An efficient orbital transformation method for electronic structure 
 calculations.
 https://doi.org/10.1063/1.1543154

 C. Hartwigsen, S. Goedecker, J. Hutter.
 Phys. Rev. B 58, 3641-3662 (1998).
 Relativistic separable dual-space Gaussian pseudopotentials from H to Rn.
 https://doi.org/10.1103/PhysRevB.58.3641

 G. Lippert, J. Hutter, M. Parrinello.
 Mol. Phys. 92, 477-487 (1997).
 A hybrid Gaussian and plane wave density functional scheme.
 https://doi.org/10.1080/002689797170220

 S. Goedecker, M. Teter, J. Hutter.
 Phys. Rev. B 54, 1703-1710 (1996).
 Separable dual-space Gaussian pseudopotentials.
 https://doi.org/10.1103/PhysRevB.54.1703

 J. P. Perdew, K. Burke, M. Ernzerhof.
 Phys. Rev. Lett. 77, 3865-3868 (1996).
 Generalized gradient approximation made simple.
 https://doi.org/10.1103/PhysRevLett.77.3865

 P. E. Blöchl.
 J. Chem. Phys. 103, 7422-7428 (1995).
 Electrostatic decoupling of periodic images of plane‐wave‐expanded 
 densities and derived atomic point charges.
 https://doi.org/10.1063/1.470314

 R. H. Byrd, P. H. Lu, J. Nocedal, C. Y. Zhu.
 SIAM J. Sci. Comput. 16, 1190-1208 (1995).
 A Limited Memory Algorithm for Bound Constrained Optimization.
 https://doi.org/10.1137/0916069


 -------------------------------------------------------------------------------
 -                                                                             -
 -                                T I M I N G                                  -
 -                                                                             -
 -------------------------------------------------------------------------------
 SUBROUTINE                       CALLS  ASD         SELF TIME        TOTAL TIME MAXRANK
                                MAXIMUM       AVERAGE  MAXIMUM  AVERAGE  MAXIMUM
 CP2K                                 1  1.0    0.022    0.022   41.739   41.739       0
 qs_energies                          1  2.0    0.000    0.000   34.769   34.769       0
 scf_env_do_scf                       1  3.0    0.000    0.000   27.959   27.959       0
 qs_ks_build_kohn_sham_matrix         5  7.2    0.018    0.018   23.694   23.694       0
 scf_env_do_scf_inner_loop            4  4.0    0.002    0.002   22.321   22.321       0
 qs_ks_update_qs_env                  5  5.0    0.000    0.000   22.043   22.043       0
 rebuild_ks_matrix                    4  6.0    0.000    0.000   22.043   22.043       0
 fft_wrap_pw1pw2                     79 10.2    0.002    0.002   18.771   18.771       0
 fft_wrap_pw1pw2_300                 49 11.6    0.921    0.921   18.039   18.039       0
 qs_vxc_create                        5  8.2    0.002    0.002   15.229   15.229       0
 xc_vxc_pw_create                     4  9.0    0.600    0.600   15.227   15.227       0
 fft3d_s                             80 12.1   11.103   11.103   11.108   11.108       0
 xc_pw_derive                        24 11.0    0.000    0.000   10.666   10.666       0
 qs_rho_update_rho_low                5  5.0    0.000    0.000    7.503    7.503       0
 calculate_rho_elec                   5  6.0    0.502    0.502    7.503    7.503       0
 xc_pw_divergence                     4 10.0    0.000    0.000    7.230    7.230       0
 xc_rho_set_and_dset_create           4 10.0    0.336    0.336    7.202    7.202       0
 qs_init_subsys                       1  2.0    0.001    0.001    6.564    6.564       0
 qs_env_setup                         1  3.0    0.000    0.000    6.562    6.562       0
 qs_env_rebuild_pw_env                2  3.5    0.000    0.000    6.562    6.562       0
 pw_env_rebuild                       1  5.0    0.000    0.000    6.561    6.561       0
 pw_grid_setup                        5  5.2    0.000    0.000    6.558    6.558       0
 pw_grid_setup_internal               5  6.2    0.082    0.082    6.558    6.558       0
 pw_grid_sort                         5  7.2    4.731    4.731    6.181    6.181       0
 init_scf_loop                        1  4.0    0.000    0.000    5.638    5.638       0
 density_rs2pw                        5  7.0    0.000    0.000    4.530    4.530       0
 qs_energies_properties               1  3.0    0.000    0.000    4.518    4.518       0
 post_scf_bandstructure               1  4.0    0.000    0.000    4.518    4.518       0
 gw                                   1  5.0    0.000    0.000    4.496    4.496       0
 pw_scatter_s                        41 12.8    3.447    3.447    3.447    3.447       0
 create_and_init_bs_env_for_gw        1  6.0    0.012    0.012    3.178    3.178       0
 qs_ks_ddapc                          5  8.2    0.002    0.002    2.786    2.786       0
 pw_poisson_solve                     5  8.2    0.006    0.006    2.707    2.707       0
 sum_up_and_integrate                 5  8.2    0.000    0.000    2.618    2.618       0
 integrate_v_rspace                   5  9.2    0.000    0.000    2.513    2.513       0
 potential_pw2rs                      5 10.2    0.018    0.018    2.487    2.487       0
 grid_collocate_task_list             5  7.0    2.472    2.472    2.472    2.472       0
 pw_derive                           39 11.3    2.314    2.314    2.314    2.314       0
 pw_gather_s                         38 11.6    1.949    1.949    1.949    1.949       0
 pw_copy                             76 10.5    1.869    1.869    1.869    1.869       0
 init_scf_run                         1  3.0    0.000    0.000    1.654    1.654       0
 scf_env_initial_rho_setup            1  4.0    0.000    0.000    1.654    1.654       0
 compute_V_xc                         1  7.0    0.000    0.000    1.652    1.652       0
 pw_integral_ab_c1d_c1d_gs           10  9.7    1.469    1.469    1.469    1.469       0
 sort_shells                          5  8.2    1.449    1.449    1.449    1.449       0
 pw_poisson_set                       6  8.7    0.000    0.000    1.413    1.413       0
 gw_calc_non_periodic_ri_rs           1  6.0    0.000    0.000    1.317    1.317       0
 xc_functional_eval                   4 11.0    0.002    0.002    1.226    1.226       0
 pbe_lda_eval                         4 12.0    1.224    1.224    1.224    1.224       0
 generate_auto_ri_basis               1  7.0    0.000    0.000    1.167    1.167       0
 pw_axpy                             55  8.1    0.958    0.958    0.958    0.958       0
 cp_ddapc_apply_CD                    5  9.2    0.001    0.001    0.939    0.939       0
 pw_copy_to_array                    38 11.6    0.672    0.672    0.672    0.672       0
 fft_wrap_pw1pw2_100                 10 10.6    0.046    0.046    0.662    0.662       0
 qs_energies_init_hamiltonians        1  3.0    0.000    0.000    0.638    0.638       0
 qs_env_update_s_mstruct              1  4.0    0.000    0.000    0.635    0.635       0
 pw_copy_from_array                  41 12.8    0.621    0.621    0.621    0.621       0
 ri_rs_grid_assembler                 1  7.0    0.000    0.000    0.541    0.541       0
 optimize_ri_rs_grid                  1  8.0    0.000    0.000    0.538    0.538       0
 calculate_rho_core                   1  5.0    0.102    0.102    0.531    0.531       0
 rirs_grid_LBFGS                      1  9.0    0.061    0.061    0.517    0.517       0
 compute_AB_optimized_RI_basis        1  8.0    0.000    0.000    0.512    0.512       0
 compute_AB_optimized_RI_basis_       1  9.0    0.000    0.000    0.512    0.512       0
 evaluate_rirs_grid_cluster        1505 10.0    0.092    0.092    0.456    0.456       0
 compute_B_PQ_AB                      4 10.0    0.108    0.108    0.436    0.436       0
 compute_M_pq_inv_and_V_pq            1  8.0    0.000    0.000    0.407    0.407       0
 compute_contracted_RI_matrix         2  9.0    0.001    0.001    0.392    0.392       0
 compute_optimized_RI_matrix_bl      30 10.0    0.049    0.049    0.389    0.389       0
 compute_M_PQ_AB                    198 11.0    0.000    0.000    0.372    0.372       0
 compute_M_PQ                       198 12.0    0.000    0.000    0.371    0.371       0
 int_operators_r12_ab_os            198 13.0    0.000    0.000    0.371    0.371       0
 int_operator_ab_os_low             198 14.0    0.148    0.148    0.371    0.371       0
 pw_zero                             40  6.8    0.339    0.339    0.339    0.339       0
 create_qs_kind_set                   1  2.0    0.001    0.001    0.329    0.329       0
 read_qs_kind                         2  3.0    0.220    0.220    0.327    0.327       0
 setup_time_and_frequency_minim       1  7.0    0.000    0.000    0.320    0.320       0
 pw_grid_assign                       5  7.2    0.296    0.296    0.296    0.296       0
 compute_Sigma_c_and_QP_energie       1  7.0    0.000    0.000    0.257    0.257       0
 contract_B_PQ                       26 11.6    0.233    0.233    0.249    0.249       0
 compute_AA_optimized_RI_basis        1  8.0    0.000    0.000    0.248    0.248       0
 compute_W                            1  7.0    0.000    0.000    0.244    0.244       0
 compute_Sigma_c                      1  8.0    0.004    0.004    0.238    0.238       0
 initialize_auto_ri_integrals         2  9.0    0.205    0.205    0.205    0.205       0
 get_ddapc                            5 10.2    0.000    0.000    0.185    0.185       0
 contract_grid_panels_sigma_c        30  9.0    0.151    0.151    0.183    0.183       0
 pw_scale                            17  9.8    0.180    0.180    0.180    0.180       0
 pw_multiply_with                     5  9.2    0.165    0.165    0.165    0.165       0
 transfer_rs2pw                      21  7.9    0.000    0.000    0.146    0.146       0
 compute_fm_W_freq                   30  8.0    0.000    0.000    0.136    0.136       0
 get_mat_chi_Gamma_tau                1  7.0    0.000    0.000    0.136    0.136       0
 compute_Z_lP                         1  7.0    0.000    0.000    0.131    0.131       0
 compute_Z_lP_auto_ri                 1  8.0    0.000    0.000    0.131    0.131       0
 compute_d_lp_auto_ri_batch           1  9.0    0.000    0.000    0.128    0.128       0
 compute_d_lp_auto_ri_atom            5 10.0    0.087    0.087    0.128    0.128       0
 operator2                       131686 15.0    0.127    0.127    0.127    0.127       0
 rirs_cluster_gradient_products    1505 11.0    0.127    0.127    0.127    0.127       0
 compute_B_PQ_exchange               13 10.6    0.000    0.000    0.124    0.124       0
 compute_B_PQ_transition             13 10.6    0.000    0.000    0.124    0.124       0
 contract_grid_panels                31  8.0    0.101    0.101    0.123    0.123       0
 transfer_rs2pw_300                   6  8.7    0.121    0.121    0.121    0.121       0
 get_l_sq_wghts_cos_tf_t_to_w         1  8.0    0.108    0.108    0.108    0.108       0
 parser_read_line                119685  4.0    0.021    0.021    0.108    0.108       0
 transfer_pw2rs                      20 11.2    0.000    0.000    0.108    0.108       0
 get_l_sq_wghts_sin_tf_t_to_w         1  8.0    0.107    0.107    0.107    0.107       0
 get_l_sq_wghts_cos_tf_w_to_t         1  8.0    0.102    0.102    0.105    0.105       0
 cp_ddapc_init                        1  5.0    0.000    0.000    0.103    0.103       0
 cp_ddapc_create                      1  6.0    0.000    0.000    0.103    0.103       0
 ddapc_eval_gfunc                     1  7.0    0.100    0.100    0.100    0.100       0
 ab_contract                     133040 14.9    0.096    0.096    0.096    0.096       0
 parallel_gemm_fm_gemm              431  9.6    0.000    0.000    0.092    0.092       0
 cp_fm_gemm                         434 10.5    0.092    0.092    0.092    0.092       0
 parser_read_line_low               123  5.0    0.087    0.087    0.087    0.087       0
 transfer_pw2rs_300                   5 12.2    0.085    0.085    0.085    0.085       0
 rirs_cluster_gradient_coordina    1505 11.0    0.084    0.084    0.084    0.084       0
 solve_AB_eigenproblem                4 10.0    0.052    0.052    0.076    0.076       0
 abc_contract_xsmm                 1004 10.9    0.069    0.069    0.069    0.069       0
 compute_fm_chi_Gamma_freq           30  8.0    0.034    0.034    0.064    0.064       0
 xc_pw_smooth                         4 10.0    0.000    0.000    0.064    0.064       0
 rirs_cluster_residual             1505 11.0    0.057    0.057    0.057    0.057       0
 fft_wrap_pw1pw2_40                  10 10.6    0.005    0.005    0.055    0.055       0
 pw_poisson_rebuild                   5  9.2    0.049    0.049    0.049    0.049       0
 cp_fm_cholesky_invert               31  9.0    0.049    0.049    0.049    0.049       0
 diamat_all                          36 11.1    0.045    0.045    0.045    0.045       0
 copy_dbcsr_to_fm                   104  9.5    0.036    0.036    0.044    0.044       0
 copy_fm_to_dbcsr                   161  9.3    0.035    0.035    0.044    0.044       0
 -------------------------------------------------------------------------------

 The number of warnings for this run is : 0
 
 -------------------------------------------------------------------------------
  **** **** ******  **  PROGRAM ENDED AT                 2026-09-18 20:07:56.213
 ***** ** ***  *** **   PROGRAM RAN ON                                  n2cn0602
 **    ****   ******    PROGRAM RAN BY                                  eprop2d1
 ***** **    ** ** **   PROGRAM PROCESS ID                                513162
  **** **  *******  **  PROGRAM STOPPED IN /scratch/hpc-prf-metdyn/eprop2d1_Jan/
                                           53_benchmark_RI_opt/142_Figure123_com
                                           pletion_coopfst/figure3_retries/calcu
                                           lations/0033_38_CI4_riao5_r04
