 DBCSR| CPU Multiplication driver                                           XSMM (U)
 DBCSR| Multrec recursion limit                                              512 (U)
 DBCSR| Multiplication stack size                                           1000 (D)
 DBCSR| Maximum elements for images                                    UNLIMITED (U)
 DBCSR| Multiplicative factor virtual images                                   1 (U)
 DBCSR| Use multiplication densification                                       T (D)
 DBCSR| Multiplication size stacks                                             3 (U)
 DBCSR| Use memory pool for CPU allocation                                     F (U)
 DBCSR| Number of 3D layers                                               SINGLE (U)
 DBCSR| Use MPI memory allocation                                              F (U)
 DBCSR| Use RMA algorithm                                                      F (U)
 DBCSR| Use Communication thread                                               T (U)
 DBCSR| Communication thread load                                              0 (D)
 DBCSR| MPI: My process id                                                     1
 DBCSR| MPI: Number of processes                                               2
 DBCSR| OMP: Current number of threads                                        32
 DBCSR| OMP: Max number of threads                                            32
 DBCSR| Split modifier for TAS multiplication algorithm                  1.0E+00 (U)


  **** **** ******  **  PROGRAM STARTED AT               2026-09-18 01:44:30.072
 ***** ** ***  *** **   PROGRAM STARTED ON                              n2cn0868
 **    ****   ******    PROGRAM STARTED BY                              eprop2d1
 ***** **    ** ** **   PROGRAM PROCESS ID                                264522
  **** **  *******  **  PROGRAM STARTED IN /scratch/hpc-prf-metdyn/eprop2d1_Jan/
                                           53_benchmark_RI_opt/122_GW100_GTH_Leb
                                           edev_RIAO2345_rc05_metdyn/calculation
                                           s/41_Si2H6_riao2_r02

 CP2K| version string:                 CP2K version 2026.2 (Development Version)
 CP2K| source code revision number:                                      unknown
 CP2K| cp2kflags: omp libint fftw3 libxc parallel scalapack openblas            
 CP2K| is freely available from                            https://www.cp2k.org/
 CP2K| Program compiled at                                   2026-09-15 17:57:52
 CP2K| Program compiled on                                              n2login6
 CP2K| Program compiled for                                               x86_64
 CP2K| Data directory path    /scratch/hpc-prf-metdyn/eprop2d1_Jan/53_benchmark_
 CP2K| Input file name                                                 input.inp
 
 eprop2d1@n2cn0868 has created rank and process                      0    264522
 
 eprop2d1@n2cn0868 is running                                        1 processes

 GLOBAL| Force Environment number                                              1
 GLOBAL| Basis set file name            /scratch/hpc-prf-metdyn/eprop2d1_Jan/53_
 GLOBAL| Potential file name            /scratch/hpc-prf-metdyn/eprop2d1_Jan/53_
 GLOBAL| MM Potential file name                                     MM_POTENTIAL
 GLOBAL| Coordinate file name                                      __STD_INPUT__
 GLOBAL| Method name                                                        CP2K
 GLOBAL| Project name                               gw100_122_41_Si2H6_riao2_r02
 GLOBAL| Run type                                                         ENERGY
 GLOBAL| FFT library                                                       FFTW3
 GLOBAL| Diagonalization library                                       ScaLAPACK
 GLOBAL| Cholesky decomposition library                                ScaLAPACK
 GLOBAL| DGEMM library                                                      BLAS
 GLOBAL| Direct generalized diagonalization requested                          F
 GLOBAL| Orthonormality check for eigenvectors                          DISABLED
 GLOBAL| Matrix multiplication library                                 ScaLAPACK
 GLOBAL| All-to-all communication in single precision                          F
 GLOBAL| Grid backend                                                       AUTO
 GLOBAL| Global print level                                                  LOW
 GLOBAL| MPI I/O enabled                                                       T
 GLOBAL| Total number of message passing processes                             1
 GLOBAL| Number of distributed systems (nodes)                                 1
 GLOBAL| Number of threads for this process                                   32
 GLOBAL| This output is from process                                           0
 GLOBAL| OpenMP stack size per thread (OMP_STACKSIZE)                       512M
 GLOBAL| CPU model name                          AMD EPYC 7763 64-Core Processor

 MEMORY| system memory details [Kb]
 MEMORY|                        rank 0           min           max       average
 MEMORY| MemTotal            263897628     263897628     263897628     263897628
 MEMORY| MemFree             251591112     251591112     251591112     251591112
 MEMORY| Buffers                353956        353956        353956        353956
 MEMORY| Cached                6705684       6705684       6705684       6705684
 MEMORY| Slab                  1305408       1305408       1305408       1305408
 MEMORY| SReclaimable           249192        249192        249192        249192
 MEMORY| MemLikelyFree       258899944     258899944     258899944     258899944


 GENERATE|  Preliminary Number of Bonds generated:                             0
 GENERATE|  Achieved consistency in connectivity generation.

 *******************************************************************************
 *******************************************************************************
 **                                                                           **
 **     #####                         ##              ##                      **
 **    ##   ##            ##          ##              ##                      **
 **   ##     ##                       ##            ######                    **
 **   ##     ##  ##   ##  ##   #####  ##  ##   ####   ##    #####    #####    **
 **   ##     ##  ##   ##  ##  ##      ## ##   ##      ##   ##   ##  ##   ##   **
 **   ##  ## ##  ##   ##  ##  ##      ####     ###    ##   ######   ######    **
 **    ##  ###   ##   ##  ##  ##      ## ##      ##   ##   ##       ##        **
 **     #######   #####   ##   #####  ##  ##  ####    ##    #####   ##        **
 **           ##                                                    ##        **
 **                                                                           **
 **                                                ... make the atoms dance   **
 **                                                                           **
 **            Copyright (C) by CP2K developers group (2000-2026)             **
 **                      J. Chem. Phys. 152, 194103 (2020)                    **
 **                                                                           **
 *******************************************************************************


 TOTAL NUMBERS AND MAXIMUM NUMBERS

  Total number of            - Atomic kinds:                                   2
                             - Atoms:                                          8
                             - Shell sets:                                     8
                             - Shells:                                        34
                             - Primitive Cartesian functions:                 54
                             - Cartesian basis functions:                     64
                             - Spherical basis functions:                     62

  Maximum angular momentum of- Orbital basis functions:                        2
                             - Local part of the GTH pseudopotential:          2
                             - Non-local part of the GTH pseudopotential:      2


 SCF PARAMETERS         Density guess:                                    ATOMIC
                        --------------------------------------------------------
                        max_scf:                                             500
                        max_scf_history:                                       0
                        max_diis:                                              4
                        --------------------------------------------------------
                        eps_scf:                                        1.00E-08
                        eps_scf_history:                                0.00E+00
                        eps_diis:                                       0.00E+00
                        eps_eigval:                                     1.00E-05
                        --------------------------------------------------------
                        level_shift [a.u.]:                             0.000000
                        --------------------------------------------------------
                        Outer loop SCF in use 
                        No variables optimised in outer loop
                        eps_scf                                         1.00E-08
                        max_scf                                               20
                        No outer loop optimization
                        step_size                                       5.00E-01

 Extrapolation method: initial_guess

 Number of electrons:                                                         14
 Number of occupied orbitals:                                                  7
 Number of molecular orbitals:                                                 7

 Number of orbital functions:                                                 62
 Number of independent orbital functions:                                     62


 SCF WAVEFUNCTION OPTIMIZATION

  ----------------------------------- OT ---------------------------------------
  Minimizer      : DIIS                : direct inversion
                                         in the iterative subspace
                                         using   7 DIIS vectors
                                         safer DIIS on
  Preconditioner : FULL_KINETIC        : inversion of T + eS
  Lattice FFT   : OFF
  Precond_solver : DEFAULT
  stepsize       :    0.15000000                  energy_gap     :    0.20000000
  eps_taylor     :   0.10000E-15                  max_taylor     :             4
  ----------------------------------- OT ---------------------------------------

  Step     Update method      Time    Convergence         Total energy    Change
  ------------------------------------------------------------------------------
  Decoupling Energy:                                               0.0001805106
     1 OT DIIS     0.15E+00    4.5     0.09853580        -9.8041813518 -9.80E+00
  Decoupling Energy:                                               0.0000639933
     2 OT DIIS     0.15E+00    5.7     0.06983794       -10.3183761286 -5.14E-01
  Decoupling Energy:                                               0.0000928772
     3 OT DIIS     0.15E+00    5.7     0.05520852       -10.7157644997 -3.97E-01
  Decoupling Energy:                                               0.0000926764
     4 OT DIIS     0.15E+00    5.8     0.04269637       -11.0251859514 -3.09E-01
  Decoupling Energy:                                               0.0000251132
     5 OT DIIS     0.15E+00    5.8     0.02555355       -11.2359694085 -2.11E-01
  Decoupling Energy:                                               0.0000004600
     6 OT DIIS     0.15E+00    5.8     0.01259803       -11.3134800587 -7.75E-02
  Decoupling Energy:                                               0.0000010942
     7 OT DIIS     0.15E+00    5.8     0.00777791       -11.3282617673 -1.48E-02
  Decoupling Energy:                                              -0.0000006159
     8 OT DIIS     0.15E+00    5.8     0.00312689       -11.3373791640 -9.12E-03
  Decoupling Energy:                                              -0.0000006084
     9 OT DIIS     0.15E+00    5.8     0.00175575       -11.3384102656 -1.03E-03
  Decoupling Energy:                                              -0.0000005511
    10 OT DIIS     0.15E+00    5.8     0.00137451       -11.3386640151 -2.54E-04
  Decoupling Energy:                                              -0.0000006261
    11 OT DIIS     0.15E+00    5.8     0.00079207       -11.3388466642 -1.83E-04
  Decoupling Energy:                                              -0.0000006261
    12 OT DIIS     0.15E+00    5.8     0.00050126       -11.3389393792 -9.27E-05
  Decoupling Energy:                                              -0.0000006272
    13 OT DIIS     0.15E+00    5.8     0.00033775       -11.3389846434 -4.53E-05
  Decoupling Energy:                                              -0.0000006278
    14 OT DIIS     0.15E+00    5.8     0.00024442       -11.3390063679 -2.17E-05
  Decoupling Energy:                                              -0.0000006288
    15 OT DIIS     0.15E+00    5.8     0.00017608       -11.3390191748 -1.28E-05
  Decoupling Energy:                                              -0.0000006294
    16 OT DIIS     0.15E+00    5.8     0.00012065       -11.3390269471 -7.77E-06
  Decoupling Energy:                                              -0.0000006296
    17 OT DIIS     0.15E+00    5.8     0.00008663       -11.3390301996 -3.25E-06
  Decoupling Energy:                                              -0.0000006297
    18 OT DIIS     0.15E+00    5.8     0.00005809       -11.3390318422 -1.64E-06
  Decoupling Energy:                                              -0.0000006299
    19 OT DIIS     0.15E+00    5.8     0.00002231       -11.3390327782 -9.36E-07
  Decoupling Energy:                                              -0.0000006299
    20 OT DIIS     0.15E+00    5.8     0.00001502       -11.3390328450 -6.68E-08
  Decoupling Energy:                                              -0.0000006298
    21 OT DIIS     0.15E+00    5.8     0.00000762       -11.3390328799 -3.49E-08
  Decoupling Energy:                                              -0.0000006298
    22 OT DIIS     0.15E+00    5.8     0.00000507       -11.3390328881 -8.21E-09
  Decoupling Energy:                                              -0.0000006298
    23 OT DIIS     0.15E+00    5.8     0.00000308       -11.3390328922 -4.03E-09
  Decoupling Energy:                                              -0.0000006298
    24 OT DIIS     0.15E+00    5.8     0.00000183       -11.3390328934 -1.24E-09
  Decoupling Energy:                                              -0.0000006298
    25 OT DIIS     0.15E+00    5.8     0.00000138       -11.3390328937 -2.43E-10
  Decoupling Energy:                                              -0.0000006298
    26 OT DIIS     0.15E+00    5.8     0.00000106       -11.3390328938 -1.88E-10
  Decoupling Energy:                                              -0.0000006298
    27 OT DIIS     0.15E+00    5.8     0.00000081       -11.3390328940 -1.58E-10
  Decoupling Energy:                                              -0.0000006298
    28 OT DIIS     0.15E+00    5.8     0.00000069       -11.3390328941 -8.09E-11
  Decoupling Energy:                                              -0.0000006298
    29 OT DIIS     0.15E+00    5.8     0.00000051       -11.3390328942 -1.06E-10
  Decoupling Energy:                                              -0.0000006298
    30 OT DIIS     0.15E+00    5.8     0.00000035       -11.3390328943 -6.68E-11
  Decoupling Energy:                                              -0.0000006298
    31 OT DIIS     0.15E+00    5.8     0.00000023       -11.3390328943 -2.92E-11
  Decoupling Energy:                                              -0.0000006298
    32 OT DIIS     0.15E+00    5.8     0.00000016       -11.3390328943 -1.03E-11
  Decoupling Energy:                                              -0.0000006298
    33 OT DIIS     0.15E+00    5.8     0.00000012       -11.3390328943 -3.98E-12
  Decoupling Energy:                                              -0.0000006298
    34 OT DIIS     0.15E+00    5.8     0.00000008       -11.3390328943 -2.33E-12
  Decoupling Energy:                                              -0.0000006298
    35 OT DIIS     0.15E+00    5.8     0.00000005       -11.3390328943 -1.17E-12
  Decoupling Energy:                                              -0.0000006298
    36 OT DIIS     0.15E+00    5.8     0.00000004       -11.3390328943 -3.25E-13
  Decoupling Energy:                                              -0.0000006298
    37 OT DIIS     0.15E+00    5.8     0.00000002       -11.3390328943 -1.37E-13
  Decoupling Energy:                                              -0.0000006298
    38 OT DIIS     0.15E+00    5.8     0.00000002       -11.3390328943 -5.15E-14
  Decoupling Energy:                                              -0.0000006298
    39 OT DIIS     0.15E+00    5.8     0.00000001       -11.3390328943 -6.04E-14
  Decoupling Energy:                                              -0.0000006298
    40 OT DIIS     0.15E+00    5.8     0.00000001       -11.3390328943 -3.55E-14
  Decoupling Energy:                                              -0.0000006298
    41 OT DIIS     0.15E+00    5.8     8.0512E-09       -11.3390328943 -1.42E-14

  *** SCF run converged in    41 steps ***


  Electronic density on regular grids:        -14.0000000000       -0.0000000000
  Core density on regular grids:               14.0000000000       -0.0000000000
  Total charge density on r-space grids:       -0.0000000000
  Total charge density g-space grids:          -0.0000000000

  Overlap energy of the core charge distribution:               0.00000004641156
  Self energy of the core charge distribution:                -28.97882860949839
  Core Hamiltonian energy:                                      7.19104987190563
  Hartree energy:                                              14.87580373993806
  Exchange-correlation energy:                                 -4.42705794306243

  Total energy:                                               -11.33903289430557

  outer SCF iter =    1 RMS gradient =   0.81E-08 energy =        -11.3390328943
  outer SCF loop converged in   1 iterations or   41 steps

  
 -------------------------------------------------------------------------------
 -                                                                             -
 -                          BANDSTRUCTURE CALCULATION                          -
 -                                                                             -
 -------------------------------------------------------------------------------
  
 Number of occupied molecular orbitals (MOs) = Number of occupied bands        7
 Number of unoccupied (= virtual) MOs = Number of unoccupied bands            55
 Number of Gaussian basis functions for MOs                                   62
  
 -------------------------------------------------------------------------------
 -                                                                             -
 -                                GW CALCULATION                               -
 -                                                                             -
 -------------------------------------------------------------------------------
  
 Input: Number of time/freq. points                                           30
 Input: ω_max for fitting Σ(iω) (eV)                                        10.0
 Input: Filter threshold for sparse tensor operations                    1.0E-07
 Input: Apply Hedin shift                                                      F
 Input: Available memory per MPI process                                  2.0 GB
 
 Input: RI-RS Tikhonov regularization                                   1.00E-04
 Input: AO grid hard cutoff radius                                        8.00 Å
 Input: MPI ranks per atom in Z_lP solve                                      -1
 Input: Keep sparsity in χ/G/W panels                                          T
 Input: GW flavour                                                          G0W0
 
 Input: RI-RS grid optimization activated                                      T
 Input: Initial RI-RS grid                                              CHOLESKY
 Input: RS points per AO function                                         2.0000
 Input: Initial RS candidates per AO function                            30.0000
 Input: Additional Lebedev degree                                              2
 Input: Cholesky selection matrix                                        D_PRIME
 Input: Cholesky candidate domain                                      FULL_ATOM
 Input: Initial radial quadrature                                       GAPW_LOG
 Input: Cutoff radius for atomic clusters                                  0.5 Å
 Input: Maximum grid optimization iterations                                 300
 Input: L-BFGS history size                                                    7
 Input: L-BFGS relative-function factor                              0.00000E+00
 Input: L-BFGS projected-gradient tolerance                          1.00000E-09
 
 Input: AUTO_RI basis optimization activated:                                  T
 Input: AUTO_RI requested RI/AO ratio:                                       2.0
 Input: AUTO_RI frontier orbital window:                                  5.0 eV
 Input: AUTO_RI neighbor radius:                                           3.0 Å
 
 Cutoff radius for the truncated Coulomb operator in RI metric:            7.0 Å
 Regularization parameter of RI                                          0.0E+00
 Regularization parameter of minimax grids                               1.0E-06
 
 AUTO_RI| Number of automatic RI functions for χ, ε, W:                      124
 AUTO_RI| Total RI basis optimization time:                                1.0 s
  Decoupling Energy:                                              -0.0000006298
 
 SCF direct band gap (eV)                                                   6.88
 Max. SCF eigval diff. (eV)                                                81.33
 E-Range for minimax grid                                                  11.83
 Number of Padé parameters for analytic continuation:                         16
 
 RI-RS basis radii (Å):
     Kind  Elem     r_AO (Å)     r_RI (Å)
        1    Si        8.1344        5.3202
        2    H         9.5011        6.0090
 
 RI-RS initialization: atomic kind                                             1
 RI-RS initialization: Lebedev degree                                          9
 RI-RS initialization: radial shells                                          11
 RI-RS initialization: candidates per atom                                   418
 RI-RS initialization: retained points per atom                               26
 RI-RS initialization: atomic kind                                             2
 RI-RS initialization: Lebedev degree                                          7
 RI-RS initialization: radial shells                                           7
 RI-RS initialization: candidates per atom                                   182
 RI-RS initialization: retained points per atom                               12
 RI-RS initialization: largest cluster candidate count                       418
 RI-RS initialization: most pivots in one cluster                             65
 RI-RS initialization: most stored AO values in one cluster                 5434
 RI-RS initialization: wall time [s]                                       0.001
 Started RI-RS grid optimization
 RI-RS grid initial normalized error                          9.513248218928E-02
 RI-RS grid optimization completed, execution time:                        0.2 s
 Normalized 3C error:                                                    1.2E-03
 Maximum absolute 3C error:                                              1.3E-01
 Optimized points outside molecular Voronoi cells:                            61 / 124
 Total grid points used for RI-RS:                                           124
 
 RI-RS grid row-blocks of Φ_μ(r_l)                                             8
 RI-RS grid points per block (max)                                            32
 
 Percentage of non-zero matrix elements in Φ_μ(r_l)                     100.00 %
 
 RI-RS memory estimate per MPI process:
   Available memory per process (system)                               265.03 GB
   Required for Z_lP (dense upper bound; actual is sparser)              0.00 GB
   Required for χ, W, Σ panels (peak per panel step)                     0.00 GB
   Required for Z_lP solve peak (D_local+φ, worst-case atom)             0.00 GB
   Worst-case local-grid number of grid points:                              124
   Worst-case memory D_local:                                            0.00 GB
 
 Started computing Z_lP
 Computed Z_lP (MPI rank 0) for atom          1 /  8,    Execution time    0.0 s
 Computed Z_lP (MPI rank 0) for atom          2 /  8,    Execution time    0.0 s
 Computed Z_lP (MPI rank 0) for atom          3 /  8,    Execution time    0.0 s
 Computed Z_lP (MPI rank 0) for atom          4 /  8,    Execution time    0.0 s
 Computed Z_lP (MPI rank 0) for atom          5 /  8,    Execution time    0.0 s
 Computed Z_lP (MPI rank 0) for atom          6 /  8,    Execution time    0.0 s
 Computed Z_lP (MPI rank 0) for atom          7 /  8,    Execution time    0.0 s
 Computed Z_lP (MPI rank 0) for atom          8 /  8,    Execution time    0.0 s
 Computed Z_lP (all MPI ranks) for all atoms,            Execution time    0.1 s

 Number of batches for χ, Σ matrices                                           1
 
 Percentage of non-zero matrix elements in Z_lP                         100.00 %
 Percentage of non-zero matrix elements in G_ll', χ_ll', W_ll'          100.00 %
 Percentage of non-zero matrix elements in χ_PQ for time point 1        100.00 %
 
 Computed χ(iτ,k=0) for time point            1 / 30,    Execution time    0.0 s
 Computed χ(iτ,k=0) for time point            2 / 30,    Execution time    0.0 s
 Computed χ(iτ,k=0) for time point            3 / 30,    Execution time    0.0 s
 Computed χ(iτ,k=0) for time point            4 / 30,    Execution time    0.0 s
 Computed χ(iτ,k=0) for time point            5 / 30,    Execution time    0.0 s
 Computed χ(iτ,k=0) for time point            6 / 30,    Execution time    0.0 s
 Computed χ(iτ,k=0) for time point            7 / 30,    Execution time    0.0 s
 Computed χ(iτ,k=0) for time point            8 / 30,    Execution time    0.0 s
 Computed χ(iτ,k=0) for time point            9 / 30,    Execution time    0.0 s
 Computed χ(iτ,k=0) for time point           10 / 30,    Execution time    0.0 s
 Computed χ(iτ,k=0) for time point           11 / 30,    Execution time    0.0 s
 Computed χ(iτ,k=0) for time point           12 / 30,    Execution time    0.0 s
 Computed χ(iτ,k=0) for time point           13 / 30,    Execution time    0.0 s
 Computed χ(iτ,k=0) for time point           14 / 30,    Execution time    0.0 s
 Computed χ(iτ,k=0) for time point           15 / 30,    Execution time    0.0 s
 Computed χ(iτ,k=0) for time point           16 / 30,    Execution time    0.0 s
 Computed χ(iτ,k=0) for time point           17 / 30,    Execution time    0.0 s
 Computed χ(iτ,k=0) for time point           18 / 30,    Execution time    0.0 s
 Computed χ(iτ,k=0) for time point           19 / 30,    Execution time    0.0 s
 Computed χ(iτ,k=0) for time point           20 / 30,    Execution time    0.0 s
 Computed χ(iτ,k=0) for time point           21 / 30,    Execution time    0.0 s
 Computed χ(iτ,k=0) for time point           22 / 30,    Execution time    0.0 s
 Computed χ(iτ,k=0) for time point           23 / 30,    Execution time    0.0 s
 Computed χ(iτ,k=0) for time point           24 / 30,    Execution time    0.0 s
 Computed χ(iτ,k=0) for time point           25 / 30,    Execution time    0.0 s
 Computed χ(iτ,k=0) for time point           26 / 30,    Execution time    0.0 s
 Computed χ(iτ,k=0) for time point           27 / 30,    Execution time    0.0 s
 Computed χ(iτ,k=0) for time point           28 / 30,    Execution time    0.0 s
 Computed χ(iτ,k=0) for time point           29 / 30,    Execution time    0.0 s
 Computed χ(iτ,k=0) for time point           30 / 30,    Execution time    0.0 s
 
 Computed W(iτ),                                         Execution time    0.1 s
 
 Computed Σ^x(k=0),                                      Execution time    0.0 s
 
 Computed Σ^c(iτ) for time point              1 / 30,    Execution time    0.0 s
 Computed Σ^c(iτ) for time point              2 / 30,    Execution time    0.0 s
 Computed Σ^c(iτ) for time point              3 / 30,    Execution time    0.0 s
 Computed Σ^c(iτ) for time point              4 / 30,    Execution time    0.0 s
 Computed Σ^c(iτ) for time point              5 / 30,    Execution time    0.0 s
 Computed Σ^c(iτ) for time point              6 / 30,    Execution time    0.0 s
 Computed Σ^c(iτ) for time point              7 / 30,    Execution time    0.0 s
 Computed Σ^c(iτ) for time point              8 / 30,    Execution time    0.0 s
 Computed Σ^c(iτ) for time point              9 / 30,    Execution time    0.0 s
 Computed Σ^c(iτ) for time point             10 / 30,    Execution time    0.0 s
 Computed Σ^c(iτ) for time point             11 / 30,    Execution time    0.0 s
 Computed Σ^c(iτ) for time point             12 / 30,    Execution time    0.0 s
 Computed Σ^c(iτ) for time point             13 / 30,    Execution time    0.0 s
 Computed Σ^c(iτ) for time point             14 / 30,    Execution time    0.0 s
 Computed Σ^c(iτ) for time point             15 / 30,    Execution time    0.0 s
 Computed Σ^c(iτ) for time point             16 / 30,    Execution time    0.0 s
 Computed Σ^c(iτ) for time point             17 / 30,    Execution time    0.0 s
 Computed Σ^c(iτ) for time point             18 / 30,    Execution time    0.0 s
 Computed Σ^c(iτ) for time point             19 / 30,    Execution time    0.0 s
 Computed Σ^c(iτ) for time point             20 / 30,    Execution time    0.0 s
 Computed Σ^c(iτ) for time point             21 / 30,    Execution time    0.0 s
 Computed Σ^c(iτ) for time point             22 / 30,    Execution time    0.0 s
 Computed Σ^c(iτ) for time point             23 / 30,    Execution time    0.0 s
 Computed Σ^c(iτ) for time point             24 / 30,    Execution time    0.0 s
 Computed Σ^c(iτ) for time point             25 / 30,    Execution time    0.0 s
 Computed Σ^c(iτ) for time point             26 / 30,    Execution time    0.0 s
 Computed Σ^c(iτ) for time point             27 / 30,    Execution time    0.0 s
 Computed Σ^c(iτ) for time point             28 / 30,    Execution time    0.0 s
 Computed Σ^c(iτ) for time point             29 / 30,    Execution time    0.0 s
 Computed Σ^c(iτ) for time point             30 / 30,    Execution time    0.0 s

 *** WARNING in post_scf_bandstructure_utils.F:3164 :: G0W0 reorders the   ***
 *** empty levels: the SCF conduction band minimum (SCF LUMO) is level 8,  ***
 *** whereas the G0W0 conduction band minimum (G0W0 LUMO) is level 11. The ***
 *** SCF and G0W0 band edges printed below therefore belong to different   ***
 *** orbitals; see the eigenvalues in the file bandstructure_SCF_and_G0W0. ***

 
 SCF valence band maximum (eV):                                           -7.386
 SCF conduction band minimum (eV):                                        -0.510
 SCF indirect band gap (eV):                                               6.875
 SCF direct band gap (eV):                                                 6.875
 
 G0W0 valence band maximum (eV):                                          -9.303
 G0W0 conduction band minimum (eV):                                        1.122
 G0W0 indirect band gap (eV):                                             10.425
 G0W0 direct band gap (eV):                                               10.425
 
 Hartree-Fock with SCF orbitals valence band maximum (eV):               -10.590
 Hartree-Fock with SCF orbitals conduction band minimum (eV)               2.348
 Hartree-Fock with SCF orbitals indirect band gap (eV):                   12.938
 Hartree-Fock with SCF orbitals direct band gap (eV):                     12.938

 ENERGY| Total FORCE_EVAL ( QS ) energy [hartree]            -11.339032894305568

 -------------------------------------------------------------------------------
 -                                                                             -
 -                                DBCSR STATISTICS                             -
 -                                                                             -
 -------------------------------------------------------------------------------
 COUNTER                                    TOTAL       BLAS       SMM       ACC
 flops     7 x     7 x     7               249018     100.0%      0.0%      0.0%     
 flops    13 x     6 x     7               275184     100.0%      0.0%      0.0%     
 flops     6 x    13 x     7               275184     100.0%      0.0%      0.0%     
 flops    14 x    14 x    26               285376     100.0%      0.0%      0.0%     
 flops    13 x    13 x     7               298116     100.0%      0.0%      0.0%     
 flops    26 x    14 x    14               305760     100.0%      0.0%      0.0%     
 flops    14 x    14 x    12               395136     100.0%      0.0%      0.0%     
 flops    12 x    14 x    14               423360     100.0%      0.0%      0.0%     
 flops     6 x     6 x     7               444528     100.0%      0.0%      0.0%     
 flops    13 x     7 x     7               519792     100.0%      0.0%      0.0%     
 flops    15 x    14 x    26               611520     100.0%      0.0%      0.0%     
 flops    14 x    15 x    26               611520     100.0%      0.0%      0.0%     
 flops    26 x    15 x    14               655200     100.0%      0.0%      0.0%     
 flops    26 x    14 x    15               655200     100.0%      0.0%      0.0%     
 flops     6 x     7 x     7               719712     100.0%      0.0%      0.0%     
 flops    15 x    14 x    12               846720     100.0%      0.0%      0.0%     
 flops    14 x    15 x    12               846720     100.0%      0.0%      0.0%     
 flops    13 x     7 x    13               851760     100.0%      0.0%      0.0%     
 flops    12 x    15 x    14               907200     100.0%      0.0%      0.0%     
 flops    12 x    14 x    15               907200     100.0%      0.0%      0.0%     
 flops    13 x     7 x    62               947856     100.0%      0.0%      0.0%     
 flops     7 x     7 x    62               990388     100.0%      0.0%      0.0%     
 flops    26 x    14 x    26              1135680     100.0%      0.0%      0.0%     
 flops    13 x     7 x     6              1179360     100.0%      0.0%      0.0%     
 flops     6 x     7 x    13              1179360     100.0%      0.0%      0.0%     
 flops    15 x    15 x    26              1310400     100.0%      0.0%      0.0%     
 flops     6 x     7 x    62              1312416     100.0%      0.0%      0.0%     
 flops    26 x    15 x    15              1404000     100.0%      0.0%      0.0%     
 flops    12 x    14 x    26              1572480     100.0%      0.0%      0.0%     
 flops    16 x    14 x    26              1630720     100.0%      0.0%      0.0%     
 flops    14 x    16 x    26              1630720     100.0%      0.0%      0.0%     
 flops     6 x     7 x     6              1632960     100.0%      0.0%      0.0%     
 flops    26 x    14 x    12              1686048     100.0%      0.0%      0.0%     
 flops    26 x    16 x    14              1747200     100.0%      0.0%      0.0%     
 flops    26 x    14 x    16              1747200     100.0%      0.0%      0.0%     
 flops    13 x    13 x    26              1757600     100.0%      0.0%      0.0%     
 flops    15 x    15 x    12              1814400     100.0%      0.0%      0.0%     
 flops    12 x    15 x    15              1944000     100.0%      0.0%      0.0%     
 flops    16 x    14 x    12              2257920     100.0%      0.0%      0.0%     
 flops    14 x    16 x    12              2257920     100.0%      0.0%      0.0%     
 flops    12 x    14 x    12              2322432     100.0%      0.0%      0.0%     
 flops    12 x    16 x    14              2419200     100.0%      0.0%      0.0%     
 flops    12 x    14 x    16              2419200     100.0%      0.0%      0.0%     
 flops    26 x    15 x    26              2433600     100.0%      0.0%      0.0%     
 flops    13 x     6 x    26              2433600     100.0%      0.0%      0.0%     
 flops     6 x    13 x    26              2433600     100.0%      0.0%      0.0%     
 flops    13 x    13 x    12              2539056     100.0%      0.0%      0.0%     
 flops    12 x    15 x    26              3369600     100.0%      0.0%      0.0%     
 flops     6 x     6 x    26              3369600     100.0%      0.0%      0.0%     
 flops    13 x     6 x    12              3451968     100.0%      0.0%      0.0%     
 flops    16 x    15 x    26              3494400     100.0%      0.0%      0.0%     
 flops    15 x    16 x    26              3494400     100.0%      0.0%      0.0%     
 flops     6 x    13 x    12              3502512     100.0%      0.0%      0.0%     
 flops    26 x    15 x    12              3594240     100.0%      0.0%      0.0%     
 flops    26 x    16 x    15              3644160     100.0%      0.0%      0.0%     
 flops    26 x    15 x    16              3644160     100.0%      0.0%      0.0%     
 flops    26 x    13 x    26              3937024     100.0%      0.0%      0.0%     
 flops     6 x     6 x    12              4770144     100.0%      0.0%      0.0%     
 flops    16 x    15 x    12              4838400     100.0%      0.0%      0.0%     
 flops    15 x    16 x    12              4838400     100.0%      0.0%      0.0%     
 flops    26 x    13 x    13              4850976     100.0%      0.0%      0.0%     
 flops    12 x    15 x    12              4972320     100.0%      0.0%      0.0%     
 flops    12 x    16 x    15              5045760     100.0%      0.0%      0.0%     
 flops    12 x    15 x    16              5045760     100.0%      0.0%      0.0%     
 flops    26 x     6 x    26              5297136     100.0%      0.0%      0.0%     
 flops    26 x    26 x    62              5364736     100.0%      0.0%      0.0%     
 flops    26 x    13 x    12              5418816     100.0%      0.0%      0.0%     
 flops    12 x    13 x    26              5516160     100.0%      0.0%      0.0%     
 flops    26 x    16 x    26              6489600     100.0%      0.0%      0.0%     
 flops    26 x     6 x    13              6716736     100.0%      0.0%      0.0%     
 flops    26 x    13 x     6              6716736     100.0%      0.0%      0.0%     
 flops    12 x    13 x    13              6716736     100.0%      0.0%      0.0%     
 flops    26 x     6 x    12              7312032     100.0%      0.0%      0.0%     
 flops    26 x    12 x    62              7428096     100.0%      0.0%      0.0%     
 flops    12 x    26 x    62              7428096     100.0%      0.0%      0.0%     
 flops    26 x    26 x    13              7452224     100.0%      0.0%      0.0%     
 flops    12 x     6 x    26              7521696     100.0%      0.0%      0.0%     
 flops    12 x    13 x    12              7547904     100.0%      0.0%      0.0%     
 flops    12 x    16 x    26              8985600     100.0%      0.0%      0.0%     
 flops    26 x     6 x     6              9030528     100.0%      0.0%      0.0%     
 flops    12 x    13 x     6              9292608     100.0%      0.0%      0.0%     
 flops    12 x     6 x    13              9300096     100.0%      0.0%      0.0%     
 flops    16 x    16 x    26              9318400     100.0%      0.0%      0.0%     
 flops    26 x    16 x    12              9594624     100.0%      0.0%      0.0%     
 flops    26 x    16 x    16              9664512     100.0%      0.0%      0.0%     
 flops    26 x    26 x   124             10058880     100.0%      0.0%      0.0%     
 flops    26 x    26 x     6             10123776     100.0%      0.0%      0.0%     
 flops    26 x    12 x    13             10172448     100.0%      0.0%      0.0%     
 flops    12 x    26 x    13             10188672     100.0%      0.0%      0.0%     
 flops    12 x    12 x    62             10285056     100.0%      0.0%      0.0%     
 flops    12 x     6 x    12             10293696     100.0%      0.0%      0.0%     
 flops    12 x     6 x     6             12503808     100.0%      0.0%      0.0%     
 flops    16 x    16 x    12             12902400     100.0%      0.0%      0.0%     
 flops    12 x    16 x    12             13271040     100.0%      0.0%      0.0%     
 flops    12 x    16 x    16             13381632     100.0%      0.0%      0.0%     
 flops    12 x    26 x     6             13455936     100.0%      0.0%      0.0%     
 flops    26 x    12 x     6             13688064     100.0%      0.0%      0.0%     
 flops    12 x    12 x    13             13815360     100.0%      0.0%      0.0%     
 flops    26 x    12 x   124             13927680     100.0%      0.0%      0.0%     
 flops    12 x    26 x   124             13927680     100.0%      0.0%      0.0%     
 flops    12 x    12 x     6             18455040     100.0%      0.0%      0.0%     
 flops    12 x    12 x   124             19284480     100.0%      0.0%      0.0%     
 flops inhomo. stacks                           0       0.0%      0.0%      0.0%
 flops total                       506.936066E+06     100.0%      0.0%      0.0%
 flops max/rank                    506.936066E+06     100.0%      0.0%      0.0%
 matmuls inhomo. stacks                         0       0.0%      0.0%      0.0%
 matmuls total                             122275     100.0%      0.0%      0.0%
 number of processed stacks                 13177     100.0%      0.0%      0.0%
 average stack size                                     9.3       0.0       0.0
 marketing flops                   997.573504E+06
 -------------------------------------------------------------------------------
 # multiplications                           5628
 max memory usage/rank              44.882358E+09
 # max total images/rank                        1
 # max 3D layers                                1
 # MPI messages exchanged                       0
 -------------------------------------------------------------------------------
 -                                                                             -
 -                      DBCSR MESSAGE PASSING PERFORMANCE                      -
 -                                                                             -
 -------------------------------------------------------------------------------
 ROUTINE             CALLS      AVE VOLUME [Bytes]
 MP_Bcast              103                     12.
 MP_Allreduce         6575                     10.
 MP_Alltoall          6316                  11309.
 MP_ISend             5110                    491.
 MP_IRecv             5110                    491.
 -------------------------------------------------------------------------------

 -------------------------------------------------------------------------------
 -                                                                             -
 -                                GRID STATISTICS                              -
 -                                                                             -
 -------------------------------------------------------------------------------
 LP    KERNEL             BACKEND                              COUNT     PERCENT
 2     collocate ortho    CPU                                  98272      25.48%
 2     integrate ortho    CPU                                  98272      25.48%
 3     collocate ortho    CPU                                  69552      18.03%
 3     integrate ortho    CPU                                  69552      18.03%
 4     collocate ortho    CPU                                  25020       6.49%
 4     integrate ortho    CPU                                  25020       6.49%
 0     collocate general  CPU                                     20       0.01%
 -------------------------------------------------------------------------------

 -------------------------------------------------------------------------------
 -                                                                             -
 -                          OFFLOAD MEMPOOL STATISTICS                         -
 -                                                                             -
 -------------------------------------------------------------------------------
 Memory consumption                Number of allocations  Used [MiB]  Size [MiB]
 Host                                                  8         260    22262020
 -------------------------------------------------------------------------------

 MEMORY| Estimated peak process memory [MiB]                               15489

 -------------------------------------------------------------------------------
 -                                                                             -
 -                         MESSAGE PASSING PERFORMANCE                         -
 -                                                                             -
 -------------------------------------------------------------------------------

 ROUTINE             CALLS      AVE VOLUME [Bytes]
 MP_Group                5
 MP_Bcast              725                    615.
 MP_Allreduce         4078                    465.
 MP_Sync                53
 MP_comm_split          50
 -------------------------------------------------------------------------------


 -------------------------------------------------------------------------------
 -                                                                             -
 -                           R E F E R E N C E S                               -
 -                                                                             -
 -------------------------------------------------------------------------------
 
 CP2K version 2026.2 (Development Version), the CP2K developers group (2026).
 CP2K is freely available from https://www.cp2k.org/ .
 
 M. Iannuzzi, J. Wilhelm, F. Stein, A. Bussy, H. Elgabarty, D. Golze, A. Hehn, 
 M. Graml, S. Marek, B. Sertcan Gökmen, C. Schran, H. Forbert, R. Z. 
 Khaliullin, A. Kozhevnikov, M. Taillefumier, R. Meli, V. V. Rybkin, M. Brehm, 
 R. Schade, O. Schütt, J. V. Pototschnig, H. Mirhosseini, A. Knüpfer, D. Marx, 
 M. Krack, J. Hutter, T. D. Kühne.
 J. Phys. Chem. B 130, 1237-1310 (2026).
 The CP2K Program Package Made Simple.
 https://doi.org/10.1021/acs.jpcb.5c05851

 M. Graml, K. Zollner, D. Hernangómez-Pérez, P. E. Faria Junior, J. Wilhelm.
 J. Chem. Theory Comput. 20, 2202-2208 (2024).
 Low-scaling GW algorithm applied to twisted transition-metal dichalcogenide 
 heterobilayers.
 https://doi.org/10.1021/acs.jctc.3c01230

 T. D. Kühne, M. Iannuzzi, M. Del Ben, V. V. Rybkin, P. Seewald, F. Stein, T. 
 Laino, R. Z. Khaliullin, O. Schütt, F. Schiffmann, D. Golze, J. Wilhelm, S. 
 Chulkov, M. H. Bani-Hashemian, V. Weber, U. Borstnik, M. Taillefumier, A. S. 
 Jakobovits, A. Lazzaro, H. Pabst, T. Müller, R. Schade, M. Guidon, S. 
 Andermatt, N. Holmberg, G. K. Schenter, A. Hehn, A. Bussy, F. Belleflamme, G. 
 Tabacchi, A. Glöß, M. Lass, I. Bethune, C. J. Mundy, C. Plessl, M. Watkins, 
 J. VandeVondele, M. Krack, J. Hutter.
 J. Chem. Phys. 152, 194103 (2020).
 CP2K: An electronic structure and molecular dynamics software package - 
 Quickstep: Efficient and accurate electronic structure calculations.
 https://doi.org/10.1063/5.0007045

 O. Schuett, P. Messmer, J. Hutter, J. VandeVondele.
 Electronic Structure Calculations on Graphics Processing Units, 173-190 (2016).
 GPU-Accelerated Sparse Matrix-Matrix Multiplication for Linear Scaling Density 
 Functional Theory.
 https://doi.org/10.1002/9781118670712.ch8

 U. Borstnik, J. VandeVondele, V. Weber, J. Hutter.
 Parallel Comput. 40, 47-58 (2014).
 Sparse matrix multiplication: The distributed block-compressed sparse row 
 library.
 https://doi.org/10.1016/j.parco.2014.03.012

 J. VandeVondele, J. Hutter.
 J. Chem. Phys. 127, 114105 (2007).
 Gaussian basis sets for accurate calculations on molecular systems in gas and 
 condensed phases.
 https://doi.org/10.1063/1.2770708

 J. VandeVondele, M. Krack, F. Mohamed, M. Parrinello, T. Chassaing, J. Hutter.
 Comput. Phys. Commun. 167, 103-128 (2005).
 QUICKSTEP: Fast and accurate density functional calculations using a mixed 
 Gaussian and plane waves approach.
 https://doi.org/10.1016/j.cpc.2004.12.014

 M. Krack.
 Theor. Chem. Acc. 114, 145-152 (2005).
 Pseudopotentials for H to Kr optimized for gradient-corrected 
 exchange-correlation functionals.
 https://doi.org/10.1007/s00214-005-0655-y

 M. Frigo, S. G. Johnson.
 Proc. IEEE 93, 216-231 (2005).
 The design and implementation of FFTW3.
 https://doi.org/10.1109/JPROC.2004.840301

 J. VandeVondele, J. Hutter.
 J. Chem. Phys. 118, 4365-4369 (2003).
 An efficient orbital transformation method for electronic structure 
 calculations.
 https://doi.org/10.1063/1.1543154

 C. Hartwigsen, S. Goedecker, J. Hutter.
 Phys. Rev. B 58, 3641-3662 (1998).
 Relativistic separable dual-space Gaussian pseudopotentials from H to Rn.
 https://doi.org/10.1103/PhysRevB.58.3641

 G. Lippert, J. Hutter, M. Parrinello.
 Mol. Phys. 92, 477-487 (1997).
 A hybrid Gaussian and plane wave density functional scheme.
 https://doi.org/10.1080/002689797170220

 S. Goedecker, M. Teter, J. Hutter.
 Phys. Rev. B 54, 1703-1710 (1996).
 Separable dual-space Gaussian pseudopotentials.
 https://doi.org/10.1103/PhysRevB.54.1703

 J. P. Perdew, K. Burke, M. Ernzerhof.
 Phys. Rev. Lett. 77, 3865-3868 (1996).
 Generalized gradient approximation made simple.
 https://doi.org/10.1103/PhysRevLett.77.3865

 P. E. Blöchl.
 J. Chem. Phys. 103, 7422-7428 (1995).
 Electrostatic decoupling of periodic images of plane‐wave‐expanded 
 densities and derived atomic point charges.
 https://doi.org/10.1063/1.470314

 R. H. Byrd, P. H. Lu, J. Nocedal, C. Y. Zhu.
 SIAM J. Sci. Comput. 16, 1190-1208 (1995).
 A Limited Memory Algorithm for Bound Constrained Optimization.
 https://doi.org/10.1137/0916069


 -------------------------------------------------------------------------------
 -                                                                             -
 -                                T I M I N G                                  -
 -                                                                             -
 -------------------------------------------------------------------------------
 SUBROUTINE                       CALLS  ASD         SELF TIME        TOTAL TIME MAXRANK
                                MAXIMUM       AVERAGE  MAXIMUM  AVERAGE  MAXIMUM
 CP2K                                 1  1.0    0.047    0.047  249.670  249.670       0
 qs_energies                          1  2.0    0.003    0.003  242.910  242.910       0
 scf_env_do_scf                       1  3.0    0.000    0.000  237.136  237.136       0
 scf_env_do_scf_inner_loop           41  4.0    0.005    0.005  232.697  232.697       0
 qs_ks_build_kohn_sham_matrix        42  7.0    0.039    0.039  183.048  183.048       0
 qs_ks_update_qs_env                 42  5.0    0.000    0.000  181.730  181.730       0
 rebuild_ks_matrix                   41  6.0    0.000    0.000  181.727  181.727       0
 fft_wrap_pw1pw2                    708 10.3    0.010    0.010  150.782  150.782       0
 fft_wrap_pw1pw2_300                456 11.8    8.323    8.323  146.178  146.178       0
 qs_vxc_create                       42  8.0    0.001    0.001  126.752  126.752       0
 xc_vxc_pw_create                    41  9.0    6.094    6.094  126.751  126.751       0
 xc_pw_derive                       246 11.0    0.001    0.001   90.492   90.492       0
 fft3d_s                            709 12.3   84.507   84.507   84.548   84.548       0
 xc_pw_divergence                    41 10.0    0.001    0.001   60.738   60.738       0
 xc_rho_set_and_dset_create          41 10.0    3.445    3.445   57.953   57.953       0
 qs_rho_update_rho_low               42  5.0    0.000    0.000   55.939   55.939       0
 calculate_rho_elec                  42  6.0    4.207    4.207   55.939   55.939       0
 density_rs2pw                       42  7.0    0.002    0.002   31.734   31.734       0
 pw_scatter_s                       374 12.8   31.504   31.504   31.504   31.504       0
 qs_ks_ddapc                         42  8.0    0.001    0.001   20.571   20.571       0
 grid_collocate_task_list            42  7.0   19.998   19.998   19.998   19.998       0
 sum_up_and_integrate                42  8.0    0.001    0.001   18.906   18.906       0
 integrate_v_rspace                  42  9.0    0.002    0.002   18.015   18.015       0
 potential_pw2rs                     42 10.0    0.161    0.161   17.819   17.819       0
 pw_poisson_solve                    42  8.0    0.001    0.001   15.391   15.391       0
 pw_gather_s                        334 11.8   14.196   14.196   14.196   14.196       0
 pw_derive                          372 11.3   13.690   13.690   13.690   13.690       0
 pw_integral_ab_c1d_c1d_gs           84  9.5   12.491   12.491   12.491   12.491       0
 pw_copy                            668 10.6    9.636    9.636    9.636    9.636       0
 cp_ddapc_apply_CD                   42  9.0    0.002    0.002    7.279    7.279       0
 pw_poisson_set                      43  9.0    0.001    0.001    6.755    6.755       0
 xc_functional_eval                  41 11.0    0.000    0.000    6.512    6.512       0
 pbe_lda_eval                        41 12.0    6.511    6.511    6.511    6.511       0
 qs_init_subsys                       1  2.0    0.012    0.012    6.499    6.499       0
 qs_env_setup                         1  3.0    0.000    0.000    6.467    6.467       0
 qs_env_rebuild_pw_env                2  3.5    0.000    0.000    6.465    6.465       0
 pw_env_rebuild                       1  5.0    0.003    0.003    6.465    6.465       0
 pw_grid_setup                        5  5.2    0.001    0.001    6.460    6.460       0
 pw_grid_setup_internal               5  6.2    0.082    0.082    6.459    6.459       0
 pw_grid_sort                         5  7.2    4.708    4.708    6.087    6.087       0
 pw_copy_from_array                 374 12.8    5.943    5.943    5.943    5.943       0
 pw_copy_to_array                   334 11.8    5.837    5.837    5.837    5.837       0
 pw_axpy                            425  9.1    5.341    5.341    5.341    5.341       0
 init_scf_loop                        1  4.0    0.008    0.008    4.439    4.439       0
 fft_wrap_pw1pw2_100                 84 10.5    0.411    0.411    4.053    4.053       0
 qs_energies_properties               1  3.0    0.000    0.000    3.604    3.604       0
 post_scf_bandstructure               1  4.0    0.000    0.000    3.604    3.604       0
 gw                                   1  5.0    0.000    0.000    3.594    3.594       0
 create_and_init_bs_env_for_gw        1  6.0    0.011    0.011    2.676    2.676       0
 pw_zero                            225  9.8    2.288    2.288    2.288    2.288       0
 init_scf_run                         1  3.0    0.001    0.001    1.509    1.509       0
 scf_env_initial_rho_setup            1  4.0    0.001    0.001    1.508    1.508       0
 pw_scale                           165  9.8    1.487    1.487    1.487    1.487       0
 sort_shells                          5  8.2    1.379    1.379    1.379    1.379       0
 compute_V_xc                         1  7.0    0.000    0.000    1.322    1.322       0
 generate_auto_ri_basis               1  7.0    0.000    0.000    0.986    0.986       0
 gw_calc_non_periodic_ri_rs           1  6.0    0.000    0.000    0.918    0.918       0
 pw_multiply_with                    42  9.0    0.897    0.897    0.897    0.897       0
 qs_scf_new_mos                      41  5.0    0.000    0.000    0.863    0.863       0
 qs_scf_loop_do_ot                   41  6.0    0.000    0.000    0.863    0.863       0
 transfer_rs2pw                     169  8.0    0.002    0.002    0.858    0.858       0
 get_ddapc                           42 10.0    0.001    0.001    0.830    0.830       0
 ot_scf_mini                         41  7.0    0.022    0.022    0.829    0.829       0
 transfer_pw2rs                     168 11.0    0.001    0.001    0.798    0.798       0
 transfer_rs2pw_300                  43  9.0    0.688    0.688    0.688    0.688       0
 xc_pw_smooth                        41 10.0    0.000    0.000    0.671    0.671       0
 qs_energies_init_hamiltonians        1  3.0    0.003    0.003    0.649    0.649       0
 transfer_pw2rs_300                  42 12.0    0.645    0.645    0.645    0.645       0
 compute_M_PQ_AB                    754 11.0    0.001    0.001    0.606    0.606       0
 compute_M_PQ                       754 12.0    0.001    0.001    0.605    0.605       0
 int_operators_r12_ab_os            754 13.0    0.000    0.000    0.604    0.604       0
 int_operator_ab_os_low             754 14.0    0.281    0.281    0.604    0.604       0
 qs_env_update_s_mstruct              1  4.0    0.001    0.001    0.594    0.594       0
 compute_M_pq_inv_and_V_pq            1  8.0    0.000    0.000    0.584    0.584       0
 compute_contracted_RI_matrix         2  9.0    0.001    0.001    0.582    0.582       0
 compute_optimized_RI_matrix_bl      72 10.0    0.017    0.017    0.579    0.579       0
 ot_mini                             41  8.0    0.000    0.000    0.572    0.572       0
 calculate_rho_core                   1  5.0    0.101    0.101    0.470    0.470       0
 qs_ot_get_derivative                41  9.0    0.106    0.106    0.465    0.465       0
 fft_wrap_pw1pw2_40                  84 10.5    0.033    0.033    0.418    0.418       0
 compute_AB_optimized_RI_basis        1  8.0    0.000    0.000    0.381    0.381       0
 compute_AB_optimized_RI_basis_       1  9.0    0.000    0.000    0.381    0.381       0
 qs_ot_get_derivative_diag           40 10.0    0.350    0.350    0.356    0.356       0
 compute_B_PQ_AB                     13 10.0    0.099    0.099    0.325    0.325       0
 setup_time_and_frequency_minim       1  7.0    0.000    0.000    0.324    0.324       0
 compute_Sigma_c_and_QP_energie       1  7.0    0.000    0.000    0.308    0.308       0
 pw_grid_assign                       5  7.2    0.289    0.289    0.289    0.289       0
 compute_Sigma_c                      1  8.0    0.007    0.007    0.289    0.289       0
 modify_hartree_pot                  42 10.0    0.264    0.264    0.264    0.264       0
 -------------------------------------------------------------------------------

 The number of warnings for this run is : 2
 
 -------------------------------------------------------------------------------
  **** **** ******  **  PROGRAM ENDED AT                 2026-09-18 01:48:39.782
 ***** ** ***  *** **   PROGRAM RAN ON                                  n2cn0868
 **    ****   ******    PROGRAM RAN BY                                  eprop2d1
 ***** **    ** ** **   PROGRAM PROCESS ID                                264522
  **** **  *******  **  PROGRAM STOPPED IN /scratch/hpc-prf-metdyn/eprop2d1_Jan/
                                           53_benchmark_RI_opt/122_GW100_GTH_Leb
                                           edev_RIAO2345_rc05_metdyn/calculation
                                           s/41_Si2H6_riao2_r02
