 DBCSR| CPU Multiplication driver                                           XSMM (U)
 DBCSR| Multrec recursion limit                                              512 (U)
 DBCSR| Multiplication stack size                                           1000 (D)
 DBCSR| Maximum elements for images                                    UNLIMITED (U)
 DBCSR| Multiplicative factor virtual images                                   1 (U)
 DBCSR| Use multiplication densification                                       T (D)
 DBCSR| Multiplication size stacks                                             3 (U)
 DBCSR| Use memory pool for CPU allocation                                     F (U)
 DBCSR| Number of 3D layers                                               SINGLE (U)
 DBCSR| Use MPI memory allocation                                              F (U)
 DBCSR| Use RMA algorithm                                                      F (U)
 DBCSR| Use Communication thread                                               T (U)
 DBCSR| Communication thread load                                             75 (D)
 DBCSR| MPI: My process id                                                     0
 DBCSR| MPI: Number of processes                                              32
 DBCSR| OMP: Current number of threads                                         4
 DBCSR| OMP: Max number of threads                                             4
 DBCSR| Split modifier for TAS multiplication algorithm                  1.0E+00 (U)


  **** **** ******  **  PROGRAM STARTED AT               2026-09-17 22:49:43.586
 ***** ** ***  *** **   PROGRAM STARTED ON                              n2cn0503
 **    ****   ******    PROGRAM STARTED BY                              eprop2d1
 ***** **    ** ** **   PROGRAM PROCESS ID                                280053
  **** **  *******  **  PROGRAM STARTED IN /scratch/hpc-prf-metdyn/eprop2d1_Jan/
                                           53_benchmark_RI_opt/129_GW100_Si293_A
                                           O_frontier_optimization_coopfst/follo
                                           wups/pbe_g0w0/gw100/19_I2/dzvp_t1

 CP2K| version string:                 CP2K version 2026.2 (Development Version)
 CP2K| source code revision number:                                      d1dff42
 CP2K| cp2kflags: omp libint fftw3 libxc parallel scalapack openblas            
 CP2K| is freely available from                            https://www.cp2k.org/
 CP2K| Program compiled at                                   2026-09-17 17:57:35
 CP2K| Program compiled on                                              n2login6
 CP2K| Program compiled for                                               x86_64
 CP2K| Data directory path    /scratch/hpc-prf-metdyn/eprop2d1_Jan/53_benchmark_
 CP2K| Input file name        /scratch/hpc-prf-metdyn/eprop2d1_Jan/53_benchmark_

 GLOBAL| Force Environment number                                              1
 GLOBAL| Basis set file name            /scratch/hpc-prf-metdyn/eprop2d1_Jan/53_
 GLOBAL| Potential file name            /scratch/hpc-prf-metdyn/eprop2d1_Jan/53_
 GLOBAL| MM Potential file name                                     MM_POTENTIAL
 GLOBAL| Coordinate file name                                      __STD_INPUT__
 GLOBAL| Method name                                                        CP2K
 GLOBAL| Project name                                              gw129g_019_d1
 GLOBAL| Run type                                                         ENERGY
 GLOBAL| FFT library                                                       FFTW3
 GLOBAL| Diagonalization library                                       ScaLAPACK
 GLOBAL| Cholesky decomposition library                                ScaLAPACK
 GLOBAL| DGEMM library                                                      BLAS
 GLOBAL| Direct generalized diagonalization requested                          F
 GLOBAL| Orthonormality check for eigenvectors                          DISABLED
 GLOBAL| Matrix multiplication library                                 ScaLAPACK
 GLOBAL| All-to-all communication in single precision                          F
 GLOBAL| Grid backend                                                       AUTO
 GLOBAL| Global print level                                               MEDIUM
 GLOBAL| MPI I/O enabled                                                       T
 GLOBAL| Total number of message passing processes                            32
 GLOBAL| Number of distributed systems (nodes)                                 1
 GLOBAL| Number of threads for this process                                    4
 GLOBAL| This output is from process                                           0
 GLOBAL| OpenMP stack size per thread (OMP_STACKSIZE)                       512M
 GLOBAL| CPU model name                          AMD EPYC 7763 64-Core Processor

 MEMORY| system memory details [Kb]
 MEMORY|                        rank 0           min           max       average
 MEMORY| MemTotal            263897600     263897600     263897600     263897600
 MEMORY| MemFree             245518852     245518852     245518852     245518852
 MEMORY| Buffers                325640        325640        325640        325640
 MEMORY| Cached                7575340       7575340       7575340       7575340
 MEMORY| Slab                  1376440       1376440       1376440       1376440
 MEMORY| SReclaimable           275736        275736        275736        275736
 MEMORY| MemLikelyFree       253695568     253695568     253695568     253695568


 *** Fundamental physical constants (SI units) ***

 *** Literature: B. J. Mohr and B. N. Taylor,
 ***             CODATA recommended values of the fundamental physical
 ***             constants: 2006, Web Version 5.1
 ***             http://physics.nist.gov/constants

 Speed of light in vacuum [m/s]                             2.99792458000000E+08
 Magnetic constant or permeability of vacuum [N/A**2]       1.25663706143592E-06
 Electric constant or permittivity of vacuum [F/m]          8.85418781762039E-12
 Planck constant (h) [J*s]                                  6.62606896000000E-34
 Planck constant (h-bar) [J*s]                              1.05457162825177E-34
 Elementary charge [C]                                      1.60217648700000E-19
 Electron mass [kg]                                         9.10938215000000E-31
 Electron g factor [ ]                                     -2.00231930436220E+00
 Proton mass [kg]                                           1.67262163700000E-27
 Fine-structure constant                                    7.29735253760000E-03
 Rydberg constant [1/m]                                     1.09737315685270E+07
 Avogadro constant [1/mol]                                  6.02214179000000E+23
 Boltzmann constant [J/K]                                   1.38065040000000E-23
 Atomic mass unit [kg]                                      1.66053878200000E-27
 Bohr radius [m]                                            5.29177208590000E-11

 *** Conversion factors ***

 [u] -> [a.u.]                                              1.82288848426455E+03
 [Angstrom] -> [Bohr] = [a.u.]                              1.88972613288564E+00
 [a.u.] = [Bohr] -> [Angstrom]                              5.29177208590000E-01
 [a.u.] -> [s]                                              2.41888432650478E-17
 [a.u.] -> [fs]                                             2.41888432650478E-02
 [a.u.] -> [J]                                              4.35974393937059E-18
 [a.u.] -> [N]                                              8.23872205491840E-08
 [a.u.] -> [K]                                              3.15774647902944E+05
 [a.u.] -> [kJ/mol]                                         2.62549961709828E+03
 [a.u.] -> [kcal/mol]                                       6.27509468713739E+02
 [a.u.] -> [Pa]                                             2.94210107994716E+13
 [a.u.] -> [bar]                                            2.94210107994716E+08
 [a.u.] -> [atm]                                            2.90362800883016E+08
 [a.u.] -> [eV]                                             2.72113838565563E+01
 [a.u.] -> [Hz]                                             6.57968392072181E+15
 [a.u.] -> [1/cm] (wave numbers)                            2.19474631370540E+05
 [a.u./Bohr**2] -> [1/cm]                                   5.14048714338585E+03
 

 CELL| Volume [angstrom^3]:                                          8000.000000
 CELL| Vector a [angstrom]:      20.000     0.000     0.000   |a| =    20.000000
 CELL| Vector b [angstrom]:       0.000    20.000     0.000   |b| =    20.000000
 CELL| Vector c [angstrom]:       0.000     0.000    20.000   |c| =    20.000000
 CELL| Angle (b,c), alpha [degree]:                                    90.000000
 CELL| Angle (a,c), beta  [degree]:                                    90.000000
 CELL| Angle (a,b), gamma [degree]:                                    90.000000
 CELL| Numerically orthorhombic:                                             YES
 CELL| Periodicity                                                          NONE

 CELL_REF| Volume [angstrom^3]:                                      8000.000000
 CELL_REF| Vector a [angstrom    20.000     0.000     0.000   |a| =    20.000000
 CELL_REF| Vector b [angstrom     0.000    20.000     0.000   |b| =    20.000000
 CELL_REF| Vector c [angstrom     0.000     0.000    20.000   |c| =    20.000000
 CELL_REF| Angle (b,c), alpha [degree]:                                90.000000
 CELL_REF| Angle (a,c), beta  [degree]:                                90.000000
 CELL_REF| Angle (a,b), gamma [degree]:                                90.000000
 CELL_REF| Numerically orthorhombic:                                         YES
 CELL_REF| Periodicity                                                      NONE

 GENERATE|  Preliminary Number of Bonds generated:                             0
 GENERATE|  Achieved consistency in connectivity generation.

 PW_GRID| Information for grid number                                          1
 PW_GRID| Cutoff [a.u.]                                                      8.0
 PW_GRID| spherical cutoff:                                                   NO
 PW_GRID|   Bounds   1              0      49                Points:          50
 PW_GRID|   Bounds   2              0      49                Points:          50
 PW_GRID|   Bounds   3              0      49                Points:          50
 PW_GRID| Volume element (a.u.^3)  0.4319         Volume (a.u.^3)     53986.6767
 PW_GRID| Grid span                                                    HALFSPACE

 *******************************************************************************
 *******************************************************************************
 **                                                                           **
 **     #####                         ##              ##                      **
 **    ##   ##            ##          ##              ##                      **
 **   ##     ##                       ##            ######                    **
 **   ##     ##  ##   ##  ##   #####  ##  ##   ####   ##    #####    #####    **
 **   ##     ##  ##   ##  ##  ##      ## ##   ##      ##   ##   ##  ##   ##   **
 **   ##  ## ##  ##   ##  ##  ##      ####     ###    ##   ######   ######    **
 **    ##  ###   ##   ##  ##  ##      ## ##      ##   ##   ##       ##        **
 **     #######   #####   ##   #####  ##  ##  ####    ##    #####   ##        **
 **           ##                                                    ##        **
 **                                                                           **
 **                                                ... make the atoms dance   **
 **                                                                           **
 **            Copyright (C) by CP2K developers group (2000-2026)             **
 **                      J. Chem. Phys. 152, 194103 (2020)                    **
 **                                                                           **
 *******************************************************************************

 DFT| Spin restricted Kohn-Sham (RKS) calculation                            RKS
 DFT| Multiplicity                                                             1
 DFT| Number of spin states                                                    1
 DFT| Charge                                                                   0
 DFT| Self-interaction correction (SIC)                                       NO
 DFT| Cutoffs: density                                              1.000000E-10
 DFT|          gradient                                             1.000000E-10
 DFT|          tau                                                  1.000000E-10
 DFT|          cutoff_smoothing_range                               0.000000E+00
 DFT| XC density smoothing                                                  NONE
 DFT| XC derivatives                                                          PW

 FUNCTIONAL| PBE:
 FUNCTIONAL| J.P.Perdew, K.Burke, M.Ernzerhof, Phys. Rev. Letter, vol. 77, n 18,
 FUNCTIONAL|  pp. 3865-3868, (1996) {spin unpolarized}                          


 QS| Method:                                                                 GPW
 QS| Density plane wave grid type                        NON-SPHERICAL FULLSPACE
 QS| Number of grid levels:                                                    5
 QS| Density cutoff [a.u.]:                                                300.0
 QS| Multi grid cutoff [a.u.]: 1) grid level                               300.0
 QS|                           2) grid level                               100.0
 QS|                           3) grid level                                33.3
 QS|                           4) grid level                                11.1
 QS|                           5) grid level                                 3.7
 QS| Grid level progression factor:                                          3.0
 QS| Relative density cutoff [a.u.]:                                        30.0
 QS| Interaction thresholds: eps_pgf_orb:                                1.0E-12
 QS|                         eps_filter_matrix:                          0.0E+00
 QS|                         eps_core_charge:                            1.0E-14
 QS|                         eps_rho_gspace:                             1.0E-12
 QS|                         eps_rho_rspace:                             1.0E-12
 QS|                         eps_gvg_rspace:                             1.0E-06
 QS|                         eps_ppl:                                    1.0E-02
 QS|                         eps_ppnl:                                   1.0E-08


 ATOMIC KIND INFORMATION

  1. Atomic kind: I                                     Number of atoms:       2

     Orbital Basis Set                              AUG-DZVP-MOLOPT-GTH-TIER-1_4

       Number of orbital shell sets:                                           1
       Number of orbital shells:                                               8
       Number of primitive Cartesian functions:                                7
       Number of Cartesian basis functions:                                   24
       Number of spherical basis functions:                                   22
       Norm type:                                                              2

       Normalised Cartesian orbitals:

                        Set   Shell   Orbital            Exponent    Coefficient

                          1       1    2s                0.050000       0.000000
                                                         0.083015       0.018311
                                                         0.129293       0.000000
                                                         0.201369       0.106470
                                                         0.367159       0.255165
                                                         0.828886      -0.032154
                                                         0.966173      -0.369082

                          1       2    3s                0.050000       0.000000
                                                         0.083015       0.114144
                                                         0.129293       0.000000
                                                         0.201369      -0.176710
                                                         0.367159       0.224539
                                                         0.828886      -0.128297
                                                         0.966173       0.365828

                          1       3    4s                0.050000       0.043220
                                                         0.083015      -0.236368
                                                         0.129293       0.037239
                                                         0.201369       0.023800
                                                         0.367159       0.447442
                                                         0.828886      -1.723729
                                                         0.966173       1.116022

                          1       4    3px               0.050000       0.000000
                                                         0.083015       0.016495
                                                         0.129293       0.000000
                                                         0.201369       0.101262
                                                         0.367159       0.107862
                                                         0.828886       0.783765
                                                         0.966173      -1.009678
                          1       4    3py               0.050000       0.000000
                                                         0.083015       0.016495
                                                         0.129293       0.000000
                                                         0.201369       0.101262
                                                         0.367159       0.107862
                                                         0.828886       0.783765
                                                         0.966173      -1.009678
                          1       4    3pz               0.050000       0.000000
                                                         0.083015       0.016495
                                                         0.129293       0.000000
                                                         0.201369       0.101262
                                                         0.367159       0.107862
                                                         0.828886       0.783765
                                                         0.966173      -1.009678

                          1       5    4px               0.050000       0.000000
                                                         0.083015       0.070819
                                                         0.129293       0.000000
                                                         0.201369      -0.005288
                                                         0.367159      -0.086584
                                                         0.828886      -0.149564
                                                         0.966173       0.233698
                          1       5    4py               0.050000       0.000000
                                                         0.083015       0.070819
                                                         0.129293       0.000000
                                                         0.201369      -0.005288
                                                         0.367159      -0.086584
                                                         0.828886      -0.149564
                                                         0.966173       0.233698
                          1       5    4pz               0.050000       0.000000
                                                         0.083015       0.070819
                                                         0.129293       0.000000
                                                         0.201369      -0.005288
                                                         0.367159      -0.086584
                                                         0.828886      -0.149564
                                                         0.966173       0.233698

                          1       6    5px               0.050000      -0.035346
                                                         0.083015       0.000339
                                                         0.129293       0.069902
                                                         0.201369      -0.107732
                                                         0.367159      -0.104081
                                                         0.828886       0.318353
                                                         0.966173      -0.304670
                          1       6    5py               0.050000      -0.035346
                                                         0.083015       0.000339
                                                         0.129293       0.069902
                                                         0.201369      -0.107732
                                                         0.367159      -0.104081
                                                         0.828886       0.318353
                                                         0.966173      -0.304670
                          1       6    5pz               0.050000      -0.035346
                                                         0.083015       0.000339
                                                         0.129293       0.069902
                                                         0.201369      -0.107732
                                                         0.367159      -0.104081
                                                         0.828886       0.318353
                                                         0.966173      -0.304670

                          1       7    4dx2              0.050000       0.000000
                                                         0.083015      -0.003796
                                                         0.129293       0.000000
                                                         0.201369      -0.050939
                                                         0.367159      -0.113356
                                                         0.828886      -0.290637
                                                         0.966173       0.425303
                          1       7    4dxy              0.050000       0.000000
                                                         0.083015      -0.006576
                                                         0.129293       0.000000
                                                         0.201369      -0.088229
                                                         0.367159      -0.196338
                                                         0.828886      -0.503398
                                                         0.966173       0.736647
                          1       7    4dxz              0.050000       0.000000
                                                         0.083015      -0.006576
                                                         0.129293       0.000000
                                                         0.201369      -0.088229
                                                         0.367159      -0.196338
                                                         0.828886      -0.503398
                                                         0.966173       0.736647
                          1       7    4dy2              0.050000       0.000000
                                                         0.083015      -0.003796
                                                         0.129293       0.000000
                                                         0.201369      -0.050939
                                                         0.367159      -0.113356
                                                         0.828886      -0.290637
                                                         0.966173       0.425303
                          1       7    4dyz              0.050000       0.000000
                                                         0.083015      -0.006576
                                                         0.129293       0.000000
                                                         0.201369      -0.088229
                                                         0.367159      -0.196338
                                                         0.828886      -0.503398
                                                         0.966173       0.736647
                          1       7    4dz2              0.050000       0.000000
                                                         0.083015      -0.003796
                                                         0.129293       0.000000
                                                         0.201369      -0.050939
                                                         0.367159      -0.113356
                                                         0.828886      -0.290637
                                                         0.966173       0.425303

                          1       8    5dx2              0.050000      -0.000823
                                                         0.083015      -0.016229
                                                         0.129293       0.005260
                                                         0.201369      -0.062042
                                                         0.367159       0.153884
                                                         0.828886       0.612973
                                                         0.966173      -0.648332
                          1       8    5dxy              0.050000      -0.001426
                                                         0.083015      -0.028109
                                                         0.129293       0.009111
                                                         0.201369      -0.107460
                                                         0.367159       0.266535
                                                         0.828886       1.061700
                                                         0.966173      -1.122944
                          1       8    5dxz              0.050000      -0.001426
                                                         0.083015      -0.028109
                                                         0.129293       0.009111
                                                         0.201369      -0.107460
                                                         0.367159       0.266535
                                                         0.828886       1.061700
                                                         0.966173      -1.122944
                          1       8    5dy2              0.050000      -0.000823
                                                         0.083015      -0.016229
                                                         0.129293       0.005260
                                                         0.201369      -0.062042
                                                         0.367159       0.153884
                                                         0.828886       0.612973
                                                         0.966173      -0.648332
                          1       8    5dyz              0.050000      -0.001426
                                                         0.083015      -0.028109
                                                         0.129293       0.009111
                                                         0.201369      -0.107460
                                                         0.367159       0.266535
                                                         0.828886       1.061700
                                                         0.966173      -1.122944
                          1       8    5dz2              0.050000      -0.000823
                                                         0.083015      -0.016229
                                                         0.129293       0.005260
                                                         0.201369      -0.062042
                                                         0.367159       0.153884
                                                         0.828886       0.612973
                                                         0.966173      -0.648332

     RI Auxiliary Basis Set             RI_aug-DZVP-MOLOPT-GTH-tier-1_N_RI_097_s

       Number of orbital shell sets:                                          25
       Number of orbital shells:                                              25
       Number of primitive Cartesian functions:                               25
       Number of Cartesian basis functions:                                  121
       Number of spherical basis functions:                                   97
       Norm type:                                                              2

       Normalised Cartesian orbitals:

                        Set   Shell   Orbital            Exponent    Coefficient

                          1       1    1s                0.125000       0.149828

                          2       1    2s                0.191385       0.206225

                          3       1    3s                0.293027       0.283851

                          4       1    4s                0.448649       0.390697

                          5       1    5s                0.686919       0.537761

                          6       1    6s                1.051731       0.740182

                          7       1    7s                1.610288       1.018797

                          8       1    8px               0.125000       0.105944
                          8       1    8py               0.125000       0.105944
                          8       1    8pz               0.125000       0.105944

                          9       1    9px               0.208405       0.200713
                          9       1    9py               0.208405       0.200713
                          9       1    9pz               0.208405       0.200713

                         10       1   10px               0.347462       0.380255
                         10       1   10py               0.347462       0.380255
                         10       1   10pz               0.347462       0.380255

                         11       1   11px               0.579304       0.720399
                         11       1   11py               0.579304       0.720399
                         11       1   11pz               0.579304       0.720399

                         12       1   12px               0.965839       1.364807
                         12       1   12py               0.965839       1.364807
                         12       1   12pz               0.965839       1.364807

                         13       1   13px               1.610288       2.585649
                         13       1   13py               1.610288       2.585649
                         13       1   13pz               1.610288       2.585649

                         14       1   14dx2              0.125000       0.043252
                         14       1   14dxy              0.125000       0.074914
                         14       1   14dxz              0.125000       0.074914
                         14       1   14dy2              0.125000       0.043252
                         14       1   14dyz              0.125000       0.074914
                         14       1   14dz2              0.125000       0.043252

                         15       1   15dx2              0.208405       0.105803
                         15       1   15dxy              0.208405       0.183257
                         15       1   15dxz              0.208405       0.183257
                         15       1   15dy2              0.208405       0.105803
                         15       1   15dyz              0.208405       0.183257
                         15       1   15dz2              0.208405       0.105803

                         16       1   16dx2              0.347462       0.258820
                         16       1   16dxy              0.347462       0.448289
                         16       1   16dxz              0.347462       0.448289
                         16       1   16dy2              0.347462       0.258820
                         16       1   16dyz              0.347462       0.448289
                         16       1   16dz2              0.347462       0.258820

                         17       1   17dx2              0.579304       0.633134
                         17       1   17dxy              0.579304       1.096619
                         17       1   17dxz              0.579304       1.096619
                         17       1   17dy2              0.579304       0.633134
                         17       1   17dyz              0.579304       1.096619
                         17       1   17dz2              0.579304       0.633134

                         18       1   18dx2              0.965839       1.548792
                         18       1   18dxy              0.965839       2.682586
                         18       1   18dxz              0.965839       2.682586
                         18       1   18dy2              0.965839       1.548792
                         18       1   18dyz              0.965839       2.682586
                         18       1   18dz2              0.965839       1.548792

                         19       1   19dx2              1.610288       3.788705
                         19       1   19dxy              1.610288       6.562230
                         19       1   19dxz              1.610288       6.562230
                         19       1   19dy2              1.610288       3.788705
                         19       1   19dyz              1.610288       6.562230
                         19       1   19dz2              1.610288       3.788705

                         20       1   20fx3              0.125000       0.013677
                         20       1   20fx2y             0.125000       0.030583
                         20       1   20fx2z             0.125000       0.030583
                         20       1   20fxy2             0.125000       0.030583
                         20       1   20fxyz             0.125000       0.052972
                         20       1   20fxz2             0.125000       0.030583
                         20       1   20fy3              0.125000       0.013677
                         20       1   20fy2z             0.125000       0.030583
                         20       1   20fyz2             0.125000       0.030583
                         20       1   20fz3              0.125000       0.013677

                         21       1   21fx3              0.208405       0.043202
                         21       1   21fx2y             0.208405       0.096602
                         21       1   21fx2z             0.208405       0.096602
                         21       1   21fxy2             0.208405       0.096602
                         21       1   21fxyz             0.208405       0.167319
                         21       1   21fxz2             0.208405       0.096602
                         21       1   21fy3              0.208405       0.043202
                         21       1   21fy2z             0.208405       0.096602
                         21       1   21fyz2             0.208405       0.096602
                         21       1   21fz3              0.208405       0.043202

                         22       1   22fx3              0.347462       0.136457
                         22       1   22fx2y             0.347462       0.305127
                         22       1   22fx2z             0.347462       0.305127
                         22       1   22fxy2             0.347462       0.305127
                         22       1   22fxyz             0.347462       0.528496
                         22       1   22fxz2             0.347462       0.305127
                         22       1   22fy3              0.347462       0.136457
                         22       1   22fy2z             0.347462       0.305127
                         22       1   22fyz2             0.347462       0.305127
                         22       1   22fz3              0.347462       0.136457

                         23       1   23fx3              0.579304       0.431016
                         23       1   23fx2y             0.579304       0.963781
                         23       1   23fx2z             0.579304       0.963781
                         23       1   23fxy2             0.579304       0.963781
                         23       1   23fxyz             0.579304       1.669318
                         23       1   23fxz2             0.579304       0.963781
                         23       1   23fy3              0.579304       0.431016
                         23       1   23fy2z             0.579304       0.963781
                         23       1   23fyz2             0.579304       0.963781
                         23       1   23fz3              0.579304       0.431016

                         24       1   24fx3              0.965839       1.361415
                         24       1   24fx2y             0.965839       3.044216
                         24       1   24fx2z             0.965839       3.044216
                         24       1   24fxy2             0.965839       3.044216
                         24       1   24fxyz             0.965839       5.272737
                         24       1   24fxz2             0.965839       3.044216
                         24       1   24fy3              0.965839       1.361415
                         24       1   24fy2z             0.965839       3.044216
                         24       1   24fyz2             0.965839       3.044216
                         24       1   24fz3              0.965839       1.361415

                         25       1   25fx3              1.610288       4.300190
                         25       1   25fx2y             1.610288       9.615517
                         25       1   25fx2z             1.610288       9.615517
                         25       1   25fxy2             1.610288       9.615517
                         25       1   25fxyz             1.610288      16.654565
                         25       1   25fxz2             1.610288       9.615517
                         25       1   25fy3              1.610288       4.300190
                         25       1   25fy2z             1.610288       9.615517
                         25       1   25fyz2             1.610288       9.615517
                         25       1   25fz3              1.610288       4.300190

       Atomic covalent radius [Angstrom]:                                  1.330

       Atomic van der Waals radius [Angstrom]:                             1.980

     GTH Potential information for                                       GTH-PBE

       Description:                       Goedecker-Teter-Hutter pseudopotential
                                           Goedecker et al., PRB 54, 1703 (1996)
                                          Hartwigsen et al., PRB 58, 3641 (1998)
                                                      Krack, TCA 114, 145 (2005)

       Gaussian exponent of the core charge distribution:               1.594388
       Electronic configuration (s p d ...):                               2   5

       Parameters of the local part of the GTH pseudopotential:

                          rloc        C1          C2          C3          C4
                        0.560000    8.207102

       Parameters of the non-local part of the GTH pseudopotential:

                   l      r(l)      h(i,j,l)

                   0    0.531928    2.308146    1.003909   -0.959156
                                    1.003909   -2.856109    2.476530
                                   -0.959156    2.476530   -1.965685
                   1    0.589182    0.906482    0.425071
                                    0.425071   -0.502950
                   2    0.739721    0.479195


 MOLECULE KIND INFORMATION


 All atoms are their own molecule, skipping detailed information


 TOTAL NUMBERS AND MAXIMUM NUMBERS

  Total number of            - Atomic kinds:                                   1
                             - Atoms:                                          2
                             - Shell sets:                                     2
                             - Shells:                                        16
                             - Primitive Cartesian functions:                 14
                             - Cartesian basis functions:                     48
                             - Spherical basis functions:                     44

  Maximum angular momentum of- Orbital basis functions:                        2
                             - Local part of the GTH pseudopotential:          0
                             - Non-local part of the GTH pseudopotential:      4


 MODULE QUICKSTEP: ATOMIC COORDINATES IN ANGSTROM

   Atom Kind Element         X             Y             Z       Z(eff)     Mass
      1    1 I    53     10.000000     10.000000      8.666850   7.0000 126.9045
      2    1 I    53     10.000000     10.000000     11.333150   7.0000 126.9045



 SCF PARAMETERS         Density guess:                                    ATOMIC
                        --------------------------------------------------------
                        max_scf:                                             200
                        max_scf_history:                                       0
                        max_diis:                                              4
                        --------------------------------------------------------
                        eps_scf:                                        1.00E-07
                        eps_scf_history:                                0.00E+00
                        eps_diis:                                       1.00E-01
                        eps_eigval:                                     1.00E-05
                        --------------------------------------------------------
                        level_shift [a.u.]:                             0.000000
                        SCF update method:                                MIXING
                        added MOs                                        37    0
                        --------------------------------------------------------
                        Mixing method:                            BROYDEN_MIXING
                                                charge density mixing in g-space
                        --------------------------------------------------------
                        Outer loop SCF in use 
                        No variables optimised in outer loop
                        eps_scf                                         1.00E-07
                        max_scf                                               20
                        No outer loop optimization
                        step_size                                       5.00E-01

 PW_GRID| Information for grid number                                          2
 PW_GRID| Grid distributed over                                    32 processors
 PW_GRID| Real space group dimensions                                    32    1
 PW_GRID| the grid is blocked:                                                NO
 PW_GRID| Cutoff [a.u.]                                                    300.0
 PW_GRID| spherical cutoff:                                                   NO
 PW_GRID|   Bounds   1           -150     149                Points:         300
 PW_GRID|   Bounds   2           -150     149                Points:         300
 PW_GRID|   Bounds   3           -150     149                Points:         300
 PW_GRID| Volume element (a.u.^3)  0.2000E-02     Volume (a.u.^3)     53986.6767
 PW_GRID| Grid span                                                    FULLSPACE
 PW_GRID|   Distribution                         Average         Max         Min
 PW_GRID|   G-Vectors                           843750.0      843900      843600
 PW_GRID|   G-Rays                                2812.5        2813        2812
 PW_GRID|   Real Space Points                   843750.0      900000      810000

 PW_GRID| Information for grid number                                          3
 PW_GRID| Number of the reference grid                                         2
 PW_GRID| Grid distributed over                                    32 processors
 PW_GRID| Real space group dimensions                                    32    1
 PW_GRID| the grid is blocked:                                                NO
 PW_GRID| Cutoff [a.u.]                                                    100.0
 PW_GRID| spherical cutoff:                                                   NO
 PW_GRID|   Bounds   1            -90      89                Points:         180
 PW_GRID|   Bounds   2            -90      89                Points:         180
 PW_GRID|   Bounds   3            -90      89                Points:         180
 PW_GRID| Volume element (a.u.^3)  0.9257E-02     Volume (a.u.^3)     53986.6767
 PW_GRID| Grid span                                                    FULLSPACE
 PW_GRID|   Distribution                         Average         Max         Min
 PW_GRID|   G-Vectors                           182250.0      182520      181980
 PW_GRID|   G-Rays                                1012.5        1014        1011
 PW_GRID|   Real Space Points                   182250.0      194400      162000

 PW_GRID| Information for grid number                                          4
 PW_GRID| Number of the reference grid                                         2
 PW_GRID| Grid distributed over                                    32 processors
 PW_GRID| Real space group dimensions                                    32    1
 PW_GRID| the grid is blocked:                                                NO
 PW_GRID| Cutoff [a.u.]                                                     33.3
 PW_GRID| spherical cutoff:                                                   NO
 PW_GRID|   Bounds   1            -50      49                Points:         100
 PW_GRID|   Bounds   2            -50      49                Points:         100
 PW_GRID|   Bounds   3            -50      49                Points:         100
 PW_GRID| Volume element (a.u.^3)  0.5399E-01     Volume (a.u.^3)     53986.6767
 PW_GRID| Grid span                                                    FULLSPACE
 PW_GRID|   Distribution                         Average         Max         Min
 PW_GRID|   G-Vectors                            31250.0       31500       31000
 PW_GRID|   G-Rays                                 312.5         315         310
 PW_GRID|   Real Space Points                    31250.0       40000       30000

 PW_GRID| Information for grid number                                          5
 PW_GRID| Number of the reference grid                                         2
 PW_GRID| Grid distributed over                                    32 processors
 PW_GRID| Real space group dimensions                                    32    1
 PW_GRID| the grid is blocked:                                                NO
 PW_GRID| Cutoff [a.u.]                                                     11.1
 PW_GRID| spherical cutoff:                                                   NO
 PW_GRID|   Bounds   1            -30      29                Points:          60
 PW_GRID|   Bounds   2            -30      29                Points:          60
 PW_GRID|   Bounds   3            -30      29                Points:          60
 PW_GRID| Volume element (a.u.^3)  0.2499         Volume (a.u.^3)     53986.6767
 PW_GRID| Grid span                                                    FULLSPACE
 PW_GRID|   Distribution                         Average         Max         Min
 PW_GRID|   G-Vectors                             6750.0        6780        6720
 PW_GRID|   G-Rays                                 112.5         113         112
 PW_GRID|   Real Space Points                     6750.0        7200        3600

 PW_GRID| Information for grid number                                          6
 PW_GRID| Number of the reference grid                                         2
 PW_GRID| Grid distributed over                                    32 processors
 PW_GRID| Real space group dimensions                                    32    1
 PW_GRID| the grid is blocked:                                                NO
 PW_GRID| Cutoff [a.u.]                                                      3.7
 PW_GRID| spherical cutoff:                                                   NO
 PW_GRID|   Bounds   1            -18      17                Points:          36
 PW_GRID|   Bounds   2            -18      17                Points:          36
 PW_GRID|   Bounds   3            -18      17                Points:          36
 PW_GRID| Volume element (a.u.^3)   1.157         Volume (a.u.^3)     53986.6767
 PW_GRID| Grid span                                                    FULLSPACE
 PW_GRID|   Distribution                         Average         Max         Min
 PW_GRID|   G-Vectors                             1458.0        1548        1368
 PW_GRID|   G-Rays                                  40.5          43          38
 PW_GRID|   Real Space Points                     1458.0        2592        1296

 POISSON| Solver                                             MULTIPOLE (Bloechl)
 POISSON| Periodicity                                                       NONE

 RS_GRID| Information for grid number                                          2
 RS_GRID|   Bounds   1           -150     149                Points:         300
 RS_GRID|   Bounds   2           -150     149                Points:         300
 RS_GRID|   Bounds   3           -150     149                Points:         300
 RS_GRID| Real space distribution over                                  4 groups
 RS_GRID| Real space distribution along direction                              2
 RS_GRID| Border size                                                         36
 RS_GRID| Real space distribution over                                  8 groups
 RS_GRID| Real space distribution along direction                              3
 RS_GRID| Border size                                                         36
 RS_GRID|   Distribution                         Average         Max         Min
 RS_GRID|   Planes                                 147.0         147         147
 RS_GRID|   Distribution                         Average         Max         Min
 RS_GRID|   Planes                                 109.5         110         109

 RS_GRID| Information for grid number                                          3
 RS_GRID|   Bounds   1            -90      89                Points:         180
 RS_GRID|   Bounds   2            -90      89                Points:         180
 RS_GRID|   Bounds   3            -90      89                Points:         180
 RS_GRID| Real space distribution over                                  4 groups
 RS_GRID| Real space distribution along direction                              2
 RS_GRID| Border size                                                         29
 RS_GRID| Real space distribution over                                  8 groups
 RS_GRID| Real space distribution along direction                              3
 RS_GRID| Border size                                                         29
 RS_GRID|   Distribution                         Average         Max         Min
 RS_GRID|   Planes                                 103.0         103         103
 RS_GRID|   Distribution                         Average         Max         Min
 RS_GRID|   Planes                                  80.5          81          80

 RS_GRID| Information for grid number                                          4
 RS_GRID|   Bounds   1            -50      49                Points:         100
 RS_GRID|   Bounds   2            -50      49                Points:         100
 RS_GRID|   Bounds   3            -50      49                Points:         100
 RS_GRID| Real space fully replicated
 RS_GRID| Group size                                                           1

 RS_GRID| Information for grid number                                          5
 RS_GRID|   Bounds   1            -30      29                Points:          60
 RS_GRID|   Bounds   2            -30      29                Points:          60
 RS_GRID|   Bounds   3            -30      29                Points:          60
 RS_GRID| Real space fully replicated
 RS_GRID| Group size                                                           1

 RS_GRID| Information for grid number                                          6
 RS_GRID|   Bounds   1            -18      17                Points:          36
 RS_GRID|   Bounds   2            -18      17                Points:          36
 RS_GRID|   Bounds   3            -18      17                Points:          36
 RS_GRID| Real space fully replicated
 RS_GRID| Group size                                                           1

 Extrapolation method: initial_guess

 Atomic guess: The first density matrix is obtained in terms of atomic orbitals
               and electronic configurations assigned to each atomic kind

 Guess for atomic kind: I

 Electronic structure
    Total number of core electrons                                         46.00
    Total number of valence electrons                                       7.00
    Total number of electrons                                              53.00
    Multiplicity                                                   not specified
    S   [  2.00  2.00  2.00  2.00] 2.00
    P   [  6.00  6.00  6.00] 5.00
    D   [ 10.00 10.00]


 *******************************************************************************
                  Iteration          Convergence                     Energy [au]
 *******************************************************************************
                          1        0.596409                     -11.122650950280
                          2        0.387436                     -11.237593772787
                          3        0.121915E-01                 -11.285634291058
                          4        0.204211E-03                 -11.285680810511
                          5        0.231709E-05                 -11.285680824243
                          6        0.252312E-08                 -11.285680824245

 Energy components [Hartree]           Total Energy ::          -11.285680824245
                                        Band Energy ::           -2.432296770318
                                     Kinetic Energy ::            3.262063860099
                                   Potential Energy ::          -14.547744684344
                                      Virial (-V/T) ::            4.459675011974
                                        Core Energy ::          -18.652111485580
                                          XC Energy ::           -2.139335809348
                                     Coulomb Energy ::            9.505766470683
                       Total Pseudopotential Energy ::          -21.992717212870
                       Local Pseudopotential Energy ::          -22.615253975792
                    Nonlocal Pseudopotential Energy ::            0.622536762921
                                        Confinement ::            0.785418671912

 Orbital energies  State     L     Occupation   Energy[a.u.]          Energy[eV]

                       1     0          2.000      -0.617063          -16.791128

                       1     1          5.000      -0.239634           -6.520781


 Total Electron Density at R=0:                                         0.000787
 Re-scaling the density matrix to get the right number of electrons
                  # Electrons              Trace(P)               Scaling factor
                           14                14.000                        1.000

 Number of electrons:                                                         14
 Number of occupied orbitals:                                                  7
 Number of molecular orbitals:                                                44

 Number of orbital functions:                                                 44
 Number of independent orbital functions:                                     44


 SCF WAVEFUNCTION OPTIMIZATION

  Step     Update method      Time    Convergence         Total energy    Change
  ------------------------------------------------------------------------------
     1 NoMix/Diag. 0.20E+00    0.7     0.83191104       -22.9618517844 -2.30E+01
     2 Broy./Diag. 0.20E+00    1.0     0.00776332       -22.9766191714 -1.48E-02
     3 Broy./Diag. 0.20E+00    1.0     0.02987580       -22.9408028237  3.58E-02
     4 Broy./Diag. 0.20E+00    1.0     0.00175909       -22.9191712066  2.16E-02
     5 Broy./Diag. 0.20E+00    1.0     0.00354847       -22.9183430537  8.28E-04
     6 Broy./Diag. 0.20E+00    1.0     0.00139289       -22.9193901023 -1.05E-03
     7 Broy./Diag. 0.20E+00    1.0     0.00076885       -22.9174722264  1.92E-03
     8 Broy./Diag. 0.20E+00    1.1     0.00104178       -22.9174656020  6.62E-06
     9 Broy./Diag. 0.20E+00    1.1     0.00059856       -22.9179857587 -5.20E-04
    10 Broy./Diag. 0.20E+00    1.1     0.00016242       -22.9173241306  6.62E-04
    11 Broy./Diag. 0.20E+00    1.1     0.00019557       -22.9169539388  3.70E-04
    12 Broy./Diag. 0.20E+00    1.1     0.00020143       -22.9174330020 -4.79E-04
    13 Broy./Diag. 0.20E+00    1.1     0.00011217       -22.9178766222 -4.44E-04
    14 Broy./Diag. 0.20E+00    1.1     0.00009521       -22.9174993226  3.77E-04
    15 Broy./Diag. 0.20E+00    1.1     0.00003661       -22.9172150184  2.84E-04
    16 Broy./Diag. 0.20E+00    1.1     0.00004798       -22.9172670107 -5.20E-05
    17 Broy./Diag. 0.20E+00    1.1     0.00000883       -22.9173758313 -1.09E-04
    18 Broy./Diag. 0.20E+00    1.1     0.00002723       -22.9174643324 -8.85E-05
    19 Broy./Diag. 0.20E+00    1.1     0.00001342       -22.9174550274  9.31E-06
    20 Broy./Diag. 0.20E+00    1.1     0.00003573       -22.9173630403  9.20E-05
    21 Broy./Diag. 0.20E+00    1.1     0.00000704       -22.9173335991  2.94E-05
    22 Broy./Diag. 0.20E+00    1.1     0.00001274       -22.9173613564 -2.78E-05
    23 Broy./Diag. 0.20E+00    1.1     0.00000567       -22.9173733218 -1.20E-05
    24 Broy./Diag. 0.20E+00    1.1     0.00000185       -22.9173692646  4.06E-06
    25 Broy./Diag. 0.20E+00    1.1     0.00000421       -22.9173519479  1.73E-05
    26 Broy./Diag. 0.20E+00    1.1     0.00000040       -22.9173437709  8.18E-06
    27 Broy./Diag. 0.20E+00    1.1     0.00000099       -22.9173469408 -3.17E-06
    28 Broy./Diag. 0.20E+00    1.1     0.00000068       -22.9173487895 -1.85E-06
    29 Broy./Diag. 0.20E+00    1.1     0.00000033       -22.9173477230  1.07E-06
    30 Broy./Diag. 0.20E+00    1.1     0.00000029       -22.9173456761  2.05E-06
    31 Broy./Diag. 0.20E+00    1.1     0.00000034       -22.9173452984  3.78E-07
    32 Broy./Diag. 0.20E+00    1.1     0.00000032       -22.9173462597 -9.61E-07
    33 Broy./Diag. 0.20E+00    1.1     0.00000022       -22.9173467816 -5.22E-07
    34 Broy./Diag. 0.20E+00    1.1     0.00000021       -22.9173462940  4.88E-07
    35 Broy./Diag. 0.20E+00    1.1     0.00000009       -22.9173458005  4.93E-07

  *** SCF run converged in    35 steps ***


  Electronic density on regular grids:        -14.0000000000        0.0000000000
  Core density on regular grids:               14.0000000000       -0.0000000000
  Total charge density on r-space grids:       -0.0000000000
  Total charge density g-space grids:          -0.0000000000

  Overlap energy of the core charge distribution:               0.00000000193460
  Self energy of the core charge distribution:                -49.36658856042867
  Core Hamiltonian energy:                                      9.83848843401666
  Hartree energy:                                              21.08310237430582
  Exchange-correlation energy:                                 -4.47234805029557

  Total energy:                                               -22.91734580046716

  outer SCF iter =    1 RMS gradient =   0.91E-07 energy =        -22.9173458005
  outer SCF loop converged in   1 iterations or   35 steps


 !-----------------------------------------------------------------------------!
                     Mulliken Population Analysis

 #  Atom  Element  Kind  Atomic population                           Net charge
       1     I        1          7.000000                              0.000000
       2     I        1          7.000000                             -0.000000
 # Total charge                             14.000000                 -0.000000

 !-----------------------------------------------------------------------------!

 !-----------------------------------------------------------------------------!
                           Hirshfeld Charges

  #Atom  Element  Kind  Ref Charge     Population                    Net charge
      1       I      1       7.000          7.000                         0.000
      2       I      1       7.000          7.000                         0.000

  Total Charge                                                            0.000
 !-----------------------------------------------------------------------------!
  
 -------------------------------------------------------------------------------
 -                                                                             -
 -                          BANDSTRUCTURE CALCULATION                          -
 -                                                                             -
 -------------------------------------------------------------------------------
  
 Number of occupied molecular orbitals (MOs) = Number of occupied bands        7
 Number of unoccupied (= virtual) MOs = Number of unoccupied bands            37
 Number of Gaussian basis functions for MOs                                   44
  
 -------------------------------------------------------------------------------
 -                                                                             -
 -                                GW CALCULATION                               -
 -                                                                             -
 -------------------------------------------------------------------------------
  
 Input: Number of time/freq. points                                           30
 Input: ω_max for fitting Σ(iω) (eV)                                        10.0
 Input: Filter threshold for sparse tensor operations                    1.0E-07
 Input: Apply Hedin shift                                                      F
 Detected: Available memory per MPI process                               7.0 GB
 
 Input: RI-RS Tikhonov regularization                                   1.00E-08
 Input: AO grid hard cutoff radius                                        8.00 Å
 Input: MPI ranks per atom in Z_lP solve                                      -1
 Input: Keep sparsity in χ/G/W panels                                          T
 Input: GW flavour                                                          G0W0
 
 Input: RI-RS grid optimization activated                                      T
 Input: RS points per AO function                                            7.0
 Input: Cutoff radius for atomic clusters                                  3.0 Å
 Input: Maximum grid optimization iterations                                 300
 
 Input: AUTO_RI basis optimization activated:                                  T
 Input: AUTO_RI number of RI functions per AO function:                      4.0
 Input: AUTO_RI frontier orbital window:                                  5.0 eV
 Input: AUTO_RI neighbor radius:                                           3.0 Å
 
 Cutoff radius for the truncated Coulomb operator in RI metric:            6.0 Å
 Regularization parameter of RI                                          0.0E+00
 Regularization parameter of minimax grids                               1.0E-06
 
 AUTO_RI| Number of automatic RI functions for χ, ε, W:                      176
 AUTO_RI| Total RI basis optimization time:                                0.6 s
 
 SCF direct band gap (eV)                                                   1.72
 Max. SCF eigval diff. (eV)                                               120.79
 E-Range for minimax grid                                                  70.37
 Number of Padé parameters for analytic continuation:                         16
 
 RI-RS basis radii (Å):
     Kind  Elem     r_AO (Å)     r_RI (Å)
        1    I         9.5011        6.0090
 
 Started RI-RS grid optimization
 RI-RS grid initial normalized error                          1.718061380878E-04
 RI-RS grid optimization completed, execution time:                        4.1 s
 Normalized 3C error:                                                    1.1E-08
 Maximum absolute 3C error:                                              3.3E-04
 Optimized points outside molecular Voronoi cells:                            10 / 308
 Total grid points used for RI-RS:                                           308
 
 RI-RS grid row-blocks of ϕ_μ(r_l)                                            10
 RI-RS grid points per block (max)                                            32
 
 Percentage of non-zero matrix elements in ϕ_μ(r_l)                     100.00 %
 
 RI-RS memory estimate per MPI process:
   Available memory per process (system)                                 7.58 GB
   Required for Z_lP (dense upper bound; actual is sparser)              0.00 GB
   Required for χ, W, Σ panels (peak per panel step)                     0.00 GB
   Required for Z_lP solve peak (D_local+ϕ, worst-case atom)             0.00 GB
   Worst-case local-grid number of grid points:                              308
   Worst-case memory D_local:                                            0.00 GB
 
 Started computing Z_lP
 Computed Z_lP (MPI rank 0) for atom          1 /  1,    Execution time    0.0 s
 Computed Z_lP (all MPI ranks) for all atoms,            Execution time    0.0 s

 Memory per MPI process after computing Z_lP:
 Available memory per MPI process                                7.6 GB
 Used memory per MPI process                                     1.0 GB
 Number of batches for χ, Σ matrices                                           1
 
 Percentage of non-zero matrix elements in Z_lP                         100.00 %
 Percentage of non-zero matrix elements in G_ll', χ_ll', W_ll'          100.00 %
 Percentage of non-zero matrix elements in χ_PQ for time point 1        100.00 %
 
 Computed χ(iτ,k=0) for time point            1 / 30,    Execution time    0.0 s
 Computed χ(iτ,k=0) for time point            2 / 30,    Execution time    0.0 s
 Computed χ(iτ,k=0) for time point            3 / 30,    Execution time    0.0 s
 Computed χ(iτ,k=0) for time point            4 / 30,    Execution time    0.0 s
 Computed χ(iτ,k=0) for time point            5 / 30,    Execution time    0.0 s
 Computed χ(iτ,k=0) for time point            6 / 30,    Execution time    0.0 s
 Computed χ(iτ,k=0) for time point            7 / 30,    Execution time    0.0 s
 Computed χ(iτ,k=0) for time point            8 / 30,    Execution time    0.0 s
 Computed χ(iτ,k=0) for time point            9 / 30,    Execution time    0.0 s
 Computed χ(iτ,k=0) for time point           10 / 30,    Execution time    0.0 s
 Computed χ(iτ,k=0) for time point           11 / 30,    Execution time    0.0 s
 Computed χ(iτ,k=0) for time point           12 / 30,    Execution time    0.0 s
 Computed χ(iτ,k=0) for time point           13 / 30,    Execution time    0.0 s
 Computed χ(iτ,k=0) for time point           14 / 30,    Execution time    0.0 s
 Computed χ(iτ,k=0) for time point           15 / 30,    Execution time    0.0 s
 Computed χ(iτ,k=0) for time point           16 / 30,    Execution time    0.0 s
 Computed χ(iτ,k=0) for time point           17 / 30,    Execution time    0.0 s
 Computed χ(iτ,k=0) for time point           18 / 30,    Execution time    0.0 s
 Computed χ(iτ,k=0) for time point           19 / 30,    Execution time    0.0 s
 Computed χ(iτ,k=0) for time point           20 / 30,    Execution time    0.0 s
 Computed χ(iτ,k=0) for time point           21 / 30,    Execution time    0.0 s
 Computed χ(iτ,k=0) for time point           22 / 30,    Execution time    0.0 s
 Computed χ(iτ,k=0) for time point           23 / 30,    Execution time    0.0 s
 Computed χ(iτ,k=0) for time point           24 / 30,    Execution time    0.0 s
 Computed χ(iτ,k=0) for time point           25 / 30,    Execution time    0.0 s
 Computed χ(iτ,k=0) for time point           26 / 30,    Execution time    0.0 s
 Computed χ(iτ,k=0) for time point           27 / 30,    Execution time    0.0 s
 Computed χ(iτ,k=0) for time point           28 / 30,    Execution time    0.0 s
 Computed χ(iτ,k=0) for time point           29 / 30,    Execution time    0.0 s
 Computed χ(iτ,k=0) for time point           30 / 30,    Execution time    0.0 s
 
 Computed W(iτ),                                         Execution time    0.1 s
 
 Computed Σ^x(k=0),                                      Execution time    0.0 s
 
 Computed Σ^c(iτ) for time point              1 / 30,    Execution time    0.0 s
 Computed Σ^c(iτ) for time point              2 / 30,    Execution time    0.0 s
 Computed Σ^c(iτ) for time point              3 / 30,    Execution time    0.0 s
 Computed Σ^c(iτ) for time point              4 / 30,    Execution time    0.0 s
 Computed Σ^c(iτ) for time point              5 / 30,    Execution time    0.0 s
 Computed Σ^c(iτ) for time point              6 / 30,    Execution time    0.0 s
 Computed Σ^c(iτ) for time point              7 / 30,    Execution time    0.0 s
 Computed Σ^c(iτ) for time point              8 / 30,    Execution time    0.0 s
 Computed Σ^c(iτ) for time point              9 / 30,    Execution time    0.0 s
 Computed Σ^c(iτ) for time point             10 / 30,    Execution time    0.0 s
 Computed Σ^c(iτ) for time point             11 / 30,    Execution time    0.0 s
 Computed Σ^c(iτ) for time point             12 / 30,    Execution time    0.0 s
 Computed Σ^c(iτ) for time point             13 / 30,    Execution time    0.0 s
 Computed Σ^c(iτ) for time point             14 / 30,    Execution time    0.0 s
 Computed Σ^c(iτ) for time point             15 / 30,    Execution time    0.0 s
 Computed Σ^c(iτ) for time point             16 / 30,    Execution time    0.0 s
 Computed Σ^c(iτ) for time point             17 / 30,    Execution time    0.0 s
 Computed Σ^c(iτ) for time point             18 / 30,    Execution time    0.0 s
 Computed Σ^c(iτ) for time point             19 / 30,    Execution time    0.0 s
 Computed Σ^c(iτ) for time point             20 / 30,    Execution time    0.0 s
 Computed Σ^c(iτ) for time point             21 / 30,    Execution time    0.0 s
 Computed Σ^c(iτ) for time point             22 / 30,    Execution time    0.0 s
 Computed Σ^c(iτ) for time point             23 / 30,    Execution time    0.0 s
 Computed Σ^c(iτ) for time point             24 / 30,    Execution time    0.0 s
 Computed Σ^c(iτ) for time point             25 / 30,    Execution time    0.0 s
 Computed Σ^c(iτ) for time point             26 / 30,    Execution time    0.0 s
 Computed Σ^c(iτ) for time point             27 / 30,    Execution time    0.0 s
 Computed Σ^c(iτ) for time point             28 / 30,    Execution time    0.0 s
 Computed Σ^c(iτ) for time point             29 / 30,    Execution time    0.0 s
 Computed Σ^c(iτ) for time point             30 / 30,    Execution time    0.0 s
 
 SCF valence band maximum (eV):                                           -6.213
 SCF conduction band minimum (eV):                                        -4.496
 SCF indirect band gap (eV):                                               1.716
 SCF direct band gap (eV):                                                 1.716
 
 G0W0 valence band maximum (eV):                                          -8.679
 G0W0 conduction band minimum (eV):                                       -1.287
 G0W0 indirect band gap (eV):                                              7.392
 G0W0 direct band gap (eV):                                                7.392
 
 Hartree-Fock with SCF orbitals valence band maximum (eV):                -9.462
 Hartree-Fock with SCF orbitals conduction band minimum (eV)              -0.423
 Hartree-Fock with SCF orbitals indirect band gap (eV):                    9.039
 Hartree-Fock with SCF orbitals direct band gap (eV):                      9.039

 ENERGY| Total FORCE_EVAL ( QS ) energy [hartree]            -22.917345800467160

 -------------------------------------------------------------------------------
 -                                                                             -
 -                                DBCSR STATISTICS                             -
 -                                                                             -
 -------------------------------------------------------------------------------
 COUNTER                                    TOTAL       BLAS       SMM       ACC
 flops    22 x    22 x    12              1219680       0.0%    100.0%      0.0%     
 flops    22 x    22 x    26              6644352       0.0%    100.0%      0.0%     
 flops    26 x    22 x    26              8268832       0.0%    100.0%      0.0%     
 flops    26 x    22 x    22             18724992       0.0%    100.0%      0.0%     
 flops    26 x    26 x    88             19512064       0.0%    100.0%      0.0%     
 flops    26 x    88 x    26             19987968       0.0%    100.0%      0.0%     
 flops    26 x    26 x    22             22129536       0.0%    100.0%      0.0%     
 flops    22 x    22 x    32             36087040       0.0%    100.0%      0.0%     
 flops    32 x    22 x    26             41000960       0.0%    100.0%      0.0%     
 flops    26 x    22 x    32             41000960       0.0%    100.0%      0.0%     
 flops    88 x    88 x    26             64430080       0.0%    100.0%      0.0%     
 flops    26 x    88 x    88             65235456       0.0%    100.0%      0.0%     
 flops    32 x    22 x    22             92184576       0.0%    100.0%      0.0%     
 flops    32 x    26 x    88             95473664       0.0%    100.0%      0.0%     
 flops    26 x    32 x    88             96059392       0.0%    100.0%      0.0%     
 flops    26 x    88 x    32             96645120       0.0%    100.0%      0.0%     
 flops    32 x    88 x    26             98402304       0.0%    100.0%      0.0%     
 flops    26 x    32 x    22            108945408       0.0%    100.0%      0.0%     
 flops    32 x    26 x    22            108945408       0.0%    100.0%      0.0%     
 flops    32 x    22 x    32            201940992       0.0%    100.0%      0.0%     
 flops    88 x    88 x    32            317194240       0.0%    100.0%      0.0%     
 flops    32 x    88 x    88            321159168       0.0%    100.0%      0.0%     
 flops    32 x    32 x    88            470024192       0.0%    100.0%      0.0%     
 flops    32 x    88 x    32            477773824       0.0%    100.0%      0.0%     
 flops    32 x    32 x    22            536346624       0.0%    100.0%      0.0%     
 flops inhomo. stacks                           0       0.0%      0.0%      0.0%
 flops total                         3.365337E+09       0.0%    100.0%      0.0%
 flops max/rank                    516.344048E+06       0.0%    100.0%      0.0%
 matmuls inhomo. stacks                         0       0.0%      0.0%      0.0%
 matmuls total                              40695       0.0%    100.0%      0.0%
 number of processed stacks                 37106       0.0%    100.0%      0.0%
 average stack size                                     0.0       1.1       0.0
 marketing flops                     4.938213E+09
 -------------------------------------------------------------------------------
 # multiplications                            521
 max memory usage/rank              21.318607E+09
 # max total images/rank                        2
 # max 3D layers                                1
 # MPI messages exchanged                  216736
 MPI messages size (bytes):
  total size                         1.027108E+09
  min size                           0.000000E+00
  max size                          90.112000E+03
  average size                       4.738983E+03
 MPI breakdown and total messages size (bytes):
             size <=      128              164616                        0
       128 < size <=     8192                9548                 49417536
      8192 < size <=    32768               34833                587779008
     32768 < size <=   131072                7739                389911680
    131072 < size <=  4194304                   0                        0
   4194304 < size <= 16777216                   0                        0
  16777216 < size                               0                        0
 -------------------------------------------------------------------------------

 *** WARNING in dbcsr_mm.F:301 :: Using a non-square number of MPI ranks ***
 *** might lead to poor performance. Used ranks: 32 Suggested: 36 64     ***

 -------------------------------------------------------------------------------
 -                                                                             -
 -                      DBCSR MESSAGE PASSING PERFORMANCE                      -
 -                                                                             -
 -------------------------------------------------------------------------------
 ROUTINE             CALLS      AVE VOLUME [Bytes]
 MP_Bcast               26                     12.
 MP_Allreduce         2264                      9.
 MP_Alltoall          4180                   8339.
 MP_ISend            19296                   4454.
 MP_IRecv            15912                   3471.
 -------------------------------------------------------------------------------

 -------------------------------------------------------------------------------
 -                                                                             -
 -                                GRID STATISTICS                              -
 -                                                                             -
 -------------------------------------------------------------------------------
 LP    KERNEL             BACKEND                              COUNT     PERCENT
 4     collocate ortho    CPU                                    288      49.48%
 4     integrate ortho    CPU                                    288      49.48%
 0     collocate general  CPU                                      4       0.69%
 0     integrate general  CPU                                      2       0.34%
 -------------------------------------------------------------------------------

 -------------------------------------------------------------------------------
 -                                                                             -
 -                          OFFLOAD MEMPOOL STATISTICS                         -
 -                                                                             -
 -------------------------------------------------------------------------------
 Memory consumption                Number of allocations  Used [MiB]  Size [MiB]
 Host                                                  7          58    22102882
 -------------------------------------------------------------------------------

 MEMORY| Estimated peak process memory [MiB]                                1154

 -------------------------------------------------------------------------------
 -                                                                             -
 -                         MESSAGE PASSING PERFORMANCE                         -
 -                                                                             -
 -------------------------------------------------------------------------------

 ROUTINE             CALLS      AVE VOLUME [Bytes]
 MP_Group                6
 MP_Bcast              698                 305086.
 MP_Allreduce         2471                   1902.
 MP_Sync                45
 MP_Alltoall           800               29364241.
 MP_SendRecv          3348                 132779.
 MP_ISendRecv         3348                 132779.
 MP_Wait              9297
 MP_comm_split          44
 MP_ISend             5436                 689034.
 MP_IRecv             5436                 688968.
 -------------------------------------------------------------------------------


 -------------------------------------------------------------------------------
 -                                                                             -
 -                           R E F E R E N C E S                               -
 -                                                                             -
 -------------------------------------------------------------------------------
 
 CP2K version 2026.2 (Development Version), the CP2K developers group (2026).
 CP2K is freely available from https://www.cp2k.org/ .
 
 M. Iannuzzi, J. Wilhelm, F. Stein, A. Bussy, H. Elgabarty, D. Golze, A. Hehn, 
 M. Graml, S. Marek, B. Sertcan Gökmen, C. Schran, H. Forbert, R. Z. 
 Khaliullin, A. Kozhevnikov, M. Taillefumier, R. Meli, V. V. Rybkin, M. Brehm, 
 R. Schade, O. Schütt, J. V. Pototschnig, H. Mirhosseini, A. Knüpfer, D. Marx, 
 M. Krack, J. Hutter, T. D. Kühne.
 J. Phys. Chem. B 130, 1237-1310 (2026).
 The CP2K Program Package Made Simple.
 https://doi.org/10.1021/acs.jpcb.5c05851

 M. Graml, K. Zollner, D. Hernangómez-Pérez, P. E. Faria Junior, J. Wilhelm.
 J. Chem. Theory Comput. 20, 2202-2208 (2024).
 Low-scaling GW algorithm applied to twisted transition-metal dichalcogenide 
 heterobilayers.
 https://doi.org/10.1021/acs.jctc.3c01230

 T. D. Kühne, M. Iannuzzi, M. Del Ben, V. V. Rybkin, P. Seewald, F. Stein, T. 
 Laino, R. Z. Khaliullin, O. Schütt, F. Schiffmann, D. Golze, J. Wilhelm, S. 
 Chulkov, M. H. Bani-Hashemian, V. Weber, U. Borstnik, M. Taillefumier, A. S. 
 Jakobovits, A. Lazzaro, H. Pabst, T. Müller, R. Schade, M. Guidon, S. 
 Andermatt, N. Holmberg, G. K. Schenter, A. Hehn, A. Bussy, F. Belleflamme, G. 
 Tabacchi, A. Glöß, M. Lass, I. Bethune, C. J. Mundy, C. Plessl, M. Watkins, 
 J. VandeVondele, M. Krack, J. Hutter.
 J. Chem. Phys. 152, 194103 (2020).
 CP2K: An electronic structure and molecular dynamics software package - 
 Quickstep: Efficient and accurate electronic structure calculations.
 https://doi.org/10.1063/5.0007045

 O. Schuett, P. Messmer, J. Hutter, J. VandeVondele.
 Electronic Structure Calculations on Graphics Processing Units, 173-190 (2016).
 GPU-Accelerated Sparse Matrix-Matrix Multiplication for Linear Scaling Density 
 Functional Theory.
 https://doi.org/10.1002/9781118670712.ch8

 U. Borstnik, J. VandeVondele, V. Weber, J. Hutter.
 Parallel Comput. 40, 47-58 (2014).
 Sparse matrix multiplication: The distributed block-compressed sparse row 
 library.
 https://doi.org/10.1016/j.parco.2014.03.012

 J. VandeVondele, J. Hutter.
 J. Chem. Phys. 127, 114105 (2007).
 Gaussian basis sets for accurate calculations on molecular systems in gas and 
 condensed phases.
 https://doi.org/10.1063/1.2770708

 J. VandeVondele, M. Krack, F. Mohamed, M. Parrinello, T. Chassaing, J. Hutter.
 Comput. Phys. Commun. 167, 103-128 (2005).
 QUICKSTEP: Fast and accurate density functional calculations using a mixed 
 Gaussian and plane waves approach.
 https://doi.org/10.1016/j.cpc.2004.12.014

 M. Krack.
 Theor. Chem. Acc. 114, 145-152 (2005).
 Pseudopotentials for H to Kr optimized for gradient-corrected 
 exchange-correlation functionals.
 https://doi.org/10.1007/s00214-005-0655-y

 M. Frigo, S. G. Johnson.
 Proc. IEEE 93, 216-231 (2005).
 The design and implementation of FFTW3.
 https://doi.org/10.1109/JPROC.2004.840301

 C. Hartwigsen, S. Goedecker, J. Hutter.
 Phys. Rev. B 58, 3641-3662 (1998).
 Relativistic separable dual-space Gaussian pseudopotentials from H to Rn.
 https://doi.org/10.1103/PhysRevB.58.3641

 G. Lippert, J. Hutter, M. Parrinello.
 Mol. Phys. 92, 477-487 (1997).
 A hybrid Gaussian and plane wave density functional scheme.
 https://doi.org/10.1080/002689797170220

 S. Goedecker, M. Teter, J. Hutter.
 Phys. Rev. B 54, 1703-1710 (1996).
 Separable dual-space Gaussian pseudopotentials.
 https://doi.org/10.1103/PhysRevB.54.1703

 J. P. Perdew, K. Burke, M. Ernzerhof.
 Phys. Rev. Lett. 77, 3865-3868 (1996).
 Generalized gradient approximation made simple.
 https://doi.org/10.1103/PhysRevLett.77.3865

 P. E. Blöchl.
 J. Chem. Phys. 103, 7422-7428 (1995).
 Electrostatic decoupling of periodic images of plane‐wave‐expanded 
 densities and derived atomic point charges.
 https://doi.org/10.1063/1.470314

 R. H. Byrd, P. H. Lu, J. Nocedal, C. Y. Zhu.
 SIAM J. Sci. Comput. 16, 1190-1208 (1995).
 A Limited Memory Algorithm for Bound Constrained Optimization.
 https://doi.org/10.1137/0916069

 C. G. Broyden.
 Math. Comput. 19, 577-593 (1965).
 A class of methods for solving nonlinear simultaneous equations.
 https://doi.org/10.1090/S0025-5718-1965-0198670-6


 -------------------------------------------------------------------------------
 -                                                                             -
 -                                T I M I N G                                  -
 -                                                                             -
 -------------------------------------------------------------------------------
 SUBROUTINE                       CALLS  ASD         SELF TIME        TOTAL TIME
                                MAXIMUM       AVERAGE  MAXIMUM  AVERAGE  MAXIMUM
 CP2K                                 1  1.0    0.098    0.102   45.340   45.341
 qs_energies                          1  2.0    0.019    0.020   44.416   44.417
 scf_env_do_scf                       1  3.0    0.002    0.002   37.706   37.706
 scf_env_do_scf_inner_loop           35  4.0    0.011    0.014   37.703   37.703
 qs_ks_build_kohn_sham_matrix        36  7.0    0.018    0.021   22.804   22.824
 qs_ks_update_qs_env                 35  5.0    0.000    0.000   22.579   22.599
 rebuild_ks_matrix                   35  6.0    0.001    0.001   22.576   22.596
 fft_wrap_pw1pw2                    712 10.0    0.014    0.016   17.794   18.257
 fft_wrap_pw1pw2_300                424 11.4    1.146    1.360   17.146   17.732
 qs_vxc_create                       36  8.0    0.009    0.012   14.566   14.676
 xc_vxc_pw_create                    35  9.0    0.195    0.253   14.557   14.668
 fft3d_ps                           712 12.0    7.061    7.540   12.675   13.252
 xc_pw_derive                       210 11.0    0.002    0.002   10.397   10.827
 qs_rho_update_rho_low               36  5.0    0.000    0.000    9.418    9.423
 calculate_rho_elec                  36  6.0    0.114    0.122    9.418    9.423
 density_rs2pw                       36  7.0    0.004    0.005    5.661    8.867
 xc_rho_set_and_dset_create          35 10.0    0.259    0.331    7.290    7.627
 xc_pw_divergence                    35 10.0    0.001    0.001    6.880    7.281
 qs_energies_properties               1  3.0    0.001    0.001    5.870    5.870
 post_scf_bandstructure               1  4.0    0.001    0.001    5.869    5.869
 run_gw                               1  5.0    0.001    0.002    5.816    5.826
 gspace_mixing                       34  5.0    0.109    0.116    5.754    5.755
 transfer_rs2pw                     182  8.0    0.004    0.005    2.450    5.601
 mp_waitany                        5436 11.5    2.046    5.257    2.046    5.257
 transfer_rs2pw_300                  38  8.9    0.763    0.818    1.921    5.076
 mp_alltoall_z22v                   712 14.0    3.793    4.847    3.793    4.847
 mp_sum_d                          1152  5.8    4.293    4.792    4.293    4.792
 gw_calc_ri_rs_non_periodic           1  6.0    0.002    0.003    4.722    4.749
 sum_up_and_integrate                36  8.0    0.002    0.003    4.320    4.346
 integrate_v_rspace                  36  9.0    0.001    0.002    4.249    4.274
 broyden_mixing                      34  6.0    4.126    4.173    4.246    4.256
 potential_pw2rs                     36 10.0    0.007    0.008    4.229    4.238
 optimize_ri_rs_grid                  1  7.0    0.001    0.002    4.156    4.174
 rirs_grid_LBFGS                      1  8.0    0.040    0.418    4.128    4.154
 grid_collocate_task_list            36  7.0    3.479    3.973    3.479    3.973
 evaluate_rirs_grid_cluster         301  9.0    0.028    0.449    0.227    3.628
 x_to_yz                            390 13.4    1.147    1.618    3.078    3.509
 yz_to_x                            322 12.6    0.644    0.712    2.506    3.453
 transfer_pw2rs                     181 11.0    0.002    0.003    2.489    2.492
 qs_ks_ddapc                         36  8.0    0.002    0.003    1.849    1.997
 pw_derive                          318 11.3    1.757    1.877    1.757    1.877
 xc_functional_eval                  35 11.0    0.001    0.004    1.614    1.871
 pbe_lda_eval                        35 12.0    1.613    1.871    1.613    1.871
 transfer_pw2rs_300                  37 11.9    0.853    0.913    1.758    1.799
 pw_poisson_solve                    36  8.0    0.002    0.004    1.742    1.755
 pw_scatter_p                       390 12.4    1.651    1.739    1.651    1.739
 pw_copy                            608 10.6    1.559    1.615    1.559    1.615
 pw_gather_p                        322 11.6    1.251    1.346    1.251    1.346
 create_and_init_bs_env_for_gw        1  6.0    0.011    0.018    1.093    1.181
 rirs_cluster_gradient_coordina     301 10.0    0.070    1.117    0.070    1.117
 pw_poisson_set                      37  8.9    0.001    0.002    1.061    1.074
 -------------------------------------------------------------------------------

 The number of warnings for this run is : 1
 
 -------------------------------------------------------------------------------
  **** **** ******  **  PROGRAM ENDED AT                 2026-09-17 22:50:57.873
 ***** ** ***  *** **   PROGRAM RAN ON                                  n2cn0503
 **    ****   ******    PROGRAM RAN BY                                  eprop2d1
 ***** **    ** ** **   PROGRAM PROCESS ID                                280053
  **** **  *******  **  PROGRAM STOPPED IN /scratch/hpc-prf-metdyn/eprop2d1_Jan/
                                           53_benchmark_RI_opt/129_GW100_Si293_A
                                           O_frontier_optimization_coopfst/follo
                                           wups/pbe_g0w0/gw100/19_I2/dzvp_t1
