 DBCSR| CPU Multiplication driver                                           XSMM (U)
 DBCSR| Multrec recursion limit                                              512 (U)
 DBCSR| Multiplication stack size                                           1000 (D)
 DBCSR| Maximum elements for images                                    UNLIMITED (U)
 DBCSR| Multiplicative factor virtual images                                   1 (U)
 DBCSR| Use multiplication densification                                       T (D)
 DBCSR| Multiplication size stacks                                             3 (U)
 DBCSR| Use memory pool for CPU allocation                                     F (U)
 DBCSR| Number of 3D layers                                               SINGLE (U)
 DBCSR| Use MPI memory allocation                                              F (U)
 DBCSR| Use RMA algorithm                                                      F (U)
 DBCSR| Use Communication thread                                               T (U)
 DBCSR| Communication thread load                                             57 (D)
 DBCSR| MPI: My process id                                                     6
 DBCSR| MPI: Number of processes                                              13
 DBCSR| OMP: Current number of threads                                         9
 DBCSR| OMP: Max number of threads                                             9
 DBCSR| Split modifier for TAS multiplication algorithm                  1.0E+00 (U)


  **** **** ******  **  PROGRAM STARTED AT               2026-10-03 12:02:28.409
 ***** ** ***  *** **   PROGRAM STARTED ON                              n2cn1151
 **    ****   ******    PROGRAM STARTED BY                              eprop2d1
 ***** **    ** ** **   PROGRAM PROCESS ID                               2021046
  **** **  *******  **  PROGRAM STARTED IN /scratch/hpc-prf-metdyn/eprop2d1_Jan/
                                           53_benchmark_RI_opt/418_gw100_fig5_fu
                                           ll_epsfilter_1e12_20261002/calculatio
                                           ns/rc0p5/ri4_rs03/33_C2H3Br

 CP2K| version string:                 CP2K version 2026.2 (Development Version)
 CP2K| source code revision number:                                   0671c5aa6c
 CP2K| cp2kflags: omp libint fftw3 libxc parallel scalapack openblas            
 CP2K| is freely available from                            https://www.cp2k.org/
 CP2K| Program compiled at                                   2026-09-20 09:25:26
 CP2K| Program compiled on                                              n2login5
 CP2K| Program compiled for                                               x86_64
 CP2K| Data directory path    /scratch/hpc-prf-metdyn/eprop2d1_Jan/53_benchmark_
 CP2K| Input file name                                                 input.inp
 
 eprop2d1@n2cn1151 has created rank and process                      0   2021046
 eprop2d1@n2cn1151 has created rank and process                      1   2021047
 eprop2d1@n2cn1151 has created rank and process                      2   2021048
 eprop2d1@n2cn1151 has created rank and process                      3   2021049
 eprop2d1@n2cn1151 has created rank and process                      4   2021050
 eprop2d1@n2cn1151 has created rank and process                      5   2021051
 eprop2d1@n2cn1151 has created rank and process                      6   2021052
 
 eprop2d1@n2cn1151 is running                                        7 processes

 GLOBAL| Force Environment number                                              1
 GLOBAL| Basis set file name            /scratch/hpc-prf-metdyn/eprop2d1_Jan/53_
 GLOBAL| Potential file name            /scratch/hpc-prf-metdyn/eprop2d1_Jan/53_
 GLOBAL| MM Potential file name                                     MM_POTENTIAL
 GLOBAL| Coordinate file name                                      __STD_INPUT__
 GLOBAL| Method name                                                        CP2K
 GLOBAL| Project name                                             g418_a403_m033
 GLOBAL| Run type                                                         ENERGY
 GLOBAL| FFT library                                                       FFTW3
 GLOBAL| Diagonalization library                                       ScaLAPACK
 GLOBAL| Cholesky decomposition library                                ScaLAPACK
 GLOBAL| DGEMM library                                                      BLAS
 GLOBAL| Direct generalized diagonalization requested                          F
 GLOBAL| Orthonormality check for eigenvectors                          DISABLED
 GLOBAL| Matrix multiplication library                                 ScaLAPACK
 GLOBAL| All-to-all communication in single precision                          F
 GLOBAL| Grid backend                                                       AUTO
 GLOBAL| Global print level                                                  LOW
 GLOBAL| MPI I/O enabled                                                       T
 GLOBAL| Total number of message passing processes                             7
 GLOBAL| Number of distributed systems (nodes)                                 1
 GLOBAL| Number of threads for this process                                    9
 GLOBAL| This output is from process                                           0
 GLOBAL| OpenMP stack size per thread (OMP_STACKSIZE)                       512M
 GLOBAL| CPU model name                          AMD EPYC 7763 64-Core Processor

 MEMORY| system memory details [Kb]
 MEMORY|                        rank 0           min           max       average
 MEMORY| MemTotal            263897636     263897636     263897636     263897636
 MEMORY| MemFree             238505728     238505728     238505728     238505728
 MEMORY| Buffers                147700        147700        147700        147700
 MEMORY| Cached               10531808      10531808      10531808      10531808
 MEMORY| Slab                  1980608       1980608       1980608       1980608
 MEMORY| SReclaimable           360556        360556        360556        360556
 MEMORY| MemLikelyFree       249545792     249545792     249545792     249545792


 GENERATE|  Preliminary Number of Bonds generated:                             0
 GENERATE|  Achieved consistency in connectivity generation.

 *******************************************************************************
 *******************************************************************************
 **                                                                           **
 **     #####                         ##              ##                      **
 **    ##   ##            ##          ##              ##                      **
 **   ##     ##                       ##            ######                    **
 **   ##     ##  ##   ##  ##   #####  ##  ##   ####   ##    #####    #####    **
 **   ##     ##  ##   ##  ##  ##      ## ##   ##      ##   ##   ##  ##   ##   **
 **   ##  ## ##  ##   ##  ##  ##      ####     ###    ##   ######   ######    **
 **    ##  ###   ##   ##  ##  ##      ## ##      ##   ##   ##       ##        **
 **     #######   #####   ##   #####  ##  ##  ####    ##    #####   ##        **
 **           ##                                                    ##        **
 **                                                                           **
 **                                                ... make the atoms dance   **
 **                                                                           **
 **            Copyright (C) by CP2K developers group (2000-2026)             **
 **                      J. Chem. Phys. 152, 194103 (2020)                    **
 **                                                                           **
 *******************************************************************************


 TOTAL NUMBERS AND MAXIMUM NUMBERS

  Total number of            - Atomic kinds:                                   3
                             - Atoms:                                          6
                             - Shell sets:                                     6
                             - Shells:                                        42
                             - Primitive Cartesian functions:                 37
                             - Cartesian basis functions:                    129
                             - Spherical basis functions:                    114

  Maximum angular momentum of- Orbital basis functions:                        3
                             - Local part of the GTH pseudopotential:          2
                             - Non-local part of the GTH pseudopotential:      4


 SCF PARAMETERS         Density guess:                                   RESTART
                        --------------------------------------------------------
                        max_scf:                                             500
                        max_scf_history:                                       0
                        max_diis:                                              4
                        --------------------------------------------------------
                        eps_scf:                                        1.00E-08
                        eps_scf_history:                                0.00E+00
                        eps_diis:                                       0.00E+00
                        eps_eigval:                                     1.00E-05
                        --------------------------------------------------------
                        level_shift [a.u.]:                             0.000000
                        --------------------------------------------------------
                        Outer loop SCF in use 
                        No variables optimised in outer loop
                        eps_scf                                         1.00E-08
                        max_scf                                               20
                        No outer loop optimization
                        step_size                                       5.00E-01

 Extrapolation method: initial_guess

 Number of electrons:                                                         18
 Number of occupied orbitals:                                                  9
 Number of molecular orbitals:                                                 9

 Number of orbital functions:                                                114
 Number of independent orbital functions:                                    114


 SCF WAVEFUNCTION OPTIMIZATION

  ----------------------------------- OT ---------------------------------------
  Minimizer      : DIIS                : direct inversion
                                         in the iterative subspace
                                         using   7 DIIS vectors
                                         safer DIIS on
  Preconditioner : FULL_KINETIC        : inversion of T + eS
  Lattice FFT   : OFF
  Precond_solver : DEFAULT
  stepsize       :    0.15000000                  energy_gap     :    0.20000000
  eps_taylor     :   0.10000E-15                  max_taylor     :             4
  ----------------------------------- OT ---------------------------------------

  Step     Update method      Time    Convergence         Total energy    Change
  ------------------------------------------------------------------------------
  Decoupling Energy:                                               0.0000048103
     1 OT DIIS     0.15E+00    1.7     0.00000001       -26.4969273648 -2.65E+01
  Decoupling Energy:                                               0.0000048103
     2 OT DIIS     0.15E+00    2.1     8.4773E-09       -26.4969273648 -3.55E-15

  *** SCF run converged in     2 steps ***


  Electronic density on regular grids:        -18.0000000000        0.0000000000
  Core density on regular grids:               18.0000000000       -0.0000000000
  Total charge density on r-space grids:       -0.0000000000
  Total charge density g-space grids:          -0.0000000000

  Overlap energy of the core charge distribution:               0.00000650404844
  Self energy of the core charge distribution:                -58.54672732397866
  Core Hamiltonian energy:                                     16.38775080542160
  Hartree energy:                                              22.88648089433845
  Exchange-correlation energy:                                 -7.22443824465240

  Total energy:                                               -26.49692736482257

  outer SCF iter =    1 RMS gradient =   0.85E-08 energy =        -26.4969273648
  outer SCF loop converged in   1 iterations or    2 steps

  
 -------------------------------------------------------------------------------
 -                                                                             -
 -                          BANDSTRUCTURE CALCULATION                          -
 -                                                                             -
 -------------------------------------------------------------------------------
  
 Number of occupied molecular orbitals (MOs) = Number of occupied bands        9
 Number of unoccupied (= virtual) MOs = Number of unoccupied bands           105
 Number of Gaussian basis functions for MOs                                  114
  
 -------------------------------------------------------------------------------
 -                                                                             -
 -                                GW CALCULATION                               -
 -                                                                             -
 -------------------------------------------------------------------------------
  
 Input: Number of time/freq. points                                           30
 Input: ω_max for fitting Σ(iω) (eV)                                        10.0
 Input: Filter threshold for sparse tensor operations                    1.0E-12
 Input: Apply Hedin shift                                                      F
 Detected: Available memory per MPI process                              30.3 GB
 
 Input: RI-RS Tikhonov regularization                                   1.00E-04
 Input: AO grid hard cutoff radius                                        8.00 Å
 Input: MPI ranks per atom in Z_lP solve                                      -1
 Input: Keep sparsity in χ/G/W panels                                          T
 Input: GW flavour                                                          G0W0
 
 Input: RI-RS grid optimization activated                                      T
 Input: RS points per AO function                                            3.0
 Input: Cutoff radius for atomic clusters                                  0.5 Å
 Input: Maximum grid optimization iterations                                 300
 
 Input: AUTO_RI basis optimization activated:                                  T
 Input: AUTO_RI number of RI functions per AO function:                      4.0
 Input: AUTO_RI frontier orbital window:                                  5.0 eV
 Input: AUTO_RI neighbor radius:                                           3.0 Å
 
 Cutoff radius for the truncated Coulomb operator in RI metric:            7.0 Å
 Regularization parameter of RI                                          0.0E+00
 Regularization parameter of minimax grids                               1.0E-06
 
 AUTO_RI| Number of automatic RI functions for χ, ε, W:                      456
 AUTO_RI| Total RI basis optimization time:                                1.6 s
  Decoupling Energy:                                               0.0000048103
 
 SCF direct band gap (eV)                                                   4.50
 Max. SCF eigval diff. (eV)                                               263.69
 E-Range for minimax grid                                                  58.53
 Number of Padé parameters for analytic continuation:                         16
 
 RI-RS basis radii (Å):
     Kind  Elem     r_AO (Å)     r_RI (Å)
        1    C        15.9835       10.1279
        2    H        13.9082        8.7963
        3    Br        8.1711        5.5637
 
 Started RI-RS grid optimization
 RI-RS grid initial normalized error                          9.442866851058E-02
 RI-RS grid optimization completed, execution time:                        0.7 s
 Normalized 3C error:                                                    3.5E-04
 Maximum absolute 3C error:                                              1.5E-01
 Optimized points outside molecular Voronoi cells:                           156 / 342
 Total grid points used for RI-RS:                                           342
 
 RI-RS grid row-blocks of ϕ_μ(r_l)                                            12
 RI-RS grid points per block (max)                                            32
 
 Percentage of non-zero matrix elements in ϕ_μ(r_l)                     100.00 %
 
 RI-RS memory estimate per MPI process:
   Available memory per process (system)                                36.13 GB
   Required for Z_lP (dense upper bound; actual is sparser)              0.00 GB
   Required for χ, W, Σ panels (peak per panel step)                     0.00 GB
   Required for Z_lP solve peak (D_local+ϕ, worst-case atom)             0.00 GB
   Worst-case local-grid number of grid points:                              342
   Worst-case memory D_local:                                            0.00 GB
 
 Started computing Z_lP
 Computed Z_lP (MPI rank 0) for atom          1 /  1,    Execution time    0.2 s
 Computed Z_lP (all MPI ranks) for all atoms,            Execution time    0.2 s

 Memory per MPI process after computing Z_lP:
 Available memory per MPI process                               36.1 GB
 Used memory per MPI process                                     1.1 GB
 Number of batches for χ, Σ matrices                                           1
 
 Percentage of non-zero matrix elements in Z_lP                         100.00 %
 Percentage of non-zero matrix elements in G_ll', χ_ll', W_ll'          100.00 %
 Percentage of non-zero matrix elements in χ_PQ for time point 1        100.00 %
 
 Computed χ(iτ,k=0) for time point            1 / 30,    Execution time    0.0 s
 Computed χ(iτ,k=0) for time point            2 / 30,    Execution time    0.0 s
 Computed χ(iτ,k=0) for time point            3 / 30,    Execution time    0.0 s
 Computed χ(iτ,k=0) for time point            4 / 30,    Execution time    0.0 s
 Computed χ(iτ,k=0) for time point            5 / 30,    Execution time    0.0 s
 Computed χ(iτ,k=0) for time point            6 / 30,    Execution time    0.0 s
 Computed χ(iτ,k=0) for time point            7 / 30,    Execution time    0.0 s
 Computed χ(iτ,k=0) for time point            8 / 30,    Execution time    0.0 s
 Computed χ(iτ,k=0) for time point            9 / 30,    Execution time    0.0 s
 Computed χ(iτ,k=0) for time point           10 / 30,    Execution time    0.0 s
 Computed χ(iτ,k=0) for time point           11 / 30,    Execution time    0.0 s
 Computed χ(iτ,k=0) for time point           12 / 30,    Execution time    0.0 s
 Computed χ(iτ,k=0) for time point           13 / 30,    Execution time    0.0 s
 Computed χ(iτ,k=0) for time point           14 / 30,    Execution time    0.0 s
 Computed χ(iτ,k=0) for time point           15 / 30,    Execution time    0.0 s
 Computed χ(iτ,k=0) for time point           16 / 30,    Execution time    0.0 s
 Computed χ(iτ,k=0) for time point           17 / 30,    Execution time    0.0 s
 Computed χ(iτ,k=0) for time point           18 / 30,    Execution time    0.0 s
 Computed χ(iτ,k=0) for time point           19 / 30,    Execution time    0.0 s
 Computed χ(iτ,k=0) for time point           20 / 30,    Execution time    0.0 s
 Computed χ(iτ,k=0) for time point           21 / 30,    Execution time    0.0 s
 Computed χ(iτ,k=0) for time point           22 / 30,    Execution time    0.0 s
 Computed χ(iτ,k=0) for time point           23 / 30,    Execution time    0.0 s
 Computed χ(iτ,k=0) for time point           24 / 30,    Execution time    0.0 s
 Computed χ(iτ,k=0) for time point           25 / 30,    Execution time    0.0 s
 Computed χ(iτ,k=0) for time point           26 / 30,    Execution time    0.0 s
 Computed χ(iτ,k=0) for time point           27 / 30,    Execution time    0.0 s
 Computed χ(iτ,k=0) for time point           28 / 30,    Execution time    0.0 s
 Computed χ(iτ,k=0) for time point           29 / 30,    Execution time    0.0 s
 Computed χ(iτ,k=0) for time point           30 / 30,    Execution time    0.0 s
 
 Computed W(iτ),                                         Execution time    0.5 s
 
 Computed Σ^x(k=0),                                      Execution time    0.0 s
 
 Computed Σ^c(iτ) for time point              1 / 30,    Execution time    0.0 s
 Computed Σ^c(iτ) for time point              2 / 30,    Execution time    0.0 s
 Computed Σ^c(iτ) for time point              3 / 30,    Execution time    0.0 s
 Computed Σ^c(iτ) for time point              4 / 30,    Execution time    0.0 s
 Computed Σ^c(iτ) for time point              5 / 30,    Execution time    0.0 s
 Computed Σ^c(iτ) for time point              6 / 30,    Execution time    0.0 s
 Computed Σ^c(iτ) for time point              7 / 30,    Execution time    0.0 s
 Computed Σ^c(iτ) for time point              8 / 30,    Execution time    0.0 s
 Computed Σ^c(iτ) for time point              9 / 30,    Execution time    0.0 s
 Computed Σ^c(iτ) for time point             10 / 30,    Execution time    0.0 s
 Computed Σ^c(iτ) for time point             11 / 30,    Execution time    0.0 s
 Computed Σ^c(iτ) for time point             12 / 30,    Execution time    0.0 s
 Computed Σ^c(iτ) for time point             13 / 30,    Execution time    0.0 s
 Computed Σ^c(iτ) for time point             14 / 30,    Execution time    0.0 s
 Computed Σ^c(iτ) for time point             15 / 30,    Execution time    0.0 s
 Computed Σ^c(iτ) for time point             16 / 30,    Execution time    0.0 s
 Computed Σ^c(iτ) for time point             17 / 30,    Execution time    0.0 s
 Computed Σ^c(iτ) for time point             18 / 30,    Execution time    0.0 s
 Computed Σ^c(iτ) for time point             19 / 30,    Execution time    0.0 s
 Computed Σ^c(iτ) for time point             20 / 30,    Execution time    0.0 s
 Computed Σ^c(iτ) for time point             21 / 30,    Execution time    0.0 s
 Computed Σ^c(iτ) for time point             22 / 30,    Execution time    0.0 s
 Computed Σ^c(iτ) for time point             23 / 30,    Execution time    0.0 s
 Computed Σ^c(iτ) for time point             24 / 30,    Execution time    0.0 s
 Computed Σ^c(iτ) for time point             25 / 30,    Execution time    0.0 s
 Computed Σ^c(iτ) for time point             26 / 30,    Execution time    0.0 s
 Computed Σ^c(iτ) for time point             27 / 30,    Execution time    0.0 s
 Computed Σ^c(iτ) for time point             28 / 30,    Execution time    0.0 s
 Computed Σ^c(iτ) for time point             29 / 30,    Execution time    0.0 s
 Computed Σ^c(iτ) for time point             30 / 30,    Execution time    0.0 s

 *** WARNING in post_scf_bandstructure_utils.F:3161 :: G0W0 reorders the   ***
 *** empty levels: the SCF conduction band minimum (SCF LUMO) is level 10, ***
 *** whereas the G0W0 conduction band minimum (G0W0 LUMO) is level 11. The ***
 *** SCF and G0W0 band edges printed below therefore belong to different   ***
 *** orbitals; see the eigenvalues in the file bandstructure_SCF_and_G0W0. ***

 
 SCF valence band maximum (eV):                                           -5.803
 SCF conduction band minimum (eV):                                        -1.298
 SCF indirect band gap (eV):                                               4.505
 SCF direct band gap (eV):                                                 4.505
 
 G0W0 valence band maximum (eV):                                          -8.559
 G0W0 conduction band minimum (eV):                                        1.417
 G0W0 indirect band gap (eV):                                              9.976
 G0W0 direct band gap (eV):                                                9.976
 
 Hartree-Fock with SCF orbitals valence band maximum (eV):                -8.890
 Hartree-Fock with SCF orbitals conduction band minimum (eV)               2.205
 Hartree-Fock with SCF orbitals indirect band gap (eV):                   11.095
 Hartree-Fock with SCF orbitals direct band gap (eV):                     11.095

 ENERGY| Total FORCE_EVAL ( QS ) energy [hartree]            -26.496927364822568

 -------------------------------------------------------------------------------
 -                                                                             -
 -                                DBCSR STATISTICS                             -
 -                                                                             -
 -------------------------------------------------------------------------------
 COUNTER                                    TOTAL       BLAS       SMM       ACC
 flops     9 x    29 x     9                56376     100.0%      0.0%      0.0%     
 flops     9 x     9 x     9               243486     100.0%      0.0%      0.0%     
 flops    29 x    29 x     9               272484     100.0%      0.0%      0.0%     
 flops     9 x     9 x    29               563760     100.0%      0.0%      0.0%     
 flops    29 x     9 x     9               662418     100.0%      0.0%      0.0%     
 flops    29 x     9 x    29              1498662     100.0%      0.0%      0.0%     
 flops     9 x     9 x    23              3912300     100.0%      0.0%      0.0%     
 flops     9 x     9 x    27              4566456     100.0%      0.0%      0.0%     
 flops    23 x     9 x     9              9557190     100.0%      0.0%      0.0%     
 flops    23 x     9 x    23             10026666     100.0%      0.0%      0.0%     
 flops     9 x     9 x    32             10886400     100.0%      0.0%      0.0%     
 flops    27 x     9 x     9             11219310     100.0%      0.0%      0.0%     
 flops    62 x    62 x    23             11493560     100.0%      0.0%      0.0%     
 flops    23 x     9 x    27             11770434     100.0%      0.0%      0.0%     
 flops    27 x     9 x    23             11770434     100.0%      0.0%      0.0%     
 flops    23 x    62 x    62             12200856     100.0%      0.0%      0.0%     
 flops    29 x     9 x    23             12606300     100.0%      0.0%      0.0%     
 flops     9 x    29 x    23             12642318     100.0%      0.0%      0.0%     
 flops    23 x    62 x    23             12988008     100.0%      0.0%      0.0%     
 flops    71 x    62 x    23             13161980     100.0%      0.0%      0.0%     
 flops    62 x    71 x    23             13161980     100.0%      0.0%      0.0%     
 flops    62 x    72 x    23             13347360     100.0%      0.0%      0.0%     
 flops    23 x    23 x    62             13578372     100.0%      0.0%      0.0%     
 flops    62 x    62 x    27             13700016     100.0%      0.0%      0.0%     
 flops    27 x     9 x    27             13817466     100.0%      0.0%      0.0%     
 flops    23 x    71 x    62             13971948     100.0%      0.0%      0.0%     
 flops    23 x    62 x    71             13971948     100.0%      0.0%      0.0%     
 flops    23 x    72 x    62             14168736     100.0%      0.0%      0.0%     
 flops    62 x    77 x    23             14274260     100.0%      0.0%      0.0%     
 flops    27 x    62 x    62             14322744     100.0%      0.0%      0.0%     
 flops    29 x     9 x    27             14714136     100.0%      0.0%      0.0%     
 flops     9 x    29 x    27             14840982     100.0%      0.0%      0.0%     
 flops    23 x    71 x    23             14873364     100.0%      0.0%      0.0%     
 flops    71 x    71 x    23             15072590     100.0%      0.0%      0.0%     
 flops    23 x    72 x    23             15082848     100.0%      0.0%      0.0%     
 flops    23 x    77 x    62             15152676     100.0%      0.0%      0.0%     
 flops    23 x    62 x    27             15246792     100.0%      0.0%      0.0%     
 flops    27 x    62 x    23             15246792     100.0%      0.0%      0.0%     
 flops    71 x    72 x    23             15284880     100.0%      0.0%      0.0%     
 flops    62 x    72 x    27             15668640     100.0%      0.0%      0.0%     
 flops    71 x    62 x    27             15688728     100.0%      0.0%      0.0%     
 flops    62 x    71 x    27             15688728     100.0%      0.0%      0.0%     
 flops    23 x    27 x    62             15939828     100.0%      0.0%      0.0%     
 flops    27 x    23 x    62             15939828     100.0%      0.0%      0.0%     
 flops    23 x    71 x    71             16000134     100.0%      0.0%      0.0%     
 flops    23 x    77 x    23             16130268     100.0%      0.0%      0.0%     
 flops    23 x    72 x    71             16225488     100.0%      0.0%      0.0%     
 flops    71 x    77 x    23             16346330     100.0%      0.0%      0.0%     
 flops    27 x    71 x    62             16401852     100.0%      0.0%      0.0%     
 flops    27 x    62 x    71             16401852     100.0%      0.0%      0.0%     
 flops    27 x    72 x    62             16632864     100.0%      0.0%      0.0%     
 flops    62 x    77 x    27             17014536     100.0%      0.0%      0.0%     
 flops    23 x    77 x    71             17352258     100.0%      0.0%      0.0%     
 flops    23 x    71 x    27             17460036     100.0%      0.0%      0.0%     
 flops    27 x    71 x    23             17460036     100.0%      0.0%      0.0%     
 flops    23 x    72 x    27             17705952     100.0%      0.0%      0.0%     
 flops    27 x    72 x    23             17705952     100.0%      0.0%      0.0%     
 flops    27 x    77 x    62             17787924     100.0%      0.0%      0.0%     
 flops    27 x    62 x    27             17898408     100.0%      0.0%      0.0%     
 flops    71 x    72 x    27             17943120     100.0%      0.0%      0.0%     
 flops    71 x    71 x    27             17966124     100.0%      0.0%      0.0%     
 flops    27 x    27 x    62             18711972     100.0%      0.0%      0.0%     
 flops    27 x    71 x    71             18782766     100.0%      0.0%      0.0%     
 flops    23 x    77 x    27             18935532     100.0%      0.0%      0.0%     
 flops    27 x    77 x    23             18935532     100.0%      0.0%      0.0%     
 flops    27 x    72 x    71             19047312     100.0%      0.0%      0.0%     
 flops    71 x    77 x    27             19484388     100.0%      0.0%      0.0%     
 flops    27 x    77 x    71             20370042     100.0%      0.0%      0.0%     
 flops    27 x    71 x    27             20496564     100.0%      0.0%      0.0%     
 flops    27 x    72 x    27             20785248     100.0%      0.0%      0.0%     
 flops    27 x    77 x    27             22228668     100.0%      0.0%      0.0%     
 flops    23 x    23 x     9             24938118     100.0%      0.0%      0.0%     
 flops    32 x     9 x     9             26593920     100.0%      0.0%      0.0%     
 flops    32 x     9 x    23             27900288     100.0%      0.0%      0.0%     
 flops    23 x     9 x    32             27900288     100.0%      0.0%      0.0%     
 flops    23 x    27 x     9             29275182     100.0%      0.0%      0.0%     
 flops    27 x    23 x     9             29275182     100.0%      0.0%      0.0%     
 flops    23 x    29 x     9             31443714     100.0%      0.0%      0.0%     
 flops    23 x     9 x    29             31443714     100.0%      0.0%      0.0%     
 flops    62 x    87 x    23             31759872     100.0%      0.0%      0.0%     
 flops    62 x    62 x    32             32228096     100.0%      0.0%      0.0%     
 flops    87 x    62 x    23             32256120     100.0%      0.0%      0.0%     
 flops    23 x    29 x    23             32308146     100.0%      0.0%      0.0%     
 flops    32 x     9 x    27             32752512     100.0%      0.0%      0.0%     
 flops    27 x     9 x    32             32752512     100.0%      0.0%      0.0%     
 flops    32 x    62 x    62             33950208     100.0%      0.0%      0.0%     
 flops    23 x    87 x    62             34241112     100.0%      0.0%      0.0%     
 flops    23 x    62 x    87             34241112     100.0%      0.0%      0.0%     
 flops    27 x    27 x     9             34366518     100.0%      0.0%      0.0%     
 flops    29 x     9 x    32             35078400     100.0%      0.0%      0.0%     
 flops     9 x    29 x    32             35178624     100.0%      0.0%      0.0%     
 flops    32 x    62 x    23             36140544     100.0%      0.0%      0.0%     
 flops    23 x    62 x    32             36323072     100.0%      0.0%      0.0%     
 flops    71 x    87 x    23             36370176     100.0%      0.0%      0.0%     
 flops    23 x    87 x    23             36450216     100.0%      0.0%      0.0%     
 flops    71 x    62 x    32             36906368     100.0%      0.0%      0.0%     
 flops    62 x    71 x    32             36906368     100.0%      0.0%      0.0%     
 flops    27 x    29 x     9             36912186     100.0%      0.0%      0.0%     
 flops    27 x     9 x    29             36912186     100.0%      0.0%      0.0%     
 flops    87 x    71 x    23             36938460     100.0%      0.0%      0.0%     
 flops    62 x    72 x    32             37426176     100.0%      0.0%      0.0%     
 flops    87 x    72 x    23             37458720     100.0%      0.0%      0.0%     
 flops    62 x    87 x    27             37574604     100.0%      0.0%      0.0%     
 flops    32 x    23 x    62             37783296     100.0%      0.0%      0.0%     
 flops    23 x    32 x    62             37783296     100.0%      0.0%      0.0%     
 flops    23 x    29 x    27             37926954     100.0%      0.0%      0.0%     
 flops    27 x    29 x    23             37926954     100.0%      0.0%      0.0%     
 flops    23 x    23 x    87             38107044     100.0%      0.0%      0.0%     
 flops    87 x    62 x    27             38448432     100.0%      0.0%      0.0%     
 flops    32 x    71 x    62             38878464     100.0%      0.0%      0.0%     
 flops    32 x    62 x    71             38878464     100.0%      0.0%      0.0%     
 flops    23 x    87 x    71             39211596     100.0%      0.0%      0.0%     
 flops    23 x    71 x    87             39211596     100.0%      0.0%      0.0%     
 flops    32 x    72 x    62             39426048     100.0%      0.0%      0.0%     
 flops    23 x    72 x    87             39763872     100.0%      0.0%      0.0%     
 flops    62 x    77 x    32             40025216     100.0%      0.0%      0.0%     
 flops    87 x    77 x    23             40060020     100.0%      0.0%      0.0%     
 flops    27 x    87 x    62             40196088     100.0%      0.0%      0.0%     
 flops    27 x    62 x    87             40196088     100.0%      0.0%      0.0%     
 flops    29 x    29 x    23             40736358     100.0%      0.0%      0.0%     
 flops    32 x    71 x    23             41386752     100.0%      0.0%      0.0%     
 flops    23 x    71 x    32             41700288     100.0%      0.0%      0.0%     
 flops    32 x    72 x    23             41969664     100.0%      0.0%      0.0%     
 flops    32 x    77 x    62             42163968     100.0%      0.0%      0.0%     
 flops    23 x    72 x    32             42181632     100.0%      0.0%      0.0%     
 flops    71 x    71 x    32             42263744     100.0%      0.0%      0.0%     
 flops    32 x    62 x    27             42425856     100.0%      0.0%      0.0%     
 flops    23 x    77 x    87             42525252     100.0%      0.0%      0.0%     
 flops    27 x    62 x    32             42747264     100.0%      0.0%      0.0%     
 flops    23 x    87 x    27             42789384     100.0%      0.0%      0.0%     
 flops    27 x    87 x    23             42789384     100.0%      0.0%      0.0%     
 flops    71 x    72 x    32             42859008     100.0%      0.0%      0.0%     
 flops    71 x    87 x    27             43028982     100.0%      0.0%      0.0%     
 flops    87 x    72 x    27             43973280     100.0%      0.0%      0.0%     
 flops    87 x    71 x    27             44029656     100.0%      0.0%      0.0%     
 flops    32 x    27 x    62             44354304     100.0%      0.0%      0.0%     
 flops    27 x    32 x    62             44354304     100.0%      0.0%      0.0%     
 flops    32 x    71 x    71             44522112     100.0%      0.0%      0.0%     
 flops    27 x    29 x    27             44522946     100.0%      0.0%      0.0%     
 flops    23 x    27 x    87             44734356     100.0%      0.0%      0.0%     
 flops    27 x    23 x    87             44734356     100.0%      0.0%      0.0%     
 flops    32 x    77 x    23             44884224     100.0%      0.0%      0.0%     
 flops    32 x    72 x    71             45149184     100.0%      0.0%      0.0%     
 flops    23 x    77 x    32             45224256     100.0%      0.0%      0.0%     
 flops    71 x    77 x    32             45835328     100.0%      0.0%      0.0%     
 flops    27 x    87 x    71             46031004     100.0%      0.0%      0.0%     
 flops    27 x    71 x    87             46031004     100.0%      0.0%      0.0%     
 flops    27 x    72 x    87             46679328     100.0%      0.0%      0.0%     
 flops    87 x    77 x    27             47750472     100.0%      0.0%      0.0%     
 flops    29 x    29 x    27             47820942     100.0%      0.0%      0.0%     
 flops    32 x    77 x    71             48284544     100.0%      0.0%      0.0%     
 flops    32 x    71 x    27             48584448     100.0%      0.0%      0.0%     
 flops    27 x    71 x    32             48952512     100.0%      0.0%      0.0%     
 flops    32 x    72 x    27             49268736     100.0%      0.0%      0.0%     
 flops    27 x    72 x    32             49517568     100.0%      0.0%      0.0%     
 flops    27 x    77 x    87             49920948     100.0%      0.0%      0.0%     
 flops    27 x    87 x    27             50231016     100.0%      0.0%      0.0%     
 flops    27 x    27 x    87             52514244     100.0%      0.0%      0.0%     
 flops    32 x    77 x    27             52690176     100.0%      0.0%      0.0%     
 flops    27 x    77 x    32             53089344     100.0%      0.0%      0.0%     
 flops    32 x    23 x     9             69393024     100.0%      0.0%      0.0%     
 flops    23 x    32 x     9             69393024     100.0%      0.0%      0.0%     
 flops    32 x     9 x    32             77635584     100.0%      0.0%      0.0%     
 flops    23 x    23 x    29             80356158     100.0%      0.0%      0.0%     
 flops    32 x    27 x     9             81461376     100.0%      0.0%      0.0%     
 flops    27 x    32 x     9             81461376     100.0%      0.0%      0.0%     
 flops    32 x    29 x     9             87495552     100.0%      0.0%      0.0%     
 flops    32 x     9 x    29             87495552     100.0%      0.0%      0.0%     
 flops    62 x    87 x    32             88720512     100.0%      0.0%      0.0%     
 flops    87 x    87 x    23             89132544     100.0%      0.0%      0.0%     
 flops    32 x    29 x    23             89900928     100.0%      0.0%      0.0%     
 flops    23 x    29 x    32             90028992     100.0%      0.0%      0.0%     
 flops    87 x    62 x    32             90446592     100.0%      0.0%      0.0%     
 flops    23 x    27 x    29             94331142     100.0%      0.0%      0.0%     
 flops    27 x    23 x    29             94331142     100.0%      0.0%      0.0%     
 flops    32 x    87 x    62             95279616     100.0%      0.0%      0.0%     
 flops    32 x    62 x    87             95279616     100.0%      0.0%      0.0%     
 flops    23 x    87 x    87             97140546     100.0%      0.0%      0.0%     
 flops    32 x    62 x    32            101199872     100.0%      0.0%      0.0%     
 flops    23 x    29 x    29            101318634     100.0%      0.0%      0.0%     
 flops    32 x    87 x    23            101426688     100.0%      0.0%      0.0%     
 flops    71 x    87 x    32            101599296     100.0%      0.0%      0.0%     
 flops    23 x    87 x    32            101810880     100.0%      0.0%      0.0%     
 flops    87 x    71 x    32            103575936     100.0%      0.0%      0.0%     
 flops    87 x    72 x    32            105034752     100.0%      0.0%      0.0%     
 flops    32 x    32 x    62            105136128     100.0%      0.0%      0.0%     
 flops    87 x    87 x    27            105451308     100.0%      0.0%      0.0%     
 flops    32 x    29 x    27            105535872     100.0%      0.0%      0.0%     
 flops    27 x    29 x    32            105535872     100.0%      0.0%      0.0%     
 flops    23 x    32 x    87            106036992     100.0%      0.0%      0.0%     
 flops    32 x    23 x    87            106421184     100.0%      0.0%      0.0%     
 flops    32 x    87 x    71            109110528     100.0%      0.0%      0.0%     
 flops    32 x    71 x    87            109110528     100.0%      0.0%      0.0%     
 flops    32 x    72 x    87            110647296     100.0%      0.0%      0.0%     
 flops    27 x    27 x    29            110736558     100.0%      0.0%      0.0%     
 flops    87 x    77 x    32            112328832     100.0%      0.0%      0.0%     
 flops    29 x    29 x    32            113353344     100.0%      0.0%      0.0%     
 flops    27 x    87 x    87            114034554     100.0%      0.0%      0.0%     
 flops    32 x    71 x    32            116035584     100.0%      0.0%      0.0%     
 flops    32 x    72 x    32            117522432     100.0%      0.0%      0.0%     
 flops    32 x    77 x    87            118331136     100.0%      0.0%      0.0%     
 flops    27 x    29 x    29            118939266     100.0%      0.0%      0.0%     
 flops    32 x    87 x    27            119066112     100.0%      0.0%      0.0%     
 flops    27 x    87 x    32            119517120     100.0%      0.0%      0.0%     
 flops    27 x    32 x    87            124478208     100.0%      0.0%      0.0%     
 flops    32 x    27 x    87            124929216     100.0%      0.0%      0.0%     
 flops    32 x    77 x    32            125841408     100.0%      0.0%      0.0%     
 flops    32 x    32 x     9            193093632     100.0%      0.0%      0.0%     
 flops    32 x    23 x    29            223599744     100.0%      0.0%      0.0%     
 flops    23 x    32 x    29            223599744     100.0%      0.0%      0.0%     
 flops    87 x    87 x    32            248989824     100.0%      0.0%      0.0%     
 flops    32 x    29 x    32            251168768     100.0%      0.0%      0.0%     
 flops    32 x    27 x    29            262486656     100.0%      0.0%      0.0%     
 flops    27 x    32 x    29            262486656     100.0%      0.0%      0.0%     
 flops    32 x    87 x    87            270304128     100.0%      0.0%      0.0%     
 flops    32 x    29 x    29            281930112     100.0%      0.0%      0.0%     
 flops    32 x    87 x    32            283656192     100.0%      0.0%      0.0%     
 flops    32 x    32 x    87            296128512     100.0%      0.0%      0.0%     
 flops    32 x    32 x    29            622190592     100.0%      0.0%      0.0%     
 flops inhomo. stacks                  4399633152     100.0%      0.0%      0.0%
 flops total                        17.146961E+09     100.0%      0.0%      0.0%
 flops max/rank                      3.323157E+09     100.0%      0.0%      0.0%
 matmuls inhomo. stacks                     16370     100.0%      0.0%      0.0%
 matmuls total                             234844     100.0%      0.0%      0.0%
 number of processed stacks                197028     100.0%      0.0%      0.0%
 average stack size                                     1.2       0.0       0.0
 marketing flops                    21.657915E+09
 -------------------------------------------------------------------------------
 # multiplications                           1038
 max memory usage/rank              21.976576E+09
 # max total images/rank                        7
 # max 3D layers                                1
 # MPI messages exchanged                   21798
 MPI messages size (bytes):
  total size                         1.568707E+09
  min size                           0.000000E+00
  max size                         238.032000E+03
  average size                      71.965617E+03
 MPI breakdown and total messages size (bytes):
             size <=      128                4380                        0
       128 < size <=     8192                 264                   352512
      8192 < size <=    32768                5130                125573760
     32768 < size <=   131072                6990                522860544
    131072 < size <=  4194304                5034                919919808
   4194304 < size <= 16777216                   0                        0
  16777216 < size                               0                        0
 -------------------------------------------------------------------------------

 *** WARNING in dbcsr_mm.F:301 :: Using a non-square number of MPI ranks ***
 *** might lead to poor performance. Used ranks: 7 Suggested: 9 16       ***

 -------------------------------------------------------------------------------
 -                                                                             -
 -                      DBCSR MESSAGE PASSING PERFORMANCE                      -
 -                                                                             -
 -------------------------------------------------------------------------------
 ROUTINE             CALLS      AVE VOLUME [Bytes]
 MP_Bcast              220                     12.
 MP_Allreduce         2629                     17.
 MP_Alltoall          3427                  31611.
 MP_ISend            11124                  25387.
 MP_IRecv            10536                  22702.
 -------------------------------------------------------------------------------

 -------------------------------------------------------------------------------
 -                                                                             -
 -                                GRID STATISTICS                              -
 -                                                                             -
 -------------------------------------------------------------------------------
 LP    KERNEL             BACKEND                              COUNT     PERCENT
 4     collocate ortho    CPU                                   1968      20.95%
 4     integrate ortho    CPU                                   1968      20.95%
 6     collocate ortho    CPU                                   1446      15.39%
 6     integrate ortho    CPU                                   1446      15.39%
 2     collocate ortho    CPU                                   1242      13.22%
 2     integrate ortho    CPU                                   1242      13.22%
 0     collocate general  CPU                                     84       0.89%
 -------------------------------------------------------------------------------

 -------------------------------------------------------------------------------
 -                                                                             -
 -                          OFFLOAD MEMPOOL STATISTICS                         -
 -                                                                             -
 -------------------------------------------------------------------------------
 Memory consumption                Number of allocations  Used [MiB]  Size [MiB]
 Host                                                  7         106    22151020
 -------------------------------------------------------------------------------

 MEMORY| Estimated peak process memory [MiB]                                2720

 -------------------------------------------------------------------------------
 -                                                                             -
 -                         MESSAGE PASSING PERFORMANCE                         -
 -                                                                             -
 -------------------------------------------------------------------------------

 ROUTINE             CALLS      AVE VOLUME [Bytes]
 MP_Group                5
 MP_Bcast              651                 312626.
 MP_Allreduce         1885                   3578.
 MP_Sync                10
 MP_Alltoall            65              108693589.
 MP_SendRecv            36                 729600.
 MP_ISendRecv           36                 729600.
 MP_Wait               197
 MP_comm_split          10
 MP_ISend              129                5319516.
 MP_IRecv              129                5319516.
 -------------------------------------------------------------------------------


 -------------------------------------------------------------------------------
 -                                                                             -
 -                           R E F E R E N C E S                               -
 -                                                                             -
 -------------------------------------------------------------------------------
 
 CP2K version 2026.2 (Development Version), the CP2K developers group (2026).
 CP2K is freely available from https://www.cp2k.org/ .
 
 M. Iannuzzi, J. Wilhelm, F. Stein, A. Bussy, H. Elgabarty, D. Golze, A. Hehn, 
 M. Graml, S. Marek, B. Sertcan Gökmen, C. Schran, H. Forbert, R. Z. 
 Khaliullin, A. Kozhevnikov, M. Taillefumier, R. Meli, V. V. Rybkin, M. Brehm, 
 R. Schade, O. Schütt, J. V. Pototschnig, H. Mirhosseini, A. Knüpfer, D. Marx, 
 M. Krack, J. Hutter, T. D. Kühne.
 J. Phys. Chem. B 130, 1237-1310 (2026).
 The CP2K Program Package Made Simple.
 https://doi.org/10.1021/acs.jpcb.5c05851

 M. Graml, K. Zollner, D. Hernangómez-Pérez, P. E. Faria Junior, J. Wilhelm.
 J. Chem. Theory Comput. 20, 2202-2208 (2024).
 Low-scaling GW algorithm applied to twisted transition-metal dichalcogenide 
 heterobilayers.
 https://doi.org/10.1021/acs.jctc.3c01230

 T. D. Kühne, M. Iannuzzi, M. Del Ben, V. V. Rybkin, P. Seewald, F. Stein, T. 
 Laino, R. Z. Khaliullin, O. Schütt, F. Schiffmann, D. Golze, J. Wilhelm, S. 
 Chulkov, M. H. Bani-Hashemian, V. Weber, U. Borstnik, M. Taillefumier, A. S. 
 Jakobovits, A. Lazzaro, H. Pabst, T. Müller, R. Schade, M. Guidon, S. 
 Andermatt, N. Holmberg, G. K. Schenter, A. Hehn, A. Bussy, F. Belleflamme, G. 
 Tabacchi, A. Glöß, M. Lass, I. Bethune, C. J. Mundy, C. Plessl, M. Watkins, 
 J. VandeVondele, M. Krack, J. Hutter.
 J. Chem. Phys. 152, 194103 (2020).
 CP2K: An electronic structure and molecular dynamics software package - 
 Quickstep: Efficient and accurate electronic structure calculations.
 https://doi.org/10.1063/5.0007045

 O. Schuett, P. Messmer, J. Hutter, J. VandeVondele.
 Electronic Structure Calculations on Graphics Processing Units, 173-190 (2016).
 GPU-Accelerated Sparse Matrix-Matrix Multiplication for Linear Scaling Density 
 Functional Theory.
 https://doi.org/10.1002/9781118670712.ch8

 U. Borstnik, J. VandeVondele, V. Weber, J. Hutter.
 Parallel Comput. 40, 47-58 (2014).
 Sparse matrix multiplication: The distributed block-compressed sparse row 
 library.
 https://doi.org/10.1016/j.parco.2014.03.012

 J. VandeVondele, J. Hutter.
 J. Chem. Phys. 127, 114105 (2007).
 Gaussian basis sets for accurate calculations on molecular systems in gas and 
 condensed phases.
 https://doi.org/10.1063/1.2770708

 J. VandeVondele, M. Krack, F. Mohamed, M. Parrinello, T. Chassaing, J. Hutter.
 Comput. Phys. Commun. 167, 103-128 (2005).
 QUICKSTEP: Fast and accurate density functional calculations using a mixed 
 Gaussian and plane waves approach.
 https://doi.org/10.1016/j.cpc.2004.12.014

 M. Krack.
 Theor. Chem. Acc. 114, 145-152 (2005).
 Pseudopotentials for H to Kr optimized for gradient-corrected 
 exchange-correlation functionals.
 https://doi.org/10.1007/s00214-005-0655-y

 M. Frigo, S. G. Johnson.
 Proc. IEEE 93, 216-231 (2005).
 The design and implementation of FFTW3.
 https://doi.org/10.1109/JPROC.2004.840301

 J. VandeVondele, J. Hutter.
 J. Chem. Phys. 118, 4365-4369 (2003).
 An efficient orbital transformation method for electronic structure 
 calculations.
 https://doi.org/10.1063/1.1543154

 C. Hartwigsen, S. Goedecker, J. Hutter.
 Phys. Rev. B 58, 3641-3662 (1998).
 Relativistic separable dual-space Gaussian pseudopotentials from H to Rn.
 https://doi.org/10.1103/PhysRevB.58.3641

 G. Lippert, J. Hutter, M. Parrinello.
 Mol. Phys. 92, 477-487 (1997).
 A hybrid Gaussian and plane wave density functional scheme.
 https://doi.org/10.1080/002689797170220

 S. Goedecker, M. Teter, J. Hutter.
 Phys. Rev. B 54, 1703-1710 (1996).
 Separable dual-space Gaussian pseudopotentials.
 https://doi.org/10.1103/PhysRevB.54.1703

 J. P. Perdew, K. Burke, M. Ernzerhof.
 Phys. Rev. Lett. 77, 3865-3868 (1996).
 Generalized gradient approximation made simple.
 https://doi.org/10.1103/PhysRevLett.77.3865

 P. E. Blöchl.
 J. Chem. Phys. 103, 7422-7428 (1995).
 Electrostatic decoupling of periodic images of plane‐wave‐expanded 
 densities and derived atomic point charges.
 https://doi.org/10.1063/1.470314

 R. H. Byrd, P. H. Lu, J. Nocedal, C. Y. Zhu.
 SIAM J. Sci. Comput. 16, 1190-1208 (1995).
 A Limited Memory Algorithm for Bound Constrained Optimization.
 https://doi.org/10.1137/0916069


 -------------------------------------------------------------------------------
 -                                                                             -
 -                                T I M I N G                                  -
 -                                                                             -
 -------------------------------------------------------------------------------
 SUBROUTINE                       CALLS  ASD         SELF TIME        TOTAL TIME MAXRANK
                                MAXIMUM       AVERAGE  MAXIMUM  AVERAGE  MAXIMUM
 CP2K                                 1  1.0    0.008    0.019   11.094   11.094       0
 qs_energies                          1  2.0    0.000    0.000    9.756    9.756       0
 qs_energies_properties               1  3.0    0.000    0.000    4.622    4.622       3
 post_scf_bandstructure               1  4.0    0.000    0.000    4.622    4.622       0
 run_gw                               1  5.0    0.000    0.000    4.588    4.610       1
 scf_env_do_scf                       1  3.0    0.000    0.000    4.342    4.342       0
 qs_ks_build_kohn_sham_matrix         3  7.3    0.003    0.003    3.739    3.739       6
 fft_wrap_pw1pw2                     45 10.1    0.001    0.001    3.279    3.413       4
 qs_ks_update_qs_env                  3  5.0    0.000    0.000    3.247    3.247       0
 rebuild_ks_matrix                    2  6.0    0.000    0.000    3.247    3.247       5
 fft_wrap_pw1pw2_300                 27 11.4    0.172    0.236    3.128    3.244       6
 fft3d_ps                            45 12.1    1.256    1.426    2.418    2.755       4
 scf_env_do_scf_inner_loop            2  4.0    0.000    0.000    2.696    2.696       0
 create_and_init_bs_env_for_gw        1  6.0    0.003    0.003    2.452    2.572       4
 gw_calc_ri_rs_non_periodic           1  6.0    0.000    0.000    2.135    2.291       0
 qs_vxc_create                        3  8.3    0.000    0.000    2.231    2.280       6
 xc_vxc_pw_create                     2  9.0    0.045    0.051    2.231    2.280       4
 xc_pw_derive                        12 11.0    0.000    0.000    1.651    1.779       4
 mp_alltoall_z22v                    45 14.1    0.615    1.675    0.615    1.675       0
 qs_rho_update_rho_low                3  5.0    0.000    0.000    1.648    1.648       0
 calculate_rho_elec                   3  6.0    0.044    0.047    1.648    1.648       0
 init_scf_loop                        1  4.0    0.000    0.000    1.646    1.646       4
 generate_auto_ri_basis               1  7.0    0.000    0.000    1.554    1.554       0
 mp_sum_dm                           30 10.7    0.879    1.224    0.879    1.224       6
 compute_AB_optimized_RI_basis        1  8.0    0.000    0.000    1.216    1.216       0
 compute_AB_optimized_RI_basis_       1  9.0    0.000    0.000    0.846    1.215       0
 xc_pw_divergence                     2 10.0    0.000    0.000    1.105    1.205       4
 density_rs2pw                        3  7.0    0.000    0.000    0.998    1.148       6
 xc_rho_set_and_dset_create           2 10.0    0.032    0.044    1.050    1.105       2
 yz_to_x                             22 12.5    0.243    0.284    0.576    1.051       3
 optimize_ri_rs_grid                  1  7.0    0.000    0.000    0.811    0.970       0
 x_to_yz                             23 13.8    0.301    0.350    0.583    0.911       4
 compute_B_PQ_AB                      2 10.0    0.093    0.214    0.401    0.843       0
 qs_init_subsys                       1  2.0    0.001    0.001    0.815    0.818       0
 qs_env_setup                         1  3.0    0.000    0.000    0.814    0.817       0
 qs_env_rebuild_pw_env                2  3.5    0.000    0.000    0.814    0.817       0
 pw_env_rebuild                       1  5.0    0.000    0.000    0.814    0.817       0
 pw_grid_setup                        5  5.2    0.000    0.000    0.803    0.806       0
 pw_grid_setup_internal               5  6.2    0.012    0.013    0.803    0.806       0
 mp_sum_d                           742  4.8    0.507    0.734    0.507    0.734       6
 rirs_grid_LBFGS                      1  8.0    0.043    0.112    0.693    0.715       0
 pw_grid_sort                         5  7.2    0.423    0.482    0.622    0.712       0
 sum_up_and_integrate                 3  8.3    0.000    0.000    0.648    0.671       4
 integrate_v_rspace                   3  9.3    0.000    0.000    0.636    0.666       6
 grid_collocate_task_list             3  7.0    0.584    0.657    0.584    0.657       1
 potential_pw2rs                      3 10.3    0.002    0.003    0.614    0.644       5
 init_scf_run                         1  3.0    0.000    0.000    0.587    0.587       6
 scf_env_initial_rho_setup            1  4.0    0.000    0.000    0.587    0.587       0
 cp_fm_get_submatrix                 26 10.0    0.000    0.000    0.422    0.553       0
 evaluate_rirs_grid_cluster         301  9.0    0.031    0.076    0.204    0.542       0
 compute_W                            1  7.0    0.000    0.000    0.538    0.538       0
 compute_V_xc                         1  7.0    0.000    0.000    0.493    0.493       0
 create_qs_kind_set                   1  2.0    0.000    0.000    0.489    0.492       0
 read_qs_kind                         3  3.0    0.168    0.244    0.489    0.492       0
 setup_time_and_frequency_minim       1  7.0    0.000    0.000    0.366    0.487       0
 build_minimax_time_frequency_g       1  8.0    0.000    0.000    0.366    0.487       6
 fit_l_sq_weights                     3  9.0    0.366    0.487    0.366    0.487       6
 transfer_rs2pw                      13  7.8    0.000    0.000    0.266    0.485       6
 qs_ks_ddapc                          3  8.3    0.000    0.000    0.451    0.465       6
 contract_B_PQ                       10 11.8    0.216    0.408    0.235    0.450       0
 mp_waitany                         129 11.4    0.210    0.446    0.210    0.446       0
 transfer_rs2pw_300                   4  8.5    0.080    0.088    0.224    0.444       2
 compute_Sigma_c_and_QP_energie       1  7.0    0.000    0.000    0.390    0.412       0
 cp_fm_gemm                         434 10.5    0.374    0.381    0.374    0.381       3
 parallel_gemm_fm_gemm              431  9.6    0.000    0.000    0.374    0.380       0
 compute_fm_W_freq                   30  8.0    0.000    0.000    0.370    0.373       0
 pw_poisson_solve                     3  8.3    0.000    0.000    0.355    0.371       4
 compute_Sigma_c                      1  8.0    0.002    0.003    0.365    0.365       0
 parser_read_line                 93458  4.0    0.016    0.019    0.321    0.336       0
 parser_read_line_low                99  5.0    0.021    0.122    0.305    0.321       0
 broadcast_input_information         99  6.0    0.033    0.072    0.284    0.317       0
 contract_grid_panels_sigma_c        30  9.0    0.281    0.289    0.302    0.302       6
 pw_derive                           21 11.3    0.268    0.297    0.268    0.297       1
 pw_scatter_p                        23 12.8    0.254    0.280    0.254    0.280       4
 initialize_ri_rs_grid                1  8.0    0.002    0.006    0.106    0.279       0
 mp_bcast_dm                         22  9.3    0.105    0.276    0.105    0.276       1
 pw_gather_p                         22 11.5    0.249    0.273    0.249    0.273       4
 pw_copy                             44 10.5    0.247    0.272    0.247    0.272       5
 abc_contract_xsmm                  441 10.9    0.094    0.263    0.094    0.263       0
 sort_shells                          5  8.2    0.199    0.230    0.199    0.230       0
 compute_B_PQ_exchange                5 10.8    0.000    0.000    0.116    0.226       0
 compute_B_PQ_transition              5 10.8    0.000    0.000    0.119    0.225       0
 compute_M_pq_inv_and_V_pq            1  8.0    0.000    0.000    0.223    0.224       0
 mp_bcast_i_src                     401  7.0    0.156    0.217    0.156    0.217       1
 pw_poisson_set                       4  8.5    0.000    0.000    0.199    0.215       6
 get_mat_chi_Gamma_tau                1  7.0    0.000    0.001    0.214    0.214       0
 qs_energies_init_hamiltonians        1  3.0    0.000    0.000    0.206    0.206       4
 xc_functional_eval                   2 11.0    0.000    0.000    0.157    0.205       5
 pbe_lda_eval                         2 12.0    0.157    0.205    0.157    0.205       3
 qs_env_update_s_mstruct              1  4.0    0.000    0.000    0.204    0.205       0
 cp_ddapc_apply_CD                    3  9.3    0.000    0.000    0.113    0.198       0
 transfer_pw2rs                      12 11.3    0.000    0.000    0.194    0.194       0
 contract_grid_panels                31  8.0    0.176    0.178    0.191    0.192       6
 calculate_rho_core                   1  5.0    0.015    0.015    0.185    0.188       0
 compute_contracted_RI_matrix         2  9.0    0.000    0.000    0.187    0.187       0
 compute_optimized_RI_matrix_bl       6 10.0    0.021    0.026    0.150    0.185       4
 pw_integral_ab_c1d_c1d_gs            6  9.8    0.136    0.141    0.147    0.176       4
 fft_wrap_pw1pw2_100                  6 10.7    0.008    0.018    0.122    0.176       6
 compute_M_PQ_AB                    118 11.0    0.000    0.000    0.140    0.172       4
 compute_M_PQ                       118 12.0    0.000    0.000    0.140    0.171       4
 int_operators_r12_ab_os            118 13.0    0.000    0.000    0.139    0.171       5
 int_operator_ab_os_low             118 14.0    0.055    0.067    0.139    0.171       5
 rirs_cluster_gradient_coordina     301 10.0    0.065    0.169    0.065    0.169       0
 compute_Z_lP                         1  7.0    0.000    0.000    0.168    0.168       0
 compute_Z_lP_auto_ri                 1  8.0    0.000    0.000    0.168    0.168       0
 compute_d_lp_auto_ri_batch           1  9.0    0.000    0.000    0.077    0.162       0
 compute_d_lp_auto_ri_atom            1 10.0    0.026    0.045    0.077    0.162       2
 transfer_pw2rs_300                   3 12.3    0.069    0.076    0.140    0.149       1
 mp_bcast_am_src                     99  7.0    0.094    0.141    0.094    0.141       6
 get_ddapc                            3 10.3    0.000    0.000    0.040    0.126       4
 pw_copy_to_array                    22 11.5    0.108    0.124    0.108    0.124       2
 pw_axpy                             35  7.3    0.110    0.124    0.110    0.124       2
 pw_grid_remap                        4  8.0    0.008    0.009    0.101    0.118       0
 compute_AA_optimized_RI_basis        1  8.0    0.000    0.000    0.114    0.114       1
 rirs_cluster_gradient_products     301 10.0    0.040    0.112    0.040    0.112       0
 mp_sum_im3                           5  9.0    0.093    0.110    0.093    0.110       5
 copy_dbcsr_to_fm                   104  9.5    0.078    0.107    0.081    0.110       6
 cp_fm_cholesky_invert               31  9.0    0.085    0.088    0.085    0.088       6
 pw_copy_from_array                  23 12.8    0.066    0.077    0.066    0.077       5
 build_3c_integral_block_auto_r      36 11.0    0.000    0.000    0.025    0.072       0
 build_G_ao                         121  8.5    0.004    0.004    0.063    0.069       0
 compute_B_PQ_AA                      6  9.0    0.000    0.000    0.054    0.066       5
 compute_fm_chi_Gamma_freq           30  8.0    0.026    0.034    0.055    0.065       0
 build_3c_integral_block_auto_r      36 11.0    0.026    0.065    0.026    0.065       0
 operator2                        59467 15.0    0.050    0.062    0.050    0.062       4
 rirs_cluster_residual              301 10.0    0.022    0.058    0.022    0.058       0
 rirs_cluster_AO_products           301 10.0    0.021    0.057    0.021    0.057       0
 pw_grid_assign                       5  7.2    0.049    0.056    0.055    0.056       0
 mp_sum_root_rm                       6 10.0    0.048    0.056    0.048    0.056       2
 compute_int_3c                       3  9.0    0.030    0.036    0.042    0.054       0
 G_occ_vir                          121  9.5    0.002    0.003    0.042    0.054       0
 mp_waitall_1                        68 12.4    0.033    0.049    0.033    0.049       0
 transfer_pw2rs_100                   3 12.3    0.013    0.014    0.040    0.049       6
 pw_zero                             30  5.6    0.040    0.048    0.040    0.048       4
 cp_fm_cholesky_decompose            35  9.0    0.047    0.048    0.047    0.048       1
 ab_contract                      61129 14.8    0.035    0.043    0.035    0.043       4
 local_gemm                        3512 12.9    0.019    0.043    0.019    0.043       0
 rirs_grid_build_clusters             1  8.0    0.007    0.019    0.012    0.041       0
 copy_fm_to_dbcsr                   161  9.3    0.029    0.034    0.034    0.039       5
 solve_AB_eigenproblem                2 10.0    0.015    0.025    0.023    0.039       0
 cp_fm_uplo_to_full                  63  9.0    0.031    0.038    0.031    0.038       6
 cp_fm_geeig                          2  9.5    0.000    0.000    0.038    0.038       0
 compute_M_pq_inv                     1  9.0    0.000    0.000    0.037    0.037       0
 compute_QP_energies                  1  8.0    0.000    0.000    0.024    0.037       0
 rirs_cluster_d_lP                  301 10.0    0.013    0.036    0.013    0.036       0
 mp_sum_iv                          142 10.0    0.023    0.036    0.023    0.036       6
 check_for_restart_files              1  7.0    0.034    0.035    0.034    0.035       2
 fft_wrap_pw1pw2_40                   6 10.7    0.001    0.002    0.023    0.035       6
 cp_fm_syevd                          5  9.0    0.000    0.000    0.034    0.034       0
 transfer_rs2pw_100                   3  9.0    0.011    0.014    0.028    0.034       5
 rirs_cluster_D_ll                  301 10.0    0.013    0.034    0.013    0.034       0
 cp_fm_redistribute_end               5 10.0    0.019    0.033    0.019    0.033       6
 eval_bandstructure_properties        1  5.0    0.000    0.000    0.029    0.032       0
 cp_fm_syevd_base                     5 10.0    0.014    0.032    0.014    0.032       0
 rs_grid_zero                         7 12.3    0.029    0.032    0.029    0.032       5
 cp_cfm_geeig                         1  6.0    0.000    0.000    0.027    0.031       0
 eval_pw_TabLR                        1  2.0    0.009    0.013    0.022    0.028       0
 cp_cfm_cholesky_decompose            2  7.0    0.023    0.027    0.023    0.027       6
 pw_multiply_with                     3  9.3    0.023    0.025    0.023    0.025       6
 pw_scale                             9  9.8    0.017    0.024    0.017    0.024       4
 diamat_all                          12 11.4    0.013    0.023    0.013    0.023       0
 grid_integrate_task_list             3 10.3    0.011    0.022    0.011    0.022       0
 mp_sum_l                            21  4.2    0.015    0.019    0.015    0.019       1
 qs_scf_new_mos                       2  5.0    0.000    0.000    0.018    0.018       6
 qs_scf_loop_do_ot                    2  6.0    0.000    0.000    0.018    0.018       0
 to_Gamma_and_mo_real                62  9.0    0.000    0.000    0.018    0.018       0
 ot_scf_mini                          2  7.0    0.001    0.001    0.017    0.017       0
 extract_masked_blocks              244  9.6    0.012    0.017    0.012    0.017       0
 collect_used_col_blocks             92  9.7    0.000    0.000    0.006    0.017       0
 mp_alltoall_d11v                     6  9.7    0.011    0.016    0.011    0.016       5
 abc_contract                        70 10.0    0.011    0.016    0.011    0.016       0
 rs_gather_matrices                   3 10.3    0.000    0.000    0.011    0.016       3
 analyt_conti_and_print               1  9.0    0.002    0.015    0.003    0.016       0
 compute_reference_M_PQ_inv_fac       8 10.8    0.000    0.000    0.009    0.016       0
 cp_ddapc_init                        1  5.0    0.000    0.000    0.015    0.015       0
 cp_ddapc_create                      1  6.0    0.000    0.000    0.015    0.015       5
 ddapc_eval_gfunc                     1  7.0    0.014    0.014    0.014    0.014       2
 extract_grid_panel                 122  9.5    0.010    0.014    0.010    0.014       0
 fill_fm_Sigma_c_Gamma_time           1  9.0    0.000    0.000    0.013    0.013       6
 compute_Sigma_x                      1  7.0    0.000    0.000    0.012    0.013       0
 transfer_pw2rs_40                    3 12.3    0.005    0.005    0.011    0.012       1
 transfer_rs2pw_40                    3  9.0    0.005    0.005    0.011    0.012       4
 qs_create_task_list                  1  5.0    0.000    0.000    0.003    0.012       0
 generate_qs_task_list                1  6.0    0.000    0.000    0.003    0.012       3
 distribute_tasks                     1  7.0    0.000    0.000    0.003    0.012       3
 ot_mini                              2  8.0    0.000    0.000    0.012    0.012       4
 load_balance_distributed             2  8.0    0.000    0.000    0.003    0.012       0
 get_current_loads                   12  9.0    0.000    0.000    0.003    0.011       0
 compute_load_list                    4  9.0    0.000    0.000    0.003    0.011       3
 mp_alltoall_l                       13  9.9    0.003    0.011    0.003    0.011       0
 -------------------------------------------------------------------------------

 The number of warnings for this run is : 2
 
 -------------------------------------------------------------------------------
  **** **** ******  **  PROGRAM ENDED AT                 2026-10-03 12:02:39.543
 ***** ** ***  *** **   PROGRAM RAN ON                                  n2cn1151
 **    ****   ******    PROGRAM RAN BY                                  eprop2d1
 ***** **    ** ** **   PROGRAM PROCESS ID                               2021046
  **** **  *******  **  PROGRAM STOPPED IN /scratch/hpc-prf-metdyn/eprop2d1_Jan/
                                           53_benchmark_RI_opt/418_gw100_fig5_fu
                                           ll_epsfilter_1e12_20261002/calculatio
                                           ns/rc0p5/ri4_rs03/33_C2H3Br
