 DBCSR| CPU Multiplication driver                                           XSMM (U)
 DBCSR| Multrec recursion limit                                              512 (U)
 DBCSR| Multiplication stack size                                           1000 (D)
 DBCSR| Maximum elements for images                                    UNLIMITED (U)
 DBCSR| Multiplicative factor virtual images                                   1 (U)
 DBCSR| Use multiplication densification                                       T (D)
 DBCSR| Multiplication size stacks                                             3 (U)
 DBCSR| Use memory pool for CPU allocation                                     F (U)
 DBCSR| Number of 3D layers                                               SINGLE (U)
 DBCSR| Use MPI memory allocation                                              F (U)
 DBCSR| Use RMA algorithm                                                      F (U)
 DBCSR| Use Communication thread                                               T (U)
 DBCSR| Communication thread load                                             60 (D)
 DBCSR| MPI: My process id                                                     0
 DBCSR| MPI: Number of processes                                              16
 DBCSR| OMP: Current number of threads                                         8
 DBCSR| OMP: Max number of threads                                             8
 DBCSR| Split modifier for TAS multiplication algorithm                  1.0E+00 (U)


  **** **** ******  **  PROGRAM STARTED AT               2026-10-03 12:12:17.769
 ***** ** ***  *** **   PROGRAM STARTED ON                              n2cn0592
 **    ****   ******    PROGRAM STARTED BY                              eprop2d1
 ***** **    ** ** **   PROGRAM PROCESS ID                               1280948
  **** **  *******  **  PROGRAM STARTED IN /scratch/hpc-prf-metdyn/eprop2d1_Jan/
                                           53_benchmark_RI_opt/418_gw100_fig5_fu
                                           ll_epsfilter_1e12_20261002/calculatio
                                           ns/rc5p0/ri5_rs03/79_OCS

 CP2K| version string:                 CP2K version 2026.2 (Development Version)
 CP2K| source code revision number:                                   0671c5aa6c
 CP2K| cp2kflags: omp libint fftw3 libxc parallel scalapack openblas            
 CP2K| is freely available from                            https://www.cp2k.org/
 CP2K| Program compiled at                                   2026-09-20 09:25:26
 CP2K| Program compiled on                                              n2login5
 CP2K| Program compiled for                                               x86_64
 CP2K| Data directory path    /scratch/hpc-prf-metdyn/eprop2d1_Jan/53_benchmark_
 CP2K| Input file name                                                 input.inp
 
 eprop2d1@n2cn0592 has created rank and process                      0   1280948
 eprop2d1@n2cn0592 has created rank and process                      1   1280949
 eprop2d1@n2cn0592 has created rank and process                      2   1280950
 
 eprop2d1@n2cn0592 is running                                        3 processes

 GLOBAL| Force Environment number                                              1
 GLOBAL| Basis set file name            /scratch/hpc-prf-metdyn/eprop2d1_Jan/53_
 GLOBAL| Potential file name            /scratch/hpc-prf-metdyn/eprop2d1_Jan/53_
 GLOBAL| MM Potential file name                                     MM_POTENTIAL
 GLOBAL| Coordinate file name                                      __STD_INPUT__
 GLOBAL| Method name                                                        CP2K
 GLOBAL| Project name                                             g418_e503_m079
 GLOBAL| Run type                                                         ENERGY
 GLOBAL| FFT library                                                       FFTW3
 GLOBAL| Diagonalization library                                       ScaLAPACK
 GLOBAL| Cholesky decomposition library                                ScaLAPACK
 GLOBAL| DGEMM library                                                      BLAS
 GLOBAL| Direct generalized diagonalization requested                          F
 GLOBAL| Orthonormality check for eigenvectors                          DISABLED
 GLOBAL| Matrix multiplication library                                 ScaLAPACK
 GLOBAL| All-to-all communication in single precision                          F
 GLOBAL| Grid backend                                                       AUTO
 GLOBAL| Global print level                                                  LOW
 GLOBAL| MPI I/O enabled                                                       T
 GLOBAL| Total number of message passing processes                             3
 GLOBAL| Number of distributed systems (nodes)                                 1
 GLOBAL| Number of threads for this process                                    8
 GLOBAL| This output is from process                                           0
 GLOBAL| OpenMP stack size per thread (OMP_STACKSIZE)                       512M
 GLOBAL| CPU model name                          AMD EPYC 7763 64-Core Processor

 MEMORY| system memory details [Kb]
 MEMORY|                        rank 0           min           max       average
 MEMORY| MemTotal            263897608     263897608     263897608     263897608
 MEMORY| MemFree             232936356     232936356     232936356     232936356
 MEMORY| Buffers                131776        131776        131776        131776
 MEMORY| Cached               10077320      10077320      10077320      10077320
 MEMORY| Slab                  1644508       1644508       1644508       1644508
 MEMORY| SReclaimable           296200        296200        296200        296200
 MEMORY| MemLikelyFree       243441652     243441652     243441652     243441652


 GENERATE|  Preliminary Number of Bonds generated:                             0
 GENERATE|  Achieved consistency in connectivity generation.

 *******************************************************************************
 *******************************************************************************
 **                                                                           **
 **     #####                         ##              ##                      **
 **    ##   ##            ##          ##              ##                      **
 **   ##     ##                       ##            ######                    **
 **   ##     ##  ##   ##  ##   #####  ##  ##   ####   ##    #####    #####    **
 **   ##     ##  ##   ##  ##  ##      ## ##   ##      ##   ##   ##  ##   ##   **
 **   ##  ## ##  ##   ##  ##  ##      ####     ###    ##   ######   ######    **
 **    ##  ###   ##   ##  ##  ##      ## ##      ##   ##   ##       ##        **
 **     #######   #####   ##   #####  ##  ##  ####    ##    #####   ##        **
 **           ##                                                    ##        **
 **                                                                           **
 **                                                ... make the atoms dance   **
 **                                                                           **
 **            Copyright (C) by CP2K developers group (2000-2026)             **
 **                      J. Chem. Phys. 152, 194103 (2020)                    **
 **                                                                           **
 *******************************************************************************


 TOTAL NUMBERS AND MAXIMUM NUMBERS

  Total number of            - Atomic kinds:                                   3
                             - Atoms:                                          3
                             - Shell sets:                                     3
                             - Shells:                                        27
                             - Primitive Cartesian functions:                 20
                             - Cartesian basis functions:                    102
                             - Spherical basis functions:                     87

  Maximum angular momentum of- Orbital basis functions:                        3
                             - Local part of the GTH pseudopotential:          2
                             - Non-local part of the GTH pseudopotential:      2


 SCF PARAMETERS         Density guess:                                   RESTART
                        --------------------------------------------------------
                        max_scf:                                             500
                        max_scf_history:                                       0
                        max_diis:                                              4
                        --------------------------------------------------------
                        eps_scf:                                        1.00E-08
                        eps_scf_history:                                0.00E+00
                        eps_diis:                                       0.00E+00
                        eps_eigval:                                     1.00E-05
                        --------------------------------------------------------
                        level_shift [a.u.]:                             0.000000
                        --------------------------------------------------------
                        Outer loop SCF in use 
                        No variables optimised in outer loop
                        eps_scf                                         1.00E-08
                        max_scf                                               20
                        No outer loop optimization
                        step_size                                       5.00E-01

 Extrapolation method: initial_guess

 Number of electrons:                                                         16
 Number of occupied orbitals:                                                  8
 Number of molecular orbitals:                                                 8

 Number of orbital functions:                                                 87
 Number of independent orbital functions:                                     87


 SCF WAVEFUNCTION OPTIMIZATION

  ----------------------------------- OT ---------------------------------------
  Minimizer      : DIIS                : direct inversion
                                         in the iterative subspace
                                         using   7 DIIS vectors
                                         safer DIIS on
  Preconditioner : FULL_KINETIC        : inversion of T + eS
  Lattice FFT   : OFF
  Precond_solver : DEFAULT
  stepsize       :    0.15000000                  energy_gap     :    0.20000000
  eps_taylor     :   0.10000E-15                  max_taylor     :             4
  ----------------------------------- OT ---------------------------------------

  Step     Update method      Time    Convergence         Total energy    Change
  ------------------------------------------------------------------------------
  Decoupling Energy:                                               0.0000107968
     1 OT DIIS     0.15E+00    3.9     0.00000002       -31.9285013247 -3.19E+01
  Decoupling Energy:                                               0.0000107968
     2 OT DIIS     0.15E+00    5.1     0.00000001       -31.9285013247 -1.07E-14
  Decoupling Energy:                                               0.0000107968
     3 OT DIIS     0.15E+00    5.0     0.00000001       -31.9285013247 -2.13E-14
  Decoupling Energy:                                               0.0000107968
     4 OT DIIS     0.15E+00    5.0     8.6941E-09       -31.9285013247 -3.91E-14

  *** SCF run converged in     4 steps ***


  Electronic density on regular grids:        -16.0000000000        0.0000000000
  Core density on regular grids:               16.0000000000       -0.0000000000
  Total charge density on r-space grids:       -0.0000000000
  Total charge density g-space grids:          -0.0000000000

  Overlap energy of the core charge distribution:               0.00000214106459
  Self energy of the core charge distribution:                -79.04076858638221
  Core Hamiltonian energy:                                     21.28247568097899
  Hartree energy:                                              33.22046537465592
  Exchange-correlation energy:                                 -7.39067593503491

  Total energy:                                               -31.92850132471762

  outer SCF iter =    1 RMS gradient =   0.87E-08 energy =        -31.9285013247
  outer SCF loop converged in   1 iterations or    4 steps

  
 -------------------------------------------------------------------------------
 -                                                                             -
 -                          BANDSTRUCTURE CALCULATION                          -
 -                                                                             -
 -------------------------------------------------------------------------------
  
 Number of occupied molecular orbitals (MOs) = Number of occupied bands        8
 Number of unoccupied (= virtual) MOs = Number of unoccupied bands            79
 Number of Gaussian basis functions for MOs                                   87
  
 -------------------------------------------------------------------------------
 -                                                                             -
 -                                GW CALCULATION                               -
 -                                                                             -
 -------------------------------------------------------------------------------
  
 Input: Number of time/freq. points                                           30
 Input: ω_max for fitting Σ(iω) (eV)                                        10.0
 Input: Filter threshold for sparse tensor operations                    1.0E-12
 Input: Apply Hedin shift                                                      F
 Detected: Available memory per MPI process                              56.9 GB
 
 Input: RI-RS Tikhonov regularization                                   1.00E-04
 Input: AO grid hard cutoff radius                                        8.00 Å
 Input: MPI ranks per atom in Z_lP solve                                      -1
 Input: Keep sparsity in χ/G/W panels                                          T
 Input: GW flavour                                                          G0W0
 
 Input: RI-RS grid optimization activated                                      T
 Input: RS points per AO function                                            3.0
 Input: Cutoff radius for atomic clusters                                  5.0 Å
 Input: Maximum grid optimization iterations                                 300
 
 Input: AUTO_RI basis optimization activated:                                  T
 Input: AUTO_RI number of RI functions per AO function:                      5.0
 Input: AUTO_RI frontier orbital window:                                  5.0 eV
 Input: AUTO_RI neighbor radius:                                           3.0 Å
 
 Cutoff radius for the truncated Coulomb operator in RI metric:            7.0 Å
 Regularization parameter of RI                                          0.0E+00
 Regularization parameter of minimax grids                               1.0E-06
 
 AUTO_RI| Number of automatic RI functions for χ, ε, W:                      326
 AUTO_RI| Total RI basis optimization time:                                0.9 s
  Decoupling Energy:                                               0.0000107968
 
 SCF direct band gap (eV)                                                   5.53
 Max. SCF eigval diff. (eV)                                               272.78
 E-Range for minimax grid                                                  49.29
 Number of Padé parameters for analytic continuation:                         16
 
 RI-RS basis radii (Å):
     Kind  Elem     r_AO (Å)     r_RI (Å)
        1    O        12.8635        8.6829
        2    C        15.9835       10.1279
        3    S         8.7963        6.1196
 
 Started RI-RS grid optimization
 RI-RS grid initial normalized error                          6.588326541006E-02
 RI-RS grid optimization completed, execution time:                       12.6 s
 Normalized 3C error:                                                    9.4E-05
 Maximum absolute 3C error:                                              1.2E-01
 Optimized points outside molecular Voronoi cells:                            27 / 261
 Total grid points used for RI-RS:                                           261
 
 RI-RS grid row-blocks of ϕ_μ(r_l)                                             9
 RI-RS grid points per block (max)                                            32
 
 Percentage of non-zero matrix elements in ϕ_μ(r_l)                     100.00 %
 
 RI-RS memory estimate per MPI process:
   Available memory per process (system)                                78.11 GB
   Required for Z_lP (dense upper bound; actual is sparser)              0.00 GB
   Required for χ, W, Σ panels (peak per panel step)                     0.00 GB
   Required for Z_lP solve peak (D_local+ϕ, worst-case atom)             0.00 GB
   Worst-case local-grid number of grid points:                              261
   Worst-case memory D_local:                                            0.00 GB
 
 Started computing Z_lP
 Computed Z_lP (MPI rank 0) for atom          1 /  1,    Execution time    0.1 s
 Computed Z_lP (all MPI ranks) for all atoms,            Execution time    0.1 s

 Memory per MPI process after computing Z_lP:
 Available memory per MPI process                               77.9 GB
 Used memory per MPI process                                     1.5 GB
 Number of batches for χ, Σ matrices                                           1
 
 Percentage of non-zero matrix elements in Z_lP                         100.00 %
 Percentage of non-zero matrix elements in G_ll', χ_ll', W_ll'          100.00 %
 Percentage of non-zero matrix elements in χ_PQ for time point 1        100.00 %
 
 Computed χ(iτ,k=0) for time point            1 / 30,    Execution time    0.0 s
 Computed χ(iτ,k=0) for time point            2 / 30,    Execution time    0.0 s
 Computed χ(iτ,k=0) for time point            3 / 30,    Execution time    0.0 s
 Computed χ(iτ,k=0) for time point            4 / 30,    Execution time    0.0 s
 Computed χ(iτ,k=0) for time point            5 / 30,    Execution time    0.0 s
 Computed χ(iτ,k=0) for time point            6 / 30,    Execution time    0.0 s
 Computed χ(iτ,k=0) for time point            7 / 30,    Execution time    0.0 s
 Computed χ(iτ,k=0) for time point            8 / 30,    Execution time    0.0 s
 Computed χ(iτ,k=0) for time point            9 / 30,    Execution time    0.0 s
 Computed χ(iτ,k=0) for time point           10 / 30,    Execution time    0.0 s
 Computed χ(iτ,k=0) for time point           11 / 30,    Execution time    0.0 s
 Computed χ(iτ,k=0) for time point           12 / 30,    Execution time    0.0 s
 Computed χ(iτ,k=0) for time point           13 / 30,    Execution time    0.0 s
 Computed χ(iτ,k=0) for time point           14 / 30,    Execution time    0.0 s
 Computed χ(iτ,k=0) for time point           15 / 30,    Execution time    0.0 s
 Computed χ(iτ,k=0) for time point           16 / 30,    Execution time    0.0 s
 Computed χ(iτ,k=0) for time point           17 / 30,    Execution time    0.0 s
 Computed χ(iτ,k=0) for time point           18 / 30,    Execution time    0.0 s
 Computed χ(iτ,k=0) for time point           19 / 30,    Execution time    0.0 s
 Computed χ(iτ,k=0) for time point           20 / 30,    Execution time    0.0 s
 Computed χ(iτ,k=0) for time point           21 / 30,    Execution time    0.0 s
 Computed χ(iτ,k=0) for time point           22 / 30,    Execution time    0.0 s
 Computed χ(iτ,k=0) for time point           23 / 30,    Execution time    0.0 s
 Computed χ(iτ,k=0) for time point           24 / 30,    Execution time    0.0 s
 Computed χ(iτ,k=0) for time point           25 / 30,    Execution time    0.0 s
 Computed χ(iτ,k=0) for time point           26 / 30,    Execution time    0.0 s
 Computed χ(iτ,k=0) for time point           27 / 30,    Execution time    0.0 s
 Computed χ(iτ,k=0) for time point           28 / 30,    Execution time    0.0 s
 Computed χ(iτ,k=0) for time point           29 / 30,    Execution time    0.0 s
 Computed χ(iτ,k=0) for time point           30 / 30,    Execution time    0.0 s
 
 Cholesky decomposition failed, using diagonalization.
 Discarded eigenmodes:                                                         7
 Computed W(iτ),                                         Execution time    0.2 s
 
 Computed Σ^x(k=0),                                      Execution time    0.0 s
 
 Computed Σ^c(iτ) for time point              1 / 30,    Execution time    0.0 s
 Computed Σ^c(iτ) for time point              2 / 30,    Execution time    0.0 s
 Computed Σ^c(iτ) for time point              3 / 30,    Execution time    0.0 s
 Computed Σ^c(iτ) for time point              4 / 30,    Execution time    0.0 s
 Computed Σ^c(iτ) for time point              5 / 30,    Execution time    0.0 s
 Computed Σ^c(iτ) for time point              6 / 30,    Execution time    0.0 s
 Computed Σ^c(iτ) for time point              7 / 30,    Execution time    0.0 s
 Computed Σ^c(iτ) for time point              8 / 30,    Execution time    0.0 s
 Computed Σ^c(iτ) for time point              9 / 30,    Execution time    0.0 s
 Computed Σ^c(iτ) for time point             10 / 30,    Execution time    0.0 s
 Computed Σ^c(iτ) for time point             11 / 30,    Execution time    0.0 s
 Computed Σ^c(iτ) for time point             12 / 30,    Execution time    0.0 s
 Computed Σ^c(iτ) for time point             13 / 30,    Execution time    0.0 s
 Computed Σ^c(iτ) for time point             14 / 30,    Execution time    0.0 s
 Computed Σ^c(iτ) for time point             15 / 30,    Execution time    0.0 s
 Computed Σ^c(iτ) for time point             16 / 30,    Execution time    0.0 s
 Computed Σ^c(iτ) for time point             17 / 30,    Execution time    0.0 s
 Computed Σ^c(iτ) for time point             18 / 30,    Execution time    0.0 s
 Computed Σ^c(iτ) for time point             19 / 30,    Execution time    0.0 s
 Computed Σ^c(iτ) for time point             20 / 30,    Execution time    0.0 s
 Computed Σ^c(iτ) for time point             21 / 30,    Execution time    0.0 s
 Computed Σ^c(iτ) for time point             22 / 30,    Execution time    0.0 s
 Computed Σ^c(iτ) for time point             23 / 30,    Execution time    0.0 s
 Computed Σ^c(iτ) for time point             24 / 30,    Execution time    0.0 s
 Computed Σ^c(iτ) for time point             25 / 30,    Execution time    0.0 s
 Computed Σ^c(iτ) for time point             26 / 30,    Execution time    0.0 s
 Computed Σ^c(iτ) for time point             27 / 30,    Execution time    0.0 s
 Computed Σ^c(iτ) for time point             28 / 30,    Execution time    0.0 s
 Computed Σ^c(iτ) for time point             29 / 30,    Execution time    0.0 s
 Computed Σ^c(iτ) for time point             30 / 30,    Execution time    0.0 s
 
 SCF valence band maximum (eV):                                           -7.465
 SCF conduction band minimum (eV):                                        -1.930
 SCF indirect band gap (eV):                                               5.534
 SCF direct band gap (eV):                                                 5.534
 
 G0W0 valence band maximum (eV):                                         -10.509
 G0W0 conduction band minimum (eV):                                        1.668
 G0W0 indirect band gap (eV):                                             12.177
 G0W0 direct band gap (eV):                                               12.177
 
 Hartree-Fock with SCF orbitals valence band maximum (eV):               -11.064
 Hartree-Fock with SCF orbitals conduction band minimum (eV)               2.374
 Hartree-Fock with SCF orbitals indirect band gap (eV):                   13.438
 Hartree-Fock with SCF orbitals direct band gap (eV):                     13.438

 ENERGY| Total FORCE_EVAL ( QS ) energy [hartree]            -31.928501324717622

 -------------------------------------------------------------------------------
 -                                                                             -
 -                                DBCSR STATISTICS                             -
 -                                                                             -
 -------------------------------------------------------------------------------
 COUNTER                                    TOTAL       BLAS       SMM       ACC
 flops     8 x     8 x     8                 4096     100.0%      0.0%      0.0%     
 flops     8 x     8 x    29               167040     100.0%      0.0%      0.0%     
 flops    29 x     8 x     8               211584     100.0%      0.0%      0.0%     
 flops    29 x    29 x     8               403680     100.0%      0.0%      0.0%     
 flops    29 x     8 x    29              2058768     100.0%      0.0%      0.0%     
 flops    23 x    88 x    23             18434592     100.0%      0.0%      0.0%     
 flops    23 x    23 x    88             18993216     100.0%      0.0%      0.0%     
 flops    88 x    88 x    23             22442112     100.0%      0.0%      0.0%     
 flops    23 x    88 x    88             23510784     100.0%      0.0%      0.0%     
 flops    23 x    29 x    23             32032008     100.0%      0.0%      0.0%     
 flops    29 x    29 x    23             39343662     100.0%      0.0%      0.0%     
 flops    23 x   119 x    23             49731290     100.0%      0.0%      0.0%     
 flops    23 x    88 x    32             50778112     100.0%      0.0%      0.0%     
 flops    32 x    88 x    23             51296256     100.0%      0.0%      0.0%     
 flops    23 x    23 x   119             51368016     100.0%      0.0%      0.0%     
 flops    32 x    23 x    88             52073472     100.0%      0.0%      0.0%     
 flops    23 x    32 x    88             52850688     100.0%      0.0%      0.0%     
 flops    88 x   119 x    23             60695712     100.0%      0.0%      0.0%     
 flops   119 x    88 x    23             60695712     100.0%      0.0%      0.0%     
 flops    88 x    88 x    32             62447616     100.0%      0.0%      0.0%     
 flops    23 x    88 x   119             65031120     100.0%      0.0%      0.0%     
 flops    23 x   119 x    88             65031120     100.0%      0.0%      0.0%     
 flops    32 x    88 x    88             65421312     100.0%      0.0%      0.0%     
 flops    23 x    23 x    29             79527744     100.0%      0.0%      0.0%     
 flops    32 x    29 x    23             89388672     100.0%      0.0%      0.0%     
 flops    23 x    29 x    32             89559424     100.0%      0.0%      0.0%     
 flops    23 x    29 x    29            101009146     100.0%      0.0%      0.0%     
 flops    29 x    29 x    32            111738624     100.0%      0.0%      0.0%     
 flops    23 x   119 x    32            137506880     100.0%      0.0%      0.0%     
 flops    32 x   119 x    23            138733056     100.0%      0.0%      0.0%     
 flops    32 x    23 x   119            140835072     100.0%      0.0%      0.0%     
 flops    32 x    88 x    32            142016512     100.0%      0.0%      0.0%     
 flops    23 x    32 x   119            142937088     100.0%      0.0%      0.0%     
 flops    32 x    32 x    88            144900096     100.0%      0.0%      0.0%     
 flops   119 x   119 x    23            164154312     100.0%      0.0%      0.0%     
 flops    88 x   119 x    32            168892416     100.0%      0.0%      0.0%     
 flops   119 x    88 x    32            168892416     100.0%      0.0%      0.0%     
 flops    23 x   119 x   119            177833838     100.0%      0.0%      0.0%     
 flops    32 x    88 x   119            180956160     100.0%      0.0%      0.0%     
 flops    32 x   119 x    88            180956160     100.0%      0.0%      0.0%     
 flops    23 x    32 x    29            221593408     100.0%      0.0%      0.0%     
 flops    32 x    23 x    29            222233728     100.0%      0.0%      0.0%     
 flops    32 x    29 x    32            250159104     100.0%      0.0%      0.0%     
 flops    32 x    29 x    29            281068928     100.0%      0.0%      0.0%     
 flops    32 x   119 x    32            385552384     100.0%      0.0%      0.0%     
 flops    32 x    32 x   119            391888896     100.0%      0.0%      0.0%     
 flops   119 x   119 x    32            456777216     100.0%      0.0%      0.0%     
 flops    32 x   119 x   119            494841984     100.0%      0.0%      0.0%     
 flops    32 x    32 x    29            619399168     100.0%      0.0%      0.0%     
 flops inhomo. stacks                           0       0.0%      0.0%      0.0%
 flops total                         6.528374E+09     100.0%      0.0%      0.0%
 flops max/rank                      2.351420E+09     100.0%      0.0%      0.0%
 matmuls inhomo. stacks                         0       0.0%      0.0%      0.0%
 matmuls total                              58391     100.0%      0.0%      0.0%
 number of processed stacks                 23470     100.0%      0.0%      0.0%
 average stack size                                     2.5       0.0       0.0
 marketing flops                     8.972773E+09
 -------------------------------------------------------------------------------
 # multiplications                           1094
 max memory usage/rank              18.232971E+09
 # max total images/rank                        3
 # max 3D layers                                1
 # MPI messages exchanged                    3282
 MPI messages size (bytes):
  total size                       296.384896E+06
  min size                           0.000000E+00
  max size                         250.368000E+03
  average size                      90.306188E+03
 MPI breakdown and total messages size (bytes):
             size <=      128                 418                        0
       128 < size <=     8192                 146                   438400
      8192 < size <=    32768                 102                  2058768
     32768 < size <=   131072                1684                102171824
    131072 < size <=  4194304                 932                191715888
   4194304 < size <= 16777216                   0                        0
  16777216 < size                               0                        0
 -------------------------------------------------------------------------------

 *** WARNING in dbcsr_mm.F:301 :: Using a non-square number of MPI ranks ***
 *** might lead to poor performance. Used ranks: 3 Suggested: 4 4        ***

 -------------------------------------------------------------------------------
 -                                                                             -
 -                      DBCSR MESSAGE PASSING PERFORMANCE                      -
 -                                                                             -
 -------------------------------------------------------------------------------
 ROUTINE             CALLS      AVE VOLUME [Bytes]
 MP_Bcast               50                     12.
 MP_Allreduce         2420                     13.
 MP_Alltoall          3511                  31583.
 MP_ISend             5222                  23712.
 MP_IRecv             5142                  24535.
 -------------------------------------------------------------------------------

 -------------------------------------------------------------------------------
 -                                                                             -
 -                                GRID STATISTICS                              -
 -                                                                             -
 -------------------------------------------------------------------------------
 LP    KERNEL             BACKEND                              COUNT     PERCENT
 6     collocate ortho    CPU                                   2650      49.94%
 6     integrate ortho    CPU                                   2650      49.94%
 0     collocate general  CPU                                      6       0.11%
 -------------------------------------------------------------------------------

 -------------------------------------------------------------------------------
 -                                                                             -
 -                          OFFLOAD MEMPOOL STATISTICS                         -
 -                                                                             -
 -------------------------------------------------------------------------------
 Memory consumption                Number of allocations  Used [MiB]  Size [MiB]
 Host                                                  6         260    22354244
 -------------------------------------------------------------------------------

 MEMORY| Estimated peak process memory [MiB]                                5817

 -------------------------------------------------------------------------------
 -                                                                             -
 -                         MESSAGE PASSING PERFORMANCE                         -
 -                                                                             -
 -------------------------------------------------------------------------------

 ROUTINE             CALLS      AVE VOLUME [Bytes]
 MP_Group                5
 MP_Bcast              500                 308496.
 MP_Allreduce         1906                   2600.
 MP_Sync                11
 MP_Alltoall            79              376286542.
 MP_SendRecv            42               25059048.
 MP_ISendRecv           40               22712000.
 MP_Wait                40
 MP_comm_split          11
 -------------------------------------------------------------------------------


 -------------------------------------------------------------------------------
 -                                                                             -
 -                           R E F E R E N C E S                               -
 -                                                                             -
 -------------------------------------------------------------------------------
 
 CP2K version 2026.2 (Development Version), the CP2K developers group (2026).
 CP2K is freely available from https://www.cp2k.org/ .
 
 M. Iannuzzi, J. Wilhelm, F. Stein, A. Bussy, H. Elgabarty, D. Golze, A. Hehn, 
 M. Graml, S. Marek, B. Sertcan Gökmen, C. Schran, H. Forbert, R. Z. 
 Khaliullin, A. Kozhevnikov, M. Taillefumier, R. Meli, V. V. Rybkin, M. Brehm, 
 R. Schade, O. Schütt, J. V. Pototschnig, H. Mirhosseini, A. Knüpfer, D. Marx, 
 M. Krack, J. Hutter, T. D. Kühne.
 J. Phys. Chem. B 130, 1237-1310 (2026).
 The CP2K Program Package Made Simple.
 https://doi.org/10.1021/acs.jpcb.5c05851

 M. Graml, K. Zollner, D. Hernangómez-Pérez, P. E. Faria Junior, J. Wilhelm.
 J. Chem. Theory Comput. 20, 2202-2208 (2024).
 Low-scaling GW algorithm applied to twisted transition-metal dichalcogenide 
 heterobilayers.
 https://doi.org/10.1021/acs.jctc.3c01230

 T. D. Kühne, M. Iannuzzi, M. Del Ben, V. V. Rybkin, P. Seewald, F. Stein, T. 
 Laino, R. Z. Khaliullin, O. Schütt, F. Schiffmann, D. Golze, J. Wilhelm, S. 
 Chulkov, M. H. Bani-Hashemian, V. Weber, U. Borstnik, M. Taillefumier, A. S. 
 Jakobovits, A. Lazzaro, H. Pabst, T. Müller, R. Schade, M. Guidon, S. 
 Andermatt, N. Holmberg, G. K. Schenter, A. Hehn, A. Bussy, F. Belleflamme, G. 
 Tabacchi, A. Glöß, M. Lass, I. Bethune, C. J. Mundy, C. Plessl, M. Watkins, 
 J. VandeVondele, M. Krack, J. Hutter.
 J. Chem. Phys. 152, 194103 (2020).
 CP2K: An electronic structure and molecular dynamics software package - 
 Quickstep: Efficient and accurate electronic structure calculations.
 https://doi.org/10.1063/5.0007045

 O. Schuett, P. Messmer, J. Hutter, J. VandeVondele.
 Electronic Structure Calculations on Graphics Processing Units, 173-190 (2016).
 GPU-Accelerated Sparse Matrix-Matrix Multiplication for Linear Scaling Density 
 Functional Theory.
 https://doi.org/10.1002/9781118670712.ch8

 U. Borstnik, J. VandeVondele, V. Weber, J. Hutter.
 Parallel Comput. 40, 47-58 (2014).
 Sparse matrix multiplication: The distributed block-compressed sparse row 
 library.
 https://doi.org/10.1016/j.parco.2014.03.012

 J. VandeVondele, J. Hutter.
 J. Chem. Phys. 127, 114105 (2007).
 Gaussian basis sets for accurate calculations on molecular systems in gas and 
 condensed phases.
 https://doi.org/10.1063/1.2770708

 J. VandeVondele, M. Krack, F. Mohamed, M. Parrinello, T. Chassaing, J. Hutter.
 Comput. Phys. Commun. 167, 103-128 (2005).
 QUICKSTEP: Fast and accurate density functional calculations using a mixed 
 Gaussian and plane waves approach.
 https://doi.org/10.1016/j.cpc.2004.12.014

 M. Krack.
 Theor. Chem. Acc. 114, 145-152 (2005).
 Pseudopotentials for H to Kr optimized for gradient-corrected 
 exchange-correlation functionals.
 https://doi.org/10.1007/s00214-005-0655-y

 M. Frigo, S. G. Johnson.
 Proc. IEEE 93, 216-231 (2005).
 The design and implementation of FFTW3.
 https://doi.org/10.1109/JPROC.2004.840301

 J. VandeVondele, J. Hutter.
 J. Chem. Phys. 118, 4365-4369 (2003).
 An efficient orbital transformation method for electronic structure 
 calculations.
 https://doi.org/10.1063/1.1543154

 C. Hartwigsen, S. Goedecker, J. Hutter.
 Phys. Rev. B 58, 3641-3662 (1998).
 Relativistic separable dual-space Gaussian pseudopotentials from H to Rn.
 https://doi.org/10.1103/PhysRevB.58.3641

 G. Lippert, J. Hutter, M. Parrinello.
 Mol. Phys. 92, 477-487 (1997).
 A hybrid Gaussian and plane wave density functional scheme.
 https://doi.org/10.1080/002689797170220

 S. Goedecker, M. Teter, J. Hutter.
 Phys. Rev. B 54, 1703-1710 (1996).
 Separable dual-space Gaussian pseudopotentials.
 https://doi.org/10.1103/PhysRevB.54.1703

 J. P. Perdew, K. Burke, M. Ernzerhof.
 Phys. Rev. Lett. 77, 3865-3868 (1996).
 Generalized gradient approximation made simple.
 https://doi.org/10.1103/PhysRevLett.77.3865

 P. E. Blöchl.
 J. Chem. Phys. 103, 7422-7428 (1995).
 Electrostatic decoupling of periodic images of plane‐wave‐expanded 
 densities and derived atomic point charges.
 https://doi.org/10.1063/1.470314

 R. H. Byrd, P. H. Lu, J. Nocedal, C. Y. Zhu.
 SIAM J. Sci. Comput. 16, 1190-1208 (1995).
 A Limited Memory Algorithm for Bound Constrained Optimization.
 https://doi.org/10.1137/0916069


 -------------------------------------------------------------------------------
 -                                                                             -
 -                                T I M I N G                                  -
 -                                                                             -
 -------------------------------------------------------------------------------
 SUBROUTINE                       CALLS  ASD         SELF TIME        TOTAL TIME MAXRANK
                                MAXIMUM       AVERAGE  MAXIMUM  AVERAGE  MAXIMUM
 CP2K                                 1  1.0    0.008    0.017   42.419   42.419       0
 qs_energies                          1  2.0    0.000    0.000   38.682   38.682       2
 scf_env_do_scf                       1  3.0    0.000    0.000   20.313   20.313       0
 scf_env_do_scf_inner_loop            4  4.0    0.000    0.001   16.448   16.450       0
 qs_energies_properties               1  3.0    0.000    0.000   16.425   16.425       2
 post_scf_bandstructure               1  4.0    0.000    0.000   16.425   16.425       2
 run_gw                               1  5.0    0.000    0.000   16.397   16.419       2
 qs_ks_build_kohn_sham_matrix         5  7.2    0.012    0.021   16.357   16.357       0
 qs_ks_update_qs_env                  5  5.0    0.000    0.000   15.185   15.185       2
 rebuild_ks_matrix                    4  6.0    0.000    0.000   15.185   15.185       2
 fft_wrap_pw1pw2                     79 10.2    0.003    0.003   13.785   14.258       0
 gw_calc_ri_rs_non_periodic           1  6.0    0.000    0.000   14.054   14.077       0
 fft_wrap_pw1pw2_300                 49 11.6    0.637    0.679   13.141   13.497       0
 optimize_ri_rs_grid                  1  7.0    0.000    0.000   13.380   13.382       0
 rirs_grid_LBFGS                      1  8.0    0.537    0.541   12.634   12.637       2
 evaluate_rirs_grid_cluster         301  9.0    0.956    0.982   11.542   11.809       2
 fft3d_ps                            79 12.2    5.453    5.927    9.687   10.672       1
 qs_vxc_create                        5  8.2    0.000    0.000   10.391   10.476       0
 xc_vxc_pw_create                     4  9.0    0.206    0.213   10.391   10.476       2
 xc_pw_derive                        24 11.0    0.000    0.000    7.625    7.901       0
 qs_rho_update_rho_low                5  5.0    0.000    0.000    6.468    6.468       0
 calculate_rho_elec                   5  6.0    0.167    0.167    6.468    6.468       0
 xc_pw_divergence                     4 10.0    0.000    0.000    5.093    5.364       1
 xc_rho_set_and_dset_create           4 10.0    0.166    0.185    4.984    5.359       1
 mp_alltoall_z22v                    79 14.2    2.412    4.567    2.412    4.567       2
 density_rs2pw                        5  7.0    0.000    0.000    3.981    4.295       0
 rirs_cluster_gradient_coordina     301 10.0    3.901    3.919    3.901    3.919       2
 init_scf_loop                        1  4.0    0.000    0.000    3.863    3.863       0
 qs_init_subsys                       1  2.0    0.001    0.001    3.405    3.406       0
 qs_env_setup                         1  3.0    0.000    0.000    3.404    3.405       2
 qs_env_rebuild_pw_env                2  3.5    0.000    0.000    3.404    3.405       0
 pw_env_rebuild                       1  5.0    0.000    0.000    3.404    3.404       0
 pw_grid_setup                        5  5.2    0.000    0.000    3.377    3.378       0
 pw_grid_setup_internal               5  6.2    0.032    0.032    3.377    3.378       0
 x_to_yz                             41 13.8    1.098    1.216    2.268    3.194       1
 pw_grid_sort                         5  7.2    2.147    2.213    3.017    3.066       1
 yz_to_x                             38 12.6    0.718    0.768    1.960    2.873       0
 grid_collocate_task_list             5  7.0    2.280    2.491    2.280    2.491       1
 sum_up_and_integrate                 5  8.2    0.000    0.000    2.384    2.391       0
 create_and_init_bs_env_for_gw        1  6.0    0.009    0.010    2.343    2.346       2
 integrate_v_rspace                   5  9.2    0.000    0.000    2.320    2.336       2
 potential_pw2rs                      5 10.2    0.007    0.007    2.270    2.284       2
 rirs_cluster_gradient_products     301 10.0    2.229    2.248    2.229    2.248       2
 qs_ks_ddapc                          5  8.2    0.000    0.000    1.822    1.852       0
 rirs_cluster_AO_products           301 10.0    1.531    1.698    1.531    1.698       2
 pw_poisson_solve                     5  8.2    0.000    0.000    1.521    1.584       0
 pw_derive                           39 11.3    1.357    1.499    1.357    1.499       0
 pw_scatter_p                        41 12.8    1.299    1.440    1.299    1.440       1
 init_scf_run                         1  3.0    0.000    0.000    1.430    1.430       0
 scf_env_initial_rho_setup            1  4.0    0.000    0.000    1.430    1.430       0
 transfer_rs2pw                      21  7.9    0.000    0.001    0.987    1.378       2
 pw_gather_p                         38 11.6    1.331    1.338    1.331    1.338       1
 rirs_cluster_residual              301 10.0    1.302    1.320    1.302    1.320       2
 pw_copy                             76 10.5    1.110    1.232    1.110    1.232       1
 transfer_rs2pw_300                   6  8.7    0.506    0.512    0.852    1.228       2
 compute_V_xc                         1  7.0    0.000    0.000    1.172    1.172       2
 xc_functional_eval                   4 11.0    0.000    0.000    0.736    1.063       0
 pbe_lda_eval                         4 12.0    0.735    1.063    0.735    1.063       1
 mp_sum_d                           771  5.1    0.789    0.956    0.789    0.956       2
 pw_poisson_set                       6  8.7    0.000    0.000    0.870    0.933       0
 rirs_cluster_d_lP                  301 10.0    0.886    0.899    0.886    0.899       2
 sort_shells                          5  8.2    0.870    0.882    0.870    0.882       0
 generate_auto_ri_basis               1  7.0    0.000    0.000    0.863    0.863       2
 mp_sendrecv_dv                      42  9.9    0.397    0.785    0.397    0.785       2
 pw_integral_ab_c1d_c1d_gs           10  9.7    0.565    0.587    0.647    0.749       0
 rirs_cluster_D_ll                  301 10.0    0.737    0.743    0.737    0.743       2
 rirs_grid_build_clusters             1  8.0    0.421    0.423    0.706    0.710       0
 fft_wrap_pw1pw2_100                 10 10.6    0.024    0.028    0.563    0.667       0
 compute_AB_optimized_RI_basis        1  8.0    0.000    0.000    0.645    0.645       0
 compute_AB_optimized_RI_basis_       1  9.0    0.000    0.000    0.564    0.644       2
 transfer_pw2rs                      20 11.2    0.000    0.000    0.625    0.626       2
 pw_axpy                             55  8.1    0.564    0.622    0.564    0.622       1
 compute_B_PQ_AB                      1 10.0    0.129    0.158    0.543    0.620       0
 cp_ddapc_apply_CD                    5  9.2    0.000    0.001    0.481    0.601       0
 qs_energies_init_hamiltonians        1  3.0    0.000    0.000    0.513    0.513       1
 qs_env_update_s_mstruct              1  4.0    0.000    0.000    0.510    0.510       1
 pw_copy_to_array                    38 11.6    0.452    0.497    0.452    0.497       1
 transfer_pw2rs_300                   5 12.2    0.358    0.367    0.484    0.489       2
 calculate_rho_core                   1  5.0    0.034    0.035    0.453    0.463       1
 abc_contract_xsmm                  910  9.5    0.414    0.434    0.414    0.434       0
 pw_copy_from_array                  41 12.8    0.346    0.381    0.346    0.381       0
 contract_B_PQ                        6 11.7    0.307    0.349    0.330    0.375       0
 create_qs_kind_set                   1  2.0    0.000    0.000    0.298    0.303       2
 read_qs_kind                         3  3.0    0.134    0.140    0.298    0.303       0
 get_ddapc                            5 10.2    0.000    0.000    0.174    0.294       0
 compute_W                            1  7.0    0.000    0.000    0.232    0.232       0
 mp_sum_dm                           10 10.1    0.112    0.226    0.112    0.226       2
 compute_Sigma_c_and_QP_energie       1  7.0    0.000    0.000    0.192    0.214       0
 mp_waitall_1                        40 13.2    0.190    0.201    0.190    0.201       0
 pw_zero                             40  6.8    0.171    0.195    0.171    0.195       1
 compute_B_PQ_exchange                3 10.7    0.000    0.000    0.165    0.188       1
 compute_B_PQ_transition              3 10.7    0.000    0.000    0.165    0.187       2
 pw_grid_assign                       5  7.2    0.177    0.180    0.179    0.183       1
 pw_grid_remap                        4  8.0    0.052    0.052    0.143    0.181       1
 parser_read_line                 70245  4.0    0.012    0.012    0.165    0.174       1
 compute_Sigma_c                      1  8.0    0.002    0.002    0.171    0.171       0
 setup_time_and_frequency_minim       1  7.0    0.000    0.000    0.163    0.164       0
 build_minimax_time_frequency_g       1  8.0    0.000    0.000    0.163    0.164       2
 fit_l_sq_weights                     3  9.0    0.163    0.164    0.163    0.164       0
 parser_read_line_low                75  5.0    0.031    0.087    0.153    0.161       0
 broadcast_input_information         75  6.0    0.016    0.023    0.121    0.158       0
 compute_fm_W_freq                   30  8.0    0.000    0.000    0.145    0.145       1
 compute_Z_lP                         1  7.0    0.000    0.000    0.139    0.139       1
 compute_Z_lP_auto_ri                 1  8.0    0.000    0.000    0.139    0.139       1
 contract_grid_panels_sigma_c        30  9.0    0.122    0.123    0.136    0.136       0
 compute_d_lp_auto_ri_batch           1  9.0    0.000    0.000    0.116    0.136       1
 compute_d_lp_auto_ri_atom            1 10.0    0.024    0.038    0.116    0.136       2
 parallel_gemm_fm_gemm              431  9.6    0.000    0.000    0.135    0.135       1
 cp_fm_gemm                         434 10.5    0.135    0.135    0.135    0.135       1
 check_for_restart_files              1  7.0    0.130    0.130    0.130    0.130       0
 mp_sum_im3                           5  9.0    0.091    0.130    0.091    0.130       2
 transfer_rs2pw_100                   5  9.0    0.071    0.073    0.112    0.129       0
 transfer_pw2rs_100                   5 12.2    0.065    0.068    0.113    0.125       2
 compute_AA_optimized_RI_basis        1  8.0    0.000    0.000    0.116    0.116       2
 pw_multiply_with                     5  9.2    0.092    0.109    0.092    0.109       1
 mp_bcast_i_src                     305  7.0    0.072    0.109    0.072    0.109       1
 get_mat_chi_Gamma_tau                1  7.0    0.000    0.001    0.103    0.103       0
 compute_M_pq_inv_and_V_pq            1  8.0    0.000    0.000    0.102    0.102       1
 contract_grid_panels                31  8.0    0.083    0.083    0.093    0.093       1
 compute_contracted_RI_matrix         2  9.0    0.000    0.000    0.088    0.088       2
 compute_optimized_RI_matrix_bl       4 10.0    0.015    0.019    0.069    0.086       1
 fft_wrap_pw1pw2_40                  10 10.6    0.004    0.005    0.064    0.078       1
 compute_M_PQ_AB                     34 11.0    0.000    0.000    0.062    0.075       1
 compute_M_PQ                        34 12.0    0.000    0.000    0.062    0.075       1
 int_operators_r12_ab_os             34 13.0    0.000    0.000    0.062    0.075       1
 int_operator_ab_os_low              34 14.0    0.023    0.028    0.062    0.075       1
 pw_scale                            17  9.8    0.072    0.074    0.072    0.074       1
 cp_ddapc_init                        1  5.0    0.000    0.000    0.056    0.073       1
 cp_ddapc_create                      1  6.0    0.000    0.000    0.056    0.073       0
 compute_int_3c                       3  9.0    0.049    0.049    0.066    0.066       2
 copy_dbcsr_to_fm                   104  9.5    0.046    0.060    0.047    0.062       0
 build_3c_integral_block_auto_r      18 11.0    0.047    0.060    0.047    0.060       0
 build_3c_integral_block_auto_r      18 11.0    0.000    0.000    0.045    0.059       0
 grid_integrate_task_list             5 10.2    0.050    0.057    0.050    0.057       1
 compute_B_PQ_AA                      3  9.0    0.000    0.000    0.031    0.046       2
 ddapc_eval_gfunc                     1  7.0    0.044    0.045    0.044    0.045       1
 initialize_ri_rs_grid                1  8.0    0.030    0.038    0.041    0.043       2
 -------------------------------------------------------------------------------

 The number of warnings for this run is : 0
 
 -------------------------------------------------------------------------------
  **** **** ******  **  PROGRAM ENDED AT                 2026-10-03 12:13:00.231
 ***** ** ***  *** **   PROGRAM RAN ON                                  n2cn0592
 **    ****   ******    PROGRAM RAN BY                                  eprop2d1
 ***** **    ** ** **   PROGRAM PROCESS ID                               1280948
  **** **  *******  **  PROGRAM STOPPED IN /scratch/hpc-prf-metdyn/eprop2d1_Jan/
                                           53_benchmark_RI_opt/418_gw100_fig5_fu
                                           ll_epsfilter_1e12_20261002/calculatio
                                           ns/rc5p0/ri5_rs03/79_OCS
