 DBCSR| CPU Multiplication driver                                           XSMM (U)
 DBCSR| Multrec recursion limit                                              512 (U)
 DBCSR| Multiplication stack size                                           1000 (D)
 DBCSR| Maximum elements for images                                    UNLIMITED (U)
 DBCSR| Multiplicative factor virtual images                                   1 (U)
 DBCSR| Use multiplication densification                                       T (D)
 DBCSR| Multiplication size stacks                                             3 (U)
 DBCSR| Use memory pool for CPU allocation                                     F (U)
 DBCSR| Number of 3D layers                                               SINGLE (U)
 DBCSR| Use MPI memory allocation                                              F (U)
 DBCSR| Use RMA algorithm                                                      F (U)
 DBCSR| Use Communication thread                                               T (U)
 DBCSR| Communication thread load                                             57 (D)
 DBCSR| MPI: My process id                                                     0
 DBCSR| MPI: Number of processes                                              13
 DBCSR| OMP: Current number of threads                                         9
 DBCSR| OMP: Max number of threads                                             9
 DBCSR| Split modifier for TAS multiplication algorithm                  1.0E+00 (U)


  **** **** ******  **  PROGRAM STARTED AT               2026-10-03 12:00:10.347
 ***** ** ***  *** **   PROGRAM STARTED ON                              n2cn0534
 **    ****   ******    PROGRAM STARTED BY                              eprop2d1
 ***** **    ** ** **   PROGRAM PROCESS ID                               1385007
  **** **  *******  **  PROGRAM STARTED IN /scratch/hpc-prf-metdyn/eprop2d1_Jan/
                                           53_benchmark_RI_opt/418_gw100_fig5_fu
                                           ll_epsfilter_1e12_20261002/calculatio
                                           ns/rc5p0/ri5_rs06/24_C2H4

 CP2K| version string:                 CP2K version 2026.2 (Development Version)
 CP2K| source code revision number:                                   0671c5aa6c
 CP2K| cp2kflags: omp libint fftw3 libxc parallel scalapack openblas            
 CP2K| is freely available from                            https://www.cp2k.org/
 CP2K| Program compiled at                                   2026-09-20 09:25:26
 CP2K| Program compiled on                                              n2login5
 CP2K| Program compiled for                                               x86_64
 CP2K| Data directory path    /scratch/hpc-prf-metdyn/eprop2d1_Jan/53_benchmark_
 CP2K| Input file name                                                 input.inp
 
 eprop2d1@n2cn0534 has created rank and process                      0   1385007
 eprop2d1@n2cn0534 has created rank and process                      1   1385008
 eprop2d1@n2cn0534 has created rank and process                      2   1385009
 eprop2d1@n2cn0534 has created rank and process                      3   1385010
 eprop2d1@n2cn0534 has created rank and process                      4   1385011
 eprop2d1@n2cn0534 has created rank and process                      5   1385012
 
 eprop2d1@n2cn0534 is running                                        6 processes

 GLOBAL| Force Environment number                                              1
 GLOBAL| Basis set file name            /scratch/hpc-prf-metdyn/eprop2d1_Jan/53_
 GLOBAL| Potential file name            /scratch/hpc-prf-metdyn/eprop2d1_Jan/53_
 GLOBAL| MM Potential file name                                     MM_POTENTIAL
 GLOBAL| Coordinate file name                                      __STD_INPUT__
 GLOBAL| Method name                                                        CP2K
 GLOBAL| Project name                                             g418_e506_m024
 GLOBAL| Run type                                                         ENERGY
 GLOBAL| FFT library                                                       FFTW3
 GLOBAL| Diagonalization library                                       ScaLAPACK
 GLOBAL| Cholesky decomposition library                                ScaLAPACK
 GLOBAL| DGEMM library                                                      BLAS
 GLOBAL| Direct generalized diagonalization requested                          F
 GLOBAL| Orthonormality check for eigenvectors                          DISABLED
 GLOBAL| Matrix multiplication library                                 ScaLAPACK
 GLOBAL| All-to-all communication in single precision                          F
 GLOBAL| Grid backend                                                       AUTO
 GLOBAL| Global print level                                                  LOW
 GLOBAL| MPI I/O enabled                                                       T
 GLOBAL| Total number of message passing processes                             6
 GLOBAL| Number of distributed systems (nodes)                                 1
 GLOBAL| Number of threads for this process                                    9
 GLOBAL| This output is from process                                           0
 GLOBAL| OpenMP stack size per thread (OMP_STACKSIZE)                       512M
 GLOBAL| CPU model name                          AMD EPYC 7763 64-Core Processor

 MEMORY| system memory details [Kb]
 MEMORY|                        rank 0           min           max       average
 MEMORY| MemTotal            263897592     263897592     263897592     263897592
 MEMORY| MemFree             237754908     237754908     237754908     237754908
 MEMORY| Buffers                151940        151940        151940        151940
 MEMORY| Cached                9377216       9377216       9377216       9377216
 MEMORY| Slab                  1596316       1596316       1596316       1596316
 MEMORY| SReclaimable           299268        299268        299268        299268
 MEMORY| MemLikelyFree       247583332     247583332     247583332     247583332


 GENERATE|  Preliminary Number of Bonds generated:                             0
 GENERATE|  Achieved consistency in connectivity generation.

 *******************************************************************************
 *******************************************************************************
 **                                                                           **
 **     #####                         ##              ##                      **
 **    ##   ##            ##          ##              ##                      **
 **   ##     ##                       ##            ######                    **
 **   ##     ##  ##   ##  ##   #####  ##  ##   ####   ##    #####    #####    **
 **   ##     ##  ##   ##  ##  ##      ## ##   ##      ##   ##   ##  ##   ##   **
 **   ##  ## ##  ##   ##  ##  ##      ####     ###    ##   ######   ######    **
 **    ##  ###   ##   ##  ##  ##      ## ##      ##   ##   ##       ##        **
 **     #######   #####   ##   #####  ##  ##  ####    ##    #####   ##        **
 **           ##                                                    ##        **
 **                                                                           **
 **                                                ... make the atoms dance   **
 **                                                                           **
 **            Copyright (C) by CP2K developers group (2000-2026)             **
 **                      J. Chem. Phys. 152, 194103 (2020)                    **
 **                                                                           **
 *******************************************************************************


 TOTAL NUMBERS AND MAXIMUM NUMBERS

  Total number of            - Atomic kinds:                                   2
                             - Atoms:                                          6
                             - Shell sets:                                     6
                             - Shells:                                        38
                             - Primitive Cartesian functions:                 38
                             - Cartesian basis functions:                    104
                             - Spherical basis functions:                     94

  Maximum angular momentum of- Orbital basis functions:                        3
                             - Local part of the GTH pseudopotential:          2
                             - Non-local part of the GTH pseudopotential:      0


 SCF PARAMETERS         Density guess:                                   RESTART
                        --------------------------------------------------------
                        max_scf:                                             500
                        max_scf_history:                                       0
                        max_diis:                                              4
                        --------------------------------------------------------
                        eps_scf:                                        1.00E-08
                        eps_scf_history:                                0.00E+00
                        eps_diis:                                       0.00E+00
                        eps_eigval:                                     1.00E-05
                        --------------------------------------------------------
                        level_shift [a.u.]:                             0.000000
                        --------------------------------------------------------
                        Outer loop SCF in use 
                        No variables optimised in outer loop
                        eps_scf                                         1.00E-08
                        max_scf                                               20
                        No outer loop optimization
                        step_size                                       5.00E-01

 Extrapolation method: initial_guess

 Number of electrons:                                                         12
 Number of occupied orbitals:                                                  6
 Number of molecular orbitals:                                                 6

 Number of orbital functions:                                                 94
 Number of independent orbital functions:                                     94


 SCF WAVEFUNCTION OPTIMIZATION

  ----------------------------------- OT ---------------------------------------
  Minimizer      : DIIS                : direct inversion
                                         in the iterative subspace
                                         using   7 DIIS vectors
                                         safer DIIS on
  Preconditioner : FULL_KINETIC        : inversion of T + eS
  Lattice FFT   : OFF
  Precond_solver : DEFAULT
  stepsize       :    0.15000000                  energy_gap     :    0.20000000
  eps_taylor     :   0.10000E-15                  max_taylor     :             4
  ----------------------------------- OT ---------------------------------------

  Step     Update method      Time    Convergence         Total energy    Change
  ------------------------------------------------------------------------------
  Decoupling Energy:                                              -0.0000000807
     1 OT DIIS     0.15E+00    1.9     8.3687E-09       -13.7251899955 -1.37E+01

  *** SCF run converged in     1 steps ***


  Electronic density on regular grids:        -12.0000000000        0.0000000000
  Core density on regular grids:               12.0000000000       -0.0000000000
  Total charge density on r-space grids:       -0.0000000000
  Total charge density g-space grids:          -0.0000000000

  Overlap energy of the core charge distribution:               0.00000254106452
  Self energy of the core charge distribution:                -32.31191168900799
  Core Hamiltonian energy:                                     10.31445793196228
  Hartree energy:                                              13.15096434399419
  Exchange-correlation energy:                                 -4.87870312355203

  Total energy:                                               -13.72518999553902

  outer SCF iter =    1 RMS gradient =   0.84E-08 energy =        -13.7251899955
  outer SCF loop converged in   1 iterations or    1 steps

  
 -------------------------------------------------------------------------------
 -                                                                             -
 -                          BANDSTRUCTURE CALCULATION                          -
 -                                                                             -
 -------------------------------------------------------------------------------
  
 Number of occupied molecular orbitals (MOs) = Number of occupied bands        6
 Number of unoccupied (= virtual) MOs = Number of unoccupied bands            88
 Number of Gaussian basis functions for MOs                                   94
  
 -------------------------------------------------------------------------------
 -                                                                             -
 -                                GW CALCULATION                               -
 -                                                                             -
 -------------------------------------------------------------------------------
  
 Input: Number of time/freq. points                                           30
 Input: ω_max for fitting Σ(iω) (eV)                                        10.0
 Input: Filter threshold for sparse tensor operations                    1.0E-12
 Input: Apply Hedin shift                                                      F
 Detected: Available memory per MPI process                              35.1 GB
 
 Input: RI-RS Tikhonov regularization                                   1.00E-04
 Input: AO grid hard cutoff radius                                        8.00 Å
 Input: MPI ranks per atom in Z_lP solve                                      -1
 Input: Keep sparsity in χ/G/W panels                                          T
 Input: GW flavour                                                          G0W0
 
 Input: RI-RS grid optimization activated                                      T
 Input: RS points per AO function                                            6.0
 Input: Cutoff radius for atomic clusters                                  5.0 Å
 Input: Maximum grid optimization iterations                                 300
 
 Input: AUTO_RI basis optimization activated:                                  T
 Input: AUTO_RI number of RI functions per AO function:                      5.0
 Input: AUTO_RI frontier orbital window:                                  5.0 eV
 Input: AUTO_RI neighbor radius:                                           3.0 Å
 
 Cutoff radius for the truncated Coulomb operator in RI metric:            7.0 Å
 Regularization parameter of RI                                          0.0E+00
 Regularization parameter of minimax grids                               1.0E-06
 
 AUTO_RI| Number of automatic RI functions for χ, ε, W:                      438
 AUTO_RI| Total RI basis optimization time:                                1.1 s
  Decoupling Energy:                                              -0.0000000807
 
 SCF direct band gap (eV)                                                   5.70
 Max. SCF eigval diff. (eV)                                               260.34
 E-Range for minimax grid                                                  45.71
 Number of Padé parameters for analytic continuation:                         16
 
 RI-RS basis radii (Å):
     Kind  Elem     r_AO (Å)     r_RI (Å)
        1    C        15.9835       10.1279
        2    H        13.9082        8.7963
 
 Started RI-RS grid optimization
 RI-RS grid initial normalized error                          2.015907769578E-02
 RI-RS grid optimization completed, execution time:                       38.8 s
 Normalized 3C error:                                                    8.8E-08
 Maximum absolute 3C error:                                              1.9E-03
 Optimized points outside molecular Voronoi cells:                           188 / 564
 Total grid points used for RI-RS:                                           564
 
 RI-RS grid row-blocks of ϕ_μ(r_l)                                            20
 RI-RS grid points per block (max)                                            32
 
 Percentage of non-zero matrix elements in ϕ_μ(r_l)                     100.00 %
 
 RI-RS memory estimate per MPI process:
   Available memory per process (system)                                42.27 GB
   Required for Z_lP (dense upper bound; actual is sparser)              0.00 GB
   Required for χ, W, Σ panels (peak per panel step)                     0.00 GB
   Required for Z_lP solve peak (D_local+ϕ, worst-case atom)             0.01 GB
   Worst-case local-grid number of grid points:                              564
   Worst-case memory D_local:                                            0.00 GB
 
 Started computing Z_lP
 Computed Z_lP (MPI rank 0) for atom          1 /  1,    Execution time    0.1 s
 Computed Z_lP (all MPI ranks) for all atoms,            Execution time    0.1 s

 Memory per MPI process after computing Z_lP:
 Available memory per MPI process                               42.2 GB
 Used memory per MPI process                                     1.2 GB
 Number of batches for χ, Σ matrices                                           1
 
 Percentage of non-zero matrix elements in Z_lP                         100.00 %
 Percentage of non-zero matrix elements in G_ll', χ_ll', W_ll'          100.00 %
 Percentage of non-zero matrix elements in χ_PQ for time point 1        100.00 %
 
 Computed χ(iτ,k=0) for time point            1 / 30,    Execution time    0.0 s
 Computed χ(iτ,k=0) for time point            2 / 30,    Execution time    0.0 s
 Computed χ(iτ,k=0) for time point            3 / 30,    Execution time    0.0 s
 Computed χ(iτ,k=0) for time point            4 / 30,    Execution time    0.0 s
 Computed χ(iτ,k=0) for time point            5 / 30,    Execution time    0.0 s
 Computed χ(iτ,k=0) for time point            6 / 30,    Execution time    0.0 s
 Computed χ(iτ,k=0) for time point            7 / 30,    Execution time    0.0 s
 Computed χ(iτ,k=0) for time point            8 / 30,    Execution time    0.0 s
 Computed χ(iτ,k=0) for time point            9 / 30,    Execution time    0.0 s
 Computed χ(iτ,k=0) for time point           10 / 30,    Execution time    0.0 s
 Computed χ(iτ,k=0) for time point           11 / 30,    Execution time    0.0 s
 Computed χ(iτ,k=0) for time point           12 / 30,    Execution time    0.0 s
 Computed χ(iτ,k=0) for time point           13 / 30,    Execution time    0.0 s
 Computed χ(iτ,k=0) for time point           14 / 30,    Execution time    0.0 s
 Computed χ(iτ,k=0) for time point           15 / 30,    Execution time    0.0 s
 Computed χ(iτ,k=0) for time point           16 / 30,    Execution time    0.0 s
 Computed χ(iτ,k=0) for time point           17 / 30,    Execution time    0.0 s
 Computed χ(iτ,k=0) for time point           18 / 30,    Execution time    0.0 s
 Computed χ(iτ,k=0) for time point           19 / 30,    Execution time    0.0 s
 Computed χ(iτ,k=0) for time point           20 / 30,    Execution time    0.0 s
 Computed χ(iτ,k=0) for time point           21 / 30,    Execution time    0.0 s
 Computed χ(iτ,k=0) for time point           22 / 30,    Execution time    0.0 s
 Computed χ(iτ,k=0) for time point           23 / 30,    Execution time    0.0 s
 Computed χ(iτ,k=0) for time point           24 / 30,    Execution time    0.0 s
 Computed χ(iτ,k=0) for time point           25 / 30,    Execution time    0.0 s
 Computed χ(iτ,k=0) for time point           26 / 30,    Execution time    0.0 s
 Computed χ(iτ,k=0) for time point           27 / 30,    Execution time    0.0 s
 Computed χ(iτ,k=0) for time point           28 / 30,    Execution time    0.0 s
 Computed χ(iτ,k=0) for time point           29 / 30,    Execution time    0.0 s
 Computed χ(iτ,k=0) for time point           30 / 30,    Execution time    0.0 s
 
 Cholesky decomposition failed, using diagonalization.
 Discarded eigenmodes:                                                         4
 Computed W(iτ),                                         Execution time    0.4 s
 
 Computed Σ^x(k=0),                                      Execution time    0.0 s
 
 Computed Σ^c(iτ) for time point              1 / 30,    Execution time    0.0 s
 Computed Σ^c(iτ) for time point              2 / 30,    Execution time    0.0 s
 Computed Σ^c(iτ) for time point              3 / 30,    Execution time    0.0 s
 Computed Σ^c(iτ) for time point              4 / 30,    Execution time    0.0 s
 Computed Σ^c(iτ) for time point              5 / 30,    Execution time    0.0 s
 Computed Σ^c(iτ) for time point              6 / 30,    Execution time    0.0 s
 Computed Σ^c(iτ) for time point              7 / 30,    Execution time    0.0 s
 Computed Σ^c(iτ) for time point              8 / 30,    Execution time    0.0 s
 Computed Σ^c(iτ) for time point              9 / 30,    Execution time    0.0 s
 Computed Σ^c(iτ) for time point             10 / 30,    Execution time    0.0 s
 Computed Σ^c(iτ) for time point             11 / 30,    Execution time    0.0 s
 Computed Σ^c(iτ) for time point             12 / 30,    Execution time    0.0 s
 Computed Σ^c(iτ) for time point             13 / 30,    Execution time    0.0 s
 Computed Σ^c(iτ) for time point             14 / 30,    Execution time    0.0 s
 Computed Σ^c(iτ) for time point             15 / 30,    Execution time    0.0 s
 Computed Σ^c(iτ) for time point             16 / 30,    Execution time    0.0 s
 Computed Σ^c(iτ) for time point             17 / 30,    Execution time    0.0 s
 Computed Σ^c(iτ) for time point             18 / 30,    Execution time    0.0 s
 Computed Σ^c(iτ) for time point             19 / 30,    Execution time    0.0 s
 Computed Σ^c(iτ) for time point             20 / 30,    Execution time    0.0 s
 Computed Σ^c(iτ) for time point             21 / 30,    Execution time    0.0 s
 Computed Σ^c(iτ) for time point             22 / 30,    Execution time    0.0 s
 Computed Σ^c(iτ) for time point             23 / 30,    Execution time    0.0 s
 Computed Σ^c(iτ) for time point             24 / 30,    Execution time    0.0 s
 Computed Σ^c(iτ) for time point             25 / 30,    Execution time    0.0 s
 Computed Σ^c(iτ) for time point             26 / 30,    Execution time    0.0 s
 Computed Σ^c(iτ) for time point             27 / 30,    Execution time    0.0 s
 Computed Σ^c(iτ) for time point             28 / 30,    Execution time    0.0 s
 Computed Σ^c(iτ) for time point             29 / 30,    Execution time    0.0 s
 Computed Σ^c(iτ) for time point             30 / 30,    Execution time    0.0 s

 *** WARNING in post_scf_bandstructure_utils.F:3161 :: G0W0 reorders the   ***
 *** empty levels: the SCF conduction band minimum (SCF LUMO) is level 7,  ***
 *** whereas the G0W0 conduction band minimum (G0W0 LUMO) is level 8. The  ***
 *** SCF and G0W0 band edges printed below therefore belong to different   ***
 *** orbitals; see the eigenvalues in the file bandstructure_SCF_and_G0W0. ***

 
 SCF valence band maximum (eV):                                           -6.742
 SCF conduction band minimum (eV):                                        -1.047
 SCF indirect band gap (eV):                                               5.695
 SCF direct band gap (eV):                                                 5.695
 
 G0W0 valence band maximum (eV):                                          -9.914
 G0W0 conduction band minimum (eV):                                        1.496
 G0W0 indirect band gap (eV):                                             11.411
 G0W0 direct band gap (eV):                                               11.411
 
 Hartree-Fock with SCF orbitals valence band maximum (eV):               -10.037
 Hartree-Fock with SCF orbitals conduction band minimum (eV)               2.049
 Hartree-Fock with SCF orbitals indirect band gap (eV):                   12.086
 Hartree-Fock with SCF orbitals direct band gap (eV):                     12.086

 ENERGY| Total FORCE_EVAL ( QS ) energy [hartree]            -13.725189995539020

 -------------------------------------------------------------------------------
 -                                                                             -
 -                                DBCSR STATISTICS                             -
 -                                                                             -
 -------------------------------------------------------------------------------
 COUNTER                                    TOTAL       BLAS       SMM       ACC
 flops     6 x     6 x     6                  432     100.0%      0.0%      0.0%     
 flops     6 x     6 x     9                 7776     100.0%      0.0%      0.0%     
 flops     9 x     6 x     6                10368     100.0%      0.0%      0.0%     
 flops     6 x     6 x    29                12528     100.0%      0.0%      0.0%     
 flops    29 x     6 x     6                16704     100.0%      0.0%      0.0%     
 flops     9 x     9 x     6                19440     100.0%      0.0%      0.0%     
 flops    29 x     9 x     6                25056     100.0%      0.0%      0.0%     
 flops     9 x    29 x     6                25056     100.0%      0.0%      0.0%     
 flops    29 x    29 x     6                60552     100.0%      0.0%      0.0%     
 flops     9 x     6 x     9               124416     100.0%      0.0%      0.0%     
 flops    29 x     6 x     9               200448     100.0%      0.0%      0.0%     
 flops     9 x     6 x    29               200448     100.0%      0.0%      0.0%     
 flops    29 x     6 x    29               322944     100.0%      0.0%      0.0%     
 flops    14 x    63 x    14              2074464     100.0%      0.0%      0.0%     
 flops    14 x     9 x    14              2088576     100.0%      0.0%      0.0%     
 flops    14 x    64 x    14              2107392     100.0%      0.0%      0.0%     
 flops    14 x    14 x    63              2173248     100.0%      0.0%      0.0%     
 flops    14 x    14 x    64              2207744     100.0%      0.0%      0.0%     
 flops     9 x     9 x    14              2685312     100.0%      0.0%      0.0%     
 flops    14 x    84 x    14              2765952     100.0%      0.0%      0.0%     
 flops    14 x    85 x    14              2798880     100.0%      0.0%      0.0%     
 flops    14 x    29 x    14              3364928     100.0%      0.0%      0.0%     
 flops    29 x     9 x    14              4326336     100.0%      0.0%      0.0%     
 flops     9 x    29 x    14              4326336     100.0%      0.0%      0.0%     
 flops    63 x    63 x    14              4667544     100.0%      0.0%      0.0%     
 flops    14 x    71 x    14              4675776     100.0%      0.0%      0.0%     
 flops    64 x    63 x    14              4741632     100.0%      0.0%      0.0%     
 flops    63 x    64 x    14              4741632     100.0%      0.0%      0.0%     
 flops    64 x    64 x    14              4816896     100.0%      0.0%      0.0%     
 flops    14 x    63 x    63              4889808     100.0%      0.0%      0.0%     
 flops    14 x    14 x    71              4898432     100.0%      0.0%      0.0%     
 flops    14 x    63 x    64              4967424     100.0%      0.0%      0.0%     
 flops    14 x    64 x    63              4967424     100.0%      0.0%      0.0%     
 flops    14 x    64 x    64              5046272     100.0%      0.0%      0.0%     
 flops    14 x    14 x     9              5249664     100.0%      0.0%      0.0%     
 flops    84 x    63 x    14              6223392     100.0%      0.0%      0.0%     
 flops    63 x    84 x    14              6223392     100.0%      0.0%      0.0%     
 flops    85 x    63 x    14              6297480     100.0%      0.0%      0.0%     
 flops    63 x    85 x    14              6297480     100.0%      0.0%      0.0%     
 flops    64 x    84 x    14              6322176     100.0%      0.0%      0.0%     
 flops    84 x    64 x    14              6322176     100.0%      0.0%      0.0%     
 flops    64 x    85 x    14              6397440     100.0%      0.0%      0.0%     
 flops    85 x    64 x    14              6397440     100.0%      0.0%      0.0%     
 flops    22 x    63 x    14              6519744     100.0%      0.0%      0.0%     
 flops    14 x    63 x    22              6519744     100.0%      0.0%      0.0%     
 flops    14 x    84 x    63              6519744     100.0%      0.0%      0.0%     
 flops    22 x     9 x    14              6564096     100.0%      0.0%      0.0%     
 flops    14 x     9 x    22              6564096     100.0%      0.0%      0.0%     
 flops    14 x    85 x    63              6597360     100.0%      0.0%      0.0%     
 flops    22 x    64 x    14              6623232     100.0%      0.0%      0.0%     
 flops    14 x    84 x    64              6623232     100.0%      0.0%      0.0%     
 flops    14 x    64 x    22              6623232     100.0%      0.0%      0.0%     
 flops    14 x    85 x    64              6702080     100.0%      0.0%      0.0%     
 flops    14 x     9 x     9              6749568     100.0%      0.0%      0.0%     
 flops    22 x    14 x    63              6830208     100.0%      0.0%      0.0%     
 flops    14 x    22 x    63              6830208     100.0%      0.0%      0.0%     
 flops    22 x    14 x    64              6938624     100.0%      0.0%      0.0%     
 flops    14 x    22 x    64              6938624     100.0%      0.0%      0.0%     
 flops    29 x    29 x    14              6970208     100.0%      0.0%      0.0%     
 flops    84 x    84 x    14              8297856     100.0%      0.0%      0.0%     
 flops    85 x    84 x    14              8396640     100.0%      0.0%      0.0%     
 flops    84 x    85 x    14              8396640     100.0%      0.0%      0.0%     
 flops     9 x     9 x    22              8439552     100.0%      0.0%      0.0%     
 flops    14 x    14 x    29              8457792     100.0%      0.0%      0.0%     
 flops    85 x    85 x    14              8496600     100.0%      0.0%      0.0%     
 flops    22 x    84 x    14              8692992     100.0%      0.0%      0.0%     
 flops    14 x    84 x    22              8692992     100.0%      0.0%      0.0%     
 flops    22 x    85 x    14              8796480     100.0%      0.0%      0.0%     
 flops    14 x    85 x    22              8796480     100.0%      0.0%      0.0%     
 flops    71 x    63 x    14             10520496     100.0%      0.0%      0.0%     
 flops    63 x    71 x    14             10520496     100.0%      0.0%      0.0%     
 flops    22 x    29 x    14             10575488     100.0%      0.0%      0.0%     
 flops    14 x    29 x    22             10575488     100.0%      0.0%      0.0%     
 flops    64 x    71 x    14             10687488     100.0%      0.0%      0.0%     
 flops    71 x    64 x    14             10687488     100.0%      0.0%      0.0%     
 flops    14 x    29 x     9             10874304     100.0%      0.0%      0.0%     
 flops    14 x     9 x    29             10874304     100.0%      0.0%      0.0%     
 flops    14 x    71 x    63             11021472     100.0%      0.0%      0.0%     
 flops    14 x    63 x    71             11021472     100.0%      0.0%      0.0%     
 flops    14 x    71 x    64             11196416     100.0%      0.0%      0.0%     
 flops    14 x    64 x    71             11196416     100.0%      0.0%      0.0%     
 flops    29 x     9 x    22             13597056     100.0%      0.0%      0.0%     
 flops     9 x    29 x    22             13597056     100.0%      0.0%      0.0%     
 flops    63 x    63 x    22             13970880     100.0%      0.0%      0.0%     
 flops    71 x    84 x    14             14027328     100.0%      0.0%      0.0%     
 flops    84 x    71 x    14             14027328     100.0%      0.0%      0.0%     
 flops    64 x    63 x    22             14192640     100.0%      0.0%      0.0%     
 flops    63 x    64 x    22             14192640     100.0%      0.0%      0.0%     
 flops    71 x    85 x    14             14194320     100.0%      0.0%      0.0%     
 flops    85 x    71 x    14             14194320     100.0%      0.0%      0.0%     
 flops    64 x    64 x    22             14417920     100.0%      0.0%      0.0%     
 flops    22 x    71 x    14             14695296     100.0%      0.0%      0.0%     
 flops    14 x    71 x    22             14695296     100.0%      0.0%      0.0%     
 flops    14 x    84 x    71             14695296     100.0%      0.0%      0.0%     
 flops    14 x    85 x    71             14870240     100.0%      0.0%      0.0%     
 flops    22 x    63 x    63             15367968     100.0%      0.0%      0.0%     
 flops    22 x    14 x    71             15395072     100.0%      0.0%      0.0%     
 flops    14 x    22 x    71             15395072     100.0%      0.0%      0.0%     
 flops    22 x    64 x    63             15611904     100.0%      0.0%      0.0%     
 flops    22 x    63 x    64             15611904     100.0%      0.0%      0.0%     
 flops    22 x    64 x    64             15859712     100.0%      0.0%      0.0%     
 flops    22 x    14 x     9             16498944     100.0%      0.0%      0.0%     
 flops    14 x    22 x     9             16498944     100.0%      0.0%      0.0%     
 flops    14 x    29 x    29             17519712     100.0%      0.0%      0.0%     
 flops    84 x    63 x    22             18627840     100.0%      0.0%      0.0%     
 flops    63 x    84 x    22             18627840     100.0%      0.0%      0.0%     
 flops    85 x    63 x    22             18849600     100.0%      0.0%      0.0%     
 flops    63 x    85 x    22             18849600     100.0%      0.0%      0.0%     
 flops    64 x    84 x    22             18923520     100.0%      0.0%      0.0%     
 flops    84 x    64 x    22             18923520     100.0%      0.0%      0.0%     
 flops    64 x    85 x    22             19148800     100.0%      0.0%      0.0%     
 flops    85 x    64 x    22             19148800     100.0%      0.0%      0.0%     
 flops    22 x    63 x    22             20490624     100.0%      0.0%      0.0%     
 flops    22 x    84 x    63             20490624     100.0%      0.0%      0.0%     
 flops    22 x     9 x    22             20603880     100.0%      0.0%      0.0%     
 flops    22 x    85 x    63             20734560     100.0%      0.0%      0.0%     
 flops    22 x    64 x    22             20815872     100.0%      0.0%      0.0%     
 flops    22 x    84 x    64             20815872     100.0%      0.0%      0.0%     
 flops    22 x    85 x    64             21063680     100.0%      0.0%      0.0%     
 flops    22 x     9 x     9             21098880     100.0%      0.0%      0.0%     
 flops    22 x    22 x    63             21466368     100.0%      0.0%      0.0%     
 flops    22 x    22 x    64             21807104     100.0%      0.0%      0.0%     
 flops    29 x    29 x    22             21906368     100.0%      0.0%      0.0%     
 flops    71 x    71 x    14             23712864     100.0%      0.0%      0.0%     
 flops    84 x    84 x    22             24837120     100.0%      0.0%      0.0%     
 flops    14 x    71 x    71             24842048     100.0%      0.0%      0.0%     
 flops    85 x    84 x    22             25132800     100.0%      0.0%      0.0%     
 flops    84 x    85 x    22             25132800     100.0%      0.0%      0.0%     
 flops    85 x    85 x    22             25432000     100.0%      0.0%      0.0%     
 flops    22 x    14 x    29             26581632     100.0%      0.0%      0.0%     
 flops    14 x    22 x    29             26581632     100.0%      0.0%      0.0%     
 flops    22 x    84 x    22             27320832     100.0%      0.0%      0.0%     
 flops    22 x    85 x    22             27646080     100.0%      0.0%      0.0%     
 flops    71 x    63 x    22             31489920     100.0%      0.0%      0.0%     
 flops    63 x    71 x    22             31489920     100.0%      0.0%      0.0%     
 flops    64 x    71 x    22             31989760     100.0%      0.0%      0.0%     
 flops    71 x    64 x    22             31989760     100.0%      0.0%      0.0%     
 flops    32 x    63 x    14             33191424     100.0%      0.0%      0.0%     
 flops    22 x    29 x    22             33237248     100.0%      0.0%      0.0%     
 flops    14 x    63 x    32             33304320     100.0%      0.0%      0.0%     
 flops    32 x     9 x    14             33417216     100.0%      0.0%      0.0%     
 flops    14 x     9 x    32             33417216     100.0%      0.0%      0.0%     
 flops    32 x    64 x    14             33718272     100.0%      0.0%      0.0%     
 flops    14 x    64 x    32             33832960     100.0%      0.0%      0.0%     
 flops    22 x     9 x    29             34176384     100.0%      0.0%      0.0%     
 flops    22 x    29 x     9             34176384     100.0%      0.0%      0.0%     
 flops    22 x    71 x    63             34638912     100.0%      0.0%      0.0%     
 flops    22 x    63 x    71             34638912     100.0%      0.0%      0.0%     
 flops    32 x    14 x    63             34771968     100.0%      0.0%      0.0%     
 flops    14 x    32 x    63             34771968     100.0%      0.0%      0.0%     
 flops    22 x    64 x    71             35188736     100.0%      0.0%      0.0%     
 flops    22 x    71 x    64             35188736     100.0%      0.0%      0.0%     
 flops    32 x    14 x    64             35323904     100.0%      0.0%      0.0%     
 flops    14 x    32 x    64             35323904     100.0%      0.0%      0.0%     
 flops    71 x    84 x    22             41986560     100.0%      0.0%      0.0%     
 flops    84 x    71 x    22             41986560     100.0%      0.0%      0.0%     
 flops    71 x    85 x    22             42486400     100.0%      0.0%      0.0%     
 flops    85 x    71 x    22             42486400     100.0%      0.0%      0.0%     
 flops     9 x     9 x    32             42964992     100.0%      0.0%      0.0%     
 flops    32 x    84 x    14             44255232     100.0%      0.0%      0.0%     
 flops    14 x    84 x    32             44481024     100.0%      0.0%      0.0%     
 flops    32 x    85 x    14             44858240     100.0%      0.0%      0.0%     
 flops    14 x    85 x    32             45010560     100.0%      0.0%      0.0%     
 flops    22 x    71 x    22             46185216     100.0%      0.0%      0.0%     
 flops    22 x    84 x    71             46185216     100.0%      0.0%      0.0%     
 flops    22 x    85 x    71             46735040     100.0%      0.0%      0.0%     
 flops    22 x    22 x    71             48384512     100.0%      0.0%      0.0%     
 flops    22 x    22 x     9             51818976     100.0%      0.0%      0.0%     
 flops    32 x    29 x    14             53838848     100.0%      0.0%      0.0%     
 flops    14 x    29 x    32             53916800     100.0%      0.0%      0.0%     
 flops    22 x    29 x    29             55061952     100.0%      0.0%      0.0%     
 flops    29 x     9 x    32             69221376     100.0%      0.0%      0.0%     
 flops     9 x    29 x    32             69221376     100.0%      0.0%      0.0%     
 flops    71 x    71 x    22             70977280     100.0%      0.0%      0.0%     
 flops    63 x    63 x    32             73664640     100.0%      0.0%      0.0%     
 flops    32 x    71 x    14             74812416     100.0%      0.0%      0.0%     
 flops    64 x    63 x    32             74833920     100.0%      0.0%      0.0%     
 flops    63 x    64 x    32             74833920     100.0%      0.0%      0.0%     
 flops    14 x    71 x    32             75066880     100.0%      0.0%      0.0%     
 flops    64 x    64 x    32             76021760     100.0%      0.0%      0.0%     
 flops    22 x    71 x    71             78075008     100.0%      0.0%      0.0%     
 flops    32 x    63 x    63             78236928     100.0%      0.0%      0.0%     
 flops    32 x    14 x    71             78374912     100.0%      0.0%      0.0%     
 flops    14 x    32 x    71             78374912     100.0%      0.0%      0.0%     
 flops    32 x    64 x    63             79478784     100.0%      0.0%      0.0%     
 flops    32 x    63 x    64             79478784     100.0%      0.0%      0.0%     
 flops    32 x    64 x    64             80740352     100.0%      0.0%      0.0%     
 flops    22 x    22 x    29             83542272     100.0%      0.0%      0.0%     
 flops    32 x    14 x     9             83994624     100.0%      0.0%      0.0%     
 flops    14 x    32 x     9             83994624     100.0%      0.0%      0.0%     
 flops    84 x    63 x    32             98219520     100.0%      0.0%      0.0%     
 flops    63 x    84 x    32             99235584     100.0%      0.0%      0.0%     
 flops    85 x    63 x    32             99388800     100.0%      0.0%      0.0%     
 flops    84 x    64 x    32             99778560     100.0%      0.0%      0.0%     
 flops    63 x    85 x    32            100416960     100.0%      0.0%      0.0%     
 flops    64 x    84 x    32            100810752     100.0%      0.0%      0.0%     
 flops    85 x    64 x    32            100966400     100.0%      0.0%      0.0%     
 flops    64 x    85 x    32            102010880     100.0%      0.0%      0.0%     
 flops    32 x    63 x    22            104315904     100.0%      0.0%      0.0%     
 flops    32 x    84 x    63            104315904     100.0%      0.0%      0.0%     
 flops    22 x    63 x    32            104315904     100.0%      0.0%      0.0%     
 flops    32 x     9 x    22            104949504     100.0%      0.0%      0.0%     
 flops    22 x     9 x    32            105025536     100.0%      0.0%      0.0%     
 flops    32 x    85 x    63            105557760     100.0%      0.0%      0.0%     
 flops    32 x    64 x    22            105971712     100.0%      0.0%      0.0%     
 flops    22 x    64 x    32            105971712     100.0%      0.0%      0.0%     
 flops    32 x    84 x    64            105971712     100.0%      0.0%      0.0%     
 flops    32 x    85 x    64            107233280     100.0%      0.0%      0.0%     
 flops    32 x     9 x     9            107993088     100.0%      0.0%      0.0%     
 flops    22 x    32 x    63            109283328     100.0%      0.0%      0.0%     
 flops    32 x    22 x    63            109283328     100.0%      0.0%      0.0%     
 flops    22 x    32 x    64            111017984     100.0%      0.0%      0.0%     
 flops    32 x    22 x    64            111017984     100.0%      0.0%      0.0%     
 flops    29 x    29 x    32            111523328     100.0%      0.0%      0.0%     
 flops    84 x    84 x    32            132314112     100.0%      0.0%      0.0%     
 flops    85 x    84 x    32            133889280     100.0%      0.0%      0.0%     
 flops    84 x    85 x    32            133889280     100.0%      0.0%      0.0%     
 flops    32 x    14 x    29            135324672     100.0%      0.0%      0.0%     
 flops    14 x    32 x    29            135324672     100.0%      0.0%      0.0%     
 flops    85 x    85 x    32            135483200     100.0%      0.0%      0.0%     
 flops    32 x    84 x    22            139087872     100.0%      0.0%      0.0%     
 flops    22 x    84 x    32            139087872     100.0%      0.0%      0.0%     
 flops    32 x    85 x    22            140743680     100.0%      0.0%      0.0%     
 flops    22 x    85 x    32            140743680     100.0%      0.0%      0.0%     
 flops    71 x    63 x    32            166037760     100.0%      0.0%      0.0%     
 flops    63 x    71 x    32            166037760     100.0%      0.0%      0.0%     
 flops    64 x    71 x    32            168673280     100.0%      0.0%      0.0%     
 flops    71 x    64 x    32            168673280     100.0%      0.0%      0.0%     
 flops    32 x    29 x    22            169207808     100.0%      0.0%      0.0%     
 flops    22 x    29 x    32            169616128     100.0%      0.0%      0.0%     
 flops    32 x     9 x    29            173988864     100.0%      0.0%      0.0%     
 flops    32 x    29 x     9            173988864     100.0%      0.0%      0.0%     
 flops    32 x    71 x    63            176343552     100.0%      0.0%      0.0%     
 flops    32 x    63 x    71            176343552     100.0%      0.0%      0.0%     
 flops    32 x    64 x    71            179142656     100.0%      0.0%      0.0%     
 flops    32 x    71 x    64            179142656     100.0%      0.0%      0.0%     
 flops    84 x    71 x    32            221383680     100.0%      0.0%      0.0%     
 flops    71 x    84 x    32            223673856     100.0%      0.0%      0.0%     
 flops    85 x    71 x    32            224019200     100.0%      0.0%      0.0%     
 flops    71 x    85 x    32            226336640     100.0%      0.0%      0.0%     
 flops    32 x    71 x    22            235124736     100.0%      0.0%      0.0%     
 flops    22 x    71 x    32            235124736     100.0%      0.0%      0.0%     
 flops    32 x    84 x    71            235124736     100.0%      0.0%      0.0%     
 flops    32 x    85 x    71            237923840     100.0%      0.0%      0.0%     
 flops    22 x    32 x    71            246321152     100.0%      0.0%      0.0%     
 flops    32 x    22 x    71            246321152     100.0%      0.0%      0.0%     
 flops    22 x    32 x     9            263983104     100.0%      0.0%      0.0%     
 flops    32 x    22 x     9            263983104     100.0%      0.0%      0.0%     
 flops    32 x    29 x    29            280315392     100.0%      0.0%      0.0%     
 flops    71 x    71 x    32            374243840     100.0%      0.0%      0.0%     
 flops    32 x    71 x    71            397472768     100.0%      0.0%      0.0%     
 flops    22 x    32 x    29            425306112     100.0%      0.0%      0.0%     
 flops    32 x    22 x    29            425306112     100.0%      0.0%      0.0%     
 flops    32 x     9 x    32            534730752     100.0%      0.0%      0.0%     
 flops    32 x    63 x    32            536739840     100.0%      0.0%      0.0%     
 flops    32 x    64 x    32            545652736     100.0%      0.0%      0.0%     
 flops    32 x    32 x    63            556351488     100.0%      0.0%      0.0%     
 flops    32 x    32 x    64            565182464     100.0%      0.0%      0.0%     
 flops    32 x    84 x    32            718749696     100.0%      0.0%      0.0%     
 flops    32 x    85 x    32            727654400     100.0%      0.0%      0.0%     
 flops    32 x    29 x    32            868311040     100.0%      0.0%      0.0%     
 flops    32 x    71 x    32           1208631296     100.0%      0.0%      0.0%     
 flops    32 x    32 x    71           1253998592     100.0%      0.0%      0.0%     
 flops    32 x    32 x     9           1343913984     100.0%      0.0%      0.0%     
 flops    32 x    32 x    29           2165194752     100.0%      0.0%      0.0%     
 flops inhomo. stacks                  5559353600     100.0%      0.0%      0.0%
 flops total                        31.700112E+09     100.0%      0.0%      0.0%
 flops max/rank                      6.343386E+09     100.0%      0.0%      0.0%
 matmuls inhomo. stacks                     23240     100.0%      0.0%      0.0%
 matmuls total                             540640     100.0%      0.0%      0.0%
 number of processed stacks                159671     100.0%      0.0%      0.0%
 average stack size                                     3.4       0.0       0.0
 marketing flops                    42.897211E+09
 -------------------------------------------------------------------------------
 # multiplications                           4040
 max memory usage/rank              20.975665E+09
 # max total images/rank                        3
 # max 3D layers                                1
 # MPI messages exchanged                   21210
 MPI messages size (bytes):
  total size                         1.049256E+09
  min size                           0.000000E+00
  max size                         237.568000E+03
  average size                      49.469852E+03
 MPI breakdown and total messages size (bytes):
             size <=      128                3186                        0
       128 < size <=     8192                1803                  5546688
      8192 < size <=    32768                6989                117373440
     32768 < size <=   131072                6536                475897280
    131072 < size <=  4194304                2696                450438192
   4194304 < size <= 16777216                   0                        0
  16777216 < size                               0                        0
 -------------------------------------------------------------------------------

 *** WARNING in dbcsr_mm.F:301 :: Using a non-square number of MPI ranks ***
 *** might lead to poor performance. Used ranks: 6 Suggested: 4 9        ***

 -------------------------------------------------------------------------------
 -                                                                             -
 -                      DBCSR MESSAGE PASSING PERFORMANCE                      -
 -                                                                             -
 -------------------------------------------------------------------------------
 ROUTINE             CALLS      AVE VOLUME [Bytes]
 MP_Bcast              266                     12.
 MP_Allreduce         2653                     15.
 MP_Alltoall          3385                  30714.
 MP_ISend            10974                  27331.
 MP_IRecv            10804                  23666.
 -------------------------------------------------------------------------------

 -------------------------------------------------------------------------------
 -                                                                             -
 -                                GRID STATISTICS                              -
 -                                                                             -
 -------------------------------------------------------------------------------
 LP    KERNEL             BACKEND                              COUNT     PERCENT
 2     collocate ortho    CPU                                   5504      20.87%
 2     integrate ortho    CPU                                   5504      20.87%
 4     collocate ortho    CPU                                   5184      19.66%
 4     integrate ortho    CPU                                   5184      19.66%
 6     collocate ortho    CPU                                   2352       8.92%
 6     integrate ortho    CPU                                   2352       8.92%
 0     collocate general  CPU                                    288       1.09%
 -------------------------------------------------------------------------------

 -------------------------------------------------------------------------------
 -                                                                             -
 -                          OFFLOAD MEMPOOL STATISTICS                         -
 -                                                                             -
 -------------------------------------------------------------------------------
 Memory consumption                Number of allocations  Used [MiB]  Size [MiB]
 Host                                                  6         125    22104025
 -------------------------------------------------------------------------------

 MEMORY| Estimated peak process memory [MiB]                                2952

 -------------------------------------------------------------------------------
 -                                                                             -
 -                         MESSAGE PASSING PERFORMANCE                         -
 -                                                                             -
 -------------------------------------------------------------------------------

 ROUTINE             CALLS      AVE VOLUME [Bytes]
 MP_Group                5
 MP_Bcast              212                 262863.
 MP_Allreduce         1863                   4770.
 MP_Sync                11
 MP_Alltoall            44              111580489.
 MP_SendRecv            30                3141333.
 MP_ISendRecv           30                3141333.
 MP_Wait                80
 MP_comm_split          11
 MP_ISend               40                9360000.
 MP_IRecv               40                9360000.
 -------------------------------------------------------------------------------


 -------------------------------------------------------------------------------
 -                                                                             -
 -                           R E F E R E N C E S                               -
 -                                                                             -
 -------------------------------------------------------------------------------
 
 CP2K version 2026.2 (Development Version), the CP2K developers group (2026).
 CP2K is freely available from https://www.cp2k.org/ .
 
 M. Iannuzzi, J. Wilhelm, F. Stein, A. Bussy, H. Elgabarty, D. Golze, A. Hehn, 
 M. Graml, S. Marek, B. Sertcan Gökmen, C. Schran, H. Forbert, R. Z. 
 Khaliullin, A. Kozhevnikov, M. Taillefumier, R. Meli, V. V. Rybkin, M. Brehm, 
 R. Schade, O. Schütt, J. V. Pototschnig, H. Mirhosseini, A. Knüpfer, D. Marx, 
 M. Krack, J. Hutter, T. D. Kühne.
 J. Phys. Chem. B 130, 1237-1310 (2026).
 The CP2K Program Package Made Simple.
 https://doi.org/10.1021/acs.jpcb.5c05851

 M. Graml, K. Zollner, D. Hernangómez-Pérez, P. E. Faria Junior, J. Wilhelm.
 J. Chem. Theory Comput. 20, 2202-2208 (2024).
 Low-scaling GW algorithm applied to twisted transition-metal dichalcogenide 
 heterobilayers.
 https://doi.org/10.1021/acs.jctc.3c01230

 T. D. Kühne, M. Iannuzzi, M. Del Ben, V. V. Rybkin, P. Seewald, F. Stein, T. 
 Laino, R. Z. Khaliullin, O. Schütt, F. Schiffmann, D. Golze, J. Wilhelm, S. 
 Chulkov, M. H. Bani-Hashemian, V. Weber, U. Borstnik, M. Taillefumier, A. S. 
 Jakobovits, A. Lazzaro, H. Pabst, T. Müller, R. Schade, M. Guidon, S. 
 Andermatt, N. Holmberg, G. K. Schenter, A. Hehn, A. Bussy, F. Belleflamme, G. 
 Tabacchi, A. Glöß, M. Lass, I. Bethune, C. J. Mundy, C. Plessl, M. Watkins, 
 J. VandeVondele, M. Krack, J. Hutter.
 J. Chem. Phys. 152, 194103 (2020).
 CP2K: An electronic structure and molecular dynamics software package - 
 Quickstep: Efficient and accurate electronic structure calculations.
 https://doi.org/10.1063/5.0007045

 O. Schuett, P. Messmer, J. Hutter, J. VandeVondele.
 Electronic Structure Calculations on Graphics Processing Units, 173-190 (2016).
 GPU-Accelerated Sparse Matrix-Matrix Multiplication for Linear Scaling Density 
 Functional Theory.
 https://doi.org/10.1002/9781118670712.ch8

 U. Borstnik, J. VandeVondele, V. Weber, J. Hutter.
 Parallel Comput. 40, 47-58 (2014).
 Sparse matrix multiplication: The distributed block-compressed sparse row 
 library.
 https://doi.org/10.1016/j.parco.2014.03.012

 J. VandeVondele, J. Hutter.
 J. Chem. Phys. 127, 114105 (2007).
 Gaussian basis sets for accurate calculations on molecular systems in gas and 
 condensed phases.
 https://doi.org/10.1063/1.2770708

 J. VandeVondele, M. Krack, F. Mohamed, M. Parrinello, T. Chassaing, J. Hutter.
 Comput. Phys. Commun. 167, 103-128 (2005).
 QUICKSTEP: Fast and accurate density functional calculations using a mixed 
 Gaussian and plane waves approach.
 https://doi.org/10.1016/j.cpc.2004.12.014

 M. Krack.
 Theor. Chem. Acc. 114, 145-152 (2005).
 Pseudopotentials for H to Kr optimized for gradient-corrected 
 exchange-correlation functionals.
 https://doi.org/10.1007/s00214-005-0655-y

 M. Frigo, S. G. Johnson.
 Proc. IEEE 93, 216-231 (2005).
 The design and implementation of FFTW3.
 https://doi.org/10.1109/JPROC.2004.840301

 J. VandeVondele, J. Hutter.
 J. Chem. Phys. 118, 4365-4369 (2003).
 An efficient orbital transformation method for electronic structure 
 calculations.
 https://doi.org/10.1063/1.1543154

 C. Hartwigsen, S. Goedecker, J. Hutter.
 Phys. Rev. B 58, 3641-3662 (1998).
 Relativistic separable dual-space Gaussian pseudopotentials from H to Rn.
 https://doi.org/10.1103/PhysRevB.58.3641

 G. Lippert, J. Hutter, M. Parrinello.
 Mol. Phys. 92, 477-487 (1997).
 A hybrid Gaussian and plane wave density functional scheme.
 https://doi.org/10.1080/002689797170220

 S. Goedecker, M. Teter, J. Hutter.
 Phys. Rev. B 54, 1703-1710 (1996).
 Separable dual-space Gaussian pseudopotentials.
 https://doi.org/10.1103/PhysRevB.54.1703

 J. P. Perdew, K. Burke, M. Ernzerhof.
 Phys. Rev. Lett. 77, 3865-3868 (1996).
 Generalized gradient approximation made simple.
 https://doi.org/10.1103/PhysRevLett.77.3865

 P. E. Blöchl.
 J. Chem. Phys. 103, 7422-7428 (1995).
 Electrostatic decoupling of periodic images of plane‐wave‐expanded 
 densities and derived atomic point charges.
 https://doi.org/10.1063/1.470314

 R. H. Byrd, P. H. Lu, J. Nocedal, C. Y. Zhu.
 SIAM J. Sci. Comput. 16, 1190-1208 (1995).
 A Limited Memory Algorithm for Bound Constrained Optimization.
 https://doi.org/10.1137/0916069


 -------------------------------------------------------------------------------
 -                                                                             -
 -                                T I M I N G                                  -
 -                                                                             -
 -------------------------------------------------------------------------------
 SUBROUTINE                       CALLS  ASD         SELF TIME        TOTAL TIME MAXRANK
                                MAXIMUM       AVERAGE  MAXIMUM  AVERAGE  MAXIMUM
 CP2K                                 1  1.0    0.009    0.020   47.361   47.361       0
 qs_energies                          1  2.0    0.000    0.000   46.346   46.346       2
 qs_energies_properties               1  3.0    0.000    0.000   42.906   42.906       2
 post_scf_bandstructure               1  4.0    0.000    0.000   42.906   42.906       3
 run_gw                               1  5.0    0.000    0.000   42.884   42.897       1
 gw_calc_ri_rs_non_periodic           1  6.0    0.000    0.000   40.857   41.014       0
 optimize_ri_rs_grid                  1  7.0    0.000    0.000   39.804   39.948       2
 rirs_grid_LBFGS                      1  8.0    1.008    1.027   38.811   38.813       3
 evaluate_rirs_grid_cluster         301  9.0    2.855    3.050   37.281   37.741       3
 rirs_cluster_gradient_coordina     301 10.0   11.310   11.353   11.310   11.353       2
 rirs_cluster_gradient_products     301 10.0    8.959    9.096    8.959    9.096       0
 rirs_cluster_D_ll                  301 10.0    3.955    4.106    3.955    4.106       3
 rirs_cluster_residual              301 10.0    3.786    3.894    3.786    3.894       1
 rirs_cluster_AO_products           301 10.0    3.507    3.573    3.507    3.573       1
 rirs_cluster_d_lP                  301 10.0    2.909    3.077    2.909    3.077       3
 scf_env_do_scf                       1  3.0    0.000    0.000    2.535    2.535       0
 qs_ks_build_kohn_sham_matrix         2  7.5    0.003    0.007    2.471    2.471       1
 fft_wrap_pw1pw2                     28 10.0    0.001    0.001    2.233    2.280       5
 create_and_init_bs_env_for_gw        1  6.0    0.003    0.004    2.026    2.184       3
 fft_wrap_pw1pw2_300                 16 11.2    0.119    0.141    2.120    2.158       5
 init_scf_loop                        1  4.0    0.000    0.000    1.895    1.895       5
 qs_ks_update_qs_env                  2  5.0    0.000    0.000    1.892    1.892       0
 rebuild_ks_matrix                    1  6.0    0.000    0.000    1.892    1.892       0
 fft3d_ps                            28 12.0    0.953    1.024    1.606    1.663       3
 qs_rho_update_rho_low                2  5.0    0.000    0.000    1.294    1.294       0
 calculate_rho_elec                   2  6.0    0.034    0.034    1.294    1.294       4
 qs_vxc_create                        2  8.5    0.000    0.000    1.284    1.290       5
 xc_vxc_pw_create                     1  9.0    0.025    0.032    1.284    1.290       3
 generate_auto_ri_basis               1  7.0    0.000    0.000    1.058    1.058       4
 xc_pw_derive                         6 11.0    0.000    0.000    0.951    1.011       5
 mp_sum_d                           724  4.7    0.531    0.927    0.531    0.927       2
 qs_init_subsys                       1  2.0    0.000    0.001    0.873    0.874       0
 qs_env_setup                         1  3.0    0.000    0.000    0.872    0.873       0
 qs_env_rebuild_pw_env                2  3.5    0.000    0.000    0.872    0.873       2
 pw_env_rebuild                       1  5.0    0.000    0.000    0.871    0.873       0
 pw_grid_setup                        5  5.2    0.000    0.000    0.865    0.867       3
 pw_grid_setup_internal               5  6.2    0.015    0.015    0.865    0.866       5
 rirs_grid_build_clusters             1  8.0    0.488    0.491    0.775    0.779       5
 pw_grid_sort                         5  7.2    0.518    0.521    0.769    0.775       4
 compute_AB_optimized_RI_basis        1  8.0    0.000    0.000    0.771    0.771       4
 compute_AB_optimized_RI_basis_       1  9.0    0.000    0.000    0.754    0.770       0
 density_rs2pw                        2  7.0    0.000    0.000    0.745    0.760       5
 compute_B_PQ_AB                      3 10.0    0.076    0.189    0.301    0.731       0
 xc_pw_divergence                     1 10.0    0.000    0.000    0.635    0.689       5
 init_scf_run                         1  3.0    0.000    0.000    0.680    0.681       3
 scf_env_initial_rho_setup            1  4.0    0.000    0.000    0.680    0.680       0
 mp_sum_dm                           30 10.7    0.504    0.674    0.504    0.674       4
 xc_rho_set_and_dset_create           1 10.0    0.022    0.026    0.611    0.648       3
 scf_env_do_scf_inner_loop            1  4.0    0.000    0.000    0.640    0.640       0
 compute_V_xc                         1  7.0    0.000    0.000    0.579    0.579       4
 cp_fm_get_submatrix                 26 10.0    0.000    0.000    0.433    0.573       4
 grid_collocate_task_list             2  7.0    0.506    0.530    0.506    0.530       0
 setup_time_and_frequency_minim       1  7.0    0.000    0.000    0.354    0.511       0
 build_minimax_time_frequency_g       1  8.0    0.000    0.000    0.354    0.511       5
 fit_l_sq_weights                     3  9.0    0.354    0.511    0.354    0.511       5
 sum_up_and_integrate                 2  8.5    0.000    0.000    0.492    0.497       3
 integrate_v_rspace                   2  9.5    0.000    0.000    0.484    0.490       3
 potential_pw2rs                      2 10.5    0.002    0.002    0.469    0.473       4
 abc_contract_xsmm                 5100  9.2    0.357    0.448    0.357    0.448       0
 contract_B_PQ                       14 11.8    0.154    0.388    0.168    0.420       0
 mp_alltoall_z22v                    28 14.0    0.309    0.416    0.309    0.416       0
 yz_to_x                             14 12.2    0.155    0.172    0.332    0.406       2
 initialize_ri_rs_grid                1  8.0    0.076    0.118    0.218    0.362       0
 x_to_yz                             14 13.8    0.186    0.199    0.318    0.358       5
 compute_Sigma_c_and_QP_energie       1  7.0    0.000    0.000    0.345    0.358       0
 qs_ks_ddapc                          2  8.5    0.000    0.000    0.350    0.357       5
 compute_W                            1  7.0    0.000    0.000    0.352    0.352       0
 compute_Sigma_c                      1  8.0    0.003    0.003    0.330    0.330       0
 pw_poisson_solve                     2  8.5    0.000    0.000    0.299    0.303       3
 contract_grid_panels_sigma_c        30  9.0    0.261    0.262    0.285    0.285       4
 sort_shells                          5  8.2    0.251    0.254    0.251    0.254       4
 mp_bcast_dm                         21  9.2    0.142    0.244    0.142    0.244       0
 qs_energies_init_hamiltonians        1  3.0    0.000    0.000    0.224    0.224       3
 qs_env_update_s_mstruct              1  4.0    0.000    0.000    0.223    0.224       0
 compute_fm_W_freq                   30  8.0    0.000    0.000    0.219    0.221       3
 compute_M_pq_inv_and_V_pq            1  8.0    0.000    0.000    0.216    0.216       4
 get_mat_chi_Gamma_tau                1  7.0    0.000    0.001    0.212    0.212       0
 compute_B_PQ_exchange                7 10.8    0.000    0.000    0.084    0.210       0
 compute_B_PQ_transition              7 10.8    0.000    0.000    0.084    0.210       0
 pw_copy                             28 10.5    0.202    0.210    0.202    0.210       4
 transfer_rs2pw                       9  7.8    0.000    0.000    0.180    0.208       5
 pw_derive                           12 11.2    0.198    0.206    0.198    0.206       5
 calculate_rho_core                   1  5.0    0.017    0.017    0.203    0.204       3
 pw_gather_p                         14 11.2    0.188    0.203    0.188    0.203       3
 contract_grid_panels                31  8.0    0.184    0.185    0.202    0.203       4
 parallel_gemm_fm_gemm              431  9.6    0.000    0.000    0.193    0.197       2
 cp_fm_gemm                         434 10.5    0.193    0.197    0.193    0.197       2
 pw_scatter_p                        14 12.8    0.183    0.192    0.183    0.192       3
 compute_contracted_RI_matrix         2  9.0    0.000    0.000    0.190    0.190       5
 compute_optimized_RI_matrix_bl       8 10.0    0.020    0.026    0.153    0.188       1
 compute_M_PQ_AB                    138 11.0    0.000    0.000    0.143    0.178       1
 compute_M_PQ                       138 12.0    0.000    0.000    0.143    0.178       0
 int_operators_r12_ab_os            138 13.0    0.000    0.000    0.143    0.178       0
 int_operator_ab_os_low             138 14.0    0.059    0.074    0.143    0.178       0
 pw_poisson_set                       3  8.3    0.000    0.000    0.168    0.172       5
 transfer_rs2pw_300                   3  8.3    0.063    0.067    0.135    0.164       0
 transfer_pw2rs                       8 11.5    0.000    0.000    0.149    0.150       2
 mp_waitany                          40 11.0    0.097    0.145    0.097    0.145       5
 compute_Z_lP                         1  7.0    0.000    0.000    0.131    0.131       5
 compute_Z_lP_auto_ri                 1  8.0    0.000    0.000    0.131    0.131       5
 compute_d_lp_auto_ri_batch           1  9.0    0.000    0.000    0.070    0.123       0
 compute_d_lp_auto_ri_atom            1 10.0    0.024    0.045    0.070    0.123       3
 pw_integral_ab_c1d_c1d_gs            4 10.0    0.116    0.120    0.120    0.121       3
 xc_functional_eval                   1 11.0    0.000    0.000    0.085    0.116       5
 pbe_lda_eval                         1 12.0    0.085    0.116    0.085    0.116       3
 create_qs_kind_set                   1  2.0    0.000    0.000    0.110    0.112       0
 read_qs_kind                         2  3.0    0.041    0.044    0.110    0.112       0
 copy_dbcsr_to_fm                   104  9.5    0.070    0.105    0.072    0.108       4
 transfer_pw2rs_300                   2 12.5    0.049    0.054    0.103    0.108       1
 fft_wrap_pw1pw2_100                  4 10.8    0.007    0.012    0.092    0.100       5
 pw_axpy                             25  6.6    0.082    0.087    0.082    0.087       4
 pw_copy_to_array                    14 11.2    0.083    0.087    0.083    0.087       2
 cp_ddapc_apply_CD                    2  9.5    0.000    0.000    0.082    0.085       0
 compute_AA_optimized_RI_basis        1  8.0    0.000    0.000    0.072    0.072       0
 parser_read_line                 22513  4.0    0.004    0.004    0.069    0.071       4
 parser_read_line_low                27  5.0    0.007    0.035    0.065    0.067       0
 broadcast_input_information         27  6.0    0.009    0.011    0.058    0.066       3
 operator2                        66126 15.0    0.049    0.060    0.049    0.060       0
 pw_grid_assign                       5  7.2    0.055    0.056    0.056    0.056       4
 pw_copy_from_array                  14 12.8    0.046    0.053    0.046    0.053       4
 cp_fm_cholesky_invert               31  9.0    0.050    0.050    0.050    0.050       3
 compute_fm_chi_Gamma_freq           30  8.0    0.028    0.031    0.048    0.050       5
 mp_waitall_1                        40 12.9    0.039    0.050    0.039    0.050       4
 build_3c_integral_block_auto_r      36 11.0    0.000    0.000    0.023    0.049       1
 build_3c_integral_block_auto_r      36 11.0    0.024    0.049    0.024    0.049       1
 -------------------------------------------------------------------------------

 The number of warnings for this run is : 8
 
 -------------------------------------------------------------------------------
  **** **** ******  **  PROGRAM ENDED AT                 2026-10-03 12:00:57.741
 ***** ** ***  *** **   PROGRAM RAN ON                                  n2cn0534
 **    ****   ******    PROGRAM RAN BY                                  eprop2d1
 ***** **    ** ** **   PROGRAM PROCESS ID                               1385007
  **** **  *******  **  PROGRAM STOPPED IN /scratch/hpc-prf-metdyn/eprop2d1_Jan/
                                           53_benchmark_RI_opt/418_gw100_fig5_fu
                                           ll_epsfilter_1e12_20261002/calculatio
                                           ns/rc5p0/ri5_rs06/24_C2H4
