 DBCSR| CPU Multiplication driver                                           XSMM (U)
 DBCSR| Multrec recursion limit                                              512 (U)
 DBCSR| Multiplication stack size                                           1000 (D)
 DBCSR| Maximum elements for images                                    UNLIMITED (U)
 DBCSR| Multiplicative factor virtual images                                   1 (U)
 DBCSR| Use multiplication densification                                       T (D)
 DBCSR| Multiplication size stacks                                             3 (U)
 DBCSR| Use memory pool for CPU allocation                                     F (U)
 DBCSR| Number of 3D layers                                               SINGLE (U)
 DBCSR| Use MPI memory allocation                                              F (U)
 DBCSR| Use RMA algorithm                                                      F (U)
 DBCSR| Use Communication thread                                               T (U)
 DBCSR| Communication thread load                                             60 (D)
 DBCSR| MPI: My process id                                                     0
 DBCSR| MPI: Number of processes                                              16
 DBCSR| OMP: Current number of threads                                         8
 DBCSR| OMP: Max number of threads                                             8
 DBCSR| Split modifier for TAS multiplication algorithm                  1.0E+00 (U)


  **** **** ******  **  PROGRAM STARTED AT               2026-09-18 13:02:58.575
 ***** ** ***  *** **   PROGRAM STARTED ON                              n2cn0881
 **    ****   ******    PROGRAM STARTED BY                              eprop2d1
 ***** **    ** ** **   PROGRAM PROCESS ID                                527177
  **** **  *******  **  PROGRAM STARTED IN /scratch/hpc-prf-metdyn/eprop2d1_Jan/
                                           53_benchmark_RI_opt/139_GW100_augTZVP
                                           _T1_N4_reference_coopfst/calculations
                                           /70_CH3OH

 CP2K| version string:                 CP2K version 2026.2 (Development Version)
 CP2K| source code revision number:                                   d1dff42668
 CP2K| cp2kflags: omp libint fftw3 libxc parallel scalapack mpi_f08 cosma libxs 
 CP2K|            libxsmm spglib openblas libdftd4 s_dftd3 mctc-lib tblite libvo
 CP2K|            ori libbqb
 CP2K| is freely available from                            https://www.cp2k.org/
 CP2K| Program compiled at                                   2026-09-18 06:02:26
 CP2K| Program compiled on                                              n2login6
 CP2K| Program compiled for                                               x86_64
 CP2K| Data directory path    /scratch/hpc-prf-metdyn/eprop2d1_Jan/53_benchmark_
 CP2K| Input file name                                                 input.inp
 
 eprop2d1@n2cn0881 has created rank and process                      0    527177
 eprop2d1@n2cn0881 has created rank and process                      1    527178
 eprop2d1@n2cn0881 has created rank and process                      2    527179
 eprop2d1@n2cn0881 has created rank and process                      3    527180
 eprop2d1@n2cn0881 has created rank and process                      4    527181
 eprop2d1@n2cn0881 has created rank and process                      5    527182
 eprop2d1@n2cn0881 has created rank and process                      6    527183
 eprop2d1@n2cn0881 has created rank and process                      7    527184
 eprop2d1@n2cn0881 has created rank and process                      8    527185
 eprop2d1@n2cn0881 has created rank and process                      9    527186
 eprop2d1@n2cn0881 has created rank and process                     10    527187
 eprop2d1@n2cn0881 has created rank and process                     11    527188
 eprop2d1@n2cn0881 has created rank and process                     12    527189
 eprop2d1@n2cn0881 has created rank and process                     13    527190
 eprop2d1@n2cn0881 has created rank and process                     14    527191
 eprop2d1@n2cn0881 has created rank and process                     15    527192
 
 eprop2d1@n2cn0881 is running                                       16 processes

 GLOBAL| Force Environment number                                              1
 GLOBAL| Basis set file name            /scratch/hpc-prf-metdyn/eprop2d1_Jan/53_
 GLOBAL| Potential file name            /scratch/hpc-prf-metdyn/eprop2d1_Jan/53_
 GLOBAL| MM Potential file name                                     MM_POTENTIAL
 GLOBAL| Coordinate file name                                      __STD_INPUT__
 GLOBAL| Method name                                                        CP2K
 GLOBAL| Project name                                          gw100_t1_70_CH3OH
 GLOBAL| Run type                                                         ENERGY
 GLOBAL| FFT library                                                       FFTW3
 GLOBAL| Diagonalization library                                       ScaLAPACK
 GLOBAL| Cholesky decomposition library                                ScaLAPACK
 GLOBAL| DGEMM library                                                      BLAS
 GLOBAL| Direct generalized diagonalization requested                          F
 GLOBAL| Orthonormality check for eigenvectors                          DISABLED
 GLOBAL| Matrix multiplication library                                     COSMA
 GLOBAL| All-to-all communication in single precision                          F
 GLOBAL| Grid backend                                                       AUTO
 GLOBAL| Global print level                                                  LOW
 GLOBAL| MPI I/O enabled                                                       T
 GLOBAL| Total number of message passing processes                            16
 GLOBAL| Number of distributed systems (nodes)                                 1
 GLOBAL| Number of threads for this process                                    8
 GLOBAL| This output is from process                                           0
 GLOBAL| OpenMP stack size per thread (OMP_STACKSIZE)                       128M
 GLOBAL| CPU model name                          AMD EPYC 7763 64-Core Processor
 GLOBAL| CPUID                                                              1002
 GLOBAL| Compiled for CPUID                                                    0

 *** HINT in environment.F:968 :: The compiler target (generic) used to ***
 *** build this binary does not enable all instruction-set extensions   ***
 *** available on this CPU (x86_avx2). Consider reconfiguring and       ***
 *** rebuilding CP2K for this target system to enable them.             ***


 MEMORY| system memory details [Kb]
 MEMORY|                        rank 0           min           max       average
 MEMORY| MemTotal            263897556     263897556     263897556     263897556
 MEMORY| MemFree             249566176     249566176     249566176     249566176
 MEMORY| Buffers                358456        358456        358456        358456
 MEMORY| Cached                6885624       6885624       6885624       6885624
 MEMORY| Slab                  1376324       1376324       1376324       1376324
 MEMORY| SReclaimable           270320        270320        270320        270320
 MEMORY| MemLikelyFree       257080576     257080576     257080576     257080576


 GENERATE|  Preliminary Number of Bonds generated:                             0
 GENERATE|  Achieved consistency in connectivity generation.

 *******************************************************************************
 *******************************************************************************
 **                                                                           **
 **     #####                         ##              ##                      **
 **    ##   ##            ##          ##              ##                      **
 **   ##     ##                       ##            ######                    **
 **   ##     ##  ##   ##  ##   #####  ##  ##   ####   ##    #####    #####    **
 **   ##     ##  ##   ##  ##  ##      ## ##   ##      ##   ##   ##  ##   ##   **
 **   ##  ## ##  ##   ##  ##  ##      ####     ###    ##   ######   ######    **
 **    ##  ###   ##   ##  ##  ##      ## ##      ##   ##   ##       ##        **
 **     #######   #####   ##   #####  ##  ##  ####    ##    #####   ##        **
 **           ##                                                    ##        **
 **                                                                           **
 **                                                ... make the atoms dance   **
 **                                                                           **
 **            Copyright (C) by CP2K developers group (2000-2026)             **
 **                      J. Chem. Phys. 152, 194103 (2020)                    **
 **                                                                           **
 *******************************************************************************


 TOTAL NUMBERS AND MAXIMUM NUMBERS

  Total number of            - Atomic kinds:                                   3
                             - Atoms:                                          6
                             - Shell sets:                                     6
                             - Shells:                                        54
                             - Primitive Cartesian functions:                 44
                             - Cartesian basis functions:                    160
                             - Spherical basis functions:                    142

  Maximum angular momentum of- Orbital basis functions:                        3
                             - Local part of the GTH pseudopotential:          2
                             - Non-local part of the GTH pseudopotential:      0


 SCF PARAMETERS         Density guess:                                    ATOMIC
                        --------------------------------------------------------
                        max_scf:                                             500
                        max_scf_history:                                       0
                        max_diis:                                              4
                        --------------------------------------------------------
                        eps_scf:                                        1.00E-08
                        eps_scf_history:                                0.00E+00
                        eps_diis:                                       1.00E-01
                        eps_eigval:                                     1.00E-05
                        --------------------------------------------------------
                        level_shift [a.u.]:                             0.000000
                        SCF update method:                                MIXING
                        added MOs                                       135    0
                        --------------------------------------------------------
                        Mixing method:                            BROYDEN_MIXING
                                                charge density mixing in g-space
                        --------------------------------------------------------
                        Outer loop SCF in use 
                        No variables optimised in outer loop
                        eps_scf                                         1.00E-08
                        max_scf                                               20
                        No outer loop optimization
                        step_size                                       5.00E-01
 
 RI-RPA| using GPW style
 

 Extrapolation method: initial_guess

 Number of electrons:                                                         14
 Number of occupied orbitals:                                                  7
 Number of molecular orbitals:                                               142

 Number of orbital functions:                                                142
 Number of independent orbital functions:                                    142


 SCF WAVEFUNCTION OPTIMIZATION

  Step     Update method      Time    Convergence         Total energy    Change
  ------------------------------------------------------------------------------
  Decoupling Energy:                                              -0.0000000240
     1 NoMix/Diag. 0.20E+00    0.8     1.32500232       -23.8009231910 -2.38E+01
  Decoupling Energy:                                               0.0000001664
     2 Broy./Diag. 0.20E+00    1.0     0.30739618       -21.2490606724  2.55E+00
  Decoupling Energy:                                               0.0000022383
     3 Broy./Diag. 0.20E+00    1.0     0.36050358       -22.8828307830 -1.63E+00
  Decoupling Energy:                                               0.0000043448
     4 Broy./Diag. 0.20E+00    1.0     0.08308460       -24.0135883412 -1.13E+00
  Decoupling Energy:                                               0.0000061317
     5 Broy./Diag. 0.20E+00    1.1     0.00832455       -24.0117321009  1.86E-03
  Decoupling Energy:                                               0.0000073605
     6 Broy./Diag. 0.20E+00    1.1     0.00861897       -24.0680731841 -5.63E-02
  Decoupling Energy:                                               0.0000080855
     7 Broy./Diag. 0.20E+00    1.1     0.00151691       -24.0634876034  4.59E-03
  Decoupling Energy:                                               0.0000098568
     8 Broy./Diag. 0.20E+00    1.1     0.00967430       -24.0687385861 -5.25E-03
  Decoupling Energy:                                               0.0000104661
     9 Broy./Diag. 0.20E+00    1.1     0.00170066       -24.0814954639 -1.28E-02
  Decoupling Energy:                                               0.0000114056
    10 Broy./Diag. 0.20E+00    1.1     0.00423733       -24.0861027579 -4.61E-03
  Decoupling Energy:                                               0.0000117253
    11 Broy./Diag. 0.20E+00    1.1     0.00208619       -24.0874637743 -1.36E-03
  Decoupling Energy:                                               0.0000119597
    12 Broy./Diag. 0.20E+00    1.1     0.00218754       -24.0895679421 -2.10E-03
  Decoupling Energy:                                               0.0000120249
    13 Broy./Diag. 0.20E+00    1.1     0.00118477       -24.0873043549  2.26E-03
  Decoupling Energy:                                               0.0000121016
    14 Broy./Diag. 0.20E+00    1.1     0.00125998       -24.0860651462  1.24E-03
  Decoupling Energy:                                               0.0000121402
    15 Broy./Diag. 0.20E+00    1.1     0.00031001       -24.0868641121 -7.99E-04
  Decoupling Energy:                                               0.0000121650
    16 Broy./Diag. 0.20E+00    1.1     0.00036681       -24.0872345190 -3.70E-04
  Decoupling Energy:                                               0.0000121812
    17 Broy./Diag. 0.20E+00    1.1     0.00019973       -24.0873657109 -1.31E-04
  Decoupling Energy:                                               0.0000122123
    18 Broy./Diag. 0.20E+00    1.1     0.00027442       -24.0872621405  1.04E-04
  Decoupling Energy:                                               0.0000122322
    19 Broy./Diag. 0.20E+00    1.1     0.00023552       -24.0871256257  1.37E-04
  Decoupling Energy:                                               0.0000122446
    20 Broy./Diag. 0.20E+00    1.1     0.00026492       -24.0870686907  5.69E-05
  Decoupling Energy:                                               0.0000122448
    21 Broy./Diag. 0.20E+00    1.1     0.00011476       -24.0872287428 -1.60E-04
  Decoupling Energy:                                               0.0000122405
    22 Broy./Diag. 0.20E+00    1.1     0.00023731       -24.0871282384  1.01E-04
  Decoupling Energy:                                               0.0000122370
    23 Broy./Diag. 0.20E+00    1.1     0.00005165       -24.0871237539  4.48E-06
  Decoupling Energy:                                               0.0000122301
    24 Broy./Diag. 0.20E+00    1.1     0.00009595       -24.0872095362 -8.58E-05
  Decoupling Energy:                                               0.0000122257
    25 Broy./Diag. 0.20E+00    1.1     0.00005641       -24.0871020801  1.07E-04
  Decoupling Energy:                                               0.0000122228
    26 Broy./Diag. 0.20E+00    1.1     0.00006132       -24.0870192838  8.28E-05
  Decoupling Energy:                                               0.0000122223
    27 Broy./Diag. 0.20E+00    1.1     0.00003251       -24.0870141039  5.18E-06
  Decoupling Energy:                                               0.0000122225
    28 Broy./Diag. 0.20E+00    1.1     0.00002499       -24.0870144273 -3.23E-07
  Decoupling Energy:                                               0.0000122243
    29 Broy./Diag. 0.20E+00    1.2     0.00004242       -24.0870318087 -1.74E-05
  Decoupling Energy:                                               0.0000122246
    30 Broy./Diag. 0.20E+00    1.2     0.00000285       -24.0870362204 -4.41E-06
  Decoupling Energy:                                               0.0000122253
    31 Broy./Diag. 0.20E+00    1.1     0.00000753       -24.0870340098  2.21E-06
  Decoupling Energy:                                               0.0000122255
    32 Broy./Diag. 0.20E+00    1.1     0.00001092       -24.0870338736  1.36E-07
  Decoupling Energy:                                               0.0000122256
    33 Broy./Diag. 0.20E+00    1.1     0.00001547       -24.0870349282 -1.05E-06
  Decoupling Energy:                                               0.0000122256
    34 Broy./Diag. 0.20E+00    1.1     0.00000374       -24.0870371408 -2.21E-06
  Decoupling Energy:                                               0.0000122255
    35 Broy./Diag. 0.20E+00    1.1     0.00000174       -24.0870380364 -8.96E-07
  Decoupling Energy:                                               0.0000122254
    36 Broy./Diag. 0.20E+00    1.1     0.00000194       -24.0870371943  8.42E-07
  Decoupling Energy:                                               0.0000122253
    37 Broy./Diag. 0.20E+00    1.1     0.00000153       -24.0870369231  2.71E-07
  Decoupling Energy:                                               0.0000122253
    38 Broy./Diag. 0.20E+00    1.1     0.00000172       -24.0870376441 -7.21E-07
  Decoupling Energy:                                               0.0000122253
    39 Broy./Diag. 0.20E+00    1.1     0.00000218       -24.0870372373  4.07E-07
  Decoupling Energy:                                               0.0000122253
    40 Broy./Diag. 0.20E+00    1.1     0.00000122       -24.0870369721  2.65E-07
  Decoupling Energy:                                               0.0000122252
    41 Broy./Diag. 0.20E+00    1.1     0.00000099       -24.0870368404  1.32E-07
  Decoupling Energy:                                               0.0000122252
    42 Broy./Diag. 0.20E+00    1.1     0.00000020       -24.0870368475 -7.12E-09
  Decoupling Energy:                                               0.0000122252
    43 Broy./Diag. 0.20E+00    1.1     0.00000051       -24.0870369027 -5.52E-08
  Decoupling Energy:                                               0.0000122252
    44 Broy./Diag. 0.20E+00    1.1     0.00000011       -24.0870368840  1.87E-08
  Decoupling Energy:                                               0.0000122252
    45 Broy./Diag. 0.20E+00    1.1     0.00000010       -24.0870368718  1.21E-08
  Decoupling Energy:                                               0.0000122252
    46 Broy./Diag. 0.20E+00    1.1     0.00000005       -24.0870368695  2.39E-09
  Decoupling Energy:                                               0.0000122252
    47 Broy./Diag. 0.20E+00    1.1     0.00000007       -24.0870368742 -4.70E-09
  Decoupling Energy:                                               0.0000122252
    48 Broy./Diag. 0.20E+00    1.1     0.00000006       -24.0870368812 -7.09E-09
  Decoupling Energy:                                               0.0000122252
    49 Broy./Diag. 0.20E+00    1.1     0.00000003       -24.0870368775  3.72E-09
  Decoupling Energy:                                               0.0000122252
    50 Broy./Diag. 0.20E+00    1.1     0.00000005       -24.0870368746  2.91E-09
  Decoupling Energy:                                               0.0000122252
    51 Broy./Diag. 0.20E+00    1.1     0.00000003       -24.0870368816 -6.99E-09
  Decoupling Energy:                                               0.0000122252
    52 Broy./Diag. 0.20E+00    1.1     0.00000001       -24.0870368845 -2.91E-09
  Decoupling Energy:                                               0.0000122252
    53 Broy./Diag. 0.20E+00    1.1     0.00000001       -24.0870368787  5.77E-09
  Decoupling Energy:                                               0.0000122252
    54 Broy./Diag. 0.20E+00    1.1     0.00000002       -24.0870368752  3.53E-09
  Decoupling Energy:                                               0.0000122252
    55 Broy./Diag. 0.20E+00    1.1     0.00000001       -24.0870368777 -2.46E-09
  Decoupling Energy:                                               0.0000122252
    56 Broy./Diag. 0.20E+00    1.1     5.0657E-09       -24.0870368817 -4.06E-09

  *** SCF run converged in    56 steps ***


  Electronic density on regular grids:        -14.0000000000        0.0000000000
  Core density on regular grids:               14.0000000000       -0.0000000000
  Total charge density on r-space grids:       -0.0000000000
  Total charge density g-space grids:          -0.0000000000

  Overlap energy of the core charge distribution:               0.00000090293764
  Self energy of the core charge distribution:                -60.50311084124164
  Core Hamiltonian energy:                                     18.13461533602342
  Hartree energy:                                              24.98643600752099
  Exchange-correlation energy:                                 -6.70497828697856

  Total energy:                                               -24.08703688173816

  outer SCF iter =    1 RMS gradient =   0.51E-08 energy =        -24.0870368817
  outer SCF loop converged in   1 iterations or   56 steps



 RI-RPA section
 --------------

  Used number of processes per group:                                          8
  Maximum allowed memory usage per MPI process:                      6000.00 MiB
  Decoupling Energy:                                               0.0000122252
  RI_INFO| Cholesky decomposition group size:                                  8
  RI_INFO| Number of groups for auxiliary basis functions                      2

  RI_INFO| RI metric:                                                    COULOMB
  RI_INFO| Number of auxiliary basis functions:                              369
  GENERAL_INFO| Number of basis functions:                                   142
  GENERAL_INFO| Number of occupied orbitals:                                   7
  GENERAL_INFO| Number of virtual orbitals:                                  135
  RI_INFO| Total memory for (ia|K) integrals:                           2.66 MiB
  RI_INFO| Total memory for G0W0-(nm|K) integrals:                      6.80 MiB
  RI_INFO| Minimum required memory per MPI process:                     0.99 MiB
  RI_INFO| Available memory per MPI process:                         2008.00 MiB
  RI_INFO| Group size for frequency integration:                               8
  INTEG_INFO| Clenshaw-Curtius quadrature
  INTEG_INFO| Number of integration points:                                   30
  INTEG_INFO| Max. number of integration points per RPA group:                15
  MATRIX_INFO| Number row processes:                                           2
  MATRIX_INFO| Number column processes:                                        4
  MATRIX_INFO| Row block size:                                                92
  MATRIX_INFO| Column block size:                                            118
  INTEG_INFO| Scaling parameter:                                         0.20000
  INTEG_INFO| Started with Integration point   2 of  30
  INTEG_INFO| Started with Integration point   4 of  30
  INTEG_INFO| Started with Integration point   6 of  30
  INTEG_INFO| Started with Integration point   8 of  30
  INTEG_INFO| Started with Integration point  10 of  30
  INTEG_INFO| Started with Integration point  12 of  30
  INTEG_INFO| Started with Integration point  14 of  30
  INTEG_INFO| Started with Integration point  16 of  30
  INTEG_INFO| Started with Integration point  18 of  30
  INTEG_INFO| Started with Integration point  20 of  30
  INTEG_INFO| Started with Integration point  22 of  30
  INTEG_INFO| Started with Integration point  24 of  30
  INTEG_INFO| Started with Integration point  26 of  30
  INTEG_INFO| Started with Integration point  28 of  30
  INTEG_INFO| Started with Integration point  30 of  30
  PERFORMANCE| Average DGEMM flop rate (Gflops / MPI rank):                12.16
  
  
  ******************************************************************************
  **                                                                          **
  **                        GW QUASIPARTICLE ENERGIES                         **
  **                                                                          **
  ******************************************************************************
   
   
  The GW quasiparticle energies are calculated according to: 
   
                      E_GW = E_SCF + Sigc(E_GW) + Sigx - vxc 
   
  Upper equation is solved self-consistently for E_GW, see Eq. (12) in J. Phys.
  Chem. Lett. 9, 306 (2018), doi: 10.1021/acs.jpclett.7b02740
  
  
  ------------
  G0W0 results
  ------------
   
  Molecular orbital   E_SCF (eV)       Sigc (eV)   Sigx-vxc (eV)       E_GW (eV)
     1 ( occ )          -25.5675          5.1739        -11.8382        -32.2318
     2 ( occ )          -16.9107          4.2750         -8.2869        -20.9227
     3 ( occ )          -12.5531          2.2102         -6.2801        -16.6230
     4 ( occ )          -10.6430          1.8363         -5.9684        -14.7751
     5 ( occ )          -10.3249          1.6463         -5.7096        -14.3882
     6 ( occ )           -7.9958          1.7464         -5.8479        -12.0972
     7 ( occ )           -6.3424          2.2101         -6.1285        -10.2609
     8 ( vir )           -0.6114         -0.6197          2.3268          1.0958
     9 ( vir )           -0.0285         -0.5214          1.9849          1.4350
    10 ( vir )            0.5207         -0.2578          1.1816          1.4445
    11 ( vir )            0.5843         -0.2850          1.2648          1.5641
    12 ( vir )            1.6003         -0.4838          1.7657          2.8822
    13 ( vir )            1.7777         -0.4531          1.9636          3.2882
    14 ( vir )            2.0143         -0.4184          1.9480          3.5440
    15 ( vir )            2.2394         -0.4121          1.7720          3.5992
    16 ( vir )            2.4851         -0.3800          1.6696          3.7747
    17 ( vir )            2.5766         -0.3163          1.6638          3.9240
   
  G0W0 HOMO-LUMO gap (eV)                                                11.3566
  
  ------------------------------------------------------------------------------

  Total RI-RPA Time=                                                    0.886173


 ENERGY| Total FORCE_EVAL ( QS ) energy [hartree]            -24.087036881738157

 -------------------------------------------------------------------------------
 -                                                                             -
 -                                DBCSR STATISTICS                             -
 -                                                                             -
 -------------------------------------------------------------------------------
 COUNTER                                    TOTAL       BLAS       SMM       ACC
 flops    13 x    45 x    13               243360       0.0%    100.0%      0.0%     
 flops    13 x    26 x    26               281216       0.0%    100.0%      0.0%     
 flops    45 x    45 x    13               421200       0.0%    100.0%      0.0%     
 flops    13 x    26 x    45               486720       0.0%    100.0%      0.0%     
 flops    13 x    45 x    26               486720       0.0%    100.0%      0.0%     
 flops    45 x    26 x    26               486720       0.0%    100.0%      0.0%     
 flops    45 x    45 x    26               842400       0.0%    100.0%      0.0%     
 flops    45 x    26 x    45               842400       0.0%    100.0%      0.0%     
 flops    13 x    45 x    45              1263600       0.0%    100.0%      0.0%     
 flops     7 x     7 x    13              1880424       0.0%    100.0%      0.0%     
 flops    45 x    45 x    45              2187000       0.0%    100.0%      0.0%     
 flops     7 x     7 x    45              3254580       0.0%    100.0%      0.0%     
 flops    13 x    13 x    46              8706880       0.0%    100.0%      0.0%     
 flops    17 x    14 x    13              9133488       0.0%    100.0%      0.0%     
 flops    13 x    45 x    46             12055680       0.0%    100.0%      0.0%     
 flops    45 x    13 x    46             12055680       0.0%    100.0%      0.0%     
 flops    13 x     7 x    13             13968864       0.0%    100.0%      0.0%     
 flops    17 x    14 x    45             15807960       0.0%    100.0%      0.0%     
 flops    13 x    13 x    32             18170880       0.0%    100.0%      0.0%     
 flops    45 x     7 x    13             24176880       0.0%    100.0%      0.0%     
 flops    13 x     7 x    45             24176880       0.0%    100.0%      0.0%     
 flops    13 x    45 x    32             25159680       0.0%    100.0%      0.0%     
 flops    45 x    13 x    32             25159680       0.0%    100.0%      0.0%     
 flops    45 x    45 x    46             31298400       0.0%    100.0%      0.0%     
 flops    13 x    17 x    13             33924384       0.0%    100.0%      0.0%     
 flops     7 x    32 x    13             34384896       0.0%    100.0%      0.0%     
 flops    45 x     7 x    45             41844600       0.0%    100.0%      0.0%     
 flops    45 x    17 x    13             58715280       0.0%    100.0%      0.0%     
 flops    13 x    17 x    45             58715280       0.0%    100.0%      0.0%     
 flops     7 x    32 x    45             59512320       0.0%    100.0%      0.0%     
 flops    45 x    45 x    32             65318400       0.0%    100.0%      0.0%     
 flops    17 x    32 x    13             83506176       0.0%    100.0%      0.0%     
 flops    45 x    17 x    45            101622600       0.0%    100.0%      0.0%     
 flops    17 x    32 x    45            144529920       0.0%    100.0%      0.0%     
 flops inhomo. stacks                           0       0.0%      0.0%      0.0%
 flops total                       914.621148E+06       0.0%    100.0%      0.0%
 flops max/rank                    201.696800E+06       0.0%    100.0%      0.0%
 matmuls inhomo. stacks                         0       0.0%      0.0%      0.0%
 matmuls total                              53544       0.0%    100.0%      0.0%
 number of processed stacks                 36624       0.0%    100.0%      0.0%
 average stack size                                     0.0       1.5       0.0
 marketing flops                   726.328320E+06
 -------------------------------------------------------------------------------
 # multiplications                            798
 max memory usage/rank              21.552304E+09
 # max total images/rank                        2
 # max 3D layers                                1
 # MPI messages exchanged                   64608
 MPI messages size (bytes):
  total size                       569.306368E+06
  min size                           0.000000E+00
  max size                          32.400000E+03
  average size                       8.811701E+03
 MPI breakdown and total messages size (bytes):
             size <=      128               17748                        0
       128 < size <=     8192               19026                 89314272
      8192 < size <=    32768               27834                479992128
     32768 < size <=   131072                   0                        0
    131072 < size <=  4194304                   0                        0
   4194304 < size <= 16777216                   0                        0
  16777216 < size                               0                        0
 -------------------------------------------------------------------------------

 *** WARNING in dbcsr_mm.F:301 :: Using a non-square number of MPI ranks ***
 *** might lead to poor performance. Used ranks: 8 Suggested: 9 16       ***

 -------------------------------------------------------------------------------
 -                                                                             -
 -                      DBCSR MESSAGE PASSING PERFORMANCE                      -
 -                                                                             -
 -------------------------------------------------------------------------------
 ROUTINE             CALLS      AVE VOLUME [Bytes]
 MP_Bcast               35                     12.
 MP_Allreduce         3335                      8.
 MP_Alltoall          7564                   2714.
 MP_ISend            12028                   5194.
 MP_IRecv            11288                   4825.
 -------------------------------------------------------------------------------

 -------------------------------------------------------------------------------
 -                                                                             -
 -                                DBM STATISTICS                               -
 -                                                                             -
 -------------------------------------------------------------------------------
    M  x    N  x    K                                          COUNT     PERCENT
    ?  x    ?  x    ?                                          11552      50.14%
   ??  x   ??  x   ??                                           5808      25.21%
    ?  x   ??  x   ??                                           3872      16.81%
   ??  x    ?  x   ??                                            528       2.29%
   ??  x   ??  x    ?                                            528       2.29%
    ?  x    ?  x   ??                                            352       1.53%
    ?  x   ??  x    ?                                            352       1.53%
   ??  x    ?  x    ?                                             48       0.21%
 -------------------------------------------------------------------------------

 -------------------------------------------------------------------------------
 -                                                                             -
 -                                GRID STATISTICS                              -
 -                                                                             -
 -------------------------------------------------------------------------------
 LP    KERNEL             BACKEND                              COUNT     PERCENT
 4     collocate ortho    CPU                                   2907      17.95%
 4     integrate ortho    CPU                                   2907      17.95%
 2     collocate ortho    CPU                                   2622      16.19%
 2     integrate ortho    CPU                                   2622      16.19%
 6     collocate ortho    CPU                                   2565      15.84%
 6     integrate ortho    CPU                                   2565      15.84%
 0     collocate general  CPU                                      6       0.04%
 -------------------------------------------------------------------------------

 -------------------------------------------------------------------------------
 -                                                                             -
 -                          OFFLOAD MEMPOOL STATISTICS                         -
 -                                                                             -
 -------------------------------------------------------------------------------
 Memory consumption                Number of allocations  Used [MiB]  Size [MiB]
 Host                                                165          75    21982859
 -------------------------------------------------------------------------------

 MEMORY| Estimated peak process memory [MiB]                                2063

 -------------------------------------------------------------------------------
 -                                                                             -
 -                         MESSAGE PASSING PERFORMANCE                         -
 -                                                                             -
 -------------------------------------------------------------------------------

 ROUTINE             CALLS      AVE VOLUME [Bytes]
 MP_Group               77
 MP_Bcast              432                 232905.
 MP_Allreduce         1250                   3204.
 MP_Sync               134
 MP_Alltoall          1162               65998546.
 MP_SendRecv          6976                  84354.
 MP_ISendRecv         1710                 337600.
 MP_Wait              7013
 MP_comm_split          86
 MP_ISend             4876                1358772.
 MP_IRecv             4782                1385458.
 -------------------------------------------------------------------------------


 -------------------------------------------------------------------------------
 -                                                                             -
 -                           R E F E R E N C E S                               -
 -                                                                             -
 -------------------------------------------------------------------------------
 
 CP2K version 2026.2 (Development Version), the CP2K developers group (2026).
 CP2K is freely available from https://www.cp2k.org/ .
 
 M. Iannuzzi, J. Wilhelm, F. Stein, A. Bussy, H. Elgabarty, D. Golze, A. Hehn, 
 M. Graml, S. Marek, B. Sertcan Gökmen, C. Schran, H. Forbert, R. Z. 
 Khaliullin, A. Kozhevnikov, M. Taillefumier, R. Meli, V. V. Rybkin, M. Brehm, 
 R. Schade, O. Schütt, J. V. Pototschnig, H. Mirhosseini, A. Knüpfer, D. Marx, 
 M. Krack, J. Hutter, T. D. Kühne.
 J. Phys. Chem. B 130, 1237-1310 (2026).
 The CP2K Program Package Made Simple.
 https://doi.org/10.1021/acs.jpcb.5c05851

 T. D. Kühne, M. Iannuzzi, M. Del Ben, V. V. Rybkin, P. Seewald, F. Stein, T. 
 Laino, R. Z. Khaliullin, O. Schütt, F. Schiffmann, D. Golze, J. Wilhelm, S. 
 Chulkov, M. H. Bani-Hashemian, V. Weber, U. Borstnik, M. Taillefumier, A. S. 
 Jakobovits, A. Lazzaro, H. Pabst, T. Müller, R. Schade, M. Guidon, S. 
 Andermatt, N. Holmberg, G. K. Schenter, A. Hehn, A. Bussy, F. Belleflamme, G. 
 Tabacchi, A. Glöß, M. Lass, I. Bethune, C. J. Mundy, C. Plessl, M. Watkins, 
 J. VandeVondele, M. Krack, J. Hutter.
 J. Chem. Phys. 152, 194103 (2020).
 CP2K: An electronic structure and molecular dynamics software package - 
 Quickstep: Efficient and accurate electronic structure calculations.
 https://doi.org/10.1063/5.0007045

 J. Wilhelm, D. Golze, L. Talirz, J. Hutter, C. A. Pignedoli.
 J. Phys. Chem. Lett. 9, 306-312 (2018).
 Toward GW calculations on thousands of atoms.
 https://doi.org/10.1021/acs.jpclett.7b02740

 J. Wilhelm, J. Hutter.
 Phys. Rev. B 95, 235123 (2017).
 Periodic GW calculations in the Gaussian and plane-waves scheme.
 https://doi.org/10.1103/PhysRevB.95.235123

 O. Schuett, P. Messmer, J. Hutter, J. VandeVondele.
 Electronic Structure Calculations on Graphics Processing Units, 173-190 (2016).
 GPU-Accelerated Sparse Matrix-Matrix Multiplication for Linear Scaling Density 
 Functional Theory.
 https://doi.org/10.1002/9781118670712.ch8

 J. Wilhelm, M. Del Ben, J. Hutter.
 J. Chem. Theory Comput. 12, 3623-3635 (2016).
 GW in the Gaussian and plane waves scheme with application to linear acenes.
 https://doi.org/10.1021/acs.jctc.6b00380

 A. Heinecke, G. Henry, M. Hutchinson, H. Pabst.
 Proceedings of Intl. Supercomputing Conference, 981-991 (2016).
 LIBXSMM: Accelerating Small Matrix Multiplications by Runtime Code Generation.
 https://doi.org/10.1109/SC.2016.83

 M. Del Ben, O. Schuett, T. Wentz, P. Messmer, J. Hutter, J. VandeVondele.
 Comput. Phys. Commun. 187, 120-129 (2015).
 Enabling simulation at the fifth rung of DFT: Large scale RPA calculations with 
 excellent time to solution.
 https://doi.org/10.1016/j.cpc.2014.10.021

 U. Borstnik, J. VandeVondele, V. Weber, J. Hutter.
 Parallel Comput. 40, 47-58 (2014).
 Sparse matrix multiplication: The distributed block-compressed sparse row 
 library.
 https://doi.org/10.1016/j.parco.2014.03.012

 M. Del Ben, J. Hutter, J. VandeVondele.
 J. Chem. Theory Comput. 9, 2654-2671 (2013).
 Electron Correlation in the Condensed Phase from a Resolution of Identity 
 Approach Based on the Gaussian and Plane Waves Scheme.
 https://doi.org/10.1021/ct4002202

 M. Del Ben, J. Hutter, J. VandeVondele.
 J. Chem. Theory Comput. 8, 4177-4188 (2012).
 Second-Order Moller-Plesset Perturbation Theory in the Condensed Phase: An 
 Efficient and Massively Parallel Gaussian and Plane Waves Approach.
 https://doi.org/10.1021/ct300531w

 M. Guidon, J. Hutter, J. VandeVondele.
 J. Chem. Theory Comput. 5, 3010-3021 (2009).
 Robust Periodic Hartree-Fock Exchange for Large-Scale Simulations Using 
 Gaussian Basis Sets.
 https://doi.org/10.1021/ct900494g

 M. Guidon, F. Schiffmann, J. Hutter, J. VandeVondele.
 J. Chem. Phys. 128, 214104 (2008).
 Ab initio molecular dynamics using hybrid density functionals.
 https://doi.org/10.1063/1.2931945

 J. VandeVondele, J. Hutter.
 J. Chem. Phys. 127, 114105 (2007).
 Gaussian basis sets for accurate calculations on molecular systems in gas and 
 condensed phases.
 https://doi.org/10.1063/1.2770708

 J. VandeVondele, M. Krack, F. Mohamed, M. Parrinello, T. Chassaing, J. Hutter.
 Comput. Phys. Commun. 167, 103-128 (2005).
 QUICKSTEP: Fast and accurate density functional calculations using a mixed 
 Gaussian and plane waves approach.
 https://doi.org/10.1016/j.cpc.2004.12.014

 M. Krack.
 Theor. Chem. Acc. 114, 145-152 (2005).
 Pseudopotentials for H to Kr optimized for gradient-corrected 
 exchange-correlation functionals.
 https://doi.org/10.1007/s00214-005-0655-y

 M. Frigo, S. G. Johnson.
 Proc. IEEE 93, 216-231 (2005).
 The design and implementation of FFTW3.
 https://doi.org/10.1109/JPROC.2004.840301

 C. Hartwigsen, S. Goedecker, J. Hutter.
 Phys. Rev. B 58, 3641-3662 (1998).
 Relativistic separable dual-space Gaussian pseudopotentials from H to Rn.
 https://doi.org/10.1103/PhysRevB.58.3641

 G. Lippert, J. Hutter, M. Parrinello.
 Mol. Phys. 92, 477-487 (1997).
 A hybrid Gaussian and plane wave density functional scheme.
 https://doi.org/10.1080/002689797170220

 S. Goedecker, M. Teter, J. Hutter.
 Phys. Rev. B 54, 1703-1710 (1996).
 Separable dual-space Gaussian pseudopotentials.
 https://doi.org/10.1103/PhysRevB.54.1703

 J. P. Perdew, K. Burke, M. Ernzerhof.
 Phys. Rev. Lett. 77, 3865-3868 (1996).
 Generalized gradient approximation made simple.
 https://doi.org/10.1103/PhysRevLett.77.3865

 P. E. Blöchl.
 J. Chem. Phys. 103, 7422-7428 (1995).
 Electrostatic decoupling of periodic images of plane‐wave‐expanded 
 densities and derived atomic point charges.
 https://doi.org/10.1063/1.470314

 C. G. Broyden.
 Math. Comput. 19, 577-593 (1965).
 A class of methods for solving nonlinear simultaneous equations.
 https://doi.org/10.1090/S0025-5718-1965-0198670-6


 -------------------------------------------------------------------------------
 -                                                                             -
 -                                T I M I N G                                  -
 -                                                                             -
 -------------------------------------------------------------------------------
 SUBROUTINE                       CALLS  ASD         SELF TIME        TOTAL TIME MAXRANK
                                MAXIMUM       AVERAGE  MAXIMUM  AVERAGE  MAXIMUM
 CP2K                                 1  1.0    0.082    0.104   65.696   65.696       0
 qs_energies                          1  2.0    0.025    0.025   64.835   64.836       4
 scf_env_do_scf                       1  3.0    0.003    0.004   62.923   62.924      14
 scf_env_do_scf_inner_loop           56  4.0    0.007    0.009   62.920   62.920       0
 qs_ks_build_kohn_sham_matrix        57  7.0    0.030    0.037   37.243   37.307       3
 qs_ks_update_qs_env                 56  5.0    0.002    0.002   37.034   37.097      10
 rebuild_ks_matrix                   56  6.0    0.000    0.001   37.028   37.092      13
 fft_wrap_pw1pw2                   1018 10.1    0.022    0.025   30.152   30.784      10
 fft_wrap_pw1pw2_300                676 11.4    1.651    1.680   29.098   29.678      10
 qs_vxc_create                       57  8.0    0.003    0.003   24.719   24.813      11
 xc_vxc_pw_create                    56  9.0    0.528    0.569   24.716   24.809       7
 fft3d_ps                          1018 12.1   12.023   12.356   21.541   22.237      13
 xc_pw_derive                       336 11.0    0.003    0.003   17.594   18.339       4
 qs_rho_update_rho_low               57  5.0    0.000    0.001   14.935   14.937      11
 calculate_rho_elec                  57  6.0    0.365    0.371   14.934   14.936       9
 xc_rho_set_and_dset_create          56 10.0    0.437    0.486   12.095   12.562       3
 xc_pw_divergence                    56 10.0    0.002    0.002   11.765   12.481       2
 gspace_mixing                       55  5.0    0.349    0.354   10.750   10.750      12
 broyden_mixing                      55  6.0    7.911    7.951    8.017    8.025      15
 mp_alltoall_z22v                  1018 14.1    6.456    7.810    6.456    7.810      14
 density_rs2pw                       57  7.0    0.003    0.003    7.486    7.618       0
 grid_collocate_task_list            57  7.0    6.957    7.048    6.957    7.048       6
 sum_up_and_integrate                57  8.0    0.008    0.008    5.713    5.782      14
 integrate_v_rspace                  57  9.0    0.003    0.003    5.599    5.670       6
 x_to_yz                            564 13.3    1.585    1.676    5.311    5.461      13
 potential_pw2rs                     57 10.0    0.013    0.015    5.330    5.339       1
 yz_to_x                            454 12.8    1.442    1.515    4.172    5.231       4
 qs_ks_ddapc                         57  8.0    0.001    0.002    3.386    3.432      13
 pw_derive                          507 11.3    3.067    3.098    3.067    3.098      10
 pw_poisson_solve                    57  8.0    0.006    0.007    2.917    2.940      10
 xc_functional_eval                  56 11.0    0.001    0.005    2.501    2.926      10
 pbe_lda_eval                        56 12.0    2.500    2.925    2.500    2.925       5
 pw_scatter_p                       564 12.3    2.793    2.826    2.793    2.826      15
 pw_copy                            908 10.5    2.612    2.646    2.612    2.646       4
 transfer_pw2rs                     228 11.0    0.002    0.003    2.316    2.320      10
 pw_gather_p                        454 11.8    1.886    2.016    1.886    2.016       5
 transfer_rs2pw                     229  8.0    0.004    0.004    1.741    1.833      10
 mp_waitany                        4580 11.5    1.658    1.758    1.658    1.758      14
 pw_poisson_set                      58  8.9    0.001    0.001    1.687    1.710      13
 transfer_pw2rs_300                  57 12.0    0.597    0.624    1.449    1.488       0
 pw_copy_from_array                 564 12.3    1.231    1.303    1.231    1.303       8
 pw_integral_ab_c1d_c1d_gs          114  9.5    1.138    1.155    1.207    1.218      11
 transfer_rs2pw_300                  58  9.0    0.512    0.544    1.095    1.203      11
 pw_axpy                            575  9.2    1.161    1.182    1.161    1.182      12
 mp2_main                             1  3.0    0.003    0.004    1.143    1.143       0
 pw_copy_to_array                   454 11.8    0.958    0.990    0.958    0.990       9
 fft_wrap_pw1pw2_100                114 10.5    0.057    0.069    0.820    0.920       4
 cp_ddapc_apply_CD                   57  9.0    0.008    0.010    0.878    0.896       0
 mp2_gpw_main                         1  4.0    0.016    0.017    0.886    0.886      12
 mp_sum_d                          1114  5.5    0.441    0.761    0.441    0.761       2
 mp2_ri_gpw_compute_in                1  5.0    0.002    0.002    0.724    0.725       0
 mp2_ri_gpw_compute_in_loop           1  6.0    0.008    0.008    0.680    0.680      11
 transfer_pw2rs_100                  57 12.0    0.120    0.128    0.541    0.586       2
 qs_scf_new_mos                      56  5.0    0.003    0.003    0.474    0.553       2
 init_scf_run                         1  3.0    0.001    0.001    0.538    0.538      10
 scf_env_initial_rho_setup            1  4.0    0.001    0.001    0.521    0.521      15
 pw_zero                            300  9.9    0.466    0.487    0.466    0.487       9
 transfer_rs2pw_100                  57  9.0    0.145    0.153    0.376    0.405      10
 mp_waitall_1                     34783 12.3    0.336    0.383    0.336    0.383       2
 qs_init_subsys                       1  2.0    0.017    0.018    0.366    0.366       6
 dbcsr_multiply_generic             798  8.0    0.016    0.017    0.352    0.357       0
 qs_env_setup                         1  3.0    0.002    0.003    0.333    0.333      15
 qs_env_rebuild_pw_env                2  3.5    0.000    0.001    0.327    0.327       8
 pw_env_rebuild                       1  5.0    0.007    0.007    0.326    0.326      10
 grid_integrate_task_list            57 10.0    0.189    0.324    0.189    0.324       5
 rs_grid_zero                       115 12.9    0.313    0.320    0.313    0.320      14
 eigensolver                         57  6.0    0.002    0.002    0.303    0.304       9
 pw_grid_setup                        5  5.2    0.001    0.001    0.293    0.294       6
 pw_grid_setup_internal               5  6.2    0.007    0.007    0.292    0.292       7
 get_ddapc                           57 10.0    0.001    0.002    0.259    0.277      11
 transfer_pw2rs_40                   57 12.0    0.097    0.103    0.258    0.273      14
 cp_fm_syevd                         57  7.0    0.000    0.001    0.267    0.269       4
 copy_dbcsr_to_fm                   431  7.7    0.004    0.005    0.179    0.263       3
 pw_scale                           225  9.7    0.225    0.257    0.225    0.257      11
 pw_grid_sort                         5  7.2    0.176    0.177    0.248    0.250       3
 cp_fm_redistribute_end              57  8.0    0.128    0.247    0.128    0.247      10
 create_qs_kind_set                   1  2.0    0.001    0.001    0.239    0.239      13
 compute_vec_Sigma_x_minus_vxc_       1  4.0    0.012    0.013    0.238    0.238      13
 read_qs_kind                         3  3.0    0.088    0.092    0.238    0.238       0
 cp_fm_syevd_base                    57  8.0    0.118    0.237    0.118    0.237       2
 transfer_rs2pw_40                   57  9.0    0.076    0.079    0.209    0.220      15
 mp_alltoall_d11v                  3042 10.2    0.092    0.213    0.092    0.213      11
 pw_multiply_with                    57  9.0    0.203    0.210    0.203    0.210      10
 rs_gather_matrices                  57 10.0    0.001    0.002    0.077    0.206       5
 qs_energies_init_hamiltonians        1  3.0    0.004    0.004    0.195    0.195       4
 fft_wrap_pw1pw2_40                 114 10.5    0.011    0.011    0.170    0.193       4
 mp_sendrecv_dv                    1710 10.0    0.170    0.184    0.170    0.184       0
 dbcsr_desymmetrize_deep            432  8.7    0.005    0.005    0.090    0.174       0
 mixing_init                          1  5.0    0.169    0.171    0.171    0.171       9
 qs_env_update_s_mstruct              1  4.0    0.001    0.001    0.158    0.167       4
 mp_alltoall_i22                    976  9.7    0.081    0.167    0.081    0.167       4
 contract_B_L                         2  7.0    0.029    0.032    0.150    0.159       1
 parser_read_line                 43879  4.0    0.008    0.008    0.150    0.151       4
 ao_to_mo_and_store_B_mult_gw_1     185  7.0    0.000    0.000    0.147    0.150       2
 ao_to_mo_and_store_B_mult_1        185  7.0    0.000    0.000    0.148    0.149       6
 multiply_cannon                    798  9.0    0.034    0.035    0.142    0.146       7
 parser_read_line_low                49  5.0    0.007    0.071    0.142    0.143       0
 broadcast_input_information         49  6.0    0.021    0.023    0.135    0.141      11
 mp2_eri_3c_integrate                 1  7.0    0.004    0.010    0.127    0.136       7
 rpa_ri_compute_en                    1  5.0    0.002    0.003    0.135    0.135       0
 make_m2s                          1596  9.0    0.007    0.007    0.132    0.134       1
 integrate_set_3c                   310  8.0    0.037    0.101    0.048    0.133       9
 calculate_rho_core                   1  5.0    0.010    0.020    0.117    0.126       4
 rpa_num_int                          1  6.0    0.003    0.007    0.116    0.116       0
 make_images                       1596 10.0    0.018    0.020    0.111    0.113       9
 mp_sum_i                             9  9.6    0.075    0.111    0.075    0.111      14
 dbcsr_complete_redistribute        544  8.8    0.015    0.015    0.093    0.095      15
 dbt_total                            4  8.0    0.000    0.001    0.092    0.092       7
 dbt_contract                         2  9.0    0.004    0.004    0.088    0.088       6
 mp_bcast_i_src                     196  7.0    0.077    0.087    0.077    0.087       9
 multiply_cannon_loop               798 10.0    0.013    0.013    0.076    0.081       7
 calculate_dm_sparse                 56  6.0    0.000    0.001    0.077    0.078       8
 mp_sum_dm                           60  7.1    0.046    0.078    0.046    0.078       6
 cp_dbcsr_plus_fm_fm_t               56  7.0    0.001    0.001    0.077    0.078      12
 sort_shells                          5  8.2    0.073    0.074    0.073    0.074       3
 transfer_pw2rs_20                   57 12.0    0.025    0.027    0.066    0.072      14
 xc_pw_smooth                        56 10.0    0.000    0.000    0.055    0.067       2
 -------------------------------------------------------------------------------

 The number of warnings for this run is : 1
 
 -------------------------------------------------------------------------------
  **** **** ******  **  PROGRAM ENDED AT                 2026-09-18 13:04:06.148
 ***** ** ***  *** **   PROGRAM RAN ON                                  n2cn0881
 **    ****   ******    PROGRAM RAN BY                                  eprop2d1
 ***** **    ** ** **   PROGRAM PROCESS ID                                527177
  **** **  *******  **  PROGRAM STOPPED IN /scratch/hpc-prf-metdyn/eprop2d1_Jan/
                                           53_benchmark_RI_opt/139_GW100_augTZVP
                                           _T1_N4_reference_coopfst/calculations
                                           /70_CH3OH
