 DBCSR| CPU Multiplication driver                                           XSMM (U)
 DBCSR| Multrec recursion limit                                              512 (U)
 DBCSR| Multiplication stack size                                           1000 (D)
 DBCSR| Maximum elements for images                                    UNLIMITED (U)
 DBCSR| Multiplicative factor virtual images                                   1 (U)
 DBCSR| Use multiplication densification                                       T (D)
 DBCSR| Multiplication size stacks                                             3 (U)
 DBCSR| Use memory pool for CPU allocation                                     F (U)
 DBCSR| Number of 3D layers                                               SINGLE (U)
 DBCSR| Use MPI memory allocation                                              F (U)
 DBCSR| Use RMA algorithm                                                      F (U)
 DBCSR| Use Communication thread                                               T (U)
 DBCSR| Communication thread load                                             64 (D)
 DBCSR| MPI: My process id                                                    12
 DBCSR| MPI: Number of processes                                              17
 DBCSR| OMP: Current number of threads                                         7
 DBCSR| OMP: Max number of threads                                             7
 DBCSR| Split modifier for TAS multiplication algorithm                  1.0E+00 (U)


  **** **** ******  **  PROGRAM STARTED AT               2026-10-03 12:20:13.403
 ***** ** ***  *** **   PROGRAM STARTED ON                              n2cn0531
 **    ****   ******    PROGRAM STARTED BY                              eprop2d1
 ***** **    ** ** **   PROGRAM PROCESS ID                                659225
  **** **  *******  **  PROGRAM STARTED IN /scratch/hpc-prf-metdyn/eprop2d1_Jan/
                                           53_benchmark_RI_opt/418_gw100_fig5_fu
                                           ll_epsfilter_1e12_20261002/calculatio
                                           ns/rc3p0/ri5_rs09/53_HCl

 CP2K| version string:                 CP2K version 2026.2 (Development Version)
 CP2K| source code revision number:                                   0671c5aa6c
 CP2K| cp2kflags: omp libint fftw3 libxc parallel scalapack openblas            
 CP2K| is freely available from                            https://www.cp2k.org/
 CP2K| Program compiled at                                   2026-09-20 09:25:26
 CP2K| Program compiled on                                              n2login5
 CP2K| Program compiled for                                               x86_64
 CP2K| Data directory path    /scratch/hpc-prf-metdyn/eprop2d1_Jan/53_benchmark_
 CP2K| Input file name                                                 input.inp
 
 eprop2d1@n2cn0531 has created rank and process                      0    659225
 eprop2d1@n2cn0531 has created rank and process                      1    659226
 
 eprop2d1@n2cn0531 is running                                        2 processes

 GLOBAL| Force Environment number                                              1
 GLOBAL| Basis set file name            /scratch/hpc-prf-metdyn/eprop2d1_Jan/53_
 GLOBAL| Potential file name            /scratch/hpc-prf-metdyn/eprop2d1_Jan/53_
 GLOBAL| MM Potential file name                                     MM_POTENTIAL
 GLOBAL| Coordinate file name                                      __STD_INPUT__
 GLOBAL| Method name                                                        CP2K
 GLOBAL| Project name                                             g418_c509_m053
 GLOBAL| Run type                                                         ENERGY
 GLOBAL| FFT library                                                       FFTW3
 GLOBAL| Diagonalization library                                       ScaLAPACK
 GLOBAL| Cholesky decomposition library                                ScaLAPACK
 GLOBAL| DGEMM library                                                      BLAS
 GLOBAL| Direct generalized diagonalization requested                          F
 GLOBAL| Orthonormality check for eigenvectors                          DISABLED
 GLOBAL| Matrix multiplication library                                 ScaLAPACK
 GLOBAL| All-to-all communication in single precision                          F
 GLOBAL| Grid backend                                                       AUTO
 GLOBAL| Global print level                                                  LOW
 GLOBAL| MPI I/O enabled                                                       T
 GLOBAL| Total number of message passing processes                             2
 GLOBAL| Number of distributed systems (nodes)                                 1
 GLOBAL| Number of threads for this process                                    7
 GLOBAL| This output is from process                                           0
 GLOBAL| OpenMP stack size per thread (OMP_STACKSIZE)                       512M
 GLOBAL| CPU model name                          AMD EPYC 7763 64-Core Processor

 MEMORY| system memory details [Kb]
 MEMORY|                        rank 0           min           max       average
 MEMORY| MemTotal            263897604     263897604     263897604     263897604
 MEMORY| MemFree             179995076     179995076     179999172     179997124
 MEMORY| Buffers                311340        311340        311340        311340
 MEMORY| Cached               11226712      11226712      11226712      11226712
 MEMORY| Slab                  2172508       2172508       2172508       2172508
 MEMORY| SReclaimable           351572        351572        351572        351572
 MEMORY| MemLikelyFree       191884700     191884700     191888796     191886748


 GENERATE|  Preliminary Number of Bonds generated:                             0
 GENERATE|  Achieved consistency in connectivity generation.

 *******************************************************************************
 *******************************************************************************
 **                                                                           **
 **     #####                         ##              ##                      **
 **    ##   ##            ##          ##              ##                      **
 **   ##     ##                       ##            ######                    **
 **   ##     ##  ##   ##  ##   #####  ##  ##   ####   ##    #####    #####    **
 **   ##     ##  ##   ##  ##  ##      ## ##   ##      ##   ##   ##  ##   ##   **
 **   ##  ## ##  ##   ##  ##  ##      ####     ###    ##   ######   ######    **
 **    ##  ###   ##   ##  ##  ##      ## ##      ##   ##   ##       ##        **
 **     #######   #####   ##   #####  ##  ##  ####    ##    #####   ##        **
 **           ##                                                    ##        **
 **                                                                           **
 **                                                ... make the atoms dance   **
 **                                                                           **
 **            Copyright (C) by CP2K developers group (2000-2026)             **
 **                      J. Chem. Phys. 152, 194103 (2020)                    **
 **                                                                           **
 *******************************************************************************


 TOTAL NUMBERS AND MAXIMUM NUMBERS

  Total number of            - Atomic kinds:                                   2
                             - Atoms:                                          2
                             - Shell sets:                                     2
                             - Shells:                                        14
                             - Primitive Cartesian functions:                 12
                             - Cartesian basis functions:                     43
                             - Spherical basis functions:                     38

  Maximum angular momentum of- Orbital basis functions:                        3
                             - Local part of the GTH pseudopotential:          2
                             - Non-local part of the GTH pseudopotential:      2


 SCF PARAMETERS         Density guess:                                   RESTART
                        --------------------------------------------------------
                        max_scf:                                             500
                        max_scf_history:                                       0
                        max_diis:                                              4
                        --------------------------------------------------------
                        eps_scf:                                        1.00E-08
                        eps_scf_history:                                0.00E+00
                        eps_diis:                                       0.00E+00
                        eps_eigval:                                     1.00E-05
                        --------------------------------------------------------
                        level_shift [a.u.]:                             0.000000
                        --------------------------------------------------------
                        Outer loop SCF in use 
                        No variables optimised in outer loop
                        eps_scf                                         1.00E-08
                        max_scf                                               20
                        No outer loop optimization
                        step_size                                       5.00E-01

 Extrapolation method: initial_guess

 Number of electrons:                                                          8
 Number of occupied orbitals:                                                  4
 Number of molecular orbitals:                                                 4

 Number of orbital functions:                                                 38
 Number of independent orbital functions:                                     38


 SCF WAVEFUNCTION OPTIMIZATION

  ----------------------------------- OT ---------------------------------------
  Minimizer      : DIIS                : direct inversion
                                         in the iterative subspace
                                         using   7 DIIS vectors
                                         safer DIIS on
  Preconditioner : FULL_KINETIC        : inversion of T + eS
  Lattice FFT   : OFF
  Precond_solver : DEFAULT
  stepsize       :    0.15000000                  energy_gap     :    0.20000000
  eps_taylor     :   0.10000E-15                  max_taylor     :             4
  ----------------------------------- OT ---------------------------------------

  Step     Update method      Time    Convergence         Total energy    Change
  ------------------------------------------------------------------------------
  Decoupling Energy:                                               0.0000019203
     1 OT DIIS     0.15E+00    5.2     3.5655E-09       -15.5870201968 -1.56E+01

  *** SCF run converged in     1 steps ***


  Electronic density on regular grids:         -8.0000000000        0.0000000000
  Core density on regular grids:                8.0000000000       -0.0000000000
  Total charge density on r-space grids:       -0.0000000000
  Total charge density g-space grids:          -0.0000000000

  Overlap energy of the core charge distribution:               0.00000037536375
  Self energy of the core charge distribution:                -35.12424175623532
  Core Hamiltonian energy:                                      8.18481467724232
  Hartree energy:                                              14.59391432410402
  Exchange-correlation energy:                                 -3.24150781727842

  Total energy:                                               -15.58702019680366

  outer SCF iter =    1 RMS gradient =   0.36E-08 energy =        -15.5870201968
  outer SCF loop converged in   1 iterations or    1 steps

  
 -------------------------------------------------------------------------------
 -                                                                             -
 -                          BANDSTRUCTURE CALCULATION                          -
 -                                                                             -
 -------------------------------------------------------------------------------
  
 Number of occupied molecular orbitals (MOs) = Number of occupied bands        4
 Number of unoccupied (= virtual) MOs = Number of unoccupied bands            34
 Number of Gaussian basis functions for MOs                                   38
  
 -------------------------------------------------------------------------------
 -                                                                             -
 -                                GW CALCULATION                               -
 -                                                                             -
 -------------------------------------------------------------------------------
  
 Input: Number of time/freq. points                                           30
 Input: ω_max for fitting Σ(iω) (eV)                                        10.0
 Input: Filter threshold for sparse tensor operations                    1.0E-12
 Input: Apply Hedin shift                                                      F
 Detected: Available memory per MPI process                              77.0 GB
 
 Input: RI-RS Tikhonov regularization                                   1.00E-04
 Input: AO grid hard cutoff radius                                        8.00 Å
 Input: MPI ranks per atom in Z_lP solve                                      -1
 Input: Keep sparsity in χ/G/W panels                                          T
 Input: GW flavour                                                          G0W0
 
 Input: RI-RS grid optimization activated                                      T
 Input: RS points per AO function                                            9.0
 Input: Cutoff radius for atomic clusters                                  3.0 Å
 Input: Maximum grid optimization iterations                                 300
 
 Input: AUTO_RI basis optimization activated:                                  T
 Input: AUTO_RI number of RI functions per AO function:                      5.0
 Input: AUTO_RI frontier orbital window:                                  5.0 eV
 Input: AUTO_RI neighbor radius:                                           3.0 Å
 
 Cutoff radius for the truncated Coulomb operator in RI metric:            7.0 Å
 Regularization parameter of RI                                          0.0E+00
 Regularization parameter of minimax grids                               1.0E-06
 
 AUTO_RI| Number of automatic RI functions for χ, ε, W:                      156
 AUTO_RI| Total RI basis optimization time:                                0.2 s
  Decoupling Energy:                                               0.0000019203
 
 SCF direct band gap (eV)                                                   6.93
 Max. SCF eigval diff. (eV)                                               167.83
 E-Range for minimax grid                                                  24.23
 Number of Padé parameters for analytic continuation:                         16
 
 RI-RS basis radii (Å):
     Kind  Elem     r_AO (Å)     r_RI (Å)
        1    H        13.9082        8.7963
        2    Cl        9.2884        6.2055
 
 Started RI-RS grid optimization
 RI-RS grid initial normalized error                          5.212952713409E-04
 RI-RS grid optimization completed, execution time:                        1.6 s
 Normalized 3C error:                                                    5.7E-09
 Maximum absolute 3C error:                                              3.0E-04
 Optimized points outside molecular Voronoi cells:                            31 / 342
 Total grid points used for RI-RS:                                           342
 
 RI-RS grid row-blocks of ϕ_μ(r_l)                                            12
 RI-RS grid points per block (max)                                            32
 
 Percentage of non-zero matrix elements in ϕ_μ(r_l)                     100.00 %
 
 RI-RS memory estimate per MPI process:
   Available memory per process (system)                               103.52 GB
   Required for Z_lP (dense upper bound; actual is sparser)              0.00 GB
   Required for χ, W, Σ panels (peak per panel step)                     0.00 GB
   Required for Z_lP solve peak (D_local+ϕ, worst-case atom)             0.00 GB
   Worst-case local-grid number of grid points:                              342
   Worst-case memory D_local:                                            0.00 GB
 
 Started computing Z_lP
 Computed Z_lP (MPI rank 0) for atom          1 /  1,    Execution time    0.0 s
 Computed Z_lP (all MPI ranks) for all atoms,            Execution time    0.0 s

 Memory per MPI process after computing Z_lP:
 Available memory per MPI process                              103.3 GB
 Used memory per MPI process                                     1.8 GB
 Number of batches for χ, Σ matrices                                           1
 
 Percentage of non-zero matrix elements in Z_lP                         100.00 %
 Percentage of non-zero matrix elements in G_ll', χ_ll', W_ll'          100.00 %
 Percentage of non-zero matrix elements in χ_PQ for time point 1        100.00 %
 
 Computed χ(iτ,k=0) for time point            1 / 30,    Execution time    0.0 s
 Computed χ(iτ,k=0) for time point            2 / 30,    Execution time    0.0 s
 Computed χ(iτ,k=0) for time point            3 / 30,    Execution time    0.0 s
 Computed χ(iτ,k=0) for time point            4 / 30,    Execution time    0.0 s
 Computed χ(iτ,k=0) for time point            5 / 30,    Execution time    0.0 s
 Computed χ(iτ,k=0) for time point            6 / 30,    Execution time    0.0 s
 Computed χ(iτ,k=0) for time point            7 / 30,    Execution time    0.0 s
 Computed χ(iτ,k=0) for time point            8 / 30,    Execution time    0.0 s
 Computed χ(iτ,k=0) for time point            9 / 30,    Execution time    0.0 s
 Computed χ(iτ,k=0) for time point           10 / 30,    Execution time    0.0 s
 Computed χ(iτ,k=0) for time point           11 / 30,    Execution time    0.0 s
 Computed χ(iτ,k=0) for time point           12 / 30,    Execution time    0.0 s
 Computed χ(iτ,k=0) for time point           13 / 30,    Execution time    0.0 s
 Computed χ(iτ,k=0) for time point           14 / 30,    Execution time    0.0 s
 Computed χ(iτ,k=0) for time point           15 / 30,    Execution time    0.0 s
 Computed χ(iτ,k=0) for time point           16 / 30,    Execution time    0.0 s
 Computed χ(iτ,k=0) for time point           17 / 30,    Execution time    0.0 s
 Computed χ(iτ,k=0) for time point           18 / 30,    Execution time    0.0 s
 Computed χ(iτ,k=0) for time point           19 / 30,    Execution time    0.0 s
 Computed χ(iτ,k=0) for time point           20 / 30,    Execution time    0.0 s
 Computed χ(iτ,k=0) for time point           21 / 30,    Execution time    0.0 s
 Computed χ(iτ,k=0) for time point           22 / 30,    Execution time    0.0 s
 Computed χ(iτ,k=0) for time point           23 / 30,    Execution time    0.0 s
 Computed χ(iτ,k=0) for time point           24 / 30,    Execution time    0.0 s
 Computed χ(iτ,k=0) for time point           25 / 30,    Execution time    0.0 s
 Computed χ(iτ,k=0) for time point           26 / 30,    Execution time    0.0 s
 Computed χ(iτ,k=0) for time point           27 / 30,    Execution time    0.0 s
 Computed χ(iτ,k=0) for time point           28 / 30,    Execution time    0.0 s
 Computed χ(iτ,k=0) for time point           29 / 30,    Execution time    0.0 s
 Computed χ(iτ,k=0) for time point           30 / 30,    Execution time    0.0 s
 
 Computed W(iτ),                                         Execution time    0.1 s
 
 Computed Σ^x(k=0),                                      Execution time    0.0 s
 
 Computed Σ^c(iτ) for time point              1 / 30,    Execution time    0.0 s
 Computed Σ^c(iτ) for time point              2 / 30,    Execution time    0.0 s
 Computed Σ^c(iτ) for time point              3 / 30,    Execution time    0.0 s
 Computed Σ^c(iτ) for time point              4 / 30,    Execution time    0.0 s
 Computed Σ^c(iτ) for time point              5 / 30,    Execution time    0.0 s
 Computed Σ^c(iτ) for time point              6 / 30,    Execution time    0.0 s
 Computed Σ^c(iτ) for time point              7 / 30,    Execution time    0.0 s
 Computed Σ^c(iτ) for time point              8 / 30,    Execution time    0.0 s
 Computed Σ^c(iτ) for time point              9 / 30,    Execution time    0.0 s
 Computed Σ^c(iτ) for time point             10 / 30,    Execution time    0.0 s
 Computed Σ^c(iτ) for time point             11 / 30,    Execution time    0.0 s
 Computed Σ^c(iτ) for time point             12 / 30,    Execution time    0.0 s
 Computed Σ^c(iτ) for time point             13 / 30,    Execution time    0.0 s
 Computed Σ^c(iτ) for time point             14 / 30,    Execution time    0.0 s
 Computed Σ^c(iτ) for time point             15 / 30,    Execution time    0.0 s
 Computed Σ^c(iτ) for time point             16 / 30,    Execution time    0.0 s
 Computed Σ^c(iτ) for time point             17 / 30,    Execution time    0.0 s
 Computed Σ^c(iτ) for time point             18 / 30,    Execution time    0.0 s
 Computed Σ^c(iτ) for time point             19 / 30,    Execution time    0.0 s
 Computed Σ^c(iτ) for time point             20 / 30,    Execution time    0.0 s
 Computed Σ^c(iτ) for time point             21 / 30,    Execution time    0.0 s
 Computed Σ^c(iτ) for time point             22 / 30,    Execution time    0.0 s
 Computed Σ^c(iτ) for time point             23 / 30,    Execution time    0.0 s
 Computed Σ^c(iτ) for time point             24 / 30,    Execution time    0.0 s
 Computed Σ^c(iτ) for time point             25 / 30,    Execution time    0.0 s
 Computed Σ^c(iτ) for time point             26 / 30,    Execution time    0.0 s
 Computed Σ^c(iτ) for time point             27 / 30,    Execution time    0.0 s
 Computed Σ^c(iτ) for time point             28 / 30,    Execution time    0.0 s
 Computed Σ^c(iτ) for time point             29 / 30,    Execution time    0.0 s
 Computed Σ^c(iτ) for time point             30 / 30,    Execution time    0.0 s
 
 SCF valence band maximum (eV):                                           -8.008
 SCF conduction band minimum (eV):                                        -1.082
 SCF indirect band gap (eV):                                               6.926
 SCF direct band gap (eV):                                                 6.926
 
 G0W0 valence band maximum (eV):                                         -11.764
 G0W0 conduction band minimum (eV):                                        1.793
 G0W0 indirect band gap (eV):                                             13.557
 G0W0 direct band gap (eV):                                               13.557
 
 Hartree-Fock with SCF orbitals valence band maximum (eV):               -12.989
 Hartree-Fock with SCF orbitals conduction band minimum (eV)               2.771
 Hartree-Fock with SCF orbitals indirect band gap (eV):                   15.760
 Hartree-Fock with SCF orbitals direct band gap (eV):                     15.760

 ENERGY| Total FORCE_EVAL ( QS ) energy [hartree]            -15.587020196803662

 -------------------------------------------------------------------------------
 -                                                                             -
 -                                DBCSR STATISTICS                             -
 -                                                                             -
 -------------------------------------------------------------------------------
 COUNTER                                    TOTAL       BLAS       SMM       ACC
 flops     4 x     4 x     4                  128     100.0%      0.0%      0.0%     
 flops     4 x     4 x     9                  864     100.0%      0.0%      0.0%     
 flops     9 x     4 x     4                 1152     100.0%      0.0%      0.0%     
 flops     9 x     9 x     4                 1296     100.0%      0.0%      0.0%     
 flops     4 x     4 x    29                 2784     100.0%      0.0%      0.0%     
 flops    29 x     4 x     4                 3712     100.0%      0.0%      0.0%     
 flops    29 x     9 x     4                 4176     100.0%      0.0%      0.0%     
 flops     9 x     4 x     9                 5184     100.0%      0.0%      0.0%     
 flops    29 x    29 x     4                13456     100.0%      0.0%      0.0%     
 flops     5 x     9 x     5                14850     100.0%      0.0%      0.0%     
 flops    29 x     4 x     9                16704     100.0%      0.0%      0.0%     
 flops     9 x     4 x    29                16704     100.0%      0.0%      0.0%     
 flops     9 x     9 x     5                26730     100.0%      0.0%      0.0%     
 flops     5 x     5 x     9                38250     100.0%      0.0%      0.0%     
 flops     5 x    29 x     5                47850     100.0%      0.0%      0.0%     
 flops    17 x     9 x     5                50490     100.0%      0.0%      0.0%     
 flops     5 x     9 x    17                52020     100.0%      0.0%      0.0%     
 flops    29 x     4 x    29                53824     100.0%      0.0%      0.0%     
 flops     5 x     9 x     9                68850     100.0%      0.0%      0.0%     
 flops    29 x     9 x     5                86130     100.0%      0.0%      0.0%     
 flops     9 x    29 x     5                86130     100.0%      0.0%      0.0%     
 flops     9 x     9 x    17                90882     100.0%      0.0%      0.0%     
 flops     5 x     5 x    29               123250     100.0%      0.0%      0.0%     
 flops    17 x     5 x     9               130050     100.0%      0.0%      0.0%     
 flops     5 x    17 x     9               130050     100.0%      0.0%      0.0%     
 flops     5 x    78 x     5               148200     100.0%      0.0%      0.0%     
 flops     5 x     5 x    78               148200     100.0%      0.0%      0.0%     
 flops    17 x    29 x     5               167620     100.0%      0.0%      0.0%     
 flops     5 x    29 x    17               167620     100.0%      0.0%      0.0%     
 flops    17 x     9 x    17               176868     100.0%      0.0%      0.0%     
 flops     5 x     9 x    29               221850     100.0%      0.0%      0.0%     
 flops     5 x    29 x     9               221850     100.0%      0.0%      0.0%     
 flops    17 x     9 x     9               234090     100.0%      0.0%      0.0%     
 flops    29 x    29 x     5               277530     100.0%      0.0%      0.0%     
 flops    29 x     9 x    17               292842     100.0%      0.0%      0.0%     
 flops     9 x    29 x    17               292842     100.0%      0.0%      0.0%     
 flops    17 x     5 x    29               419050     100.0%      0.0%      0.0%     
 flops     5 x    17 x    29               419050     100.0%      0.0%      0.0%     
 flops    17 x    17 x     9               442170     100.0%      0.0%      0.0%     
 flops    17 x    78 x     5               503880     100.0%      0.0%      0.0%     
 flops     5 x    78 x    17               503880     100.0%      0.0%      0.0%     
 flops     5 x    17 x    78               503880     100.0%      0.0%      0.0%     
 flops    17 x     5 x    78               530400     100.0%      0.0%      0.0%     
 flops    17 x    29 x    17               569908     100.0%      0.0%      0.0%     
 flops     5 x    29 x    29               714850     100.0%      0.0%      0.0%     
 flops    17 x    29 x     9               754290     100.0%      0.0%      0.0%     
 flops    17 x     9 x    29               754290     100.0%      0.0%      0.0%     
 flops    29 x    29 x    17               943602     100.0%      0.0%      0.0%     
 flops    32 x     9 x     5               950400     100.0%      0.0%      0.0%     
 flops     5 x     9 x    32               970560     100.0%      0.0%      0.0%     
 flops    17 x    17 x    29              1424770     100.0%      0.0%      0.0%     
 flops     9 x     9 x    32              1710720     100.0%      0.0%      0.0%     
 flops    17 x    78 x    17              1713192     100.0%      0.0%      0.0%     
 flops    17 x    17 x    78              1803360     100.0%      0.0%      0.0%     
 flops    17 x    29 x    29              2430490     100.0%      0.0%      0.0%     
 flops    32 x     5 x     9              2448000     100.0%      0.0%      0.0%     
 flops     5 x    32 x     9              2448000     100.0%      0.0%      0.0%     
 flops    32 x    29 x     5              3173760     100.0%      0.0%      0.0%     
 flops     5 x    29 x    32              3229440     100.0%      0.0%      0.0%     
 flops    17 x     9 x    32              3339072     100.0%      0.0%      0.0%     
 flops    32 x     9 x    17              3358656     100.0%      0.0%      0.0%     
 flops    32 x     9 x     9              4406400     100.0%      0.0%      0.0%     
 flops    78 x    78 x     5              4623840     100.0%      0.0%      0.0%     
 flops     5 x    78 x    78              4867200     100.0%      0.0%      0.0%     
 flops    29 x     9 x    32              5512320     100.0%      0.0%      0.0%     
 flops     9 x    29 x    32              5579136     100.0%      0.0%      0.0%     
 flops    32 x     5 x    29              7888000     100.0%      0.0%      0.0%     
 flops     5 x    32 x    29              7888000     100.0%      0.0%      0.0%     
 flops    32 x    17 x     9              8323200     100.0%      0.0%      0.0%     
 flops    17 x    32 x     9              8323200     100.0%      0.0%      0.0%     
 flops    32 x    78 x     5              9484800     100.0%      0.0%      0.0%     
 flops     5 x    78 x    32              9484800     100.0%      0.0%      0.0%     
 flops     5 x    32 x    78              9484800     100.0%      0.0%      0.0%     
 flops    32 x     5 x    78              9634560     100.0%      0.0%      0.0%     
 flops    32 x    29 x    17             10727680     100.0%      0.0%      0.0%     
 flops    17 x    29 x    32             10980096     100.0%      0.0%      0.0%     
 flops    32 x    29 x     9             14198400     100.0%      0.0%      0.0%     
 flops    32 x     9 x    29             14198400     100.0%      0.0%      0.0%     
 flops    78 x    78 x    17             14893632     100.0%      0.0%      0.0%     
 flops    17 x    78 x    78             16548480     100.0%      0.0%      0.0%     
 flops    29 x    29 x    32             17977216     100.0%      0.0%      0.0%     
 flops    32 x    17 x    29             26819200     100.0%      0.0%      0.0%     
 flops    17 x    32 x    29             26819200     100.0%      0.0%      0.0%     
 flops    32 x    78 x    17             32248320     100.0%      0.0%      0.0%     
 flops    17 x    78 x    32             32248320     100.0%      0.0%      0.0%     
 flops    32 x    17 x    78             32757504     100.0%      0.0%      0.0%     
 flops    17 x    32 x    78             33945600     100.0%      0.0%      0.0%     
 flops    32 x    29 x    29             45750400     100.0%      0.0%      0.0%     
 flops    32 x     9 x    32             64198656     100.0%      0.0%      0.0%     
 flops    32 x    32 x     9            156672000     100.0%      0.0%      0.0%     
 flops    32 x    29 x    32            207634432     100.0%      0.0%      0.0%     
 flops    78 x    78 x    32            293589504     100.0%      0.0%      0.0%     
 flops    32 x    78 x    78            311500800     100.0%      0.0%      0.0%     
 flops    32 x    32 x    29            504832000     100.0%      0.0%      0.0%     
 flops    32 x    78 x    32            607506432     100.0%      0.0%      0.0%     
 flops    32 x    32 x    78            616611840     100.0%      0.0%      0.0%     
 flops inhomo. stacks                           0       0.0%      0.0%      0.0%
 flops total                         3.227633E+09     100.0%      0.0%      0.0%
 flops max/rank                      1.673597E+09     100.0%      0.0%      0.0%
 matmuls inhomo. stacks                         0       0.0%      0.0%      0.0%
 matmuls total                              53087     100.0%      0.0%      0.0%
 number of processed stacks                 11607     100.0%      0.0%      0.0%
 average stack size                                     4.6       0.0       0.0
 marketing flops                     5.039190E+09
 -------------------------------------------------------------------------------
 # multiplications                           1515
 max memory usage/rank              24.470024E+09
 # max total images/rank                        2
 # max 3D layers                                1
 # MPI messages exchanged                    1010
 MPI messages size (bytes):
  total size                        61.339104E+06
  min size                           0.000000E+00
  max size                         220.896000E+03
  average size                      60.731785E+03
 MPI breakdown and total messages size (bytes):
             size <=      128                 183                      640
       128 < size <=     8192                 111                   263216
      8192 < size <=    32768                 207                  3743712
     32768 < size <=   131072                 349                 23267376
    131072 < size <=  4194304                 160                 34064160
   4194304 < size <= 16777216                   0                        0
  16777216 < size                               0                        0
 -------------------------------------------------------------------------------

 *** WARNING in dbcsr_mm.F:301 :: Using a non-square number of MPI ranks ***
 *** might lead to poor performance. Used ranks: 2 Suggested: 1 4        ***

 -------------------------------------------------------------------------------
 -                                                                             -
 -                      DBCSR MESSAGE PASSING PERFORMANCE                      -
 -                                                                             -
 -------------------------------------------------------------------------------
 ROUTINE             CALLS      AVE VOLUME [Bytes]
 MP_Bcast               97                     12.
 MP_Allreduce         2310                     12.
 MP_Alltoall          3385                  10951.
 MP_ISend             3206                  12044.
 MP_IRecv             3204                  16500.
 -------------------------------------------------------------------------------

 -------------------------------------------------------------------------------
 -                                                                             -
 -                                GRID STATISTICS                              -
 -                                                                             -
 -------------------------------------------------------------------------------
 LP    KERNEL             BACKEND                              COUNT     PERCENT
 2     collocate ortho    CPU                                    216      16.59%
 4     collocate ortho    CPU                                    216      16.59%
 6     collocate ortho    CPU                                    216      16.59%
 2     integrate ortho    CPU                                    216      16.59%
 4     integrate ortho    CPU                                    216      16.59%
 6     integrate ortho    CPU                                    216      16.59%
 0     collocate general  CPU                                      6       0.46%
 -------------------------------------------------------------------------------

 -------------------------------------------------------------------------------
 -                                                                             -
 -                          OFFLOAD MEMPOOL STATISTICS                         -
 -                                                                             -
 -------------------------------------------------------------------------------
 Memory consumption                Number of allocations  Used [MiB]  Size [MiB]
 Host                                                  6         260    22365549
 -------------------------------------------------------------------------------

 MEMORY| Estimated peak process memory [MiB]                                7334

 -------------------------------------------------------------------------------
 -                                                                             -
 -                         MESSAGE PASSING PERFORMANCE                         -
 -                                                                             -
 -------------------------------------------------------------------------------

 ROUTINE             CALLS      AVE VOLUME [Bytes]
 MP_Group                5
 MP_Bcast              336                 311845.
 MP_Allreduce          965                   3601.
 MP_Sync                10
 MP_Alltoall            28              525935269.
 MP_SendRecv             9               42264889.
 MP_ISendRecv            8               34048000.
 MP_Wait                 8
 MP_comm_split          10
 -------------------------------------------------------------------------------


 -------------------------------------------------------------------------------
 -                                                                             -
 -                           R E F E R E N C E S                               -
 -                                                                             -
 -------------------------------------------------------------------------------
 
 CP2K version 2026.2 (Development Version), the CP2K developers group (2026).
 CP2K is freely available from https://www.cp2k.org/ .
 
 M. Iannuzzi, J. Wilhelm, F. Stein, A. Bussy, H. Elgabarty, D. Golze, A. Hehn, 
 M. Graml, S. Marek, B. Sertcan Gökmen, C. Schran, H. Forbert, R. Z. 
 Khaliullin, A. Kozhevnikov, M. Taillefumier, R. Meli, V. V. Rybkin, M. Brehm, 
 R. Schade, O. Schütt, J. V. Pototschnig, H. Mirhosseini, A. Knüpfer, D. Marx, 
 M. Krack, J. Hutter, T. D. Kühne.
 J. Phys. Chem. B 130, 1237-1310 (2026).
 The CP2K Program Package Made Simple.
 https://doi.org/10.1021/acs.jpcb.5c05851

 M. Graml, K. Zollner, D. Hernangómez-Pérez, P. E. Faria Junior, J. Wilhelm.
 J. Chem. Theory Comput. 20, 2202-2208 (2024).
 Low-scaling GW algorithm applied to twisted transition-metal dichalcogenide 
 heterobilayers.
 https://doi.org/10.1021/acs.jctc.3c01230

 T. D. Kühne, M. Iannuzzi, M. Del Ben, V. V. Rybkin, P. Seewald, F. Stein, T. 
 Laino, R. Z. Khaliullin, O. Schütt, F. Schiffmann, D. Golze, J. Wilhelm, S. 
 Chulkov, M. H. Bani-Hashemian, V. Weber, U. Borstnik, M. Taillefumier, A. S. 
 Jakobovits, A. Lazzaro, H. Pabst, T. Müller, R. Schade, M. Guidon, S. 
 Andermatt, N. Holmberg, G. K. Schenter, A. Hehn, A. Bussy, F. Belleflamme, G. 
 Tabacchi, A. Glöß, M. Lass, I. Bethune, C. J. Mundy, C. Plessl, M. Watkins, 
 J. VandeVondele, M. Krack, J. Hutter.
 J. Chem. Phys. 152, 194103 (2020).
 CP2K: An electronic structure and molecular dynamics software package - 
 Quickstep: Efficient and accurate electronic structure calculations.
 https://doi.org/10.1063/5.0007045

 O. Schuett, P. Messmer, J. Hutter, J. VandeVondele.
 Electronic Structure Calculations on Graphics Processing Units, 173-190 (2016).
 GPU-Accelerated Sparse Matrix-Matrix Multiplication for Linear Scaling Density 
 Functional Theory.
 https://doi.org/10.1002/9781118670712.ch8

 U. Borstnik, J. VandeVondele, V. Weber, J. Hutter.
 Parallel Comput. 40, 47-58 (2014).
 Sparse matrix multiplication: The distributed block-compressed sparse row 
 library.
 https://doi.org/10.1016/j.parco.2014.03.012

 J. VandeVondele, J. Hutter.
 J. Chem. Phys. 127, 114105 (2007).
 Gaussian basis sets for accurate calculations on molecular systems in gas and 
 condensed phases.
 https://doi.org/10.1063/1.2770708

 J. VandeVondele, M. Krack, F. Mohamed, M. Parrinello, T. Chassaing, J. Hutter.
 Comput. Phys. Commun. 167, 103-128 (2005).
 QUICKSTEP: Fast and accurate density functional calculations using a mixed 
 Gaussian and plane waves approach.
 https://doi.org/10.1016/j.cpc.2004.12.014

 M. Krack.
 Theor. Chem. Acc. 114, 145-152 (2005).
 Pseudopotentials for H to Kr optimized for gradient-corrected 
 exchange-correlation functionals.
 https://doi.org/10.1007/s00214-005-0655-y

 M. Frigo, S. G. Johnson.
 Proc. IEEE 93, 216-231 (2005).
 The design and implementation of FFTW3.
 https://doi.org/10.1109/JPROC.2004.840301

 J. VandeVondele, J. Hutter.
 J. Chem. Phys. 118, 4365-4369 (2003).
 An efficient orbital transformation method for electronic structure 
 calculations.
 https://doi.org/10.1063/1.1543154

 C. Hartwigsen, S. Goedecker, J. Hutter.
 Phys. Rev. B 58, 3641-3662 (1998).
 Relativistic separable dual-space Gaussian pseudopotentials from H to Rn.
 https://doi.org/10.1103/PhysRevB.58.3641

 G. Lippert, J. Hutter, M. Parrinello.
 Mol. Phys. 92, 477-487 (1997).
 A hybrid Gaussian and plane wave density functional scheme.
 https://doi.org/10.1080/002689797170220

 S. Goedecker, M. Teter, J. Hutter.
 Phys. Rev. B 54, 1703-1710 (1996).
 Separable dual-space Gaussian pseudopotentials.
 https://doi.org/10.1103/PhysRevB.54.1703

 J. P. Perdew, K. Burke, M. Ernzerhof.
 Phys. Rev. Lett. 77, 3865-3868 (1996).
 Generalized gradient approximation made simple.
 https://doi.org/10.1103/PhysRevLett.77.3865

 P. E. Blöchl.
 J. Chem. Phys. 103, 7422-7428 (1995).
 Electrostatic decoupling of periodic images of plane‐wave‐expanded 
 densities and derived atomic point charges.
 https://doi.org/10.1063/1.470314

 R. H. Byrd, P. H. Lu, J. Nocedal, C. Y. Zhu.
 SIAM J. Sci. Comput. 16, 1190-1208 (1995).
 A Limited Memory Algorithm for Bound Constrained Optimization.
 https://doi.org/10.1137/0916069


 -------------------------------------------------------------------------------
 -                                                                             -
 -                                T I M I N G                                  -
 -                                                                             -
 -------------------------------------------------------------------------------
 SUBROUTINE                       CALLS  ASD         SELF TIME        TOTAL TIME MAXRANK
                                MAXIMUM       AVERAGE  MAXIMUM  AVERAGE  MAXIMUM
 CP2K                                 1  1.0    0.012    0.019   17.164   17.164       0
 qs_energies                          1  2.0    0.000    0.000   13.554   13.554       0
 qs_ks_build_kohn_sham_matrix         2  7.5    0.009    0.009    6.912    6.912       1
 scf_env_do_scf                       1  3.0    0.000    0.000    6.800    6.800       0
 fft_wrap_pw1pw2                     28 10.0    0.001    0.001    6.594    6.608       1
 fft_wrap_pw1pw2_300                 16 11.2    0.450    0.450    6.191    6.191       0
 init_scf_loop                        1  4.0    0.000    0.000    5.240    5.240       0
 qs_ks_update_qs_env                  2  5.0    0.000    0.000    5.237    5.237       1
 rebuild_ks_matrix                    1  6.0    0.000    0.000    5.237    5.237       1
 qs_energies_properties               1  3.0    0.000    0.000    4.630    4.631       0
 post_scf_bandstructure               1  4.0    0.000    0.000    4.630    4.631       0
 run_gw                               1  5.0    0.000    0.000    4.620    4.627       1
 fft3d_ps                            28 12.0    2.783    2.909    4.159    4.271       0
 qs_vxc_create                        2  8.5    0.000    0.000    3.589    3.597       1
 xc_vxc_pw_create                     1  9.0    0.093    0.095    3.589    3.597       0
 qs_init_subsys                       1  2.0    0.001    0.001    3.323    3.324       0
 qs_env_setup                         1  3.0    0.000    0.000    3.322    3.323       0
 qs_env_rebuild_pw_env                2  3.5    0.000    0.000    3.322    3.323       0
 pw_env_rebuild                       1  5.0    0.000    0.000    3.322    3.323       0
 pw_grid_setup                        5  5.2    0.000    0.000    3.317    3.319       1
 pw_grid_setup_internal               5  6.2    0.042    0.042    3.317    3.319       0
 pw_grid_sort                         5  7.2    2.054    2.108    2.923    3.029       0
 qs_rho_update_rho_low                2  5.0    0.000    0.000    2.988    2.988       0
 calculate_rho_elec                   2  6.0    0.101    0.101    2.988    2.988       0
 xc_pw_derive                         6 11.0    0.000    0.000    2.558    2.562       1
 create_and_init_bs_env_for_gw        1  6.0    0.010    0.011    2.384    2.419       1
 gw_calc_ri_rs_non_periodic           1  6.0    0.000    0.000    2.236    2.264       0
 density_rs2pw                        2  7.0    0.000    0.000    2.128    2.134       1
 xc_pw_divergence                     1 10.0    0.000    0.000    1.854    1.868       0
 optimize_ri_rs_grid                  1  7.0    0.000    0.000    1.674    1.709       0
 compute_V_xc                         1  7.0    0.000    0.000    1.675    1.675       0
 xc_rho_set_and_dset_create           1 10.0    0.063    0.067    1.587    1.596       1
 rirs_grid_LBFGS                      1  8.0    0.112    0.115    1.578    1.586       0
 scf_env_do_scf_inner_loop            1  4.0    0.000    0.000    1.558    1.559       0
 init_scf_run                         1  3.0    0.000    0.000    1.475    1.476       0
 scf_env_initial_rho_setup            1  4.0    0.000    0.000    1.475    1.475       0
 evaluate_rirs_grid_cluster         128  9.0    0.256    0.278    1.339    1.430       0
 sum_up_and_integrate                 2  8.5    0.000    0.000    1.356    1.361       0
 integrate_v_rspace                   2  9.5    0.000    0.000    1.334    1.353       0
 potential_pw2rs                      2 10.5    0.005    0.005    1.327    1.350       1
 qs_ks_ddapc                          2  8.5    0.000    0.000    1.005    1.015       1
 sort_shells                          5  8.2    0.869    0.921    0.869    0.921       0
 pw_gather_p                         14 11.2    0.896    0.917    0.896    0.917       0
 x_to_yz                             14 13.8    0.443    0.444    0.779    0.900       0
 mp_alltoall_z22v                    28 14.0    0.644    0.863    0.644    0.863       1
 pw_poisson_solve                     2  8.5    0.000    0.000    0.845    0.849       1
 grid_collocate_task_list             2  7.0    0.748    0.765    0.748    0.765       0
 pw_scatter_p                        14 12.8    0.708    0.759    0.708    0.759       0
 yz_to_x                             14 12.2    0.286    0.306    0.594    0.711       1
 qs_energies_init_hamiltonians        1  3.0    0.000    0.000    0.648    0.648       1
 qs_env_update_s_mstruct              1  4.0    0.000    0.000    0.647    0.647       0
 calculate_rho_core                   1  5.0    0.051    0.051    0.587    0.587       1
 pw_copy                             28 10.5    0.538    0.565    0.538    0.565       0
 pw_derive                           12 11.2    0.555    0.563    0.555    0.563       0
 setup_time_and_frequency_minim       1  7.0    0.000    0.000    0.448    0.482       0
 build_minimax_time_frequency_g       1  8.0    0.000    0.000    0.448    0.481       0
 fit_l_sq_weights                     3  9.0    0.448    0.481    0.448    0.481       0
 pw_poisson_set                       3  8.3    0.000    0.000    0.472    0.476       1
 transfer_rs2pw                       9  7.8    0.000    0.000    0.417    0.433       1
 rirs_cluster_gradient_coordina     128 10.0    0.404    0.418    0.404    0.418       0
 transfer_rs2pw_300                   3  8.3    0.299    0.301    0.358    0.370       1
 fft_wrap_pw1pw2_100                  4 10.8    0.033    0.040    0.354    0.366       0
 pw_integral_ab_c1d_c1d_gs            4 10.0    0.335    0.345    0.347    0.349       0
 mp_sum_d                           541  3.4    0.168    0.311    0.168    0.311       1
 rirs_cluster_gradient_products     128 10.0    0.276    0.290    0.276    0.290       0
 compute_Sigma_c_and_QP_energie       1  7.0    0.000    0.000    0.273    0.280       0
 compute_Sigma_c                      1  8.0    0.003    0.004    0.262    0.262       0
 pw_grid_remap                        4  8.0    0.029    0.029    0.144    0.258       0
 create_qs_kind_set                   1  2.0    0.000    0.000    0.250    0.258       0
 read_qs_kind                         2  3.0    0.093    0.103    0.250    0.258       0
 transfer_pw2rs                       8 11.5    0.000    0.000    0.248    0.248       1
 pw_axpy                             25  6.6    0.233    0.241    0.233    0.241       0
 cp_ddapc_apply_CD                    2  9.5    0.000    0.001    0.229    0.233       0
 mp_sum_im3                           5  9.0    0.115    0.229    0.115    0.229       1
 contract_grid_panels_sigma_c        30  9.0    0.202    0.203    0.227    0.227       1
 pw_copy_to_array                    14 11.2    0.214    0.225    0.214    0.225       1
 xc_functional_eval                   1 11.0    0.000    0.000    0.213    0.216       1
 pbe_lda_eval                         1 12.0    0.213    0.216    0.213    0.216       1
 generate_auto_ri_basis               1  7.0    0.000    0.000    0.213    0.213       0
 pw_grid_assign                       5  7.2    0.192    0.212    0.204    0.212       0
 transfer_pw2rs_300                   2 12.5    0.162    0.177    0.201    0.202       0
 parser_read_line                 46455  4.0    0.012    0.015    0.157    0.175       0
 parser_read_line_low                51  5.0    0.034    0.066    0.145    0.167       0
 broadcast_input_information         51  6.0    0.027    0.045    0.111    0.164       0
 pw_copy_from_array                  14 12.8    0.129    0.158    0.129    0.158       0
 get_mat_chi_Gamma_tau                1  7.0    0.001    0.001    0.152    0.152       0
 mp_sum_dm                            6  9.5    0.083    0.151    0.083    0.151       1
 compute_AB_optimized_RI_basis        1  8.0    0.000    0.000    0.149    0.149       0
 compute_AB_optimized_RI_basis_       1  9.0    0.000    0.000    0.074    0.149       0
 rirs_cluster_D_ll                  128 10.0    0.140    0.146    0.140    0.146       0
 contract_grid_panels                31  8.0    0.126    0.126    0.141    0.142       0
 compute_B_PQ_AB                      1 10.0    0.018    0.035    0.070    0.140       0
 rirs_cluster_AO_products           128 10.0    0.097    0.124    0.097    0.124       0
 mp_bcast_i_src                     209  7.0    0.059    0.118    0.059    0.118       1
 compute_W                            1  7.0    0.000    0.000    0.099    0.099       0
 rirs_cluster_residual              128 10.0    0.093    0.099    0.093    0.099       0
 pw_zero                             25  4.7    0.090    0.093    0.090    0.093       0
 mp_sendrecv_dv                       9  9.8    0.072    0.085    0.072    0.085       1
 initialize_ri_rs_grid                1  8.0    0.019    0.027    0.046    0.081       1
 rirs_cluster_d_lP                  128 10.0    0.072    0.076    0.072    0.076       0
 contract_B_PQ                        6 11.5    0.038    0.068    0.042    0.075       0
 mp_waitall_1                         8 13.5    0.049    0.063    0.049    0.063       1
 get_ddapc                            2 10.5    0.000    0.000    0.058    0.062       0
 cp_ddapc_init                        1  5.0    0.000    0.000    0.059    0.059       1
 cp_ddapc_create                      1  6.0    0.000    0.000    0.059    0.059       1
 ddapc_eval_gfunc                     1  7.0    0.057    0.058    0.057    0.058       0
 rirs_grid_build_clusters             1  8.0    0.029    0.033    0.049    0.057       0
 pw_multiply_with                     2  9.5    0.056    0.056    0.056    0.056       0
 parallel_gemm_fm_gemm              431  9.6    0.000    0.000    0.053    0.056       0
 cp_fm_gemm                         434 10.5    0.053    0.056    0.053    0.056       1
 mp_bcast_dm                          5  9.8    0.027    0.054    0.027    0.054       1
 transfer_rs2pw_100                   2  9.0    0.038    0.039    0.048    0.052       1
 abc_contract_xsmm                  358  9.7    0.034    0.048    0.034    0.048       0
 compute_fm_W_freq                   30  8.0    0.000    0.000    0.047    0.048       0
 compute_AA_optimized_RI_basis        1  8.0    0.000    0.001    0.043    0.043       0
 fft_wrap_pw1pw2_40                   4 10.8    0.002    0.003    0.040    0.041       0
 pw_scale                             5  9.8    0.039    0.039    0.039    0.039       0
 transfer_pw2rs_100                   2 12.5    0.030    0.031    0.038    0.039       1
 compute_B_PQ_transition              3 10.5    0.000    0.000    0.021    0.038       0
 check_for_restart_files              1  7.0    0.034    0.038    0.034    0.038       0
 compute_B_PQ_exchange                3 10.5    0.000    0.000    0.021    0.037       0
 mp_bcast_am_src                     51  7.0    0.025    0.037    0.025    0.037       1
 write_mo_set_to_restart              1  5.0    0.008    0.015    0.035    0.036       0
 compute_fm_chi_Gamma_freq           30  8.0    0.023    0.024    0.035    0.035       0
 copy_dbcsr_to_fm                   104  9.5    0.029    0.034    0.031    0.035       1
 write_mo_set_low                     1  6.0    0.007    0.013    0.027    0.033       0
 subspace_eigenvalues_ks_fm           1  7.0    0.000    0.000    0.020    0.033       0
 mp_sum_iv                          142 10.0    0.024    0.032    0.024    0.032       1
 compute_Z_lP                         1  7.0    0.000    0.000    0.031    0.031       0
 compute_Z_lP_auto_ri                 1  8.0    0.000    0.000    0.031    0.031       0
 pw_poisson_rebuild                   2  9.5    0.031    0.031    0.031    0.031       0
 build_G_ao                         121  8.5    0.004    0.004    0.029    0.031       0
 compute_d_lp_auto_ri_batch           1  9.0    0.000    0.000    0.021    0.029       1
 compute_d_lp_auto_ri_atom            1 10.0    0.017    0.023    0.021    0.029       1
 mp_sum_l                            21  4.2    0.013    0.027    0.013    0.027       1
 copy_fm_to_dbcsr                   161  9.3    0.020    0.022    0.025    0.026       1
 compute_int_3c                       2  9.0    0.016    0.019    0.022    0.024       0
 eval_pw_TabLR                        1  2.0    0.009    0.010    0.021    0.022       0
 compute_M_pq_inv_and_V_pq            1  8.0    0.000    0.000    0.021    0.021       0
 compute_B_PQ_AA                      2  9.0    0.000    0.000    0.010    0.019       0
 compute_M_PQ_AB                     16 11.0    0.000    0.000    0.014    0.018       0
 compute_M_PQ                        16 12.0    0.000    0.000    0.014    0.018       0
 int_operators_r12_ab_os             16 13.0    0.000    0.000    0.014    0.018       0
 int_operator_ab_os_low              16 14.0    0.006    0.008    0.014    0.018       0
 compute_contracted_RI_matrix         2  9.0    0.000    0.000    0.018    0.018       0
 -------------------------------------------------------------------------------

 The number of warnings for this run is : 0
 
 -------------------------------------------------------------------------------
  **** **** ******  **  PROGRAM ENDED AT                 2026-10-03 12:20:30.597
 ***** ** ***  *** **   PROGRAM RAN ON                                  n2cn0531
 **    ****   ******    PROGRAM RAN BY                                  eprop2d1
 ***** **    ** ** **   PROGRAM PROCESS ID                                659225
  **** **  *******  **  PROGRAM STOPPED IN /scratch/hpc-prf-metdyn/eprop2d1_Jan/
                                           53_benchmark_RI_opt/418_gw100_fig5_fu
                                           ll_epsfilter_1e12_20261002/calculatio
                                           ns/rc3p0/ri5_rs09/53_HCl
